&CONTROL
  dt          = 30.D0,
  prefix = 'aSiHcSi_merged-1',
  pseudo_dir = './',
  outdir='./',
 wf_collect=.true.,
 verbosity ="high",
/

&SYSTEM
    ibrav= 0, nat=  398, ntyp= 2,
  ecutwfc     = 42.D0,
  nbnd=1478,
  degauss     = 0.05D0,
  occupations = "smearing",
  smearing    = "methfessel-paxton",
/
&ELECTRONS
  electron_maxstep=200,
  conv_thr    = 1.D-8,
  mixing_beta = 0.3D0,
  scf_must_converge=.false.,
/
&IONS
/
ATOMIC_SPECIES
Si  28.08  Si.pbe-hgh.UPF
H  1.00784  H.pbe-hgh.UPF

K_POINTS {automatic}
2 2 2 0 0 0

CELL_PARAMETERS angstrom
16.29000014898320 0.00000000000000 0.00000000000000
0.00000000000000 16.29000014898320 0.00000000000000
0.00000000000000 0.00000000000000 29.41385946727247

ATOMIC_POSITIONS angstrom
Si 16.0063260864 0.5531790831 0.0220763075 
Si 0.1592523447 2.9032852766 2.7343182588 
Si 2.7477483551 0.0447577528 2.8035996634 
Si 3.0292069777 2.5536855834 0.1690888067 
Si 1.4273949731 1.4031114698 1.4226336684 
Si 4.2631419090 4.0658048472 1.4759256990 
Si 1.4814060975 4.2236386586 4.1217347133 
Si 4.1388329179 1.3980615698 4.1586196931 
Si 0.0040951594 0.1106286490 5.4420346232 
Si 2.7538733952 2.7781780754 5.4628890496 
Si 1.3326327842 1.4441622702 6.8381634628 
Si 4.2221562686 4.1317467678 6.6700632560 
Si 0.0870198776 2.8506197061 8.3146803803 
Si 2.6864816646 0.1004889384 8.2187617846 
Si 2.0319983286 3.6900759937 9.4428783741 
Si 3.6458160633 1.8529386469 9.4632915925 
Si 15.5355450821 5.1544003971 25.0756387483 
H 5.8513354735 9.9662709611 19.7180513156 
Si 13.6423701348 12.6872059760 24.4890969767 
Si 6.1584997163 10.0274236217 22.8735995731 
Si 14.5226328728 4.8441084743 12.5969559386 
Si 3.2234815195 4.4603160708 23.7141594351 
Si 8.9281581217 14.4678007323 22.8768939254 
Si 0.0200024912 0.3162312569 11.0442865389 
H 6.9464144435 14.8240467456 15.2537333811 
H 10.8363687391 6.2017659567 16.0128462663 
Si 1.8731219571 0.7386391058 16.7972550705 
Si 7.4124061878 9.8009600396 14.2163065577 
Si 9.0337987726 9.5968463378 12.2412541361 
H 3.4164854412 1.4781220335 23.5189396499 
H 0.2780914795 7.7392487508 23.6560376488 
Si 1.0057478672 1.3169487720 23.4334923881 
Si 7.6669048601 0.5106507797 12.8163245025 
Si 0.3327900420 5.4593491999 29.2031385780 
Si 0.0474314305 8.1738333748 2.7219556137 
Si 2.8441199960 5.5343483606 2.6933447526 
Si 2.3685986017 8.7266182398 0.1316176087 
Si 1.4577986293 6.9016983931 1.3132317595 
Si 4.1833534883 6.9067971632 4.0659954496 
Si 0.1072711171 5.5450508907 5.5115689870 
Si 2.7993387856 8.2174742852 5.4798020188 
Si 1.4970119177 6.8525188827 6.9071389633 
Si 0.1131619069 8.2352792553 8.2404103852 
Si 2.9652198571 5.4298968797 8.1422563362 
Si 4.7027927230 6.3271337979 9.5025002672 
Si 3.3826511109 15.5408556221 17.9617791807 
Si 0.4908812355 7.8894588422 15.1356073215 
Si 7.2793005966 4.3761782200 16.4245226434 
H 8.8115380106 3.5294403023 18.9607620898 
H 7.8248527016 8.4225328070 25.4530773930 
Si 0.4437233141 7.9740853929 12.7716448500 
Si 1.9207864976 4.8863484447 11.4907300979 
Si 7.3625424973 11.6893620169 15.6629684079 
Si 10.7421147982 0.4262685789 15.5174286313 
Si 14.3267130410 0.9861412230 16.2211552190 
Si 2.3774440717 3.0048371375 17.0094172389 
Si 11.1908717223 0.4314048159 13.0859907661 
Si 14.1767961697 12.7927488870 21.0804130446 
Si 12.4511801639 13.3371932720 22.5719016166 
Si 4.0826649973 9.7105505388 1.3821572564 
Si 0.6313629388 10.4226027353 0.1380215942 
Si 2.7998763556 11.0045141206 2.8521060591 
Si 1.4447715162 12.2731467522 1.4158802462 
Si 1.4044716848 9.5708149175 4.1096162032 
Si 4.1494377079 12.3641101131 4.1775328047 
Si 4.1733188482 9.5496053373 6.8599885465 
Si 0.0676365693 10.9860249705 5.4660363325 
Si 1.4328537521 12.2961808125 6.9119922501 
Si 1.5178500859 9.5213910571 9.6503637388 
Si 2.8468567160 10.9070184698 8.2754422918 
Si 4.0761327073 12.3504428030 9.6894253441 
Si 4.1415207679 7.4507365581 20.2237343876 
Si 14.6206009337 6.9541684836 15.7724467928 
Si 10.7051039179 10.9693603003 10.9815467767 
Si 14.6891329643 1.3213731361 13.9494934385 
Si 3.6953213738 5.5776146010 27.7897438029 
Si 9.9103636806 7.3648882574 11.8441670333 
Si 5.7891891229 1.9326619077 12.6566072456 
H 10.4135454952 13.8882676870 20.3185352567 
Si 15.6293429029 6.0295154951 21.1782435412 
Si 11.9548075693 3.3606759007 15.1452844813 
Si 1.1279505613 10.1342534427 15.7002357678 
Si 1.7986603664 14.0653888586 19.0102656153 
Si 9.4247913562 4.6811433128 25.1213184721 
Si 4.3446570697 8.8248795207 16.7773713015 
Si 12.2706055122 9.6987565787 27.7508880946 
Si 9.0935993632 15.1323349984 16.2668055289 
Si 3.2794865400 14.8218475956 22.5623126984 
H 13.4846666433 13.7103808854 27.9516376854 
Si 16.2746549688 13.6938139552 2.6173481639 
Si 2.6678947744 13.7719245060 0.1291350789 
Si 4.1125245676 15.0825364679 1.3840132709 
Si 1.3544369494 14.9765374370 4.1136753158 
Si 2.7636636853 13.6877214952 5.5452478561 
Si 4.1540966480 15.0276717474 6.9376705494 
Si 0.0177279185 13.7376829256 8.1869654025 
Si 1.2566154985 15.1129498982 9.6365098109 
Si 10.2612828638 8.8822366112 15.9624603250 
Si 9.0145114124 11.7106204671 19.2158096652 
H 10.7015038279 4.4907946611 25.9414651156 
Si 6.0696051855 13.5785133342 15.0592195285 
Si 3.7084348239 3.7478077543 18.7687484152 
Si 1.7005294056 7.8554453218 25.8552530935 
Si 10.1113985725 16.2782550589 21.9298853060 
Si 2.5063305529 13.6212745846 10.9752522107 
H 15.9207058456 4.5421570315 21.0316742794 
Si 13.0848611697 8.6927676195 21.0964435980 
Si 6.1454025562 6.8535940227 19.0411207539 
Si 5.1927307675 13.9519778776 26.7459929997 
Si 12.3884636633 15.0401173076 11.8196947022 
Si 3.1846135791 11.0904764514 21.1200335133 
H 12.7934982270 12.8122968872 25.7283322899 
Si 4.8223287441 0.2998858707 19.5382738066 
Si 4.0578390371 5.7656012027 15.7243845465 
H 14.1952038698 9.7336660490 15.1622562782 
Si 5.3660074991 0.2152088210 29.3696798504 
Si 5.5724669610 2.7470153051 2.8485234510 
Si 8.2419255754 0.1001699802 2.6486150965 
Si 8.3394863863 2.6409674042 29.4000937810 
Si 6.8261127924 1.4518951333 1.3385688580 
Si 6.9683082037 4.1835978383 4.0446409876 
Si 5.5307971406 0.0805724584 5.5462773411 
Si 8.2595187755 2.7989641156 5.4396226867 
Si 6.9181838733 1.4657953904 6.8991089796 
Si 5.4410881098 2.8111979057 8.1860241590 
Si 8.3167129661 0.0633461091 8.2212913765 
Si 6.3843931484 4.5873129120 9.4139939641 
Si 14.1290664692 13.8595647068 19.0551805787 
Si 7.6267988798 14.6593874241 11.8589622046 
Si 1.6567093052 3.4180004113 13.3416560326 
Si 15.0950471881 9.5628816875 12.1445119523 
Si 12.9336248083 0.4366632280 27.0383373490 
Si 0.1646625795 6.3451179580 26.9197700815 
Si 8.2348231353 0.6535450320 15.0873980058 
Si 6.8240439624 9.7986631496 11.3633386726 
Si 7.5811542993 13.6020849644 19.4607977007 
Si 8.4267519171 9.3122926152 22.8216546973 
Si 8.9256983316 9.4633823665 25.1754693873 
Si 13.7058359753 6.7129787414 19.9017702819 
H 15.4311098911 12.4827338942 28.0443795843 
Si 1.1418166094 3.4751457318 24.5250995407 
H 8.5376216581 13.0358119792 10.1546349455 
Si 1.4040253388 14.8302369456 21.1643601995 
Si 5.5176185305 5.2833194583 29.3291769659 
Si 5.4774962601 8.2487673754 2.6202954326 
Si 8.2252934852 5.5393168107 2.5511199179 
Si 8.1067837341 8.3765787166 29.2697903836 
Si 6.7853877921 6.8873306130 1.1756072524 
Si 5.6007138212 5.5346252906 5.3843246309 
Si 8.2463727454 8.2243975352 5.3258204644 
Si 6.9811935938 6.8738750729 6.7764237718 
Si 5.5488790407 8.1125992642 8.1670522197 
Si 8.2841818358 5.5327356506 8.2705595911 
H 5.3349913388 0.1093746448 24.9827791940 
Si 7.3939333276 6.0070352949 14.6245415133 
H 5.1275707669 12.1358709210 19.9963358401 
Si 14.8466572658 1.1435612685 25.9174045785 
Si 4.0675804572 1.4233615690 27.6064366307 
H 11.7016446770 0.7269852396 0.3411213524 
H 4.4548915007 0.5892255954 15.0483069866 
Si 4.0539783071 2.5191670730 22.6083748023 
Si 13.5874402543 8.4358254472 10.7798853562 
Si 9.2853652449 4.1943003684 17.6706996274 
Si 13.3775761823 3.3366318605 11.1530001635 
Si 8.3593764765 6.9987379240 22.3889474107 
Si 6.5817790802 8.5628711583 17.4589198393 
H 15.2798735297 14.4289327920 13.1779384908 
Si 14.3445668812 10.4191492553 24.2591394234 
Si 10.7537784384 8.4318181071 26.3443173348 
Si 6.6880387512 9.7854682495 27.9478138837 
H 14.9372622466 2.6447629742 25.8244273688 
Si 5.2265650978 11.0928059215 29.2622604356 
Si 8.1655254747 10.9844122605 2.5924081525 
Si 6.6861816911 12.3241018727 1.2752702324 
Si 6.8549786727 9.6041116778 3.9951668760 
Si 5.5080725904 10.9218260799 5.4538001670 
Si 6.8212257924 12.3435195529 6.7938367766 
Si 7.1989420258 9.3556728856 9.1623289825 
Si 8.2945096959 10.9402663601 7.9399183969 
Si 7.9779461230 11.1600347521 26.5260067448 
Si 0.1033567929 10.9623556003 10.8208000347 
Si 1.4973230567 11.9666015294 12.4046481254 
Si 8.0304813734 8.0615464037 15.6521735215 
Si 16.0691403270 0.4639098822 17.6936424378 
Si 5.1069802067 6.7253591415 13.8182782114 
Si 2.8794530063 11.3017577534 24.5493365609 
Si 10.4437797355 15.3411890903 19.8235588295 
Si 2.3211784112 15.8005182245 24.4874792144 
Si 9.4885015468 7.0766367047 27.8711319521 
Si 16.1719302279 13.2694431614 22.3015882481 
H 16.0029051864 3.1285108186 19.4168533947 
Si 1.8083692065 12.2920594424 26.4455598391 
Si 14.4988820526 7.5732862293 27.1956426694 
Si 13.3565946622 5.8029704631 26.0764159028 
Si 5.4733748901 13.7098921854 2.7412158089 
Si 8.0901027740 13.6497983748 29.3607968648 
Si 6.8703075628 15.0714592678 4.0694074573 
Si 8.1936583049 13.6733211351 5.4105323797 
Si 5.5188565705 13.6399266347 8.3170040752 
Si 6.8678640628 15.1235058183 9.6291269322 
H 0.6367125748 5.0979555466 18.9080818675 
Si 9.1673767738 3.8300396750 11.6957741123 
Si 7.4083499778 2.3896289919 20.8182179013 
Si 6.1446532162 1.4689263284 22.6532015242 
Si 2.0262153785 6.6679206010 16.5483255779 
Si 9.6485833782 10.6092535570 21.1950388549 
H 8.5347057481 11.9185786090 12.4960958145 
Si 8.5048135978 14.5281551829 25.1977356790 
Si 14.6167727837 10.4378338855 20.7340942632 
Si 1.9296482576 4.0700565372 28.2445114842 
Si 15.9190605556 14.0472743785 15.5046336024 
H 8.5543840682 8.4229074770 19.8580024590 
Si 13.5546647740 13.5840030642 15.7908598689 
Si 5.3344863488 15.7096688937 21.7008101685 
Si 9.6360889481 4.1808285382 1.2080801533 
Si 10.8327034891 15.4880434416 28.8124636966 
Si 11.0070716507 2.8935275665 2.6413410491 
Si 12.5096938444 1.6119899967 1.3263326925 
Si 9.6228940480 1.4884303456 3.9980200204 
Si 12.3446109829 4.2249418586 4.0471117518 
Si 9.5685180275 4.1366500578 6.8505172838 
Si 10.9418627801 0.1569776090 5.4471820486 
Si 12.3288585528 1.5510018652 6.8081024984 
Si 10.0666499421 0.9867504690 9.5369438967 
Si 10.9488023201 2.8182677658 8.2493816123 
Si 11.9526735793 4.5245312514 9.5720640449 
Si 11.8891425787 7.1207337351 24.7099656474 
H 14.2300156001 2.8403081360 28.0516742215 
Si 4.5807969119 9.6097968879 24.6235183144 
Si 11.4686650949 12.8361617374 12.3432614007 
Si 6.8675545528 2.0410066987 16.4075214326 
Si 16.1595498278 6.0849177857 11.4971717331 
Si 5.1895053475 11.5040143952 11.6184744896 
Si 3.8685492354 0.9344807455 11.6759491710 
H 6.3511941281 5.0470981662 12.3684396644 
Si 5.2992673685 8.5131703679 26.5466846880 
Si 12.1439181811 7.9029795423 12.4726235546 
Si 13.6508409348 3.1669715090 16.7729592226 
Si 8.3363749962 6.9198454533 20.0376328987 
Si 5.7693641928 13.5349375838 12.7146407903 
H 0.8989082722 9.1456459136 25.8228978481 
H 0.5785181783 6.5506488899 20.4562803605 
H 2.2248719303 13.2451059011 14.1441543604 
Si 3.8764824655 11.9540093593 17.2339038143 
Si 4.1920034783 15.9520478059 25.9091392840 
Si 9.5712547475 1.1555002096 28.0195542869 
Si 10.8600218193 5.6448760116 29.1935496599 
Si 10.9457886701 8.2790830657 2.5898138501 
Si 12.2799559723 6.8859785430 1.2103773757 
Si 9.6070438779 6.8678314828 3.9608409020 
Si 10.9405107101 5.5402453407 5.4417404846 
Si 12.3471685129 6.9266383833 6.7740118353 
Si 10.1344652127 6.3673863882 9.6347449794 
Si 10.9469126801 8.1567125846 8.2104670763 
Si 11.2181411826 5.4974678003 14.7272841244 
Si 3.4265200813 10.4868342059 15.3629764552 
Si 1.6653592952 1.1592534256 12.6424003515 
H 7.0526741145 3.8406118851 20.6367932161 
Si 5.7661061927 12.3241344527 18.6328857983 
Si 5.6228356414 2.8915076064 26.4999460653 
Si 12.4681380540 12.0375281901 14.3389917656 
Si 8.4777721975 15.5335902821 18.5087004836 
Si 0.4003902847 0.3694604614 27.1449037618 
Si 8.0305791134 5.6316159515 26.7104904714 
Si 4.5180478313 4.8268084941 25.7226848289 
H 6.0883061057 8.5331581980 11.7906338090 
Si 2.8919963064 14.5952699835 14.3932897501 
Si 15.8060242446 1.6501118551 19.6555762781 
Si 3.7373332842 12.5320437246 27.9254005228 
Si 10.2694604439 5.9485379044 23.3769001225 
Si 15.2864872698 4.7029882030 16.1695927234 
Si 9.5730955176 9.6671702684 1.2011178927 
Si 10.9344997000 11.0576032311 29.1959910102 
Si 12.2638451622 12.3816381532 1.2308582460 
Si 12.3384696528 9.6469706682 3.9444867961 
Si 9.5228082871 12.2706055122 4.0573183611 
Si 9.6536169883 9.5019407969 6.7063011308 
Si 10.9742147204 10.9452348101 5.3812950034 
Si 12.2688136122 12.3767674432 6.7835125119 
Si 12.1531383211 9.7313039990 9.5183249236 
Si 9.5651459975 12.2452908520 9.3798738871 
Si 16.0794193171 14.4321419220 17.8791850633 
Si 3.3822601509 2.0093226484 20.3946583250 
Si 5.1169171068 9.0615732229 14.2593096203 
Si 12.0669805104 15.6125967828 23.0096092593 
Si 12.6024002353 15.6383675630 18.8947573891 
Si 13.7362819856 7.9418311926 17.8199455504 
Si 11.6308483364 15.8157005046 25.3248035519 
Si 15.2012416990 0.2946763287 23.7693986632 
Si 15.4319243911 14.2609503104 24.2947301933 
Si 6.9306945934 1.1283366343 18.7492764402 
Si 13.2104570708 6.3982233585 13.8811356291 
Si 8.9567470719 2.5909571037 24.2190483329 
Si 12.2713222722 4.4549240807 27.7136501485 
Si 1.9066630674 10.0051877715 22.8021533085 
Si 6.8137323923 3.8422245951 11.5990907562 
Si 9.5251377571 14.9059039963 1.3182644708 
Si 10.9056989797 13.6262267446 2.7242057740 
Si 12.2564332121 15.0567168177 4.0641423765 
Si 9.5669867675 15.0236969874 6.7561282088 
Si 10.9351350100 13.7570028658 8.1912892399 
Si 11.8090283580 15.5603221723 9.5318847128 
Si 6.1245024860 12.3511432730 23.1571491784 
Si 2.2846725209 11.7567537475 18.9949409945 
Si 3.9386776860 6.4211270987 22.4716885974 
Si 2.5952902437 8.1489585445 18.3298936319 
Si 12.4034341734 2.9832365973 18.7519531014 
Si 15.3417918203 6.8728488029 23.3914305691 
Si 5.3871356293 5.0949744766 17.6692289344 
Si 0.1752983206 11.9364161592 14.4595297617 
Si 10.7665009285 2.4431090623 16.9822094189 
Si 16.1759701479 11.2633785130 27.5133711794 
Si 9.5314745672 1.5092049828 11.8058996021 
Si 10.3364286345 14.2562913704 26.6912538073 
Si 11.2683143831 11.4714669749 18.2076202181 
Si 13.6440805848 0.1136310589 2.7238086869 
Si 14.3814311515 2.3619522816 0.0770310741 
Si 15.1727667788 4.2298614387 1.2488418797 
Si 15.0238761774 1.5115230498 4.0430820531 
Si 13.7017634753 2.8781172263 5.4408286550 
Si 15.0486695576 4.1937465084 6.8931085523 
Si 13.6100833545 0.2771971585 8.3258576469 
Si 14.8636477359 1.7694035262 9.7979918994 
Si 10.7895675687 11.2365000128 15.8817486946 
Si 6.2765859274 6.1545086663 23.2350370783 
Si 12.6466112957 15.6866185435 16.5307360899 
Si 14.4181325219 10.7481258083 14.0458532421 
Si 9.3279635953 5.5713918210 13.2905935726 
Si 3.4263897613 10.4467770955 12.8234132426 
Si 14.8873822662 10.0970633723 18.3962218850 
Si 6.9502263036 1.6466095051 24.9520711247 
Si 7.0059706841 3.9900889265 28.0458796912 
Si 12.6484357757 2.2290421704 13.1606431414 
Si 6.7264994415 15.1235546883 28.0908240684 
Si 3.7285855541 6.5376820498 11.6798906281 
Si 5.0483687862 2.0013731283 14.8867954843 
Si 13.4595800431 1.0334604155 22.3628573174 
Si 12.4808768341 2.8560605661 23.4437872389 
Si 13.6861902352 5.5409621007 2.5925905184 
Si 13.5554792740 8.2986962259 29.2393176252 
Si 15.0059083072 6.8408715326 4.0924385093 
Si 13.6689717050 8.2879285358 5.3780888927 
Si 13.6298919947 5.5470219807 8.2188500262 
Si 14.9854154871 6.9305154034 9.6031544943 
Si 11.2974246133 8.0117967433 17.9289533135 
Si 6.9733418138 13.9873434679 21.7124874707 
H 13.6483974348 3.6439101333 24.0036800539 
Si 0.8863975521 14.5199776028 25.8705483004 
H 11.0575869411 8.3893500767 14.7514917307 
Si 11.3134051035 9.5913891877 19.7630251068 
Si 9.4950664168 2.3252672013 21.9232083599 
Si 4.1445832879 14.0660567486 16.2869540226 
Si 3.9161323258 14.9118987164 12.3214363170 
Si 1.1438854395 16.0804944571 14.6951641898 
Si 11.0169922608 1.8257180567 25.0181934808 
Si 3.8338026651 12.5989630452 22.8479212738 
Si 7.9671947229 0.1185038867 26.5025933126 
Si 11.4830002950 2.2866924809 27.2244094240 
Si 15.0392213575 9.5240626171 1.2592955654 
Si 13.7065201554 11.0173506408 2.5608264916 
Si 14.9834606870 12.3505731230 4.0603185747 
Si 15.0153565073 9.5989477478 6.8344279027 
Si 13.5951128443 10.9926712905 8.1406974016 
Si 15.0033670672 12.3017357025 9.5031767860 
Si 13.5101442036 1.2564346795 19.9961593569 
Si 1.7403747459 2.3432350714 26.6381323771 
Si 9.2533879746 12.9625558486 15.2799999576 
Si 0.9876154680 10.0306001717 18.0441085734 
Si 13.4118014727 8.3816123267 23.4143733795 
Si 9.4638221966 12.3730696132 27.8981632889 
Si 7.3438252872 10.7611578084 17.8592718805 
Si 9.2103172142 13.2257370910 12.9219496719 
Si 1.2496922484 0.9588359248 21.0893254440 
Si 11.1250927017 4.1682200781 22.0225977910 
Si 14.6885302343 15.6544295032 12.4917131494 
Si 6.7988433322 12.8738242177 25.3687184440 
Si 6.1673451864 6.5204472296 25.5708799002 
H 6.4537722590 4.6469343125 23.1710913478 
Si 10.2114191734 6.0504155653 18.8213109821 
Si 10.2785665540 12.4568653739 22.5895205184 
H 14.1760142496 13.1269382401 10.4784227105 
Si 13.0426863593 14.2044891699 29.3328831122 
Si 14.8920737862 15.1076230682 1.1969499488 
Si 13.6301037647 13.7347995956 5.4435347300 
Si 14.9131856264 15.1256235183 6.8871375388 
Si 0.9275803015 4.7778733337 17.4535959307 
Si 15.7290865739 3.5204319322 14.1264178032 
Si 11.9873061196 4.9872812856 19.9637158699 
Si 2.9063640866 8.0886040940 23.7990478336 
Si 14.4368660220 9.8900663405 26.5596856139 
Si 4.9415226752 9.5737145376 20.8858403642 
Si 13.5357683738 12.0834497005 17.7085552646 
Si 3.2683767599 7.8632971019 27.5529034065 
Si 3.3610668607 3.6222118531 15.0104807633 
H 10.2884871641 11.7764972277 23.9645890346 
Si 2.4603601725 8.5723519384 11.6703017100 
H 5.8836548338 16.2179820583 10.0050654701 
Si 16.0485008968 10.8381280591 22.6140516772 

