&CONTROL
  dt          = 30.D0,
  prefix = 'aSiHcSi_merged-4',
  pseudo_dir = './',
  outdir='./',
 wf_collect=.true.,
 verbosity ="high",
/

&SYSTEM
    ibrav= 0, nat=  398, ntyp= 2,
  ecutwfc     = 42.D0,
  nbnd=1478,
  degauss     = 0.05D0,
  occupations = "smearing",
  smearing    = "methfessel-paxton",
/
&ELECTRONS
  electron_maxstep=200,
  conv_thr    = 1.D-8,
  mixing_beta = 0.3D0,
  scf_must_converge=.false.,
/
&IONS
/
ATOMIC_SPECIES
Si  28.08  Si.pbe-hgh.UPF
H  1.00784  H.pbe-hgh.UPF

K_POINTS {automatic}
2 2 2 0 0 0

CELL_PARAMETERS angstrom
16.29000014898320 0.00000000000000 0.00000000000000
0.00000000000000 16.29000014898320 0.00000000000000
0.00000000000000 0.00000000000000 29.47279668781150

ATOMIC_POSITIONS angstrom
Si 16.1439114276 0.0088378301 0.0132240313 
Si 16.1744225979 2.7341950750 2.6983200079 
Si 2.5397902132 16.2691652388 2.7765968086 
Si 2.8402266860 2.4705251326 0.0128145657 
Si 1.2752512587 1.3554599614 1.3596184258 
Si 3.9679671063 4.0244282468 1.3835208640 
Si 1.2109562571 4.1197084577 4.0911189082 
Si 3.9573297362 1.3388816282 4.0898810508 
Si 16.1072589273 16.2775708789 5.5597483672 
Si 2.6002261138 2.7369969550 5.3969701111 
Si 1.2644575046 1.4073501279 6.7939217285 
Si 3.9781157764 4.0609015571 6.7794505853 
Si 16.1603643278 2.6438018642 8.2275375050 
Si 2.5684769035 0.0968030001 8.2412718282 
Si 1.2529339585 4.0329153369 9.5213048612 
Si 4.0542389471 1.3895207227 9.5839050813 
Si 9.6605076584 12.8896580979 14.5378401126 
Si 3.8073477048 11.2361090528 20.5118875828 
Si 13.7839139461 2.5929607737 20.1382314664 
Si 2.9522367270 11.5645317458 16.3785636298 
Si 1.6508611951 9.1072340933 11.6579352571 
Si 2.8476549260 8.0408581035 23.9841956518 
Si 3.3844918810 11.7244832572 14.0931250834 
Si 6.8802607529 5.9724190446 19.7827011200 
H 0.6061378735 5.3038285685 13.9430201299 
H 16.2246283784 2.6766262145 22.4839418820 
H 13.2497159712 12.2505036520 23.6997536910 
Si 12.0259460000 1.4323406171 25.1630191009 
Si 0.7902197622 9.0101131124 20.6760215876 
Si 9.1575539038 9.1925611141 25.8229150188 
H 7.3236745570 3.7706463345 22.8093510303 
Si 14.8995183163 3.9575415062 25.4072306943 
Si 16.2454632886 5.3630590090 29.3583538183 
Si 16.1731519779 8.0921716040 2.7993674913 
Si 2.5951599237 5.4414464898 2.7080371889 
Si 2.4773995127 8.2248210752 29.4412018498 
Si 1.2058884380 6.7824718820 1.3356776731 
Si 3.9470018761 6.7968070822 4.1181749356 
Si 16.1655608378 5.4376346297 5.5541190630 
Si 2.6012849638 8.1677246247 5.5081415002 
Si 1.2443670474 6.8424190826 6.8946892204 
Si 16.1756280579 8.2591766855 8.2583660503 
Si 2.6046895738 5.3698519391 8.1420958674 
Si 3.9193577458 6.5959025103 9.6478315774 
H 5.9959743848 14.7218269946 17.2379314356 
Si 14.9832163370 5.9122926541 22.3341021837 
Si 1.3842085537 5.9039358840 19.1314996772 
H 11.0999083615 1.7418082659 18.3226777177 
Si 6.6737361310 14.3609872013 22.2281769524 
Si 5.1878600574 5.4612877099 21.5074491822 
H 3.9483213661 1.0387123115 26.6927456674 
H 13.0329286492 0.5306353519 14.2776247907 
Si 1.1232166873 3.1673461790 23.3044055962 
Si 0.1200450836 5.1559805272 24.0426991533 
Si 10.9039070797 14.0195813782 20.4455737903 
Si 6.5042386795 15.0680872378 28.1309002546 
H 15.7793738043 6.1026413058 16.8555513714 
Si 11.5825484859 14.7684326851 11.8180020159 
Si 14.8727375560 6.7554141918 27.9333146256 
Si 5.2527757080 2.4662408626 24.3903013174 
H 3.6661134035 3.9156273358 19.0383361668 
H 3.8896773656 8.3057497960 21.1675688908 
Si 3.8923652156 9.4932419368 1.3951950387 
Si 16.1542718677 10.7564174184 0.0854133437 
Si 2.5733964835 10.8587837793 2.7844247834 
Si 1.2194563792 12.1851481714 1.3821975354 
Si 1.2189530181 9.5089943670 4.1540728020 
Si 3.9400623360 12.2235762818 4.1452014902 
Si 3.8999400657 9.5266853071 6.9436730085 
Si 16.1686722279 10.9097388998 5.5153033898 
Si 1.2411758364 12.3311391528 6.8691952512 
Si 0.8288889646 10.0385334018 9.5821661863 
Si 2.5505579033 10.9726834604 8.2667657974 
Si 3.9284801459 12.2958061425 9.6743865672 
Si 9.9702131412 11.9207288890 21.0601110740 
Si 14.6006945535 1.8571414670 16.7926564232 
Si 8.8810148612 7.0063127741 14.9069868911 
Si 13.7666139659 13.1097197099 15.2505807549 
Si 3.7183065640 11.9140499890 22.7041331461 
H 5.7175945723 9.2851860549 19.8352216437 
Si 10.5180132662 9.6250769080 17.5595680658 
Si 6.5821537502 12.2034092616 25.4234996781 
H 2.1594675797 6.0860743757 22.1299735938 
Si 12.2098601017 6.8101648823 25.0855645913 
Si 11.5589116957 1.8591451370 19.7543188168 
Si 11.3299394536 4.9032411748 21.6948372235 
Si 13.6287191146 2.6158970939 23.8746747393 
Si 4.3864246301 14.1567594695 22.9166614830 
Si 9.1284599635 1.4220990940 22.6558861779 
Si 9.3190692552 9.6970298387 12.4656667231 
Si 1.1192468142 9.5540687974 27.9535919097 
Si 1.5590491253 6.5406305398 25.3089683901 
H 10.7759002586 11.7696717176 23.9065643054 
Si 16.1377863876 13.5671592041 2.7238110297 
Si 2.5852718936 13.5561797440 0.0229066997 
Si 3.9096651958 14.9622999768 1.3798013970 
Si 1.1686364657 14.9355680866 4.1449067622 
Si 2.6000469238 13.6274322046 5.4822054391 
Si 3.9293760959 14.9551323768 6.9225115404 
Si 16.1551189477 13.6341762647 8.3011016055 
Si 0.7198078656 15.5260805920 9.5039748567 
Si 9.4471086564 5.9913643148 16.9149980023 
Si 14.3648805114 0.6460842119 22.7156864824 
Si 2.3893194819 12.9441807284 19.8271755702 
Si 11.8502583484 6.7960251622 20.1318653424 
Si 5.2640158081 2.5445143133 13.5943569450 
Si 6.9811284338 9.4811547567 20.6321071205 
Si 8.9835929922 0.8026685803 15.8009262875 
Si 9.3473975655 14.9308276966 25.1898098731 
Si 9.7843605295 13.1395955702 16.9114023211 
Si 15.3491874804 8.9795204921 24.4645432922 
Si 6.5759309701 12.3084960526 12.4450947110 
Si 1.1532000615 14.8636151559 28.1496154805 
Si 9.4142843061 11.6483763765 23.2639983920 
Si 1.4063238579 15.1144159982 17.3464502730 
Si 10.6631408775 2.8078584557 26.5428764963 
Si 15.2622966196 11.3130793035 15.3945553667 
Si 11.5434361956 8.9939697223 25.9818028657 
H 14.1551793395 12.9406132184 28.3932670907 
Si 5.0783749664 0.1959426378 0.0137716063 
Si 5.3424358689 2.7354656950 2.7801600697 
Si 7.9993511832 0.0393400246 2.7132037702 
Si 7.8810532021 2.7560888352 29.3248432484 
Si 6.6165908105 1.3947481838 1.3248464203 
Si 6.6942289512 4.1033207175 4.1435510135 
Si 5.2883530684 16.2847873489 5.5005375186 
Si 8.0672479038 2.7457283951 5.4873042329 
Si 6.6912153012 1.3606727614 6.8076265790 
Si 5.3597847190 2.7227432049 8.1528534382 
Si 8.0346027435 0.0051351456 8.1853619329 
Si 6.8717899528 3.9582745562 9.4700221949 
Si 1.5078301068 15.6837189234 11.7001992475 
Si 1.0238053324 9.4499268264 23.0528258037 
Si 2.2661182107 6.8912890830 11.3978672991 
Si 15.5407253021 0.8133597074 20.6181075421 
Si 2.7968627056 2.9010861265 10.8665317204 
Si 8.6528571191 11.0961453715 17.5517283019 
Si 0.6340882558 14.6162189237 13.5828330815 
Si 9.6659973884 7.6741539102 22.5106737086 
H 5.5217236105 14.0144663182 15.0850910015 
Si 10.7791093886 5.6380179216 11.0271584624 
Si 4.8690484645 10.4421670255 17.1519003420 
Si 10.6405140673 13.5584766340 26.7027074727 
Si 12.0562291103 4.0755951373 27.9947359339 
Si 16.2289615184 16.1727121479 24.0240723457 
Si 1.8916111073 12.8469131375 25.3860102807 
Si 5.3021018285 5.4549834799 0.0568695296 
Si 5.3007660485 8.1640430847 2.7619223031 
Si 8.0524565836 5.4333177797 2.7574306489 
Si 8.0344235535 8.1310069644 0.0246118189 
Si 6.6811480811 6.7961229022 1.4175324713 
Si 5.3388031988 5.4780175401 5.4962934359 
Si 8.0318008635 8.1748596448 5.5346080716 
Si 6.6335324107 6.8517532527 6.9319723082 
Si 5.2097863976 8.1490562845 8.3593693246 
Si 8.1060832641 5.5232874505 8.2288343080 
Si 8.0224504034 8.2767047257 11.0660036084 
Si 9.3950458159 4.1235366077 12.2245497734 
Si 0.0560698547 1.8671272371 15.2435957021 
Si 5.5316442206 5.3342582888 10.7876919893 
Si 2.1756272599 7.0659178846 17.1352776847 
Si 13.9012345271 9.4589840665 15.8797365458 
Si 3.8139614449 9.7867877395 12.7233473845 
Si 11.8993238288 10.5691964467 21.1490599744 
H 6.9596745037 15.3533577204 14.1070067706 
Si 10.7288058681 2.3935223019 15.5054025551 
Si 0.0173698643 12.6644651358 19.8577978060 
Si 14.8135885655 1.2653730026 27.9949717163 
Si 7.9079154123 10.8702030694 26.8678435526 
Si 6.5073337795 4.1778474682 27.9363797965 
Si 3.8547027353 6.7714272619 28.2251837312 
Si 5.2865937483 10.8431453792 0.0771468137 
Si 8.0373394635 10.8697632394 2.7699271147 
Si 6.6571040409 12.2270297618 1.4091504080 
Si 6.6572669409 9.5266690171 4.1541317476 
Si 5.2840036383 10.8688347094 5.5503465450 
Si 6.6485680808 12.2486954620 6.8914766855 
Si 6.5709462301 9.5464613673 9.7085455385 
Si 7.9673087529 10.8788041895 8.2959733389 
Si 13.3307750119 16.0058373864 12.8254411523 
Si 7.8925865222 5.2631035681 13.6593444617 
Si 3.1282175986 13.4940171034 17.6871263299 
H 11.4989482052 12.5017280343 25.9955371890 
Si 0.7522770939 15.3451475603 22.0053920822 
Si 11.8806880687 8.3675051865 21.9207756829 
Si 12.5971059852 1.1005296041 15.9248593975 
Si 8.6098840987 9.4406578163 23.6182908809 
Si 9.2855933049 12.2626234122 28.1621708919 
Si 3.9869123765 12.2175978517 28.1626719294 
Si 11.6199340363 9.7485713992 15.3776969270 
Si 6.6021741604 9.4435248564 28.1898458480 
Si 9.6325540181 15.4523520513 17.4784884021 
Si 5.2745065682 13.5852736842 2.7455059554 
Si 7.9073615523 13.6618203949 29.4772176073 
Si 6.6347704507 14.9579342568 4.0858432776 
Si 7.9810900930 13.5702705941 5.4358152571 
Si 5.3304464288 13.6235063146 8.3018678982 
Si 6.7471877417 14.9533078968 9.6610353903 
Si 8.0439206236 13.6035021944 11.1287511925 
Si 6.6557356809 6.7596984618 12.2485701027 
Si 5.4240324796 0.0572321462 11.0099758219 
Si 13.9268261174 6.1488886162 13.7764988286 
Si 14.7699802351 14.8019249254 25.2515848550 
H 10.4862966359 1.2090991971 12.8221107262 
Si 7.6822663303 0.0760541011 21.3619125121 
Si 5.2080270776 10.8973422097 11.1077076157 
H 8.4906250077 7.8714258120 26.1367708307 
H 14.7062863345 10.3059989143 24.8689100628 
Si 4.8886453347 3.0158003076 22.0681986119 
Si 5.1903198475 10.7802333986 24.1289070836 
Si 11.8197634681 11.9832173296 14.4136712202 
Si 5.2165467477 8.0711575038 26.8410233076 
Si 5.2373816579 13.6365220247 26.7330055077 
Si 7.0076974241 10.3073998543 15.9916152820 
Si 9.3025511951 4.0323777669 1.3119550190 
Si 10.6646069775 0.0858077387 29.3952242869 
Si 10.7220618081 2.7184915149 2.6832829870 
Si 12.0961396106 1.3836579517 1.2953942546 
Si 9.3895886659 1.3765701726 4.0924451841 
Si 12.0946572206 4.0939702574 4.0496801561 
Si 9.4230646162 4.1339133378 6.8438486461 
Si 10.7424243082 0.0371897445 5.4961755447 
Si 12.1506785311 1.4260868860 6.8297606493 
Si 9.6633258284 1.1393405294 9.4456776649 
Si 10.7871729387 2.7748223354 8.2013656615 
Si 12.0253758500 4.1673404181 9.6689635726 
Si 2.6341093141 13.5674198441 11.1974228088 
H 10.3905440150 7.4881383985 27.4118524338 
Si 16.0530946768 13.1902900506 22.1419100765 
H 13.3712067923 4.1530866680 12.3897153260 
Si 7.9496341027 5.5062155304 26.6324737982 
Si 3.3911544910 6.1004910258 13.3910535935 
Si 7.1066428850 1.9770195781 16.4695461531 
H 11.4666451349 0.4413873280 20.2557689796 
Si 10.9164829598 2.6179333439 13.1619320720 
H 13.5781060842 3.5503566625 15.1461586363 
Si 10.0851390922 7.5154567287 18.6576655248 
H 11.7234895672 4.0510461070 18.0743988784 
Si 13.3871058324 16.2862860289 26.5439964626 
Si 3.1221577186 9.0329191126 20.0938159618 
Si 9.3250639753 1.4492056543 27.9731029011 
Si 5.8429949934 1.3429150323 20.5682395701 
Si 10.7332693282 5.3613159790 0.0061197315 
Si 10.7618419884 8.1626747247 2.7336225238 
Si 12.1015316007 6.7951455021 1.3145869398 
Si 9.4023926060 6.8158500923 4.1329997523 
Si 10.7993741488 5.4662072900 5.4805844353 
Si 12.1424357911 6.7953735621 6.9216863021 
Si 9.3968865859 6.9468705635 9.6581765290 
Si 10.8257150790 8.2257658952 8.2878388470 
Si 5.0611238563 7.8358810317 13.6692767942 
Si 8.0532547937 11.1827104323 13.9320562495 
Si 0.2698748035 5.6616872918 10.8817691563 
Si 14.6683957942 14.2309278402 13.3670627370 
Si 4.9861246956 5.0608143463 16.4206507834 
Si 12.6936242361 3.0302332477 11.6337675638 
H 8.0309049134 5.4495914898 17.1758617258 
Si 0.7525507659 8.4629320074 15.9568668547 
Si 9.2385966545 4.1975257884 25.1821174732 
Si 0.7830440172 10.6358388373 16.7874102654 
H 5.1976666375 11.2876343232 18.3769666092 
Si 3.8679302154 9.4796234967 25.5370583637 
Si 8.1079403242 16.2608247587 13.7416914557 
Si 4.9387207952 4.2296659587 26.0420747350 
Si 5.2518960480 14.3223147410 18.4922052442 
Si 9.3407186654 6.6908895012 28.1549205839 
Si 9.3864935658 9.5085219570 1.3797483460 
Si 10.7213450481 10.8733959094 29.4515762742 
Si 12.1007008107 12.2369015019 1.3261432234 
Si 12.0737734404 9.5446043073 4.1409574074 
Si 9.4089574761 12.2360870019 4.1218000896 
Si 9.3912502459 9.5484487473 6.9259009121 
Si 10.7581115784 10.9294986700 5.5740721464 
Si 12.1135373308 12.3299988528 6.9706700902 
Si 12.2212793918 9.5885384377 9.6703782668 
Si 9.3322315753 12.2674289622 9.6457979544 
Si 13.6936347652 8.3242878161 11.0816831362 
H 12.8473203875 11.4408906446 21.9868242203 
Si 2.7856551855 5.3993368394 15.5768446143 
Si 13.1375919002 4.9530559953 15.5980650279 
Si 16.1309608775 10.4723035258 18.9971626699 
Si 13.6598655949 7.5806167293 23.3926176767 
Si 4.5895446420 3.3893951710 17.9346094037 
Si 14.7542440949 3.6136107330 18.2933522850 
H 12.0941033606 10.0720582221 25.0202234010 
Si 7.9892676731 13.3949739025 23.9675140489 
Si 11.1436958819 4.3823521301 16.6974592899 
Si 6.7623048618 7.9914016631 15.5858632900 
Si 6.0062045049 6.3165290078 25.4300131661 
Si 1.3007744309 1.5443881251 25.0041312540 
Si 10.4560786856 5.7819726529 23.7686316169 
Si 0.0293435031 7.9857979030 26.4836656477 
Si 13.9436862675 7.2334442462 19.0762087106 
Si 9.4449095064 14.5718286733 12.8013618774 
Si 11.9765710095 15.7892618344 17.4248184394 
Si 9.3529035855 14.9773845170 1.3325859767 
Si 10.7337743182 13.6070697044 2.7059387258 
Si 12.0751255104 14.9702332069 4.0964829572 
Si 9.3293645353 14.9288566065 6.7811010619 
Si 10.6415403373 13.6999552853 8.2799106647 
Si 11.3991719543 15.5752112324 9.5823135503 
Si 14.4180673619 5.7097590822 17.3859732933 
Si 13.4324571928 5.4134276895 26.6079819042 
Si 14.4579289922 12.4764459541 11.7564038708 
Si 2.5764752936 10.9993664806 26.7583815857 
Si 4.1903744783 4.1564424080 12.2683758221 
Si 12.1974471216 10.6465902374 18.8464682604 
H 15.2089305791 15.7525441741 19.4800449708 
Si 13.5251798737 14.0564945186 17.3700285103 
Si 8.2026666750 3.9841104964 19.6247564025 
Si 8.0188828933 16.2287823284 26.7185048917 
Si 14.1026277990 9.4626167365 18.2380023728 
Si 3.7027170339 14.6063797636 25.1479290290 
Si 1.6055326407 3.4017592811 16.2281050027 
Si 2.5935472137 3.1426179587 21.5158489292 
Si 6.9599351437 13.4923718134 19.9869770738 
Si 13.4313331828 0.0306177069 2.7148571941 
Si 13.4605737331 2.6965814647 29.3363376391 
Si 14.8174655855 4.0593865871 1.2669795313 
Si 14.8291455156 1.3587570574 4.0919146737 
Si 13.4790954633 2.7579621852 5.4278870748 
Si 14.7989764353 4.0539945971 6.9098971835 
Si 11.7556134475 12.9306926083 18.3991006795 
Si 13.3401580520 16.2878987390 8.2971817236 
Si 15.1989610990 0.8743022270 9.4818113136 
Si 0.7761256541 3.7429370442 18.4284555850 
Si 2.5135633130 0.6100328126 18.3987764787 
Si 3.9481584661 15.2798083697 12.5164778246 
Si 14.3997574017 1.4257399090 11.6372158810 
Si 15.8423509449 11.2117880825 13.1233816540 
Si 10.6197117371 8.2610011656 13.8031127640 
Si 15.9665784860 2.4976968528 13.0403567857 
Si 15.6215399929 14.4390814621 18.4451666607 
H 15.0834487079 11.5866698560 28.9213606618 
Si 12.1940750915 7.0363515344 12.4131461994 
H 6.0682368255 0.9135171444 16.1468485022 
Si 1.4300551301 3.8573254253 28.1501754636 
Si 0.0093238096 2.5956323337 26.7340665284 
Si 5.1130237968 7.1448592253 23.2946501005 
Si 1.4130369669 11.8248948181 23.3021361909 
Si 13.4758211732 5.4303692897 2.6746179848 
Si 13.5048173735 8.1195062243 29.3745343837 
Si 14.7967121253 6.7438971617 4.1409868802 
Si 13.4431108529 8.1481277545 5.4755151143 
Si 13.5131089836 5.4422284098 8.3336395731 
Si 14.8951200162 6.8552393127 9.6663994393 
Si 10.7483538683 0.0133288528 23.7608213257 
Si 12.3090336226 9.7207643689 28.1204374118 
Si 1.2887735878 1.9670663880 19.8896284264 
Si 8.0325339135 11.4226458445 19.8006795260 
Si 8.2764277957 2.5944757437 10.8224993622 
H 14.9108398664 0.7410255908 17.7445098651 
Si 1.8099819166 1.6159891918 12.5135010721 
Si 13.9168240573 13.5815269842 23.3460801307 
Si 6.8706496528 1.3945641068 12.2941350464 
Si 4.0344954669 8.3340943962 17.9664694969 
Si 12.3861667733 15.1951981090 22.2629548525 
Si 2.8418231060 5.1792426474 26.7925700298 
Si 14.8051177654 9.3968540059 1.4174617366 
Si 13.4463362730 10.8477554492 2.7118008651 
Si 14.7900983853 12.2092736617 4.1009628223 
Si 14.7843643052 9.5267830471 6.8357436270 
Si 12.1431688411 12.4224120236 12.0923053347 
Si 13.5501198639 10.9391586400 8.2771696946 
Si 15.3299978602 11.8332352982 9.6179756343 
Si 4.9594905454 13.4862304833 13.7614382295 
Si 15.9156070756 6.9443130335 20.3642583442 
Si 2.9354091568 14.8462988858 21.2045572506 
Si 1.5203082469 12.5198099345 12.9810280460 
Si 8.4464465272 7.6375828599 20.4021308880 
Si 9.9362973609 3.0539840679 21.0376528030 
Si 15.7890337744 4.8772586246 12.9752808506 
Si 13.4989529735 4.0417119370 21.9871484211 
Si 6.6108730205 2.5374607432 18.7068850953 
Si 2.8449019160 5.4192106396 20.9375926582 
Si 6.5163584396 3.8495876752 15.0958485723 
Si 3.5757690627 0.7750228211 25.2536184780 
Si 8.8180377206 15.0398240875 19.7053645015 
Si 13.3416567320 13.7090288154 29.4083396815 
Si 14.7722771251 14.9338413466 1.3550383532 
Si 13.4126159727 13.5777802842 5.4515537305 
Si 14.6861844743 14.8863071261 6.9118129152 
Si 3.3482792106 1.9009941474 16.6103377029 
H 15.6003955727 12.3891478433 27.1734469814 
H 7.0544334345 0.7815534821 25.9160490563 
Si 3.3986316011 0.9192691434 14.2319419558 
Si 10.7356639582 10.9189264599 10.9654424261 
Si 1.3279037971 16.1300975075 15.2119713913 
Si 6.3953400285 9.1718891039 22.9094111750 
Si 4.2633373890 16.1008732473 19.6996173061 
H 9.2016998042 4.2298614387 18.5145161513 
Si 5.9040336240 6.8615598328 17.6105265313 
Si 15.6531751732 8.9926013622 12.4844114218 
Si 7.6990939004 2.8255493958 23.9474136016 
Si 15.1941229690 7.9974941231 14.5888575237 
H 2.0168160484 15.7089195537 27.2106416508 
Si 12.0018367998 15.0214489674 28.0005126021 
Si 16.2818714389 13.5742290641 26.5639495459 

