&CONTROL
  dt          = 30.D0,
  prefix = 'aSiHcSi_merged-5',
  pseudo_dir = './',
  outdir='./',
 wf_collect=.true.,
 verbosity ="high",
/

&SYSTEM
    ibrav= 0, nat=  398, ntyp= 2,
  ecutwfc     = 42.D0,
  nbnd=1478,
  degauss     = 0.05D0,
  occupations = "smearing",
  smearing    = "methfessel-paxton",
/
&ELECTRONS
  electron_maxstep=200,
  conv_thr    = 1.D-8,
  mixing_beta = 0.3D0,
  scf_must_converge=.false.,
/
&IONS
/
ATOMIC_SPECIES
Si  28.08  Si.pbe-hgh.UPF
H  1.00784  H.pbe-hgh.UPF

K_POINTS {automatic}
2 2 2 0 0 0

CELL_PARAMETERS angstrom
16.29000014898320 0.00000000000000 0.00000000000000
0.00000000000000 16.29000014898320 0.00000000000000
0.00000000000000 0.00000000000000 29.40185373716267

ATOMIC_POSITIONS angstrom
Si 15.9368166558 0.4524612701 0.0780081163 
Si 0.0640646610 2.7820388054 2.6741809226 
Si 2.6719835644 16.1908429181 2.7711335353 
Si 3.2125509294 2.1173579294 0.1601242596 
Si 1.3856534767 1.3179049951 1.4268484404 
Si 4.0730213173 3.9475557361 1.3920748680 
Si 1.3764398526 4.0678899672 4.0777136930 
Si 4.0529846171 1.2817525977 4.1256681164 
Si 16.2448931386 0.0297009057 5.2897463096 
Si 2.6719346944 2.6622584343 5.4374318209 
Si 1.2692516516 1.3183594861 6.7801556774 
Si 4.0342185369 3.9932166065 6.7929748856 
Si 16.1287291475 2.6629751944 8.0846277221 
Si 2.6335065841 0.0582189944 8.2403105376 
Si 1.0018512992 4.2421115188 9.3835722184 
Si 3.8436581152 1.5497866312 9.6806779504 
Si 15.2223861192 11.9863450096 11.4549916179 
H 14.6335026138 13.7938019762 12.1686040099 
Si 7.2823794066 12.9763046087 11.1505648243 
H 15.0794087879 8.4064219969 21.1053562570 
Si 12.1863210515 15.1478430785 11.4820707251 
Si 9.4580555365 1.6592505452 23.7053621830 
Si 2.5755630536 13.5036444935 10.8731289324 
Si 7.9335721626 11.6041978961 16.1032776844 
Si 1.1345333504 12.3565189730 12.3712415859 
Si 7.6020380795 11.2086441125 26.4988911103 
Si 14.4571959422 15.3410913503 12.2838298747 
Si 13.1443196702 14.5962962535 17.6627520066 
Si 8.2998853959 2.7702774253 14.4566856696 
Si 5.5283699306 16.1005148673 27.2839794088 
Si 3.4009447811 7.7402750208 24.7306342247 
H 16.0822049071 14.6467138040 18.6558290185 
Si 5.1791937774 16.2618836087 10.8884767000 
Si 2.3105573311 2.2771465408 27.4207862342 
Si 0.0019740385 5.5475921307 29.0894002375 
Si 0.0055479505 8.1019293141 2.6343031884 
Si 2.6614928043 5.3906216893 2.6156829944 
Si 2.9148837567 8.0652116538 29.2853047889 
Si 1.3725595746 6.7966604722 1.1910073510 
Si 4.0216752368 6.6949945812 4.0618366919 
Si 16.2599125187 5.3836006992 5.3955047775 
Si 2.7139303148 8.1184310842 5.3957693941 
Si 1.3953134468 6.7124411714 6.7226750533 
Si 0.0234087302 7.8879438721 8.1633658864 
Si 2.6931442746 5.3673758591 8.1581911602 
Si 4.3950420402 6.3972296685 9.5052664910 
Si 14.5448198530 8.5032986278 25.7632861316 
Si 0.4455510521 3.9128743258 20.4492244890 
Si 5.2774224783 13.4488123530 13.7079380623 
H 6.6075498604 8.9591905719 23.5533840010 
Si 1.9973820783 6.2422466071 16.8626981646 
Si 15.4959766717 1.3745876796 17.8062624547 
Si 0.9232927734 0.2495009003 27.4873520311 
Si 5.2123927977 5.9396272743 15.2862001691 
Si 4.0327850169 14.6330953638 26.1749414858 
Si 9.7652849393 12.5126260444 17.1645081932 
Si 4.1315512878 15.1156377482 23.8288499687 
Si 15.3651679705 15.1693132987 14.4737093429 
Si 0.4970160495 12.7460128766 26.3436787244 
Si 4.6361992024 6.8395357526 22.8806989894 
Si 6.3422020480 3.1719888290 13.1369246609 
Si 14.0405628984 3.0363419978 27.2981217004 
Si 4.0749435373 9.4444045164 1.3707497035 
Si 0.0091294699 10.7540064984 29.3741277891 
Si 2.7171720249 10.8600055293 2.6962646549 
Si 1.3867905187 12.1728818013 1.2591461470 
Si 1.3399307043 9.4730586266 4.0325818475 
Si 4.0687370472 12.2164086817 4.0858874083 
Si 4.0654953372 9.4588537465 6.8107924089 
Si 16.2320566185 10.7894698287 5.4164388973 
Si 1.2844143837 12.1817272714 6.7682479266 
Si 1.3765457376 9.3946222759 9.3155069270 
Si 2.6928836346 10.8621232293 8.0970059025 
Si 4.0036422066 12.1972190616 9.5267004424 
Si 15.7305038039 14.1637478795 24.7137869625 
Si 2.1806934499 8.3357396862 12.8742484996 
Si 6.8965507531 7.7211994306 19.5531147908 
Si 7.8425273517 7.7360233308 17.3586486334 
Si 15.1714147088 6.4836806993 11.9480901069 
Si 13.5851433642 10.5224767262 26.6386087192 
H 1.0407615935 6.7992668722 17.9020242924 
Si 5.5952240912 14.3187635210 15.9557097805 
H 8.0981826141 0.7507507209 11.8749382948 
Si 10.2196619135 0.0201101681 20.0782318986 
Si 9.2206124943 12.0801265405 27.9911527949 
Si 3.4271879713 12.4121004535 19.3565339967 
Si 2.5215617031 10.6329392172 13.3582618158 
Si 8.0729819838 2.5276867431 27.0844290275 
Si 0.2788163845 9.0303127126 15.8745312624 
Si 1.9709596980 14.3930947916 27.3380494178 
Si 0.1259560731 9.2769270248 24.5197641297 
Si 4.5961909620 6.6954669912 28.1799126958 
Si 7.5422374890 14.9527866168 27.2733947414 
Si 16.2809103289 13.5468455739 2.5777840049 
Si 2.8560605661 13.4583582931 29.3180584540 
Si 4.0361407569 14.9425727867 1.3330006634 
Si 1.2924714178 14.8486935158 4.0577498343 
Si 2.6736451445 13.5620604340 5.4532794200 
Si 3.9980058666 14.9665190869 6.8432226536 
Si 16.2275931584 13.6217144146 8.0618412855 
Si 1.2423861834 14.9215098165 9.5287879740 
Si 10.8845708495 13.5812989242 22.7101682377 
Si 9.6241809580 15.1401704885 14.2004485143 
Si 0.0390477820 0.6423179639 15.7104101148 
Si 4.6898747529 0.6089136896 18.5355166330 
Si 4.3416434197 4.0185312668 14.1612852451 
Si 9.3295763053 6.6925836612 28.1441012380 
H 5.3026556885 8.2431147454 22.2809893787 
Si 16.1613743078 8.5473142082 12.3673017375 
Si 14.0953461689 4.5232769214 16.0298906575 
Si 8.8450302509 6.9426188735 20.8457672904 
Si 0.5768680013 5.4739450401 13.4274737795 
Si 10.7149756580 13.2446497811 26.6559852148 
Si 10.3028549442 0.1984512978 25.3515719737 
Si 3.5000531420 2.6967117847 15.8532737221 
Si 15.1638398587 16.1680532079 21.1457838059 
Si 9.1757172539 0.4417587400 27.4069379611 
Si 4.9346157151 0.4516630601 0.0938042622 
Si 5.4169137495 2.6910917346 2.8351090288 
Si 8.0535480137 0.0406300297 2.6066154627 
Si 7.5231456088 3.3031722002 29.3089438794 
Si 6.6972426013 1.4938093037 1.2667200646 
Si 6.8059457722 4.0403272870 4.1543937275 
Si 5.4433035498 16.2883222790 5.5335758826 
Si 8.1285634643 2.6413746542 5.5014102546 
Si 6.7994623522 1.3270990711 6.9968179375 
Si 5.3491473489 2.7520814952 8.2882061574 
Si 8.1442181545 16.2328059585 8.4267770940 
Si 6.1622301264 4.7176166231 9.3646668264 
Si 9.4807312167 4.7877776538 20.1212174087 
Si 15.1006835281 10.6289644572 23.0108315940 
Si 7.1308172452 4.5398927215 11.4598723256 
Si 3.8899217156 2.2805674409 25.6022227769 
H 8.2079120551 14.7216478046 13.8420987209 
H 3.9075800757 12.5083580644 28.7755354489 
Si 2.1317745795 10.4843092559 15.7039711088 
Si 10.1604966329 8.1636195447 17.7272596737 
Si 9.8328395699 9.7587852293 12.2309653417 
Si 1.0916857630 2.6257199640 18.6108735841 
Si 13.1653989304 12.2570685221 17.7801536086 
H 10.9565889402 6.8820689429 17.8156416461 
Si 16.0996840772 12.0903566606 21.4168688974 
Si 0.8879825691 1.2437610594 23.8923873746 
Si 5.0068455758 11.2973105833 23.7184754098 
Si 5.7138967423 5.0650823263 0.1686534433 
Si 5.3739407291 8.0787486439 2.7684079834 
Si 8.2447437454 5.3410837988 2.7752115724 
Si 7.8640627319 8.1222429443 0.0533108532 
Si 6.7756789520 6.6650209810 1.5332890313 
Si 5.4024156494 5.4092411595 5.4772713327 
Si 8.1165251542 8.1522654146 5.3271160657 
Si 6.7568151318 6.8792344829 6.7449028547 
Si 5.4191454796 8.1453421645 8.2545704367 
Si 8.0595264437 5.5237272805 8.1274956249 
H 12.7155505763 6.7840845920 17.7364624540 
Si 15.8024241545 4.1752736482 26.1798221935 
Si 3.1861774191 6.0104073250 26.4499664257 
Si 13.0033460089 14.6350012938 22.7153723658 
H 0.0770733664 12.3849124433 16.9619882247 
Si 2.4128096621 13.8869644870 17.8820016300 
Si 10.8813291395 13.6664630450 12.8023021635 
H 6.6980571013 0.1380215875 13.6575726869 
Si 16.2102117283 3.3551861707 24.0504223385 
Si 6.0437203753 2.9819171073 22.1120463271 
Si 2.2427420605 15.8578916050 13.4823964423 
H 14.5986745935 9.3256015453 9.8505324594 
H 0.2883330026 0.7164733026 22.5514570312 
H 14.6499229340 11.7267475672 23.9706551093 
Si 12.0098514798 9.4273000162 27.9811561646 
Si 13.9664271077 1.3455572703 25.7063935446 
Si 9.4939749868 14.2268227601 20.8973381418 
Si 7.4738194884 1.6946650055 16.3856824896 
Si 5.8156929532 10.3554227747 0.1323256889 
Si 8.0865515540 10.9303457500 2.6398130958 
Si 6.7274768415 12.2579156021 1.2097157505 
Si 6.7547788818 9.5378765372 4.0080312996 
Si 5.4360707897 10.8424611992 5.4621881817 
Si 6.8018732722 12.2104954117 6.8377539088 
Si 6.7984849522 9.5044494569 9.6615079417 
Si 8.1746804548 10.7922554187 8.1978836627 
Si 5.6662159118 11.2126677425 10.9011488990 
Si 15.8081093646 9.9369326709 10.5647328885 
Si 1.0727584118 1.2807100377 12.2461955019 
Si 11.0002950106 6.9903811539 24.6802100455 
Si 1.3621470065 7.2150854160 14.8083024384 
Si 1.5984481196 10.5686588767 25.9620426629 
Si 9.8614936802 14.3116447909 24.7139633736 
Si 2.2733183908 2.9506077270 10.9928238790 
Si 15.3369862703 8.2967577159 17.7969714690 
Si 5.0077903958 9.8894473204 21.8443718507 
Si 13.8482431567 6.7215309915 16.7575865375 
Si 2.4540070724 0.5813396063 15.5541686640 
Si 9.4315679963 6.4911903894 13.9574127913 
Si 3.8854256755 10.0277005517 25.4418944684 
Si 9.2032310642 3.5545594825 25.1637235302 
Si 1.3751952966 12.6465950057 16.2049786965 
H 14.2895881307 9.4000468460 17.9102274096 
Si 5.4084755295 13.5799794342 2.6807522369 
Si 8.0703430038 13.6583017549 29.2433483437 
Si 6.7658723719 14.9528517768 4.0695987813 
Si 8.1431430145 13.5944938243 5.4578661092 
Si 5.3564126890 13.5697167341 8.1532810506 
Si 6.6547745709 14.8248938256 9.6737685147 
Si 6.6634408509 0.9650912848 12.3995261692 
Si 11.0178882108 1.4964987827 21.7312629194 
H 2.3304800013 12.6612885858 24.2846375053 
Si 2.7456143651 4.7268856332 12.5260423458 
Si 2.8421000360 1.2838067667 19.7871535466 
Si 11.6460794865 11.5240673854 16.1598468510 
H 13.9965636080 2.8073208857 20.6664747863 
H 4.5827680019 13.2428904611 26.3685526927 
Si 14.9993597272 5.5190846305 20.5859725108 
H 2.0608153388 16.2862045789 20.1010771389 
Si 3.1915856992 1.0368927185 23.6911022839 
H 11.5250447854 4.5717722518 17.6106225200 
Si 3.7713468045 15.4779273516 16.9142690161 
H 0.2282522241 8.1966719550 27.7521451258 
Si 7.5030274586 3.4400244915 20.2440583536 
Si 3.7413732042 4.4688520309 24.8221327935 
Si 9.4323824963 4.0251287168 1.1750098024 
Si 10.7135095580 16.2325941885 29.2076838951 
Si 10.8122595389 2.6497477142 2.5346073827 
Si 12.2039468316 1.3174928580 1.1008348058 
Si 9.4514417964 1.3331263712 4.0023861437 
Si 12.1484630911 4.0346583669 3.9488747699 
Si 9.4554980065 4.0836261073 6.8042357956 
Si 10.7572319184 16.2093483582 5.3851259231 
Si 12.1501409611 1.2826127097 6.6757496947 
Si 9.5267178871 1.5152453149 9.6162584888 
Si 10.8624978993 2.6791674545 8.0590481094 
Si 12.2459261620 3.9599361362 9.4809217561 
Si 13.2972501916 14.5289859729 15.2827895540 
Si 11.3608252939 5.6479874017 12.8652515324 
Si 9.0816262131 3.4254938113 10.9191134316 
Si 13.6422723948 11.0352370609 12.9514871694 
Si 11.2274753527 15.8847049453 17.9322199961 
Si 13.0102203890 2.2156680803 10.8683658321 
Si 11.2597132630 4.7276186832 25.2215569765 
H 15.2255789592 5.3535130690 23.7203571284 
Si 1.6890286654 3.9217849559 16.7195111369 
Si 12.3065412526 11.5518418356 19.8195543894 
H 13.0091778290 8.3850169367 19.5720789865 
Si 13.2117114008 0.6644463001 22.2460893783 
Si 9.6132014979 14.8029023254 16.5651514048 
Si 13.6939442752 2.3706022717 13.1100219647 
Si 11.3904730942 3.7563437144 21.1459896189 
Si 10.8914126496 5.3095626486 29.2111827157 
Si 10.8084802589 8.0691701238 2.6212458251 
Si 12.1748203113 6.6884785812 1.2589403341 
Si 9.5552742574 6.7499407517 4.1090560690 
Si 10.9224939699 5.4085569795 5.4852392351 
Si 12.3445946929 6.7403785216 6.8911770771 
Si 9.5338691972 6.8163876623 9.4856554545 
Si 10.8950453196 8.1586510946 8.1234969727 
Si 11.2402792928 11.3044781834 23.4019056506 
Si 3.7243175741 2.3401888414 21.7315275361 
Si 12.2232667718 9.3025674851 20.4656013216 
Si 10.4427860455 8.1437131645 26.6886506743 
H 6.8431195526 13.0714870795 18.5715633057 
Si 9.5386421672 8.8280886507 14.3702442196 
Si 1.4290744721 4.5591963717 27.4264019883 
H 14.6042783536 11.8727548386 17.4539694433 
Si 7.5793949793 6.0600755354 26.6827114998 
Si 1.7293789958 7.8857284321 21.1955023406 
Si 5.3682718091 2.4844205027 17.3124583212 
Si 7.1178666951 5.5791621510 16.6212207399 
Si 1.6496394451 4.9868577456 23.6466760829 
Si 4.1230967777 9.4523377464 16.5464812277 
Si 2.4313476822 4.3285788396 21.5682002386 
Si 13.1805649205 8.0516420836 14.9295556832 
Si 9.3769150458 9.4586093965 1.3205460382 
Si 10.6916809578 10.8017036188 29.3230273673 
Si 12.1755533614 12.1927230215 1.1756125404 
Si 12.1820856514 9.4249705462 3.9908606170 
Si 9.4698983666 12.2335457619 4.0263486545 
Si 9.4615578865 9.4466688264 6.7342005800 
Si 10.8046683988 10.7925649287 5.3236760488 
Si 12.2186078317 12.1551745712 6.5945123729 
Si 11.8162122481 9.9350756109 9.4219416375 
Si 10.0729704621 11.6452324065 9.3767803901 
Si 9.9503556310 1.1316728263 13.5134447998 
Si 6.2045026767 12.5042041144 17.3055782874 
Si 6.1675732464 1.6429442550 25.8823636393 
Si 3.9396387960 14.8204792355 12.2779789058 
Si 0.9955503271 13.8849282370 14.1690473345 
Si 15.9220416256 7.6692017501 20.0668239793 
Si 6.1743824665 4.3749890500 18.4753016365 
Si 9.0626483629 6.8983752331 23.2330214027 
Si 13.3866008424 3.9173052058 19.8538957546 
Si 11.2681351931 9.2225021343 15.8705914140 
Si 9.4320078263 14.9391518866 1.2838525247 
Si 10.8254544390 13.5483116739 2.5966394137 
Si 12.1508251411 14.9061320563 3.9857152926 
Si 9.4740360266 14.9123711264 6.9202261086 
Si 10.9266804999 13.4316426928 8.0878031223 
Si 12.6853814960 14.4033249117 9.3115376767 
Si 9.0292049926 4.8017544739 15.5741619246 
Si 15.3388596203 14.1541204894 22.3293554281 
Si 13.6048705544 2.8858875564 17.7123823358 
Si 12.0213685099 14.7476303549 27.9515190960 
Si 7.8183367015 5.3364574388 24.4735738174 
Si 12.9151356581 9.7076346288 22.6491887931 
H 6.7121316614 13.5106654836 12.6225980335 
Si 12.1758628714 9.4547975365 11.7524207703 
Si 13.1189561400 7.7585198210 23.9777997597 
Si 8.9046027814 10.8624490293 22.9260072460 
Si 5.5275065606 9.4112380761 14.5762924106 
Si 13.9516520776 2.4323413722 23.6426480290 
Si 14.9309254366 15.6293103229 18.8757842863 
H 13.3448658620 5.9813459647 27.3585425098 
Si 3.7537210243 6.8035837222 11.8384211924 
Si 14.9341671466 9.4640991266 14.2152670486 
Si 3.4464590415 6.3120981277 20.9161847301 
Si 8.0895489140 8.8852991313 23.8406989158 
Si 13.4769126033 16.2264691484 2.5583758413 
Si 14.2243629701 2.1752851699 0.0552166813 
Si 15.0657414778 4.0808893873 1.1872703754 
Si 14.8854274661 1.3480577853 3.8699013907 
Si 13.4997837635 2.6406253142 5.2815725942 
Si 14.8404507757 3.9898771565 6.6693694925 
Si 16.0511887468 16.2645225888 10.8032407261 
Si 13.5298388137 16.1824209880 7.9974806276 
Si 14.7145127846 1.2979888409 9.4372011996 
Si 12.9595421985 7.3171748469 12.6744923053 
Si 4.9088775149 10.8735588094 18.3278807419 
Si 9.4725047666 12.0943802906 11.6127913669 
Si 2.1748779199 12.1019062707 21.3063767310 
Si 7.2516238863 11.9936103497 24.3052776067 
Si 8.3787452866 1.3573186504 19.5223898537 
Si 16.2204418483 4.0323288969 15.1264892996 
H 15.2761594097 5.5706424809 25.8981818366 
Si 5.7094658622 4.8630374545 23.5309209848 
Si 15.9727361061 0.1017364266 25.5160165417 
Si 11.6606264566 1.6725920553 16.9820108871 
Si 9.4241560462 2.3027544211 17.6126218460 
Si 10.0018483215 8.7966000805 20.0022869104 
H 12.4771301341 15.6770074434 14.6941350404 
Si 14.1082478490 5.8915066139 22.8267465878 
Si 13.5876683143 5.3463617589 2.5876542072 
Si 13.4442022830 8.1698260347 29.3727753038 
Si 14.9230573665 6.7332597916 3.9907724115 
Si 13.5764933742 8.0971237641 5.3957693941 
Si 12.5523736448 4.1006165775 14.2559298123 
Si 13.7286256856 5.3120224386 8.2644200577 
Si 15.5886341926 6.0532500254 9.6104957255 
H 6.8151170423 4.8662302945 27.2170607897 
H 1.2763638657 14.5931848635 18.5617430865 
Si 12.2614831121 12.0191530699 25.4155504075 
Si 7.5652552592 14.2231575101 24.9016060042 
H 6.4383619189 13.2052442708 20.8872533060 
Si 4.8209929641 11.1588944521 13.1426874242 
Si 12.4747029241 4.2284279187 23.2298460025 
Si 7.6266033998 9.3675320057 15.6152657161 
Si 10.6578629175 5.1122092968 10.7008634713 
Si 10.0189691116 12.3600539030 19.5611414969 
H 2.3384621014 8.7104259797 10.2737133403 
Si 3.3480837306 12.9411019184 23.1890068277 
Si 8.6633152992 10.6798381277 20.5362245742 
Si 14.7498946649 7.0506867345 27.7797828683 
Si 14.8787322761 9.4670476166 1.3220308318 
Si 13.4945383834 10.8409299391 2.6272144014 
Si 14.9258755365 12.1575040412 3.9548139443 
Si 14.9212165965 9.3926837659 6.8500438837 
Si 13.5296433337 10.8970326997 8.0951241839 
Si 14.4486599821 12.7233860664 9.3328246188 
Si 7.1117416550 14.5510426331 21.0676924824 
Si 15.8866597453 2.1021593592 13.9136922348 
Si 1.2934423018 9.3180918552 28.0107050276 
H 16.1645671478 2.7943703356 21.2804442960 
Si 11.0180185308 0.9212939904 11.3373548010 
Si 7.4129926278 15.6412020230 16.8523193102 
Si 8.3615104665 9.0723246230 26.1314855460 
Si 7.5871815994 6.6504903008 12.4431291183 
Si 6.7532313318 15.9907365562 19.1610704731 
Si 8.3965828368 8.2903394558 10.9370485624 
H 15.7413855240 11.8455179583 19.9386024952 
Si 5.5264965805 7.3225016770 13.4127728526 
Si 6.4302332088 15.4121320410 23.2027668952 
Si 5.0086048958 6.3353276679 19.1420768756 
Si 6.4766759992 8.0722978038 27.4439842968 
Si 12.3149143126 4.6562196126 27.3433417515 
Si 13.6305761747 13.4873219134 29.1498504488 
Si 14.8959833862 14.9043075763 1.1904487158 
Si 13.5681691841 13.5458193039 5.2744573456 
Si 14.9263153665 14.9342974666 6.6090074867 
Si 4.1172975377 7.1084673650 17.0766554543 
H 13.1607074104 12.0447120802 20.9875430291 
Si 11.8279084682 1.8674367471 14.6518845765 
Si 2.8697767462 9.9055744206 20.9378832981 
Si 5.5549389208 10.2859947941 27.2068289446 
Si 13.4105308526 14.0441304084 24.9369764342 
Si 12.4805999041 15.9263747657 25.9975601022 
Si 6.4418316889 9.9877737613 19.9915258319 
Si 10.0225529117 4.5525663416 17.7547210051 
Si 12.3923243933 12.5993214252 14.2234113620 
Si 1.3808479266 7.4605105582 23.5249524085 
Si 7.0454250644 1.3435536003 23.6035141617 
Si 15.0329497075 12.0072287898 27.8421442001 

