&CONTROL
  dt          = 30.D0,
  prefix = 'aSiHcSi_merged-2',
  pseudo_dir = './',
  outdir='./',
 wf_collect=.true.,
 verbosity ="high",
/

&SYSTEM
    ibrav= 0, nat=  398, ntyp= 2,
  ecutwfc     = 42.D0,
  nbnd=1478,
  degauss     = 0.05D0,
  occupations = "smearing",
  smearing    = "methfessel-paxton",
/
&ELECTRONS
  electron_maxstep=200,
  conv_thr    = 1.D-8,
  mixing_beta = 0.3D0,
  scf_must_converge=.false.,
/
&IONS
/
ATOMIC_SPECIES
Si  28.08  Si.pbe-hgh.UPF
H  1.00784  H.pbe-hgh.UPF

K_POINTS {automatic}
2 2 2 0 0 0

CELL_PARAMETERS angstrom
16.29000014898320 0.00000000000000 0.00000000000000
0.00000000000000 16.29000014898320 0.00000000000000
0.00000000000000 0.00000000000000 29.48377614791191

ATOMIC_POSITIONS angstrom
Si 0.1286664033 0.2704009705 29.2641514994 
Si 0.0582317006 2.8942443265 2.6634758859 
Si 2.7700167853 0.1164029654 2.6735092149 
Si 2.7731933354 2.9110230266 0.0393649689 
Si 1.4149266069 1.4963342537 1.3227630815 
Si 4.1365034478 4.2189634286 1.4110876297 
Si 1.4595025633 4.1982099684 4.0618324210 
Si 4.1255565677 1.4639024924 4.0849182177 
Si 0.0684478113 0.1429023973 5.4336830414 
Si 2.8084774757 2.8633421962 5.4857513901 
Si 1.4339875361 1.5068999478 6.8482556534 
Si 4.1587555880 4.2117306685 6.9246776012 
Si 0.0835712846 2.8420348760 8.2873882510 
Si 2.8278788659 0.1786915276 8.2331675866 
Si 1.3832751367 4.2623111190 9.7263439459 
Si 4.1667376881 1.4641973414 9.7181474561 
H 11.7510685375 4.0964137575 12.7043527557 
Si 5.6173784914 1.5351777590 16.3649994347 
H 12.8525494775 2.5002543829 11.5021812670 
Si 5.8083624531 10.9192033899 17.7632085509 
Si 10.2394868436 4.0055318466 15.8945268187 
Si 0.5135275937 2.0453561287 20.1932024135 
Si 11.1285136018 15.3405212003 19.6890888089 
Si 13.1041322398 13.2430533611 16.0505254783 
Si 1.4501195233 9.8037130497 11.4739947770 
H 8.1271136543 9.0686105029 11.6489220209 
Si 3.4758299118 9.3105332952 20.8463859903 
Si 15.6054617627 10.5382454464 27.4488059182 
Si 0.2113318009 6.1117311259 17.9750199988 
Si 0.2285861691 5.7341615024 0.0677495899 
Si 0.0795585688 8.2490443054 2.8379697183 
Si 2.8609638562 5.6135829213 2.7855269256 
Si 2.2980303210 8.8796465012 0.2030164374 
Si 1.5287823050 7.0368728144 1.4701495301 
Si 4.2537914489 6.9648710137 4.0916405187 
Si 0.0496085891 5.5013774003 5.4036095897 
Si 2.8177139058 8.2501357355 5.4254865516 
Si 1.4247445900 6.8489187926 6.7287579087 
Si 0.1826141597 8.3218768961 8.0672034107 
Si 2.7076586648 5.5615200809 8.2372658315 
Si 3.6188398231 7.4100115578 9.4020813758 
Si 6.5066170195 7.4966906486 20.6957533779 
H 15.6489723531 5.5573498408 26.9914830664 
H 7.2616259464 1.1852408628 16.0992621603 
H 1.4732594685 14.8368995557 15.9377500345 
H 6.2689784973 4.7924528838 28.6441076870 
Si 12.7606901667 2.1881868500 25.4408723112 
Si 4.9601258554 6.2610126873 21.9605778909 
Si 15.6085405728 12.6877435460 13.1448993389 
Si 8.4243898670 4.0624653972 14.3425892936 
Si 12.0784649605 12.4344666237 12.2438456560 
Si 14.9698748269 1.8109430266 28.2036790389 
Si 3.7004527238 9.9928725314 18.5951817463 
Si 1.4505512083 7.5131109687 12.3034618514 
Si 15.5907518926 8.0016317832 22.7034216310 
Si 15.7160219937 8.8570359810 15.4825794983 
Si 12.0344168001 4.6556168826 21.8194980220 
Si 4.1455281079 9.8349083999 1.2812499247 
Si 0.4950775395 10.4856613259 0.0661085229 
Si 2.8185609858 11.0351393209 2.7958138151 
Si 1.4932619597 12.2722182222 1.3120309870 
Si 1.4671670084 9.6413343282 4.1136648995 
Si 4.1727649882 12.4225912136 4.1080924658 
Si 4.2088310485 9.6572985283 6.6748320821 
Si 0.1128760174 11.0648848612 5.3846515217 
Si 1.4609393414 12.3580176530 6.8357545323 
Si 2.0131833784 9.2150738943 9.2819939556 
Si 2.9483271270 11.0233942308 8.1201267889 
Si 4.6940287029 11.9804317396 9.4330688245 
Si 11.9335002491 9.0701091830 15.9604525421 
Si 2.4693685426 6.6080548504 24.6757388364 
Si 3.0352831478 8.4361838272 27.5378469221 
H 11.1154653117 6.0144961150 12.2990392850 
Si 12.7945896570 5.9607716945 13.1796607110 
Si 4.2594929490 10.0067190315 14.2872777295 
Si 0.1924402878 2.9569119570 26.8300888757 
Si 0.1577279264 10.9678453303 19.7963507865 
Si 6.4346152188 5.1479984271 15.2876327705 
Si 1.4681769884 4.3424742097 28.1602199529 
Si 4.3705581700 1.7408797359 28.2502044377 
Si 4.5732383518 15.7423792140 16.9353925680 
Si 4.3514011298 4.1042003775 14.5201995611 
Si 0.0715438888 13.7293750256 2.5285021070 
Si 3.2166071394 13.2442914011 0.0111210150 
Si 4.1340436578 15.0451020476 1.2889098097 
Si 1.4065616919 15.0467636276 4.0359751493 
Si 2.7924644055 13.7481736857 5.4840413311 
Si 4.1830765583 15.0638518378 6.8851103736 
Si 0.0819800773 13.7020404053 8.1910057868 
Si 1.4595335143 15.0617667178 9.5336674688 
Si 9.3814436658 2.9143624767 19.3792732892 
Si 7.8670438019 14.4228077519 17.9170843787 
Si 5.1068173067 13.3774947323 20.5172585971 
Si 9.3515678055 9.7912837795 18.8316121472 
Si 4.0713271572 0.9000550882 20.8652556070 
Si 6.8127549923 7.1944622758 14.0848716063 
Si 9.4738079666 4.8382929442 17.9729266507 
Si 14.2407018402 13.9088908272 23.2295596163 
Si 12.9505664084 1.9104097675 19.1844150126 
Si 6.4280503488 1.1506767405 24.9314811107 
Si 2.5528547933 3.7909599647 16.1296304497 
Si 12.8658909877 8.2556091755 12.7560967828 
Si 7.0797643847 16.0755585870 19.3006105744 
Si 15.4082224409 13.7856243961 25.2684217045 
Si 12.2443949020 15.2215227492 23.5557386318 
H 12.1156550308 15.8193983347 12.5745062055 
H 12.4051120435 3.4639545017 28.0762796422 
Si 5.9894909648 4.1748989782 22.3872965831 
Si 15.5550605023 6.8711220628 26.2230474086 
Si 5.5442852607 0.0951339267 29.4432064719 
Si 5.5111188204 2.8260380958 2.7422919163 
Si 8.2897693058 0.1218690749 2.6788752622 
Si 8.2960083759 2.8472639660 0.1041075084 
Si 6.8867278830 1.4605386074 1.3596443371 
Si 6.8058480322 4.1536893980 4.2004946202 
Si 5.5004814503 0.0948703545 5.4343611683 
Si 8.2109094151 2.7650320453 5.4632552689 
Si 6.8465567426 1.3894262407 6.8333368627 
Si 5.5264965805 2.7480904451 8.2284501825 
Si 8.2637704656 0.1293515607 8.2602336932 
Si 7.3196020569 3.7112529939 9.4203318332 
Si 14.3034183408 12.4602536940 26.9411542605 
Si 9.2590080247 8.1731329047 23.9123449043 
Si 2.8098621257 2.9394653669 11.0883764688 
Si 5.6080117413 0.0582942542 11.0843077077 
Si 9.7017702287 2.1691275498 23.4267471112 
Si 2.8550668761 4.9834694256 26.4003038708 
H 1.0976918860 1.6965383555 26.8037008961 
Si 15.9980344763 1.0805531769 23.8667924702 
H 2.4216551321 14.1832632997 10.3333559292 
H 15.3185785701 12.6303375855 18.5153396805 
Si 11.0220584508 10.7631614784 10.9116507146 
Si 16.2138606883 4.6927417929 23.1075557506 
Si 11.6111700162 8.1011473941 23.7763952125 
Si 2.5254713031 6.2335151670 18.7543941375 
H 0.6391984288 13.8762782469 23.1075262668 
Si 5.7779001528 11.5620067957 27.1691817852 
Si 14.9318865466 7.8593060519 17.4614715858 
Si 11.2477889829 3.2540741398 26.9239062514 
Si 5.3562172090 5.6269407215 0.0034555575 
Si 5.5009701503 8.3605004865 2.6040071094 
Si 8.1052361841 5.5299337706 2.8396561902 
Si 8.5839178385 7.6648034501 0.0088434818 
Si 6.8252331324 6.8625372328 1.3614428474 
Si 5.5256495005 5.5840002811 5.5658293261 
Si 8.1890971049 8.2524000455 5.4387837347 
Si 6.9199594833 6.9139973432 6.9479108168 
Si 5.4253845496 8.3065317160 8.1674482496 
Si 8.3433634063 5.4642687800 8.2074282501 
Si 5.4032138594 3.2704781699 24.5035830674 
Si 10.9048030297 9.0045582224 27.1769065345 
Si 13.6679454350 3.5120262921 15.6592168012 
Si 7.7092425705 10.2716921739 26.6803112929 
Si 1.5578599552 1.3386307622 12.4054757169 
Si 5.5329474206 14.2729234605 15.1736484919 
Si 9.9886697114 13.6497006348 18.4939934265 
Si 2.7958527256 8.7446349800 15.6276986445 
H 15.8884190653 6.8456933726 28.7062889709 
Si 1.9176588175 13.8675142268 22.2834547235 
Si 5.2520263680 8.3884378367 12.8428675360 
H 7.4217729379 3.7665575444 28.8262584560 
H 0.4700626153 13.0889662497 25.1630761723 
Si 10.8307975591 1.2327245843 18.5654031324 
Si 13.8119164563 0.5047309936 26.7124486089 
H 1.7687682162 13.4000563826 14.9180241527 
Si 5.0477497662 11.6380322264 29.4459189793 
Si 8.1840634948 10.9853570805 2.5435122975 
Si 6.8115821123 12.4744911541 1.2896645944 
Si 6.8963226931 9.6473453382 3.9980884970 
Si 5.5824527311 11.0356280209 5.3691725392 
Si 6.9614989837 12.4151141035 6.7136032478 
Si 6.3103062277 10.1436690628 9.3003033805 
Si 8.1818317648 10.9608406302 8.1004905940 
Si 0.1309784430 0.0255233351 11.0177923087 
Si 10.5388318864 14.7293855547 21.9325093360 
Si 11.2843111632 14.7248895147 25.7102360901 
Si 0.6555112350 10.3233803444 25.5210092148 
Si 10.1830908631 12.3991499034 21.8172572551 
Si 10.7542019784 5.2401020879 25.6593765762 
Si 14.0114200881 8.0051015532 20.9237809027 
Si 14.3402337412 3.2284173895 17.8653403515 
H 6.9205459233 3.7674860745 27.1575062098 
Si 4.3109693494 6.4505631290 27.5435372909 
Si 3.1439700288 2.9309945668 25.2136703322 
Si 9.2391505145 13.0087542890 14.7624677497 
Si 15.0263033874 14.8978404463 12.3597463801 
Si 7.6108672596 1.1270334343 22.9124910876 
H 8.9743728521 12.9192081582 28.5087476707 
Si 5.5189054405 13.7871882361 2.7306694117 
Si 8.2015263750 13.8498884467 29.4361303657 
Si 6.9127104332 15.0967087681 4.0707954890 
Si 8.3265847062 13.7305967756 5.3455855183 
Si 5.6667697718 13.7363308556 8.2034184565 
Si 7.0375732844 15.0009235672 9.7234840196 
Si 16.1964466781 10.2902790641 23.2729302510 
Si 11.7682544876 2.5514864333 12.5653662349 
Si 11.1574935120 6.4716260992 18.7305712464 
Si 14.3776192915 15.2228422392 16.0844907884 
Si 12.3172112026 5.8341658134 23.9025562907 
H 2.5966911837 0.4393966900 23.6722290314 
Si 2.9050120166 11.1983162524 12.7902389956 
Si 6.0841847356 6.6625286109 26.0481496485 
Si 6.7322823916 11.8691058786 12.2666366150 
Si 7.1743929956 2.1033485292 19.3094262235 
Si 10.6085530870 8.8674127111 12.3131914975 
Si 9.8404958700 6.7409812517 11.6082049261 
Si 6.0654023655 10.4619919557 23.0698460009 
Si 14.6012809935 9.4831910067 19.1852110746 
Si 14.6890352243 6.2684572173 24.1118616175 
Si 13.9396463475 11.5975678661 23.1212362227 
Si 13.4854322733 14.8040100454 19.5541415655 
Si 9.5256427471 4.2463632088 1.5042652074 
Si 10.9348580800 0.2887288496 29.2607903489 
Si 10.9597980702 2.8439570960 2.7328865917 
Si 12.2965554825 1.5728141754 1.2444364818 
Si 9.6073208079 1.4621171084 4.0875422738 
Si 12.3343808628 4.1914821983 4.0692623326 
Si 9.6000228878 4.1876866283 6.6949989850 
Si 10.9906839105 0.0762855820 5.4052901650 
Si 12.2883616124 1.4570997883 6.8318921577 
H 4.3680657999 15.2333981593 23.9003450075 
Si 9.1162913334 2.0141770684 9.4902083827 
Si 10.9032554797 2.8726600763 8.1440381314 
Si 12.0077174898 4.6437414725 9.2340238518 
Si 8.0293247834 10.1399712327 24.3223462955 
Si 6.4471422290 4.1809914382 11.5682838932 
Si 7.0978951549 5.3028022985 17.5301687843 
H 1.0471668216 14.0709437487 19.1925820186 
Si 2.9088564566 6.9581921136 20.9876722456 
Si 13.6922338252 9.6148956579 14.4954626729 
Si 2.4485010524 16.0100727864 15.8969150046 
Si 8.2521231155 4.9747379855 22.4594433833 
Si 8.6008594387 7.2115179060 21.7921075940 
Si 5.7557946226 3.3733495209 17.9121605880 
Si 3.4696071317 4.0542878171 18.3011990143 
H 5.4463823598 2.7837818355 27.8902959822 
Si 9.6243112780 1.8008920965 27.9876219273 
Si 1.3727289906 15.8746865952 27.2742914472 
Si 10.3866344150 6.0277398851 0.2246522220 
Si 10.9264198599 8.3450412763 2.7109034882 
Si 12.2328452919 6.9802650638 1.3116565430 
Si 9.5677361075 6.9357444934 4.0579995301 
Si 10.9676335603 5.5794553710 5.3802584390 
Si 12.3649571931 7.0007415940 6.6628321852 
Si 10.2582692138 6.3142158277 9.3627500184 
Si 11.0011909606 8.2111863451 8.1160285440 
Si 1.1091193211 7.3680485174 14.6359233825 
Si 1.3027715849 1.7217389857 16.2064062028 
Si 6.1041725658 13.8733134669 26.2114308008 
Si 6.7247727015 9.6540893983 11.5147413557 
Si 9.5913566077 16.1983363181 25.0464678377 
Si 1.2557130325 6.5818931102 22.6353435918 
Si 1.7298676958 11.2197864726 18.0745277433 
Si 0.8332856356 3.0240756277 24.5169981856 
Si 4.7085268031 7.1828312157 24.1432618391 
Si 3.1847276091 0.1543612721 13.6681479142 
Si 9.8206383598 11.1234148317 27.3024484534 
Si 8.7024112996 0.5803540613 15.3450081988 
Si 4.1654670681 4.6405323424 12.1912171156 
Si 9.5182307971 9.5188335271 1.2310803312 
Si 10.9494376301 10.6868428277 29.2985590662 
Si 12.3207135527 12.3171949126 0.9652811408 
Si 12.3105485926 9.7391231991 3.9912482609 
Si 9.6157427379 12.3417439429 3.8976667554 
Si 9.5655206675 9.5726231075 6.7930915083 
Si 10.8988897597 11.0044815406 5.3950592946 
Si 12.2669565522 12.4104714535 6.7178783953 
Si 12.3550528730 9.6741586785 9.3483324519 
Si 9.5659604975 12.1196297908 9.5797506109 
H 15.6955780435 14.5502444231 16.4118491550 
Si 3.2505554997 0.8043888044 26.3831443131 
Si 5.4880033102 11.8028055779 15.5428738206 
Si 10.6875270077 1.6008036536 16.1766570726 
Si 9.9195512407 3.6622526735 21.5319722370 
Si 7.5176721688 11.3549608938 14.4515613302 
Si 10.7416260982 12.4393210438 25.5750529764 
Si 4.5058629112 12.6399812656 11.7619923025 
Si 3.9989669766 10.2901813241 26.3345845338 
Si 5.5077467904 12.7424942365 22.8049047885 
Si 13.8191980864 12.8579903376 18.2771402530 
Si 0.7646737840 5.3006194385 15.7769160356 
Si 2.7546553152 2.7397499651 20.1456745663 
H 13.8275222765 3.2351777396 25.3158021328 
Si 9.6745333485 15.1443895985 1.2257585096 
Si 11.0247463008 13.6648014650 2.4904975196 
Si 12.3443340529 15.0599748177 3.9091654281 
Si 9.6241483780 15.0496632476 6.8413859336 
Si 10.8928950396 13.6172020845 8.2417178817 
Si 12.1251521009 15.0956662081 9.6163399771 
Si 8.2234527152 13.3281686119 11.0754920586 
H 10.8536361393 5.4013730894 28.4196476992 
Si 8.3630580165 1.8515214169 13.4285627492 
H 14.7274959147 9.9734711412 11.2799915300 
Si 13.0188377991 5.9864447348 20.1243283124 
Si 12.6330905955 9.1765806239 25.6824328892 
Si 7.7010649904 7.9736781429 27.2677165651 
Si 7.4390566280 9.1929846541 17.5182573387 
Si 8.0585327537 0.5937330384 26.6412452895 
H 14.5813257434 1.5788593944 23.6662143411 
H 14.3234224610 3.7580704544 11.4533266500 
Si 5.7955748030 9.6698906984 20.9100414630 
Si 15.3649236205 3.5902834528 21.1958571890 
Si 12.6327322155 7.0956308449 16.9620164179 
H 0.9404624336 10.1645691330 20.8005387184 
Si 4.2317184987 9.4711526966 24.1228590660 
Si 1.1024339051 10.4623992057 15.9532290170 
Si 15.5898722326 3.9799891264 14.4276499878 
Si 6.9996012940 15.2011602490 27.9495288885 
Si 8.5586031783 15.3315779902 23.1111527713 
Si 13.7187865255 0.0960158673 2.4796828705 
Si 13.5653998841 3.0892193383 0.0033667229 
Si 15.0291704275 4.3760479000 1.3190245387 
Si 15.0000764872 1.4613172694 3.9918379364 
Si 13.6633027850 2.7995994256 5.4408770828 
Si 15.0397263475 4.1465055079 6.8203640012 
Si 13.6075746945 0.0878415452 8.2314280439 
Si 15.0264662874 1.4022546158 9.5946399178 
Si 3.2442512697 12.4488181139 23.5215374515 
Si 14.9369201566 4.9177229850 19.3242565629 
Si 8.0099233933 5.6876372620 12.6677928733 
Si 15.1368310384 14.7219247346 21.2379895051 
Si 2.4943085328 16.1500038877 22.2890566410 
Si 12.7858256369 10.9903906905 19.1709409269 
Si 6.3267754179 1.9000981974 12.3960409085 
Si 14.2425426103 0.1525120313 18.1109696906 
Si 1.2953123938 8.0888810240 26.0137125980 
Si 3.6880071637 6.9374875234 11.7238992637 
Si 7.9091534523 9.0723409130 15.1754764860 
Si 8.9589950919 4.1964180684 24.5920049121 
Si 8.9870301822 11.9106779589 19.8317018341 
Si 12.5817933851 1.6596740852 14.6131913911 
Si 12.3133667626 15.3426063203 27.7781691815 
Si 12.0623052803 1.3675894955 23.3188364905 
Si 13.5932720743 5.6114163513 2.6793027769 
Si 13.7561232058 8.2140696751 0.0560362753 
Si 14.9668285969 6.8953778731 4.0968001795 
Si 13.6935858952 8.3948560968 5.3538114918 
Si 13.7420160657 5.6852752120 8.0506630123 
Si 15.1194496083 7.0283531443 9.4756728811 
Si 14.7924930153 4.8588183444 12.3877264836 
Si 12.2109841117 11.1950419624 21.4806704665 
Si 3.8530411552 7.8485546518 17.6080059533 
H 12.6908712261 4.1024736375 10.4634088658 
Si 13.8469888266 8.5527713582 10.6950628950 
Si 9.8983090805 1.4653685924 11.6871329948 
Si 10.1219382026 8.9923407222 14.5557569951 
Si 14.2611457904 8.5277336280 27.2652694117 
Si 4.8073582340 15.5049524618 19.3883542922 
Si 14.4856219925 0.2213615540 14.1120261641 
Si 0.5477137880 13.2825403215 20.3917756459 
Si 13.5282749737 13.7674773359 10.8929874843 
Si 6.9124660832 4.4523665507 25.8328591151 
Si 4.7322939133 14.8480093358 12.8009710901 
Si 6.1057526958 2.0687485689 21.3605535625 
Si 13.5838727442 11.9484055993 14.0989353675 
Si 15.0848985180 9.5638590875 1.4076881503 
Si 13.6460028048 11.0577824211 2.5272814787 
Si 15.0225892674 12.3768326032 3.9423641601 
Si 15.0725506978 9.7079278488 6.7509002246 
Si 13.6659743450 11.0775584813 8.0414051066 
Si 14.9221939965 12.4124751235 9.5206061559 
Si 9.1383317036 12.1081779207 23.8973376623 
H 14.0634340586 2.3228074112 10.3458570503 
Si 0.0629865888 1.7856609463 14.2012440707 
H 4.3363491697 13.3555032321 18.0666260913 
H 0.6248078427 13.0330589692 27.8300901113 
Si 12.2089152817 5.3241421987 15.4073663854 
Si 2.0004771783 13.5776173842 27.4809727180 
H 2.8843562964 3.7090864239 21.3163573821 
Si 16.0700851470 1.6163573458 18.0246411940 
Si 4.8219540741 1.8323643768 14.1860304422 
Si 9.6179744680 7.3148453769 26.1194709030 
Si 7.8276871616 14.6976200544 15.5941461073 
H 3.8591173253 12.5492622548 20.2306762930 
Si 10.9531028802 15.6651157433 11.6414331418 
H 4.0447092970 13.0242460791 17.4260026031 
Si 2.4695803126 10.3624600548 22.7226155692 
Si 10.2339482436 8.0662867938 20.2371037562 
Si 0.2666624154 0.2989459377 21.7215234339 
Si 2.4302399622 11.9543840293 25.7359459429 
Si 13.5829767942 13.7026594253 28.9382083541 
Si 15.0427562876 15.0008421172 0.9691788960 
Si 13.6700794250 13.7341642856 5.3413103707 
Si 14.9905468371 15.0552181377 6.8092486176 
Si 6.1947286767 7.3400297171 18.3073021560 
Si 10.0481607919 13.6959479453 12.5981521940 
Si 6.8256566724 12.6011133252 19.0786861913 
Si 1.3136826270 12.1131626608 14.2701476556 
Si 11.9792425696 8.8894042113 21.6390867958 
Si 0.1606213563 5.8978922939 11.0526421321 
Si 15.8413572549 11.2044738725 11.3141337428 
Si 10.8415000892 12.7142473763 16.5217057049 
Si 12.8732051977 11.4500456247 25.2757336810 
Si 13.1908764906 2.6097068939 21.5002182101 
Si 4.8390422843 15.6967346336 25.2680089316 
Si 11.1460905119 10.5700435267 17.5269550527 
Si 15.8274618848 15.9726383661 25.7710906040 
Si 7.2883415467 13.6142698845 24.1051688004 

