&CONTROL
  dt          = 30.D0,
  prefix = 'aSiHcSi_merged-11',
  pseudo_dir = './',
  outdir='./',
 wf_collect=.true.,
 verbosity ="high",
/

&SYSTEM
    ibrav= 0, nat=  398, ntyp= 2,
  ecutwfc     = 42.D0,
  nbnd=1478,
  degauss     = 0.05D0,
  occupations = "smearing",
  smearing    = "methfessel-paxton",
/
&ELECTRONS
  electron_maxstep=200,
  conv_thr    = 1.D-8,
  mixing_beta = 0.3D0,
  scf_must_converge=.false.,
/
&IONS
/
ATOMIC_SPECIES
Si  28.08  Si.pbe-hgh.UPF
H  1.00784  H.pbe-hgh.UPF

K_POINTS {automatic}
2 2 2 0 0 0

CELL_PARAMETERS angstrom
16.29000014898320 0.00000000000000 0.00000000000000
0.00000000000000 16.29000014898320 0.00000000000000
0.00000000000000 0.00000000000000 29.34461067663915

ATOMIC_POSITIONS angstrom
Si 0.3057437548 0.1150114736 29.1588886357 
Si 0.0702805992 2.7057364447 2.6210841013 
Si 2.7590047452 16.2427754386 2.8481937812 
Si 3.4052453411 2.3461835615 0.2072495408 
Si 1.5727555314 1.3511724334 1.3640636861 
Si 4.2662858790 4.1228361377 1.4573061865 
Si 1.4340543251 4.0053852366 4.0467098461 
Si 4.1684318481 1.3306600652 4.1938730687 
Si 0.0264606617 0.0313300686 5.5162879488 
Si 2.7585649152 2.6975099947 5.5358314595 
Si 1.3887127387 1.3576672564 6.9343369152 
Si 4.1096738176 4.0171629067 6.9706361986 
Si 16.2447953986 2.7957712756 8.1632598657 
Si 2.7526353552 16.2469293886 8.3076060056 
Si 0.8853061221 4.5419778415 9.4650454845 
Si 4.0902724274 1.2571514395 9.7493067282 
Si 14.4238828919 11.3365043237 14.8449690275 
Si 9.4580229565 4.3411058497 25.5806654990 
Si 4.6253337723 6.0442579453 18.1111415743 
H 8.0779830139 8.0511370936 23.8293204446 
Si 0.6996017494 9.4777175667 11.2100227584 
Si 6.9616618837 5.8803642538 18.2461561280 
H 5.5474455207 5.1527876871 9.9335028494 
Si 0.5205257778 6.3956984085 15.3046816984 
Si 0.2962515717 8.1668612547 26.6402113567 
Si 10.4686056957 6.2559790772 14.7890968888 
Si 3.1356621287 1.2875355478 26.2234005066 
Si 3.4979517320 5.3159157486 26.2967326887 
Si 9.2406491945 16.2211260284 20.2388312606 
Si 13.6026551144 7.1087442950 24.8593456239 
Si 12.6812438360 15.9947927663 22.4624191346 
Si 14.7752581951 9.0953586832 25.3925371999 
Si 8.9587507419 5.9853370147 21.6552369288 
H 9.6387767982 8.9357166817 22.0506555576 
H 13.5416001938 14.2808241106 26.4805473300 
Si 0.0834922781 5.4207907696 0.0757334516 
Si 0.0678856434 8.1338740044 2.7037713453 
Si 2.7981659056 5.4172069695 2.7401439902 
Si 2.8724971763 8.1509785045 29.2037272008 
Si 1.5178354249 6.7963835422 1.3216489858 
Si 4.1962714584 6.7775197220 4.0544568234 
Si 0.0566040038 5.4008518094 5.3201485711 
Si 2.8287096559 8.1278955743 5.4200669704 
Si 1.4658019064 6.6981874213 6.6606690760 
Si 0.1685754375 8.0199580333 8.0707949974 
Si 2.6994973747 5.4427822698 8.2403481579 
Si 3.6768322236 7.2382172162 9.4480549549 
Si 13.4883644734 3.9650511963 13.2277581885 
Si 1.6290814649 11.1108063716 14.5435998759 
Si 14.9297525565 12.0442559602 27.9185212870 
Si 6.9169132533 2.5074219829 13.2276701547 
H 5.0719567064 0.2515355213 10.3295377151 
Si 8.3756013166 1.5241315099 16.9198384147 
Si 2.5924232037 1.8052415265 11.5618939850 
Si 11.8370797383 16.2386214885 16.9860398563 
H 0.4867354305 13.5668496941 16.2800085235 
Si 2.3800504718 14.9600030868 15.4749391295 
Si 13.6675544750 10.6144011971 12.7716255602 
Si 9.3096210551 12.5221068245 25.4917513286 
Si 4.1294824578 9.5414766273 1.2917820411 
Si 16.2514580086 10.8232552890 0.0964941767 
Si 2.7353516650 10.7538761784 2.8114367219 
Si 1.3589346184 12.1130323408 1.5141056149 
Si 1.3449415083 9.4725862166 4.1986562402 
Si 4.0657885572 12.2589418721 4.0752328077 
Si 4.1503173680 9.5464124973 6.7719438397 
Si 0.0137181186 10.8862812996 5.6038229225 
Si 1.3663970675 12.2360381319 7.0368376403 
Si 1.9206887576 8.9653156120 9.3165324099 
Si 2.8390049360 10.8331433191 8.2453660864 
Si 4.2205435586 12.0243821600 9.7588437266 
Si 14.8926765162 16.2071329182 23.1008991737 
Si 14.2844893606 5.0774627264 18.7103585243 
Si 9.0648475129 3.1106243984 18.8966674575 
Si 7.3740921074 7.5222659488 22.5930613414 
Si 2.2043465302 15.0835464479 17.9063455364 
H 7.2712859165 14.2835934106 26.8039836289 
Si 13.8924379271 0.7445996168 25.1001181545 
Si 15.5396990321 11.2733968631 11.4751806605 
Si 1.5664056893 6.5217015596 25.3152434954 
Si 8.0141262133 3.1602274489 15.2429993268 
Si 1.3811606946 3.8467532152 11.6461423623 
Si 14.2930253207 5.4829534101 26.3968858449 
Si 10.0512070219 2.1281093295 24.9307117171 
Si 13.9983880880 8.2076351251 12.9818503511 
Si 8.3272851762 7.5379369289 27.0392687173 
Si 10.8700401694 6.2803814974 11.3093836102 
Si 7.3885902076 5.1508003071 26.2654806783 
H 9.7921634396 6.1370294961 12.3799043523 
Si 0.0730604878 13.6258520746 2.7762231891 
Si 3.1319317186 13.0616316295 0.2798258057 
Si 4.0754648173 14.9725626769 1.3634562526 
Si 1.4177578090 14.9150915564 4.2422329871 
Si 2.7691697053 13.5364362638 5.6190821200 
Si 4.1721133882 14.8638269259 7.0198177661 
Si 0.0832107869 13.6665770750 8.4937095265 
Si 1.6064041557 14.9345418166 9.9036006911 
Si 4.0080893767 8.0571643937 16.9975722883 
Si 2.8923872665 1.9924950782 23.9650392690 
Si 6.4112716486 14.7163209746 18.0891037717 
Si 13.5569127940 6.7006146313 17.1515434606 
Si 10.4041461652 11.2768340531 15.8389296804 
Si 0.9820736100 9.4412605463 22.3288131222 
Si 6.6236932506 1.2328190663 23.7019354896 
Si 4.3117512694 9.1655360038 20.9611195078 
Si 0.9282090955 9.9427319109 16.4823689587 
Si 10.4004646251 11.2995097333 10.9985654939 
Si 15.7951262345 7.4778431184 11.6378084929 
H 3.0391275878 12.4623388140 16.8999134240 
Si 10.7232998481 15.6538267732 27.3628517392 
Si 11.7599140076 0.4875271245 13.4079047535 
Si 15.7335174539 13.4269674628 20.2902723631 
Si 4.9525672953 0.4706620873 0.0081187441 
Si 5.5819314511 2.7133112948 2.8284624650 
Si 8.0719557138 16.2237487184 2.7275140698 
Si 8.5502138282 2.2884029309 0.0138590195 
Si 6.7929300621 1.3200845971 1.3137053997 
Si 6.8628793228 3.9991298766 4.3124546404 
Si 5.5025339903 16.2810406489 5.6640674082 
Si 8.2464379054 2.6147079239 5.6264476173 
Si 6.9159847233 1.2715908956 7.0857551063 
Si 5.4718110500 2.6488028942 8.3731031766 
Si 8.3470123663 16.1062652373 8.3567875731 
Si 6.6994743313 4.2281672787 9.5835977117 
Si 10.1142167425 3.9009174657 14.3525664604 
Si 0.4845151034 9.4813013667 19.9987043115 
Si 13.5880266943 13.4363179229 15.4434817069 
H 14.6360438539 3.7962216347 15.5466280134 
H 12.8290430073 14.4973507926 28.5662155338 
Si 14.9679363169 15.2791078997 19.1391419755 
Si 3.0792661482 10.4681984457 22.6004855279 
Si 6.2225194169 10.9182911499 17.8638545401 
Si 1.6879046554 7.7571188809 16.8222675842 
Si 9.3850111758 14.5873530434 24.1974779301 
Si 10.7264112381 15.3905152108 15.0509388499 
Si 15.9275476457 1.3394827293 25.9574503001 
Si 1.7936756264 10.7879222787 18.4955559742 
Si 6.9703281637 14.2235484701 15.8120793616 
Si 4.2103948885 15.9519500659 14.3825566525 
Si 13.7277623155 15.7158102237 12.4309052856 
Si 7.3786207275 2.9905019374 27.3693075536 
Si 5.4664353500 5.5760833410 0.0014128931 
Si 5.5369384706 8.1665354547 2.6488529064 
Si 8.1609642746 5.3212914487 2.8710326917 
Si 8.6829936194 7.5725694693 0.0649604581 
Si 6.9424396835 6.7291872915 1.4092309108 
Si 5.4415605198 5.3995974794 5.5573117146 
Si 8.1670567347 8.1060669741 5.5030535294 
Si 6.8287843525 6.7514883017 6.8969518812 
Si 5.4377975297 8.1658512747 8.1809253213 
Si 8.2113003751 5.4216215596 8.2741238048 
Si 3.7498277143 10.1361593727 24.8456123461 
Si 10.1829931231 9.4867585168 23.3765037572 
Si 12.7430969665 3.8985879957 27.1241920206 
Si 8.3567700764 12.7063955962 21.0663492817 
Si 5.4185590396 1.7308288058 19.6439573130 
Si 16.1040497973 12.2719250022 13.4878394730 
Si 8.2105673251 7.7442823608 17.7043665811 
Si 15.0921312780 14.3962224717 13.8887455440 
Si 10.8881057796 6.7389450016 20.4354108075 
Si 5.3919085993 12.7978802370 14.6758560362 
Si 11.2025027825 15.4702221815 19.0966216346 
Si 16.1818019680 5.7381851325 22.1297392834 
Si 15.1695902287 6.8673916528 28.0582016338 
Si 0.0917012978 4.6644786427 25.5951323920 
Si 5.0057704358 11.3890721542 0.0412740753 
Si 8.1095367442 10.7516607383 2.7315430848 
Si 6.7717041919 12.2200902218 1.4475901859 
Si 6.8041212922 9.4530707965 4.1416103171 
Si 5.4519861199 10.8935466396 5.3902235014 
Si 6.7838891120 12.1693305813 6.8237370775 
Si 6.7558703118 9.4473367164 9.6518239315 
Si 8.0912430740 10.8227502990 8.2286690029 
Si 5.4506829199 10.6161605171 11.2074697773 
Si 7.0970643649 11.3648000539 22.5175576581 
Si 12.0428061501 8.9911515522 27.9647977380 
Si 11.0463794210 3.9114245158 17.9422339952 
Si 8.0923833740 8.1111494542 11.0431986467 
Si 1.2909678508 4.1386048579 15.5224773988 
Si 8.3850820967 14.8381050157 22.0034107344 
Si 0.6465973469 15.8414712849 14.0885529981 
Si 11.3640181339 5.9495804644 16.8820132115 
H 7.8653822219 13.6772796051 12.6446807744 
Si 9.9754096512 1.0524480396 11.8987994602 
Si 9.8879323504 3.3932721910 12.0752486042 
Si 1.9408231978 3.2047805993 17.6135156664 
H 13.6044470144 5.3386402988 13.8604573393 
H 2.3377779214 13.5531660940 28.4321986969 
Si 11.5715853158 11.5425402456 25.8292730406 
Si 0.6237815727 0.2990387907 18.8363055933 
Si 14.6451988339 7.3618746073 15.1620962351 
Si 5.4759161301 13.6788597351 2.7678159581 
Si 8.6089718587 13.0940487298 0.1867875438 
Si 6.7873751721 14.9463194867 4.2128590318 
Si 8.1579994946 13.4976334834 5.4247914527 
Si 5.5637843909 13.4471996430 8.3921771736 
Si 7.4331270680 14.3036789808 9.6382080321 
Si 6.9729508538 1.0025664302 26.0462177474 
Si 7.5039559886 12.7650070167 18.8032635617 
Si 14.9703309469 9.5144352270 16.1420595087 
Si 1.4827272166 13.0617619495 19.0546588414 
Si 16.2882245390 12.6211500254 26.0209520376 
Si 7.8640301519 12.9735190187 27.3040157948 
Si 13.9576956677 12.1994345016 19.2893276930 
Si 10.8540108093 5.2776994083 27.2804227278 
Si 1.8647814771 14.5168825028 23.3051376641 
Si 12.5995006152 15.3246710302 25.9564525833 
Si 15.5449607022 1.9952969582 28.1879928468 
Si 5.3914036093 4.8765255746 24.8571447781 
Si 5.5654459709 13.0564025394 23.3455745376 
Si 6.6641901909 9.3590123356 21.2550351284 
Si 9.4654349066 4.0146053767 1.3931441953 
Si 10.3569540347 0.5287424538 0.0495759591 
Si 10.9366499800 2.7437735951 2.7032578146 
Si 12.2474737120 1.4365760171 1.2016852829 
Si 9.4905052168 1.3656509855 4.0010789765 
Si 12.2086057717 4.0901746874 4.1566934470 
Si 9.5980843778 3.9888020165 6.9988657140 
Si 10.8856948596 16.2865955390 5.3018081894 
Si 12.2495914120 1.3326474452 6.6447936416 
Si 10.2330197136 0.6602255610 9.5680157234 
Si 11.0215534608 2.5320850432 8.2424609699 
Si 12.8248564773 3.5506010125 9.3601091567 
Si 6.8636775328 6.4003899285 12.2328878528 
Si 0.5494519310 2.7349769950 24.2196037666 
Si 8.6811202694 2.2763972008 22.9833446634 
Si 5.5579362808 3.6896035837 20.9960689391 
H 15.0259775874 4.1771795782 16.0981306265 
Si 1.2802636917 7.0915257649 13.2166365811 
Si 1.5543820402 7.2064680059 22.9742478341 
Si 4.6074473521 16.2476787286 20.9847712640 
Si 4.2629952990 14.8977752863 19.1048087810 
Si 12.1254779009 2.5878457137 14.5828042758 
H 8.0463967036 13.1541099603 15.9159592834 
Si 5.0449315961 3.0083231975 23.3373873912 
Si 13.1046860999 16.1731519779 20.2174096948 
Si 2.1507198497 9.3318243253 13.0485506511 
Si 12.3543686930 4.1745243082 23.2899958449 
Si 10.3466587546 5.8174522732 0.1734251819 
Si 10.9217934999 8.1763746148 2.7910539553 
Si 12.1702428213 6.7314841816 1.4075465302 
Si 9.5710429775 6.7480185317 4.1650566610 
Si 10.9223473599 5.4254659996 5.6312601335 
Si 12.2999438025 6.8243371824 6.9982201326 
Si 9.4979497469 6.9166689033 9.5643769917 
Si 10.8696817894 8.2797835357 8.2497971226 
Si 1.0496477886 7.4354239580 19.0436546124 
H 4.3063755694 1.1959450219 16.6147131528 
H 5.3308210988 15.8720313252 15.4060379837 
H 10.7740920685 11.1233985417 28.1394862054 
Si 13.5308650837 8.9785268021 17.8939034215 
H 4.2776400091 11.8189000981 19.8381892911 
Si 7.9293856325 0.4129938578 12.9010059487 
Si 14.3698815414 2.7856226055 18.1592080466 
Si 9.8773438503 10.4857753559 19.1039871319 
H 10.7373744082 8.9258612316 12.6868783245 
Si 11.7675214376 10.9540965702 22.4608932149 
Si 4.0472016670 14.1255804092 26.4619721914 
Si 0.0505573187 1.8722748771 17.2217064247 
H 2.1469405696 12.7685093668 11.9380332047 
Si 11.4103468944 13.1289093301 14.5901110838 
H 0.1948772718 12.8662656577 16.4659359767 
Si 11.2738041131 7.5270389188 24.2435489689 
Si 8.7228063798 7.8298374416 15.3389562037 
Si 15.0418277576 12.4310783037 24.0005169033 
Si 9.5177746770 9.4461312564 1.3323128173 
Si 10.3652619348 11.3797542741 0.2381793474 
Si 12.2544458321 12.2714200122 1.3787976151 
Si 12.2608152221 9.4977053969 4.1991257540 
Si 9.5332990472 12.1995811116 4.0021353825 
Si 9.4965488069 9.5335271072 6.8335088329 
Si 10.8616833993 10.8888388296 5.4685736119 
Si 12.2687321622 12.1615765412 6.8770562351 
Si 11.8765992786 9.7505913592 9.8275101156 
Si 9.1570814937 12.5585475549 9.4183288643 
Si 4.4193955904 8.9706261520 12.6631385345 
Si 13.5289265737 9.5685017375 21.8686602822 
Si 2.8901066664 5.4525888499 12.6761968863 
Si 3.4125269712 4.0782992773 14.5349138711 
Si 3.4536429316 1.8283081667 13.7663785175 
Si 6.1800513865 15.3878436507 22.5942644704 
Si 12.4030595034 2.2585107807 16.9084527057 
Si 15.2794988597 10.1685764730 23.3549941576 
Si 9.2533553946 9.7369403391 12.3679904403 
H 11.5726604558 6.9569377836 14.0119048750 
Si 3.3666054608 12.8273651373 22.5335798155 
Si 13.9543236376 5.8928098139 22.8995364553 
Si 11.7001622870 14.5226328728 23.9384530517 
Si 9.5269459471 14.9762767970 1.3644510349 
Si 10.9477108901 13.6658928950 2.7591182155 
Si 12.3792598132 14.9609804868 4.0663413907 
Si 9.5210652571 14.9306485066 6.6665379981 
Si 10.7937378087 13.5580693840 8.0332925850 
Si 11.8755567186 15.1863852189 9.2998353264 
Si 9.6735233685 12.4631533140 17.7449208330 
Si 8.4278759271 16.0001684663 15.1344536119 
Si 15.1617058687 1.0776095739 11.5042024804 
H 0.9138983304 11.4029023643 25.9644636620 
Si 4.6938658029 4.3169803595 16.4969825748 
Si 12.6720725659 12.4371218937 23.9910092494 
Si 11.3133725235 9.6041605478 17.4620681307 
Si 4.5533156816 6.8100508523 11.6337589366 
Si 0.6679388761 3.8397648051 27.7640219118 
Si 5.2553821081 8.6650583292 14.9413660736 
Si 9.8542120501 2.0881173791 20.9079470733 
H 1.9520307179 1.5869929915 14.4990841015 
H 4.2817776692 13.5888900643 27.8697211994 
Si 1.2673001096 16.2402016185 26.9063963201 
Si 15.7027293536 1.8940871873 22.1334953936 
H 2.4204496721 9.9015345006 25.5218002100 
Si 12.0489149002 8.2632654756 11.7190050306 
Si 13.6678639850 16.2869864990 2.5372377452 
Si 13.5885479743 2.8672029262 29.1477083390 
Si 14.8970259462 4.1227546877 1.3624497325 
Si 15.0069997372 1.3258626601 3.9890770308 
Si 13.6462471548 2.6981453047 5.3527504335 
Si 14.9742731269 4.1035976475 6.6935643846 
Si 13.5435387039 0.0266810654 8.0880496285 
Si 14.4797413024 1.7836572763 9.3704678043 
Si 3.1676882690 13.5843614442 11.1493674481 
Si 0.0436560601 5.4848104702 19.8184697127 
Si 3.1538580588 12.7175053763 15.4212678366 
Si 8.3702744866 10.6357248073 24.3991047501 
Si 12.1511672311 4.8370874842 19.7849581673 
H 8.2313696553 3.7174757740 23.0421806078 
H 14.5944229035 12.2429288020 17.9006820265 
Si 6.4293698388 10.7082315979 15.4082094849 
Si 7.6552575100 4.6200558123 20.1278792877 
H 5.3802286692 2.4143083421 13.2173115071 
Si 13.9609210877 2.0554396388 20.4003146532 
Si 4.8548435844 14.2610317604 12.8064576131 
H 2.2381971505 10.7695145785 27.4829592307 
H 0.4241313309 4.4260582005 22.6818874779 
Si 13.9717865178 15.2202195492 16.9716903417 
Si 8.6847040694 10.1092482925 14.6683438159 
Si 12.5246317745 7.4775987684 21.9714837980 
Si 13.5488818239 5.4266388796 2.7845335828 
Si 13.5927345043 8.0023485432 0.0443314902 
Si 14.9501313467 6.8267643924 4.0826863388 
Si 13.6469639148 8.1628539147 5.5802298555 
Si 13.7666302559 5.4214586596 8.2554312878 
Si 15.5949872926 6.3595671882 9.5136108152 
Si 5.0038319258 0.0211642940 26.9656724337 
Si 3.4903605919 13.0382228992 20.2530633968 
Si 0.9761049539 0.0623020830 11.7227317962 
Si 6.7761187820 6.8583832827 14.5640824141 
Si 10.4281739154 7.5621764492 18.2628238669 
Si 12.0123764299 12.3703003131 12.3600967401 
Si 5.0966523466 8.2942327659 25.5253509079 
Si 4.0859881574 9.8623570502 18.6098532327 
Si 7.3575903373 0.5032469746 18.7913789944 
H 11.9892609196 1.0241523094 22.7652555168 
Si 7.7034270405 9.5505501573 19.0936284844 
Si 3.6782983236 6.9884100639 21.8547509368 
Si 14.4443920021 9.9511701310 19.7924703876 
Si 9.1431046736 0.0896943698 25.7744279633 
Si 10.5598296966 11.9573650994 20.7626619058 
Si 14.8854111761 9.4567034665 1.4080688642 
Si 13.5708896141 10.8606082593 2.7823121958 
Si 14.9798931770 12.2328127119 4.1365923886 
Si 14.9468081867 9.5333479172 7.0272712972 
Si 13.5386679938 10.9046889997 8.4625162054 
Si 14.6818187543 12.5772810550 9.7560266440 
Si 11.9941153397 4.2502239389 11.4133222212 
Si 7.1251320352 9.3963978859 26.0944896319 
Si 12.3961362534 2.6252638440 25.0982400995 
Si 10.7093067379 7.5488675190 26.5883007404 
Si 1.7480799160 14.2772728906 25.7409751071 
Si 12.0284220800 3.0587081680 21.2692379199 
Si 13.0772048696 13.9896729379 10.9392013465 
Si 11.6407037865 13.1426906702 19.0633155015 
Si 7.6519995100 4.1674544481 11.7144566159 
H 10.4747633158 14.2145075200 27.7388148912 
Si 4.3568908598 7.0013769040 27.6899561144 
H 11.0671165912 10.1523027628 25.4958595741 
Si 4.9050819449 12.1706500713 25.4656052805 
Si 6.8646875128 4.9996128157 16.0622715122 
Si 13.7189657155 13.5301483237 29.3232771447 
Si 15.1606470187 14.9671706869 1.1940292740 
Si 13.6542292549 13.5839216142 5.5517655831 
Si 15.0500216276 14.9320983166 6.9448422858 
Si 10.3203178244 5.4276651496 23.6066535388 
Si 5.3449608189 6.8385094825 23.5935071532 
Si 7.0091472341 14.7380681248 11.9455747696 
Si 3.8221390250 5.1729384173 20.2450229735 
Si 4.1612153781 2.3125610011 17.6383705517 
Si 2.8830856764 3.2704455899 27.4452807506 
Si 1.8033844665 3.8827866955 19.8342571132 
H 14.9407157266 16.2013988382 16.3053329225 
Si 15.9364908558 14.0912736689 22.5850502627 
Si 0.2334959751 1.8841828672 14.7967851768 
Si 6.2042909067 11.3019369434 27.2503151573 
Si 13.4531454930 10.4906623559 26.8706545843 
Si 15.6377974130 2.9836601373 12.8292583756 
Si 1.4558307973 9.6293774681 28.0812078086 
Si 1.2736955636 1.6179944908 20.7466397484 
Si 2.6449747442 0.3472620782 22.2751418293 
H 6.2276670570 4.5253294614 28.5233724022 

