&CONTROL
  dt          = 30.D0,
  prefix = 'aSiHcSi_merged-9',
  pseudo_dir = './',
  outdir='./',
 wf_collect=.true.,
 verbosity ="high",
/

&SYSTEM
    ibrav= 0, nat=  398, ntyp= 2,
  ecutwfc     = 42.D0,
  nbnd=1478,
  degauss     = 0.05D0,
  occupations = "smearing",
  smearing    = "methfessel-paxton",
/
&ELECTRONS
  electron_maxstep=200,
  conv_thr    = 1.D-8,
  mixing_beta = 0.3D0,
  scf_must_converge=.false.,
/
&IONS
/
ATOMIC_SPECIES
Si  28.08  Si.pbe-hgh.UPF
H  1.00784  H.pbe-hgh.UPF

K_POINTS {automatic}
2 2 2 0 0 0

CELL_PARAMETERS angstrom
16.29000014898320 0.00000000000000 0.00000000000000
0.00000000000000 16.29000014898320 0.00000000000000
0.00000000000000 0.00000000000000 29.49423432800756

ATOMIC_POSITIONS angstrom
Si 16.1341862976 0.4487145701 0.2493651979 
Si 0.2278547481 2.7646899553 2.8671581144 
Si 2.9068527866 16.1714252379 2.6557463922 
Si 2.9524810770 2.6990086747 0.0060943641 
Si 1.5746239944 1.4157085269 1.4743400890 
Si 4.1873445383 4.0769309173 1.4547706646 
Si 1.5233235259 4.1186170277 4.2489983858 
Si 4.2019729584 1.2934390438 4.0978404348 
Si 0.1631443515 16.2813175789 5.4993474616 
Si 2.8923058165 2.6865794046 5.5244175608 
Si 1.4765598225 1.3765799466 6.8781439280 
Si 4.2388698088 3.9768288664 7.0038778489 
H 2.4848114627 6.2154821368 12.9928296004 
Si 0.1407017812 2.7169928348 8.3217982156 
Si 2.8219981758 16.2582020687 8.1762441692 
Si 1.4730981975 4.0596960971 9.7190875669 
Si 4.0746828973 1.2302077793 9.6946958351 
Si 14.8181986355 7.3866354076 21.8761390492 
Si 4.8541919844 4.4511285107 16.8751851592 
Si 8.6046875887 10.0700871321 19.2912053642 
Si 15.2343755593 14.6046204436 12.1903799670 
Si 8.4174829070 0.0844649540 26.7858967666 
Si 14.4660902823 9.7187606989 22.4981134627 
Si 7.3644484274 1.1767521438 12.7245795392 
Si 4.7970792439 12.6326833455 13.2588970883 
Si 10.6482029474 7.6364262698 13.5911496380 
Si 9.5163737370 12.6492176957 22.0799147142 
Si 14.1194716591 16.2607595987 17.4968646304 
Si 6.4986837894 5.9356525143 22.5466019839 
Si 7.4996065586 8.1817503148 16.1551719108 
Si 2.4294254622 13.4429316629 13.1188879579 
Si 3.2759190300 13.7396051457 10.8472420300 
Si 0.2017663128 5.3906542693 29.4577499601 
Si 0.0974813157 8.1413348245 2.6487798540 
Si 2.8436475860 5.4552929899 2.8171270447 
Si 2.9600070571 8.1660630447 0.0064036997 
Si 1.5394848351 6.7925879721 1.3286208749 
Si 4.2018426384 6.7260270315 4.2922664275 
Si 0.0779917966 5.4423913098 5.5450930191 
Si 2.8071091157 8.1251425643 5.5564482993 
Si 1.4699118734 6.7436365217 6.9415860260 
Si 0.0210053036 8.1253869143 8.1724689072 
Si 2.8599050062 5.3882596393 8.3392882966 
Si 4.1222985677 6.7283076315 9.8282457282 
Si 12.8970048880 12.5809300151 25.8355630423 
Si 6.2584225772 3.5617433726 22.0145259967 
Si 9.9586472411 3.7686426645 12.3469943513 
Si 5.7110459922 7.9803896230 26.5155821090 
Si 1.4879872576 8.4256116171 20.4485591192 
Si 10.8381443491 15.6352235930 19.6972524882 
Si 2.8406502260 5.0041088558 17.9704830452 
Si 0.7915767192 4.8478225943 19.9690418575 
Si 13.3521149121 2.6410162742 19.4803518890 
Si 15.9022818554 11.1436633019 23.9954177626 
Si 0.1411922731 8.0264903234 26.6306981056 
Si 2.7415581551 2.6247588540 11.0722535437 
Si 14.3140068409 12.9284282982 23.8989716163 
Si 6.7421215517 13.8976833071 13.3502112378 
H 5.7965684930 9.0287162926 23.2533723211 
H 12.2579807621 13.2650122813 19.4200066855 
Si 1.5817182895 4.0000746966 28.0836725713 
Si 3.1413636287 9.3309772453 12.5983147220 
Si 4.2634025490 9.4733029766 1.5119983274 
Si 15.8646356651 11.3619004339 0.2441783419 
Si 2.8245719958 10.8397244791 2.7557406948 
Si 1.4952102437 12.2027413716 1.3476682515 
Si 1.4736911535 9.4465547964 4.0891101415 
Si 4.2092382985 12.2011938216 4.1132069309 
Si 4.2071043085 9.4558238065 6.9206746139 
Si 0.1661970975 10.8567638193 5.4355514328 
Si 1.4812562295 12.1813851814 6.8980525362 
Si 1.4105902089 9.4131114261 9.5134537652 
Si 2.8556858961 10.8213004890 8.2577367387 
Si 4.4725498609 11.9836082896 9.5575476455 
Si 2.3063708011 7.8257812316 10.9911149050 
Si 7.4717506583 1.7780860963 25.4166564322 
Si 3.0117603875 3.8450590552 23.7853893199 
Si 4.3816353701 6.2584225772 15.4470153446 
Si 2.9595183571 10.9107325898 18.1010540206 
Si 11.8840763887 10.0075009515 19.9440602411 
Si 15.9022981454 3.9104796958 21.7771563988 
Si 6.3637211382 10.3487927446 20.3153631570 
Si 13.7796785460 5.1865894374 24.5479922427 
H 12.6133959854 9.5228408671 11.0122917653 
Si 1.6024750077 14.7704526451 23.5463680450 
Si 4.5485264216 6.7950640521 21.3342119876 
Si 4.6196811423 11.6607079066 28.0954112765 
Si 14.1412350993 9.5017616069 14.4706677056 
Si 13.8850585570 4.9822313856 26.8948779624 
Si 0.2646978414 13.6089593445 2.8060047690 
Si 2.8988869765 13.1089377899 29.1123724762 
Si 4.1259801077 14.7647185650 1.0959202143 
Si 1.5928785686 14.9358938866 4.1918090654 
Si 2.9016562765 13.5358498238 5.5661519024 
Si 4.2826736192 14.9147005964 6.9032140272 
Si 7.0574959545 10.1993319933 12.0456517592 
Si 0.0922077539 13.4925184234 8.2978488974 
Si 1.5919109426 14.8058833954 9.5607035286 
Si 1.7561760461 1.0762689068 12.5917080135 
H 0.4659054073 7.3203025269 25.3328928067 
Si 0.1821645557 10.8360755191 10.9526249292 
Si 10.2498472837 14.5557341531 17.6175845315 
Si 14.4435286321 7.3898445376 18.0772521735 
H 13.5609038440 15.0592906377 16.7512798808 
H 10.7682928285 2.0437271287 17.8241031603 
Si 6.8117613023 9.9913738514 22.6941026498 
Si 8.3653549065 5.3386240088 25.6087818746 
Si 10.0060185615 12.7556565567 11.8727860518 
Si 9.4959297868 6.0908310557 12.0864422853 
Si 11.1643353121 3.1154462385 18.8186487418 
Si 9.2777252349 3.2659821299 24.9386433764 
H 12.4796550841 2.5441559333 16.3566765198 
H 12.0838732405 1.7137405957 11.1704988382 
Si 8.5068987178 16.2800469589 22.4423103714 
Si 10.5714770467 10.3898109650 15.8885145383 
Si 5.6225912914 16.2498615886 29.4789858089 
Si 5.5595489908 2.7236391549 2.8130804358 
Si 8.3652082965 16.2436713886 2.7293934953 
Si 8.2129456651 2.7143701448 0.2014279239 
Si 6.8914031130 1.2848020858 1.4788763023 
Si 6.8938140330 4.1306064678 4.1869720110 
Si 5.5885614811 16.2588373787 5.4703841235 
Si 8.2629396756 2.6821485245 5.4431609452 
Si 6.9150724832 1.3119249360 6.8665231997 
Si 5.5756598010 2.5585237134 8.3760971010 
Si 8.3397633163 16.2380350485 8.1510855874 
Si 6.9463329935 3.9454380361 9.7227153578 
Si 8.3746564966 2.5972450438 11.0774150347 
H 0.6153694166 5.0981184466 10.8092239619 
H 11.6052730361 1.7825984263 14.0595475733 
Si 2.9772418772 11.2802875332 15.8041905223 
Si 1.3917035827 13.1535723903 20.4884353241 
Si 10.5969871869 7.0997847949 17.9464157500 
Si 4.6224667323 4.4075690503 25.4431422546 
Si 0.8111361224 0.2012189688 27.6154516013 
Si 3.8092536348 0.8134509314 16.9946663025 
Si 14.6799942743 1.8130770166 14.2311745229 
Si 1.6671837752 9.7943788796 14.3827158989 
Si 11.1617614921 0.1729085776 10.7140755620 
Si 6.9023662831 10.4874532259 16.2583132483 
Si 6.8684016328 15.0692926978 15.3956953769 
Si 12.6473606357 9.2441026745 24.1110351612 
Si 10.7657352985 6.5905431003 25.9578461378 
Si 4.5671458918 15.7119983637 11.2005239688 
H 7.1686589156 10.6272702972 25.7881068193 
Si 5.5409295207 5.4864720502 0.1640510605 
Si 5.5415322507 8.1075004941 2.9617225285 
Si 8.2824388057 5.4979239203 2.8182065337 
Si 7.6249092397 8.8343440108 0.2273049853 
Si 6.8881939830 6.9061944332 1.4809143539 
Si 5.5958756912 5.4349956497 5.7159531185 
Si 8.2994781459 8.1762442948 5.7311131550 
Si 6.9138833132 6.8671961728 7.1575133155 
Si 5.4900884302 8.2709380656 8.5480484872 
Si 8.3146767160 5.3554515790 8.3704931965 
Si 6.7870005021 4.9383949952 18.1291325317 
Si 4.4259278805 1.4408619162 28.0915475318 
Si 5.5629861809 5.2430994480 11.1047856841 
Si 7.3215894370 3.4500754216 19.9285462738 
Si 0.9169217544 3.6842441737 17.4498803151 
Si 3.6902877638 0.9775824569 21.1492536442 
Si 12.7524148466 1.4922063676 26.3305352828 
Si 15.6482718831 14.8399457857 24.3364890884 
Si 9.8885676604 10.4923402260 21.1747661569 
Si 3.9293598059 3.2764728900 21.6550207744 
Si 5.2304095378 2.3302030713 15.9158261993 
Si 1.5788317014 2.1271156395 24.5927055020 
Si 10.8061507888 6.0955062857 22.4006055240 
Si 4.3526391698 6.8278721124 28.1506539774 
Si 8.9125197215 8.9997038023 22.7020660931 
Si 10.5677792166 13.0378645192 26.0429370039 
Si 5.3802123792 14.1517910194 22.6622193825 
H 7.3861629976 14.1882806198 20.2287385908 
Si 5.9240703242 10.5970523469 0.2861875697 
Si 8.3338663362 10.9061876797 2.8761361593 
Si 7.0359768643 12.2772192523 1.4625954849 
Si 6.9801836138 9.4918572868 4.2436304351 
Si 5.5577082208 10.8474459392 5.5270130534 
Si 6.9611568937 12.2247980318 6.8247298696 
Si 6.3159751478 10.2574384238 9.7640072858 
Si 8.1869794049 11.0048887906 8.4487414002 
Si 13.9176222673 11.0585154711 20.5097891497 
Si 15.3349826002 13.6181143245 15.5289208333 
Si 0.9306705145 12.1244516309 18.4137518930 
H 10.3914888350 9.0009418423 12.9600615061 
Si 0.1786247386 15.9599973260 17.9045929258 
Si 8.6828795894 11.7402682674 15.4276081384 
Si 16.2490633786 6.1739426365 14.0568341038 
Si 0.5612426331 11.0816146913 27.6624359166 
Si 10.8124387289 2.8157916858 26.7102145613 
Si 11.9098797489 14.9209070865 13.9652840004 
Si 10.3612871748 15.3425737403 25.9179699330 
Si 5.5057757004 13.5867560743 2.6677859386 
Si 8.3440638763 13.5855017442 29.4331222745 
Si 6.9221260533 14.9158734764 4.0541299796 
Si 8.2985984859 13.5856157742 5.4449600935 
Si 5.6768532819 13.5589653340 8.2665850090 
Si 7.5029297186 14.5096008727 9.5302949730 
Si 12.1355939910 3.3522376807 11.5056418229 
Si 8.5544329382 5.8632271736 27.9310104144 
H 1.3633850465 11.7615918776 11.2040632769 
Si 5.3381515988 9.3014434751 13.3887012136 
Si 0.8378794157 7.9136820724 15.5607746064 
Si 13.7053472753 12.2866185824 16.6715274712 
Si 6.8196945324 15.4266464311 11.6062171619 
Si 3.8327926851 0.1433124166 13.3211004285 
Si 7.1046229250 1.2868709158 18.9259192721 
Si 15.7422326040 5.6926382921 23.3146023516 
Si 10.2590511338 15.0948028381 12.3201545981 
Si 10.0783461622 8.7043660996 26.6352107234 
Si 6.9944699440 14.9435176067 28.0485744324 
Si 4.8285515242 0.3355951801 19.1241795152 
H 3.0481522479 14.1446559994 18.3312565195 
Si 9.6342970481 4.0751227273 1.4603657208 
Si 11.0819242014 0.1091646667 29.4349509170 
Si 11.1138037316 2.7269460249 2.7075854584 
Si 12.5237032445 1.3556147164 1.3211234406 
Si 9.7000597787 1.3740566256 4.0652198117 
Si 12.3919171433 4.0855809074 4.1340003661 
Si 9.5689741475 4.0800585973 6.7885699383 
Si 11.0748706313 0.0485938849 5.4518617444 
Si 12.4055518735 1.3730222106 6.9080510816 
Si 9.6136250379 1.3711081355 9.4958752015 
Si 10.9490466701 2.7777545354 8.1533566434 
Si 11.8943390888 4.5100168612 9.4729876757 
H 11.5388749955 0.5851498374 16.2523259187 
Si 6.2054800768 6.1274998460 24.9239847419 
Si 5.4794673501 12.8719671577 24.6465619739 
Si 13.8202895164 14.0273354183 27.4844087182 
Si 2.0152196284 9.2070592142 27.5933604198 
Si 12.6883625660 1.2162016371 23.9895189157 
Si 0.3140093009 15.2344732993 20.1660043544 
Si 13.0404383393 7.5374319389 13.5533380296 
Si 5.0806555665 11.0187352908 14.9239940873 
Si 12.1725397113 15.7739655243 27.4196983681 
Si 10.3436776846 3.8131306549 22.8097790368 
Si 10.5657755466 5.5676939909 29.4051027519 
Si 10.9005676297 8.1533079746 2.7088891036 
Si 12.1916478815 6.7611808518 1.2683287611 
Si 9.6114910479 6.8573733027 4.2190027494 
Si 11.0085214607 5.4505851798 5.4970174171 
Si 12.3606566330 6.8010424822 6.9035974522 
Si 10.1161552525 6.1966183167 9.7248979311 
Si 11.0784055613 8.0434156336 8.5025093894 
Si 14.4992404326 2.7561377052 27.2847622460 
Si 12.1936189715 6.9105438632 24.1673396545 
Si 11.8330561082 12.9029507380 17.9905981131 
Si 3.0493902879 5.3719370591 26.8676547842 
Si 11.2849301832 14.0645091986 21.4850749962 
H 2.0707196589 6.0472878853 25.5369929082 
Si 15.2444590694 9.0205387125 16.6037202265 
Si 8.0254966334 4.2115188985 16.2707008267 
H 0.8233552515 9.8028170997 20.6502406936 
Si 8.6861538794 6.9222400833 21.7015331820 
Si 6.1740240865 7.3632755473 14.3601823039 
Si 4.4171475704 14.2563565304 19.0349889506 
Si 11.5251913954 5.0102990558 17.5201355813 
H 5.1752515973 11.8125632880 12.0129131591 
Si 6.9581758236 4.1661186681 28.3981106034 
Si 2.5880249037 7.6030154795 22.4350547897 
Si 1.1132602392 4.2670352190 14.9449939821 
Si 9.5740892076 9.6146838879 1.3627987937 
Si 11.0098083707 10.9098366398 29.4612007856 
Si 12.4248066536 12.1961602115 1.3709657472 
Si 12.2373902019 9.4766424267 4.1642024621 
Si 9.7307012690 12.2185426717 4.1918385596 
Si 9.6283674881 9.5062902269 7.2131984300 
Si 10.9395658900 10.7913268887 5.6547820765 
Si 12.3479993029 12.1389823110 6.9531772601 
Si 13.0021894189 8.9602168419 9.6370641013 
Si 9.2659638547 12.8120688272 9.5945629096 
Si 3.7496322343 11.2697967731 24.5086764284 
Si 15.4966445617 10.0942126223 26.0648217258 
Si 8.8210187907 7.6809957102 19.4051120972 
Si 8.1579832046 12.0607577303 13.1347558560 
Si 4.2629952990 3.7900640147 12.4093451627 
Si 6.7442066717 1.4327934791 23.2353808382 
Si 3.7554966343 13.2422714411 21.0745742429 
H 6.5843040302 10.9906839105 17.6351041067 
Si 13.0742237996 0.2713946605 19.5662096051 
Si 9.6363007181 12.1824766114 28.0699282581 
Si 12.0000123197 9.3720932057 27.9897629292 
Si 13.9834990279 15.9506957359 13.6281354078 
Si 9.7421042691 14.9440388867 1.2881193923 
Si 11.0545244211 13.5708081641 2.7215598267 
Si 12.3968367234 14.8904447862 4.1552952033 
Si 9.7087260588 14.9684250169 6.7483398027 
Si 10.3218327944 9.6876956686 24.4404857586 
Si 10.9900974705 13.6300874747 8.1994266374 
Si 12.4277225637 14.9047799863 9.5695812931 
Si 13.5783993042 13.4317241428 11.0496904544 
H 10.5112366261 5.5448717007 14.7512463568 
Si 0.3535907432 16.1096046873 11.0697465338 
Si 4.3854961001 15.3825005307 15.4561880515 
Si 7.9134377224 8.1084127342 27.5419814636 
Si 10.2792670240 2.4828892427 14.3062373493 
Si 9.5871049177 1.4998349747 28.2675691223 
Si 5.4180703396 13.5770472342 26.9029888769 
Si 9.6015215678 3.0810091782 20.5966496698 
Si 9.8989118105 8.1206791043 15.8577815461 
H 15.0529701177 4.0739172673 12.1061444338 
Si 7.2822002166 11.4297157045 24.5056385222 
Si 12.6069614353 3.4532031016 23.2734284005 
Si 13.8936433871 1.9919086382 16.3744025546 
Si 9.0594229429 0.7937612083 20.3367169827 
Si 3.0965824183 16.1370370476 26.9862805946 
Si 12.5705695750 11.2087744325 14.8646516878 
Si 13.7396377257 16.2367807185 2.7822353655 
Si 14.4293889120 2.1799603999 0.1124951389 
Si 15.1852449189 4.0336972569 1.3867805556 
Si 15.0935322180 1.3589720854 4.1387489378 
Si 13.7463654957 2.7380558050 5.5330298772 
Si 15.0491093876 4.0908425774 6.9839987350 
H 14.6174569637 15.0280464174 15.0632363675 
Si 13.8098476263 16.2804379189 8.2677352841 
Si 15.2491180095 1.2133981281 9.7095314350 
Si 16.0120601664 10.5747024667 13.2754138595 
Si 7.1372843753 6.4843811693 12.3342823363 
Si 0.9091840043 13.9642116677 16.8987805467 
Si 0.0060958321 12.9264572082 13.4954703418 
Si 0.7153753565 1.9552724279 14.5580886162 
H 3.1947622492 10.6569669675 11.8569476480 
Si 8.1695491047 13.6286865346 16.8294101076 
Si 3.1646257489 5.0518711362 20.3094348159 
Si 4.0351144869 9.9060957006 26.4617256371 
Si 15.0982726081 10.9687412803 18.1840213018 
Si 1.4852456506 1.4030674868 16.8573706417 
Si 2.6719835644 7.1414709053 16.9072748862 
Si 10.2734677840 4.3700043100 15.6959761766 
Si 7.6300894598 14.1523448794 21.7348616668 
Si 13.6502056248 5.3891067193 2.6220580777 
Si 13.5441251439 8.0728027938 29.3334907509 
Si 15.0353280475 6.7444347317 4.0250486645 
Si 13.6693789550 8.0981663241 5.4162327093 
Si 13.7260518655 5.5132365204 8.3637980053 
Si 14.7878014952 7.1985347758 9.7463697337 
Si 12.1847409214 12.7080245962 12.9338706260 
H 2.7822831554 8.8490864609 23.3009170269 
Si 1.4664926024 13.1083187699 26.9344592249 
H 4.0840822274 14.6185483937 27.0441777766 
H 4.0089853267 10.4627250057 23.2479158878 
H 7.3449981672 4.7461078334 14.9994993271 
Si 5.2523195880 8.3118748360 19.6322177015 
Si 11.5959714461 4.9256399250 27.4030636199 
Si 16.0126954764 6.9867159039 19.8640718776 
Si 5.8354853034 2.8634399362 26.7519194087 
Si 12.7855161269 6.3288116679 21.0647821571 
Si 3.0561995080 5.1369375170 13.9066789568 
Si 0.4813760204 2.3553874115 26.7303886176 
Si 15.0602191677 6.6958905312 28.0694858446 
Si 1.7410263459 5.8802665138 23.8833986606 
Si 8.5648748283 0.7230691236 14.8801361608 
H 9.3806128758 6.3297076179 24.8402506107 
Si 14.8970259462 9.4597334065 1.3070075000 
Si 13.6429077048 10.7896001487 2.8064943732 
Si 15.0886615080 12.2083614217 4.0699388892 
Si 15.0671098378 9.4812524967 6.7240955421 
Si 13.7586644458 10.7269650981 8.2254700463 
Si 14.9792252870 12.1164043708 9.6585653981 
Si 9.5504687073 11.9124046989 24.3084105773 
H 14.4105739618 2.0686019589 10.6626376173 
Si 13.9283410874 3.7131263440 13.0271903834 
Si 6.8662024828 7.2456454563 18.2680798696 
Si 4.7549858835 0.1240092551 23.0921273421 
Si 13.2073131008 10.2726044139 26.1748647140 
H 8.2206182552 9.2664199747 12.1502973026 
Si 10.5861054668 15.8491275850 15.6981292557 
Si 13.7556996658 5.4590396899 16.8805236157 
Si 3.1106081084 8.6569133292 18.6817660003 
H 0.7286044657 12.2771866723 21.5095847050 
Si 2.9265473968 0.1297632090 24.6675913629 
Si 14.8151361155 3.5736676527 17.7675627131 
H 11.3331974536 14.8751158960 22.9855941677 
Si 0.1567132223 1.7950928564 22.7379015878 
Si 14.4311156520 15.3401302403 21.0888494523 
Si 14.2260082601 13.1588829303 0.1606385776 
Si 15.1707631087 14.9256637665 1.4406783194 
Si 13.7276645755 13.5004190735 5.5382798509 
Si 15.1092846482 14.8960811262 6.8694726231 
Si 2.7638428753 13.6302177947 15.4680152394 
Si 14.6638345941 0.2825370206 23.1190555780 
H 6.9574101936 7.6252024597 11.3437479707 
Si 5.2829610783 2.0161970284 13.5624812422 
Si 13.4994416735 13.2017745007 21.6502132142 
Si 4.7233669932 11.8587617285 19.4246077861 
Si 7.4486351481 1.9404159477 16.6186148148 
Si 1.7123885257 12.4714286341 24.5661017026 
Si 12.4215160736 7.8151438615 19.2319809417 
Si 10.6359691573 16.2046079682 23.7181424657 
H 9.0732531530 15.7328658539 13.0119713585 
Si 10.6160464871 10.9058944597 18.1548809983 
H 13.4706246632 7.4508342981 12.1144028194 
Si 13.6324821047 4.0636056972 21.2626589752 
Si 1.5306670580 0.1634734095 21.6861666859 
Si 13.9916928980 5.6245460914 14.4927883814 
Si 15.9507608959 14.6976363444 26.6645869808 
Si 0.2012075658 6.6508812608 11.5691429094 
H 7.3752161175 13.1520900003 18.0266990559 

