&CONTROL
  dt          = 30.D0,
  prefix = 'aSiHcSi_merged-3',
  pseudo_dir = './',
  outdir='./',
 wf_collect=.true.,
 verbosity ="high",
/

&SYSTEM
    ibrav= 0, nat=  398, ntyp= 2,
  ecutwfc     = 42.D0,
  nbnd=1478,
  degauss     = 0.05D0,
  occupations = "smearing",
  smearing    = "methfessel-paxton",
/
&ELECTRONS
  electron_maxstep=200,
  conv_thr    = 1.D-8,
  mixing_beta = 0.3D0,
  scf_must_converge=.false.,
/
&IONS
/
ATOMIC_SPECIES
Si  28.08  Si.pbe-hgh.UPF
H  1.00784  H.pbe-hgh.UPF

K_POINTS {automatic}
2 2 2 0 0 0

CELL_PARAMETERS angstrom
16.29000014898320 0.00000000000000 0.00000000000000
0.00000000000000 16.29000014898320 0.00000000000000
0.00000000000000 0.00000000000000 29.41887678731836

ATOMIC_POSITIONS angstrom
Si 16.1969516681 16.2229993784 29.2677225984 
Si 16.2083546682 2.6523704043 2.6250993297 
Si 2.5902892137 16.1644856978 2.6215278781 
Si 2.7068441648 2.4875644728 29.2699584330 
Si 1.2544130905 1.2480388134 1.2517379046 
Si 4.1128340776 3.9556029962 1.0976477118 
Si 1.3403102613 3.9432388861 4.0112638500 
Si 3.9751672864 1.2729364496 3.9402466814 
Si 16.1898655181 16.1457521977 5.4681748851 
Si 2.6565569343 2.5735593835 5.4201926970 
Si 1.2640062716 1.2474947274 6.8051157407 
Si 3.9600827462 3.9301091459 6.8699843640 
Si 16.2075890382 2.6048850538 8.2162215847 
Si 2.6766099245 16.1385683076 8.0586540806 
Si 1.1996884640 3.8192068249 9.8019578813 
Si 4.0589141771 1.0403429405 9.5298921087 
Si 13.7762739360 15.8434097949 23.9045436845 
Si 9.7178321689 6.7150475714 26.2323417292 
Si 1.2038587040 2.2707282808 14.7144101838 
H 2.5897353537 2.6869377846 20.5338170389 
Si 1.7299654358 13.2513775512 23.0875814762 
Si 16.2100488283 2.7393915851 26.5350913902 
Si 9.7280785790 6.1133438359 22.2577337997 
Si 15.7237434538 7.2899868367 27.5683705996 
Si 5.5049286203 15.8003553245 10.6823471880 
Si 6.5512841999 10.1408346027 23.5585482747 
Si 9.8264864699 9.5888153677 21.0204640987 
Si 5.2946572984 2.5289899431 26.2938271817 
Si 11.9199958390 0.9387177746 23.2157889412 
Si 16.2522725086 5.4695630300 29.2530719977 
Si 0.0226028639 7.9753723029 2.6715076078 
Si 2.7596889252 5.2429691280 2.6128934377 
Si 2.6477114642 8.0349774135 29.2816377271 
Si 1.3970352998 6.6277820406 1.2995671145 
Si 4.0414675870 6.6707061910 4.0122935106 
Si 16.2836959189 5.2958301784 5.4183098889 
Si 2.6850644346 7.9493571727 5.5021831067 
Si 1.3211906881 6.5856072302 6.9012566300 
Si 16.2048848982 8.0771848039 8.0927211399 
Si 2.6179333439 5.2004522276 8.3802612416 
Si 4.2786499891 6.3935644185 9.6207081814 
Si 7.6206575497 5.9090998140 23.3469677128 
Si 5.7051001422 14.0909315789 14.0317745669 
Si 8.6914969995 14.1118316491 15.8048502708 
Si 6.2483716471 3.2334021296 18.4338681949 
Si 12.9924154188 13.0250117091 18.5849047084 
Si 0.2316503181 10.5929798469 11.1680822626 
Si 13.2821004915 5.4794510601 17.8864123168 
Si 12.6354852256 12.6439560256 16.3299183837 
Si 0.5197161648 3.7650914444 19.0927627783 
Si 8.3799833266 1.8348730368 23.5453980367 
Si 13.5708896141 13.1780725505 11.1797615567 
Si 8.7730936102 8.6188924688 16.0597648382 
H 1.3011344399 14.7789560252 10.5955909204 
Si 10.7974682188 2.3291605113 26.7589984615 
H 12.3557207630 6.9244066533 24.2698084587 
Si 15.7526419141 8.8973700214 12.7217814024 
Si 6.7037586013 7.6597209701 19.2541841553 
Si 6.9460886435 14.6824703543 28.1193273241 
Si 3.8627011253 6.6562732509 27.7948076943 
Si 3.9944220665 9.4589840665 1.1762784857 
Si 0.0046750834 10.7081338579 29.2757245329 
Si 2.6558238843 10.6602901275 2.6994820178 
Si 1.3119558870 12.0161394199 1.3345579266 
Si 1.3483640373 9.2973058150 4.0860760536 
Si 4.0085454967 12.0649442603 4.0366229217 
Si 4.0477229470 9.3441884355 6.8515387283 
Si 16.2203766883 10.7226319581 5.2829536368 
Si 1.2176156091 12.0638528303 6.6711421758 
Si 1.2615415945 9.4691653166 9.4036262896 
Si 2.6209144140 10.7861629586 8.0369135307 
Si 3.4880474119 12.6338888055 9.2113739298 
Si 8.5423783381 5.6340920315 13.9361043796 
H 11.8807858087 1.3164486690 26.4391564330 
Si 3.8917624856 12.7311401064 23.8879220192 
Si 11.3164350435 4.8945911848 19.0672566122 
Si 13.9582983977 10.4862803459 26.1272575013 
H 9.3227019253 4.2837976292 13.5616314969 
Si 13.7574752758 15.8010557945 26.3939102005 
Si 14.2072584699 10.4518595756 13.7176692194 
Si 3.0868084182 9.4928672668 17.6121107096 
Si 3.8446843852 3.9438253261 12.1887113550 
Si 10.2335409936 11.7112231971 21.9373328127 
Si 1.0261152544 0.0666858849 19.0214220021 
Si 3.9068144457 12.0867077005 11.4050807340 
Si 3.0515568579 15.6701982233 26.5172047132 
Si 11.9448706692 3.7950813347 28.1277117040 
Si 10.8620254893 12.9907701288 26.6369983794 
Si 16.2218590784 13.4582605531 2.6147850715 
Si 3.0089422175 13.0471661093 0.0755467930 
Si 4.0191177068 14.7864820052 1.3231610537 
Si 1.2511550904 14.8158691655 4.0257085185 
Si 2.6208981240 13.4453262930 5.3584718935 
Si 4.0229784368 14.8917968562 6.5903579401 
Si 16.2049337682 13.3269631519 8.1898916899 
Si 1.7655916661 14.3168413009 9.2364388128 
Si 1.8706295871 15.5274815320 22.6469455396 
Si 14.9471339867 6.8603869527 11.6185735229 
H 14.9518906667 6.1548018863 20.9542716259 
H 2.6700613444 8.3616896565 16.6777671829 
Si 16.1256829175 13.4362201829 26.5654222522 
Si 5.6216953414 12.1699658913 15.3683329771 
Si 1.9276120076 13.0461072593 16.1290462930 
H 7.5986986295 3.3303765005 28.2371205068 
H 12.1111101208 14.5924518135 21.0850973710 
Si 0.1371828154 4.9194008550 11.7835840028 
Si 14.0263743083 1.9513791178 18.0878139473 
Si 14.0170564282 2.1129596293 13.2680311066 
H 10.8294943590 3.8446518052 24.0493728150 
H 0.7955710273 15.2662876696 20.0771772334 
Si 4.2265382787 1.9779643981 17.7628824532 
Si 9.9112433406 6.7436528117 18.9913853289 
Si 9.5365244672 1.0790577549 28.2004351674 
Si 10.9096574498 8.8661909611 19.0947632620 
Si 13.9370399475 10.4360419854 22.2692365806 
Si 5.4061623494 16.0685864670 29.3092032147 
Si 5.3771009892 2.6265833340 2.6046532103 
Si 8.1605896046 16.0943083772 2.6637704432 
Si 8.2028947350 2.4249782922 0.1122303672 
Si 6.7070491813 1.1319318374 1.3372350444 
Si 6.6772873511 3.9978755466 4.0517148055 
Si 5.3900678293 16.2117918583 5.2421202359 
Si 8.0977102041 2.6168744939 5.3614137812 
Si 6.6830540111 1.2516030654 6.6706126360 
Si 5.3698193591 2.5071776329 8.1564130082 
Si 8.1085919242 0.0543032042 8.0879847008 
Si 7.0751868947 3.5925803429 9.4052443278 
Si 2.3868108218 14.7764310751 17.6831572971 
Si 0.5543405601 7.2219597960 18.5190358432 
Si 4.5835987919 14.2172605300 20.2846097336 
Si 11.5365455255 10.6727356876 15.8861640463 
Si 4.4318900205 7.3952365276 24.1184777565 
Si 8.3282625762 0.3205155269 13.1155236493 
Si 9.7138248288 3.2582932498 24.8791616536 
Si 5.6014142912 7.3447538172 13.8461120355 
Si 8.4014209668 11.5992620261 18.6074395680 
Si 14.0056697181 1.6881164254 20.4631528968 
H 10.1830745731 0.1045441711 17.1395258729 
Si 1.1791125648 6.6305187606 16.2415440779 
H 10.3936879851 4.7080218131 11.9674814016 
Si 8.2755807157 16.0664198969 26.7917710902 
Si 6.6296553906 4.2748707091 27.2163149011 
Si 5.4203998096 5.3764005192 29.0319008821 
Si 5.3655350891 8.0520819136 2.5561385406 
Si 7.9778483830 5.4050220494 2.6671418465 
Si 8.1537478046 8.2921476458 29.3905169901 
Si 6.7210422915 6.7469596817 1.1055290289 
Si 5.3382330488 5.3304790088 5.4967700333 
Si 8.0701149438 8.0755883839 5.5529600880 
Si 6.7192341015 6.6893582412 6.8969026363 
Si 5.3856369493 8.0396200635 8.3327791745 
Si 8.1611108846 5.2668828482 8.1294653170 
Si 15.7297544639 5.1022398167 15.6140100171 
Si 10.8711478894 11.7793153977 13.9275434864 
Si 0.0259991660 2.1283862595 20.6948559704 
Si 13.5379186538 2.4142268921 10.9643565409 
Si 1.7227163858 0.1379504002 24.7589267042 
Si 6.5393110498 2.4753469726 22.1643877037 
Si 15.0611639877 3.9751835764 17.5952536932 
Si 7.0075345241 6.3247880378 12.2584929308 
Si 3.9246845759 5.2282755478 23.3082230521 
Si 9.2030844542 13.2936338116 11.8088842368 
Si 13.5327710138 8.3546035064 27.0726625258 
Si 14.5417084630 4.2430726288 23.2121998382 
Si 8.1425728645 1.5655911893 15.3433269318 
Si 8.7179845397 16.1684278779 16.9433313836 
Si 4.7945705838 11.3409840737 29.3409167638 
Si 7.9967122031 10.8055317688 2.7965466599 
Si 6.6378492607 12.0959115506 1.3146354632 
Si 6.7034328013 9.3175868652 4.0597755778 
Si 5.3523238990 10.6793494277 5.4095136448 
Si 6.6800729411 12.0187295299 6.8127058109 
Si 14.1076614090 11.1942763324 19.8345009188 
Si 6.6403579207 9.4089574761 9.8474394648 
Si 7.9486567027 10.8624164493 8.4506900327 
Si 5.9460455344 4.7619742936 22.0881339751 
Si 13.0968994798 9.0819520131 15.2638371267 
Si 12.3968855934 12.0552191303 23.0073856180 
Si 1.4962251107 0.9638076328 12.7116024710 
Si 15.9821354362 12.8641153777 24.2357119805 
Si 1.0532381046 9.2723495348 23.4424613869 
Si 12.6472628957 6.9975487540 12.1900057856 
Si 3.4614132617 11.2134170826 15.9898655870 
H 4.2169760486 8.1480625945 22.3960319395 
Si 1.2685739876 3.9063746157 28.0659026439 
Si 7.9463272327 13.2229352109 24.6531952610 
Si 12.1128694408 7.0856124948 14.4783236976 
H 3.3771450909 11.8803948487 18.6680130353 
Si 9.5867302477 14.5954328835 25.4988702932 
H 0.0942850548 13.9013648471 13.6740998629 
Si 15.4371046112 10.5524666165 24.1456019609 
Si 2.4074828320 5.2453311780 26.5453879971 
Si 5.3961277094 13.4793072333 2.7365998146 
Si 8.2385861253 13.2762686714 0.0542175190 
Si 6.8194990524 14.7697847551 4.0818397354 
Si 8.1176165842 13.4744691032 5.5800254546 
Si 5.3102956986 13.5204394837 7.9716330431 
Si 6.9673470937 14.6418919639 9.2083437854 
H 15.8794269852 0.2124444079 10.1872569105 
Si 4.0887737474 1.1115497892 27.8421426670 
Si 7.4720764583 5.2854860283 16.0322581884 
H 5.7145972123 9.3480817455 16.2123311332 
Si 15.3900916708 0.0949747734 17.6586807916 
Si 7.8030892614 9.9436930209 27.6168529086 
H 10.3104949543 15.2099894291 24.3048169221 
Si 5.8389387834 15.8794432752 23.9640580723 
Si 0.4239358509 7.0042602341 23.4378426232 
Si 8.4651311574 8.6172308888 25.7832625751 
Si 2.9573517870 9.0613125829 24.8767493057 
Si 5.3651278391 12.8812524578 22.0063200787 
Si 5.9755304347 14.6788213942 18.4332798174 
Si 9.6457000482 2.3639233716 20.3847810091 
Si 9.3655934957 3.9190645258 1.4758715012 
Si 10.9930133805 15.9581891359 29.3351212451 
Si 10.8619114593 2.5298696031 2.6612315942 
Si 12.2478646720 1.1524213995 1.2775176664 
Si 9.4766261367 1.2113178951 4.0377408391 
Si 12.2322425619 3.9190808158 3.9893762056 
Si 9.5040096269 3.9478489561 6.7245668560 
Si 10.8660654094 16.1927814281 5.4144560161 
Si 12.1281331709 1.2157471461 6.9229089233 
Si 8.9160546515 1.8396948768 9.5248908997 
Si 10.7631614784 2.6651580544 8.2466995410 
Si 12.2741730223 3.9242447459 9.6260035792 
Si 14.1125158291 14.3747033815 13.2434663445 
Si 0.6123785726 8.5747302784 14.8701537175 
Si 9.9656193611 2.2983398310 13.7319667935 
Si 11.1656385121 5.5311718106 10.9444399613 
Si 13.1836437306 8.8588115910 19.6769334147 
Si 9.8496834301 7.6130826996 14.2058460608 
H 10.9183725999 4.5680255518 16.0146362812 
Si 4.7029719130 1.1886405859 22.7832726147 
Si 4.6286243523 14.4490998121 25.3023227773 
Si 15.6542666032 10.6631408775 18.0420675939 
Si 8.2696674456 4.9937809957 25.4840725981 
H 15.2163588192 14.8030489354 26.6735072055 
Si 3.7191862240 5.9470229344 18.8992159880 
Si 2.7912915255 13.1371846501 19.3240539876 
Si 10.2087150334 9.6918496186 24.5964462477 
Si 10.7551467984 5.2116760377 0.1589484261 
Si 10.7437437983 8.0096953333 2.8256713479 
Si 12.0821302105 6.7518303918 1.3427304906 
Si 9.3520076355 6.6721722910 4.1306456520 
Si 10.8094576589 5.2544535781 5.2989869247 
Si 12.1271394809 6.5835058202 6.7027968872 
Si 9.5563656874 6.6085109704 9.5127409036 
Si 10.8209746890 7.9770990430 8.0778057694 
Si 1.9019878374 11.6071138062 12.5678030013 
Si 3.2528523897 5.4782781801 16.6234010986 
Si 8.5981552986 15.0409480976 21.0895396214 
Si 15.0600073977 14.1177937891 18.4478421614 
Si 7.9608416228 14.3737585615 13.5658089774 
Si 12.8033373871 2.9315647168 22.1580038074 
Si 2.8381089860 1.5053181888 19.6187428764 
Si 14.6458504339 6.4941877494 22.3979441665 
Si 14.5199938928 12.5686636449 14.9038383315 
Si 1.4440873362 2.4458294924 24.7090617081 
Si 1.3143537750 12.3652504131 20.9920748826 
Si 15.0556416777 8.9816381921 16.4931637310 
Si 9.4164020061 9.4506435864 1.5500894436 
Si 10.9286678800 10.5130285261 0.1228635261 
Si 12.2232667718 12.0386684901 1.3401033849 
Si 12.1372229910 9.3752534657 4.1452668337 
Si 9.4369599863 12.1186361008 4.1600351099 
Si 9.3731683457 9.4993343969 6.9819526091 
Si 10.7787021386 10.7474579183 5.5459289764 
Si 12.0981107006 12.0983550506 6.9788342081 
Si 12.6379287256 8.8644316411 9.2856565936 
Si 8.6770640594 12.9155917781 9.5200073661 
Si 16.0059677064 12.6462529157 16.7907650886 
Si 1.5697988964 13.5612948040 13.8690587594 
Si 11.4622305448 14.3696860614 19.7232681456 
Si 2.1975698901 5.6120027913 12.6347603649 
Si 4.6192087322 3.4791367818 14.3502339081 
Si 6.6990507913 8.9927805522 15.1040632069 
Si 7.0647450046 12.9135229481 17.1343775695 
Si 7.6301383298 9.8078507097 20.0787364339 
H 2.6663146444 12.6078899653 26.5505068817 
H 0.3728276044 15.8510660950 25.0608526367 
Si 8.1424425445 3.2809200600 16.9894307636 
Si 14.2184008300 13.7211322855 22.8231646116 
Si 6.7574667318 7.9188460024 24.2331819571 
Si 10.9423677701 4.2141904585 21.3097399142 
Si 2.9977998574 7.3411211471 11.3252379024 
Si 9.4407392663 11.7032899670 28.1219750230 
H 11.4128881344 1.3443941643 24.5915627142 
Si 9.5762069076 14.7074266345 1.3498116142 
Si 10.8716040094 13.3806061224 2.7665041029 
Si 12.2267528318 14.7800963252 4.0992851293 
Si 9.5342112872 14.9226175365 6.8458903039 
Si 10.6976756778 13.5159760236 8.3368389795 
Si 12.1902958115 14.6001895635 9.8231983103 
Si 1.7445124060 5.3809942992 22.2815925088 
Si 11.8985581988 11.3331322936 25.2243627539 
Si 9.8466860701 0.6183977277 22.0372981560 
Si 15.3709835006 13.1860383606 20.6632600968 
Si 14.9629027068 4.4296908705 25.5125500709 
Si 4.4162516204 8.1998485050 19.0714635115 
H 11.8576051384 0.2302705551 17.6764203743 
Si 1.7659663362 10.0376863218 21.2390463532 
Si 6.7456401917 10.8587674893 13.7198462163 
H 0.5322920449 16.0224206065 22.2198717053 
Si 14.5061962627 7.4830559184 18.2673867712 
H 14.5400957530 6.0213542051 15.3247636205 
Si 9.8959470305 10.1715575430 17.4072964894 
Si 5.6748821919 4.8996410848 10.8935453045 
H 2.0893391291 8.3313088062 10.2863985253 
H 2.3606165016 8.9309437117 26.3492523456 
Si 1.6341476549 5.6380830816 19.9028409696 
Si 13.5821297142 16.1136934774 2.6854227366 
Si 13.5592259740 2.5066074829 29.2586910032 
Si 14.8711900060 4.0204046168 1.1597185999 
Si 14.8838310461 1.2511909284 4.0578339319 
Si 13.5115614336 2.5750743536 5.4942105910 
Si 14.9006260363 3.9770243464 6.8119409201 
Si 13.4232696328 16.0622496569 8.3234533906 
Si 14.8867632461 1.1577661486 9.5111522842 
Si 2.4783769127 9.9746928912 14.1999034477 
Si 11.8770879786 9.1718565239 11.4685960890 
Si 4.4378847406 14.2694048205 12.0770078799 
Si 5.2249686778 5.5475269707 15.2993751299 
Si 3.4844310319 3.6924869138 25.0974791383 
Si 7.6721013702 16.1116083574 19.1494529539 
Si 4.0202580068 8.7501735800 12.8296898425 
Si 2.8815381264 15.4609368814 13.3565819257 
Si 10.9632352603 13.7873022661 15.1492800205 
Si 11.9945877497 1.6096393497 17.0197027878 
Si 0.9954656191 9.0262565026 27.9721741024 
Si 12.0353453301 1.4089709829 14.5631089005 
Si 12.0577603703 6.9669724237 25.7534318340 
Si 14.8703266360 11.9304703091 27.8532335836 
Si 0.0538008206 0.3666243724 15.5271949117 
Si 3.6253395332 16.2061229382 21.1818266379 
Si 13.0625601595 8.2545340355 21.9938758938 
Si 14.8752950860 1.1609655046 27.7430598900 
Si 4.6480909025 10.7367716782 24.9677124728 
Si 13.5599753140 5.3580091090 2.6168885212 
Si 11.9619751694 8.4148113470 28.9101361510 
Si 14.9158897664 6.6628869909 4.0441835731 
Si 13.5387983138 7.9999539132 5.4390501971 
Si 13.5172466436 5.3348935988 8.1716519863 
Si 14.4165361018 7.2090418259 9.3469361140 
Si 7.0699903847 14.3003395308 22.7580606373 
Si 10.2922175741 2.9543544270 18.1253818529 
Si 4.6223038323 15.9601276460 14.9141349383 
H 4.6310515624 7.4610807082 26.7700305403 
H 6.6790955411 2.3578309116 11.3853406677 
H 13.7265242755 0.2389075132 20.7461036538 
Si 9.5588254774 13.0896178497 20.1770249012 
Si 9.8812860304 1.0950284710 11.5810938738 
Si 4.3831340501 15.9427787958 17.2132201593 
H 11.1053003516 15.7598420941 19.2636570336 
H 9.3385032254 6.6049434604 20.5589701785 
Si 8.1260710943 7.8859890721 10.8753056008 
Si 9.9523755910 7.1027821550 28.4748838690 
Si 7.3234953670 1.9789580881 20.0363732513 
Si 5.8518567535 5.2818696483 19.7268866675 
Si 8.1036071841 6.9700675237 17.5277667899 
Si 12.3076001026 5.1252575869 15.7541615461 
Si 14.9984474872 9.4368459563 1.3651241396 
Si 13.5238766737 10.6841549777 2.7281536551 
Si 14.8426336357 12.1277259209 4.0275324888 
Si 14.8911941262 9.4535269165 6.7221839270 
Si 13.6122662145 10.7421310882 8.2548779888 
Si 15.0392376475 11.9670250694 9.7894254397 
Si 4.0075192267 9.2218179543 21.1651461347 
Si 5.7050349822 11.0482853510 27.1495928886 
H 13.9168240573 5.9263020542 27.8113999408 
Si 12.2488909420 14.5672837632 27.8099584158 
Si 0.3216639719 6.1483021762 25.6717650320 
Si 15.8248554847 3.6597928835 13.7564727179 
Si 6.2912795075 13.2256230610 26.4152977240 
Si 5.9303419742 1.5383575671 14.3850070204 
Si 2.0713712589 13.7183955655 27.4037131463 
Si 1.1630245606 9.4542273865 18.9908852080 
H 1.1916802999 15.6363313130 15.6488125484 
H 14.9778080570 0.3906309456 23.4719096825 
Si 8.6831076494 11.2395625328 23.6979054940 
Si 10.8098486189 15.2088979991 11.6427264207 
Si 8.9145722615 11.1733925522 12.8878215430 
Si 13.5748969542 13.3235422519 29.2839029806 
Si 14.8936702062 14.7921835053 1.1955096054 
Si 13.4995882835 13.4016365126 5.5332788594 
Si 14.8339836457 14.7807153452 6.9012566300 
Si 9.6462376182 9.0186816525 12.2482845805 
Si 6.3910231785 1.0903402090 12.1426119751 
Si 15.4134352410 0.1663714005 13.3310169218 
Si 6.9970763440 1.0612478977 25.3050881518 
Si 2.6113196039 2.2853404109 10.9933929723 
Si 5.4368527097 10.3315090545 11.7819659646 
Si 5.8514495035 10.6512980474 21.4102053784 
Si 10.7610600684 8.2300175853 22.6916328135 
Si 11.9670413594 15.3982529608 13.7320550502 
Si 12.5475843848 11.3008455134 12.3180073185 
Si 13.1428861502 5.1673998173 26.7343748616 
Si 0.4420275250 3.3882060010 22.7219930943 
Si 3.0147414576 3.1687308290 16.0356119404 
H 14.1873520898 8.5852699085 0.4102491787 

