&CONTROL
  dt          = 30.D0,
  prefix = 'aSiHcSi_merged-10',
  pseudo_dir = './',
  outdir='./',
 wf_collect=.true.,
 verbosity ="high",
/

&SYSTEM
    ibrav= 0, nat=  398, ntyp= 2,
  ecutwfc     = 42.D0,
  nbnd=1478,
  degauss     = 0.05D0,
  occupations = "smearing",
  smearing    = "methfessel-paxton",
/
&ELECTRONS
  electron_maxstep=200,
  conv_thr    = 1.D-8,
  mixing_beta = 0.3D0,
  scf_must_converge=.false.,
/
&IONS
/
ATOMIC_SPECIES
Si  28.08  Si.pbe-hgh.UPF
H  1.00784  H.pbe-hgh.UPF

K_POINTS {automatic}
2 2 2 0 0 0

CELL_PARAMETERS angstrom
16.29000014898320 0.00000000000000 0.00000000000000
0.00000000000000 16.29000014898320 0.00000000000000
0.00000000000000 0.00000000000000 29.29437231617968

ATOMIC_POSITIONS angstrom
Si 0.3383204971 0.2810334536 29.0734341602 
Si 0.2907960507 3.0432815378 2.4506119278 
Si 3.0886817682 0.2774366215 2.4208429867 
Si 2.9683149571 3.0584312380 28.9468531774 
Si 1.7005945656 1.6847606854 1.0983807722 
Si 4.3432561297 4.3796805701 1.0864755393 
Si 1.6350761850 4.4110876903 3.8670036176 
Si 4.4407680706 1.6175823538 3.8476693319 
Si 0.3066608818 0.2931434397 5.0843898479 
Si 3.0648820780 3.0111413675 5.1717163718 
Si 1.6901200955 1.5904334395 6.4474862862 
Si 4.4341869106 4.3331074596 6.6033616413 
Si 0.4669007263 2.9353602868 7.9030357635 
Si 2.9839859373 0.2597847774 7.9190890795 
Si 2.2474335806 3.6433236933 9.3213227991 
Si 4.0272789968 1.8842480272 9.3045664182 
Si 2.3268310413 5.6062361313 15.8156507867 
Si 13.8936433871 13.5856157742 27.0384712929 
Si 1.8512933569 11.1302403418 13.3259220835 
Si 9.8003573096 15.7129594737 14.2673846210 
H 6.3845234684 13.1190538800 11.3549967141 
Si 15.3268701802 15.7236620038 18.3454248968 
H 2.1635563698 14.0809946788 27.9912707524 
Si 9.1231820034 13.0719594896 25.0957856983 
Si 3.0307056577 6.5479121699 13.7520966120 
H 6.9071881232 4.9285395451 28.3967048653 
Si 3.9636665463 10.1863814432 13.7725440838 
Si 12.9672473686 7.2493595763 12.6041673384 
Si 7.4024855777 6.2036718867 21.6440298083 
Si 0.3457031252 9.4048035260 13.2953094644 
Si 1.5552209752 4.4848651010 27.6908276700 
Si 1.9572923879 13.8110856663 23.5938046409 
Si 0.1872959057 5.8415451834 29.0349413549 
Si 0.1771977346 8.4556177973 2.5278523993 
Si 2.9438310869 5.7773788728 2.4125116672 
Si 2.4889328328 8.7311468599 28.8040431124 
Si 1.5496481662 7.1896567258 1.0718224943 
Si 4.2866483792 7.0905972348 3.8317624877 
Si 0.3143025209 5.7414920025 5.3649713460 
Si 2.9520412470 8.3426792263 5.3487422637 
Si 1.6398980250 7.0334844943 6.8682999445 
Si 0.2769544375 8.4592504674 8.2944964607 
Si 3.0830128482 5.5534402408 8.1042881013 
Si 4.4382919906 6.9717779738 9.4313524616 
Si 4.5987810721 6.5411843998 18.5201365333 
H 1.5567734122 1.4473502232 10.8861402852 
Si 11.0895967914 3.9609461162 11.2493319131 
H 3.9626565662 1.3627415915 23.1751294718 
Si 5.0504701962 14.0339491584 13.9335459541 
Si 11.4744969149 15.8536073350 21.4241169553 
Si 4.8727951646 3.8634830453 25.9429496513 
Si 6.9331218034 9.4222989862 11.4438172509 
Si 6.7667194519 7.3496571072 14.8303052794 
Si 3.3407695206 7.7609470310 26.7420122450 
Si 14.1573296195 0.0322817304 16.3657698044 
Si 8.6860398494 2.9831877273 27.0766418600 
Si 7.1242849552 13.1896873206 23.8396723078 
Si 1.2189432441 12.9962435689 16.9522138438 
Si 7.8882370921 3.2637666898 23.0231795626 
Si 8.3303639862 14.9870607771 20.2360250973 
Si 8.5630014783 6.5769246602 26.1805855996 
H 2.3790893618 14.3895272816 24.9427518974 
Si 4.1001930375 9.8068570197 1.0120883397 
Si 16.1228647475 11.4794002050 0.0421285298 
Si 2.9327538868 11.0590856211 2.6451382777 
Si 1.5875712865 12.4431654838 1.3186246516 
Si 1.5610870043 9.7163009089 4.0010839597 
Si 4.4049463603 12.5112739744 3.8674137388 
Si 4.3707536500 9.7450201791 6.6151379790 
Si 0.2122570729 11.0978721115 5.3488301468 
Si 1.5951624266 12.4976555343 6.6333883729 
Si 7.9156531624 10.5367304764 27.5318178170 
Si 1.7264142158 9.9552589210 9.4852834010 
Si 3.0166962576 11.1196192617 7.9212275687 
Si 4.3396071697 12.4567350539 9.2890111065 
H 14.9768958170 3.5657344226 11.3975321427 
Si 5.6567351317 10.9504150301 26.9406280893 
Si 15.6772355034 14.7989764353 26.1654404091 
Si 12.0857628805 2.9424138569 22.2092940165 
Si 11.9907433097 7.1818375257 25.1459669581 
Si 9.8100824397 3.5451764424 19.2987223607 
Si 15.1888450089 6.2204668769 20.6235017599 
Si 8.9631001720 1.3141436340 23.8177015286 
Si 5.3011732985 11.7958986179 14.6982462490 
H 5.1671880473 6.5847601502 28.1468531638 
Si 11.9609651894 2.6150337239 13.0174816374 
H 1.5008205197 4.0400666469 14.3872864869 
H 7.5811217193 4.2536774189 24.8960566679 
Si 7.2436092062 4.7598240135 19.7704496381 
Si 7.1652543055 4.6233626823 26.3531880413 
Si 0.3123037379 13.8764737269 2.6217379331 
Si 3.3330806405 13.3826097924 29.2993523595 
Si 4.4553639107 15.2519035995 0.9967205120 
Si 1.7582611661 15.2289998593 3.8578051847 
Si 3.0315527377 13.8429977766 5.2819803892 
Si 4.4136615104 15.1693295887 6.6842141089 
Si 0.1615153515 13.8538632067 7.9668974951 
Si 1.6367703450 15.1341920584 9.2549417515 
Si 2.2547803706 0.2081845729 16.0943574449 
Si 6.9533051136 11.8345222082 21.9339269168 
Si 13.4788185333 7.3788650775 17.2748620605 
H 14.6774041642 5.4088827795 25.2398261270 
Si 3.7443054042 12.2141932417 23.4261529482 
Si 1.3113971400 13.0821081596 14.5228022532 
Si 8.3803254166 13.0353721492 15.3373322755 
H 6.5357435398 7.9007315223 26.9409503274 
Si 7.8040666614 9.1555502337 15.9960455314 
H 2.4605067825 13.9816908379 14.1565933049 
Si 12.0156507199 8.7790720403 14.0988540971 
Si 15.4412422712 12.4246111736 11.4909811904 
Si 13.6531215349 8.7400900699 10.8596288782 
Si 5.7655034627 8.6085320287 23.8590065935 
Si 4.8960735748 3.1491339588 21.5933505442 
Si 2.8157916858 13.6138300545 10.5635799516 
Si 0.2591462094 5.4618089900 16.9524774931 
Si 7.1628759655 7.2261463261 12.3858070871 
Si 5.7859311229 0.4422767620 28.8540193115 
Si 5.7391625325 3.0186836376 2.4560929049 
Si 8.3569329764 0.3092444758 2.6994178202 
Si 8.9638495120 2.5237934331 0.0333393392 
Si 7.1066428850 1.6120502697 1.1446102212 
Si 7.1011694449 4.3367727097 3.8719250721 
Si 5.7463627126 0.3007687888 5.3597569477 
Si 8.4237382670 3.0212085876 5.3856238785 
Si 7.1412102653 1.5997089656 6.8010986544 
Si 5.7491483026 3.0023773475 8.1028526770 
Si 8.4495904973 0.1957943988 8.2685123525 
Si 7.1562459354 4.3265588796 9.5598375785 
Si 4.4515683407 14.4129360118 19.8685271966 
H 7.8569765819 3.8213571049 13.6397819885 
Si 3.3075867903 7.5093479787 16.8148525320 
Si 5.9064608340 8.4432211072 19.2249298368 
Si 12.0719163804 4.9830947556 15.9867006266 
Si 1.7130238357 9.2064401942 17.1617857833 
Si 9.8857983604 8.7380538199 17.1467577703 
Si 2.9839859373 5.4740102001 26.0083346904 
Si 4.3276828896 1.8489638869 27.4055004836 
Si 15.6704914433 13.9838899879 13.3522284299 
Si 0.0227027216 9.0003391123 15.5266910981 
Si 12.4758595141 10.6288830072 19.0445936808 
Si 14.2615693304 13.7082631854 18.7957965768 
Si 10.9788085004 14.2945402907 12.7087482476 
Si 10.4285160054 16.1142310474 27.0058080677 
H 4.7512717635 9.5297966972 19.7186278935 
Si 5.8474095835 5.7418666725 29.1905237663 
Si 5.5833323911 8.5307635680 2.4543557486 
Si 8.4340987071 5.7565765426 2.5215365326 
Si 8.4267356271 8.7271069398 29.1247286061 
Si 7.0962172849 7.2490337763 1.1790662619 
Si 5.6795248419 5.6948863121 5.1452635536 
Si 8.3688572565 8.3924451768 5.2626168091 
Si 7.0177809342 6.9689598037 6.5745359789 
Si 5.7144506023 8.3379551263 7.9725220146 
Si 8.3672445465 5.7134406223 8.0711561662 
Si 11.7511662775 2.3334447813 18.6013112390 
Si 9.5812568076 7.5640986692 19.2320483693 
Si 7.4890180585 5.4137209095 16.2377826917 
Si 10.5438003364 10.9712988103 17.6643600348 
Si 3.8883904556 3.8729149554 16.0265116786 
Si 6.6496920908 10.1692769430 17.8070236280 
Si 3.1087184684 8.4741558175 10.6663153153 
Si 15.3397392803 7.9736292729 22.2964740685 
Si 8.2368105153 2.4595130925 20.7151345565 
H 6.7276071615 0.1580077886 23.9024794420 
Si 14.6725823242 10.3399635646 12.3191623901 
Si 15.9997775063 13.5862022143 24.2441104120 
Si 15.6713222333 8.7456286700 26.2670918810 
Si 14.4567561122 0.5217361248 25.7893885517 
Si 10.2391284636 5.6163848014 24.9129009320 
Si 1.7077458756 15.6931508335 22.1923325750 
Si 5.0363956361 11.6379507764 29.1453225498 
Si 8.3254769861 11.1312991918 2.5922677946 
Si 6.9763391738 12.3968041434 1.0871200155 
Si 6.9735535838 9.7844093995 3.9378081155 
Si 5.7364909725 11.1981859324 5.3551870256 
Si 7.1293674352 12.4895756942 6.8300414943 
Si 7.5282769589 9.2231863144 9.1839321930 
Si 8.5457503682 11.0582711211 8.1127541749 
Si 2.7620998453 0.7633021660 23.8866018922 
Si 7.5282280889 11.0456626610 14.5995828031 
H 12.8554165176 14.1884109398 18.5484348969 
Si 3.9678204963 4.9672445854 12.2888134204 
Si 5.6296937315 4.0311560169 23.6419060003 
Si 15.1600279986 12.7193950163 16.8568606619 
Si 15.2184276492 6.9052821932 15.6975065831 
Si 2.7098252348 11.2336981327 17.7881873466 
Si 7.5618343592 9.6123381279 22.5641953371 
Si 12.8269741773 11.9572836494 25.6902271014 
Si 3.9352079160 15.0350022475 12.0810577319 
Si 5.4357775697 6.3784147183 22.9358530387 
Si 10.7685208885 4.6389847924 21.2026515006 
Si 5.8018790331 13.9326090674 2.4846021880 
Si 8.6877340095 12.4752567841 28.7143144499 
Si 7.0791942347 15.1787452088 4.0373796870 
Si 8.4554874773 13.8096358563 5.3836318612 
Si 5.8021396731 5.7692175828 10.9917757917 
Si 5.7823473229 13.9223952373 8.1720166901 
Si 6.8336387725 15.4594056214 9.7017395180 
Si 8.9098807415 14.2261222901 27.1439896219 
H 4.6352055124 14.2269042101 27.7381673756 
Si 1.4010458978 15.3943107808 27.3274309814 
Si 15.7085611737 4.0969024575 21.3486546523 
Si 6.1508922863 15.2507144295 23.1569669610 
Si 1.3740908346 4.0542878171 22.6260650515 
Si 13.2612492913 10.7875313187 14.1927718547 
Si 0.6195380277 6.5286736797 19.0549638886 
Si 3.5296194923 10.7126787680 20.0163465993 
Si 2.8024827556 3.6256490432 20.8159071973 
Si 3.7369749042 9.8329861799 23.4321875889 
Si 16.1848319080 11.3127697935 24.1434842431 
Si 9.8412126300 4.3191306395 1.2599275178 
Si 10.6169424371 0.7842234132 29.1943320347 
Si 11.2025190725 3.0127214976 2.6791343968 
Si 12.4353299937 1.7177642257 1.1145600541 
Si 9.7785287094 1.6591853852 4.0145007822 
Si 12.5482196948 4.3645797399 4.0504449770 
Si 9.8170056898 4.2929851893 6.8240361479 
Si 11.1128100416 0.2172255230 5.3394559477 
Si 12.5545890848 1.5671810933 6.6012231521 
Si 10.0714554921 1.2608590435 9.6195102150 
Si 11.1834109023 2.7426658751 8.0714198155 
Si 12.5903130551 4.0048639566 9.4452965828 
Si 8.9168202816 3.0759592781 10.7126297179 
Si 4.6856882229 9.9538416910 11.5851040086 
Si 7.5475968990 14.1036866490 11.5199826190 
Si 11.2718493131 13.0207111491 24.1107917236 
Si 2.2316648604 8.9402127218 24.9956868281 
H 1.2838051377 12.4091193835 21.3711527302 
H 4.7230574832 15.2000525290 23.6441030782 
Si 11.7481200474 15.8921494753 10.9846279649 
Si 6.9995198440 15.6519208431 27.0888576132 
Si 14.8240630356 1.3162075770 27.9555902070 
Si 0.6037269535 1.1685484997 14.3675420800 
Si 8.5556383982 10.8356356891 12.5182176500 
H 5.6489485117 4.2856872692 20.8158486086 
Si 7.3176309669 13.9595690177 17.1921933418 
Si 12.2848266824 15.0070648972 23.4783555196 
Si 10.7313633981 3.5960664029 26.0201403224 
Si 11.1084606116 5.6697345519 29.1193384416 
Si 11.1415944719 8.3767741966 2.6346655396 
Si 12.4447619038 6.9838162839 1.2632260641 
Si 9.7955680496 7.0079254841 3.9955180289 
Si 11.1626900221 5.6810398120 5.4424256664 
Si 12.5066150344 7.0201266942 6.8703505506 
Si 9.2620542547 7.5607429291 9.2688858727 
Si 11.0663509612 8.4927264177 8.0444104043 
Si 7.2188972760 1.2132221961 16.7966314324 
Si 5.1775321974 0.4785106094 10.9506757874 
Si 13.0838837697 4.1851128083 17.9745288489 
Si 4.4579051508 8.0659121238 14.8342893141 
Si 2.4675766426 15.8163195247 19.9396246382 
Si 5.8905129239 1.5673814603 13.0056467110 
Si 13.2288484810 6.1672963164 19.2992789538 
Si 5.0269963060 13.9341240374 17.6031640910 
Si 5.3029814885 12.6294905055 25.2279619062 
Si 14.9211514365 0.8466304037 20.1436306470 
Si 3.2855464200 6.8406108926 21.9773704709 
H 14.0766289587 4.4933033211 23.9684503685 
H 9.1146297534 8.5934474886 14.1804975127 
Si 0.8242674915 10.1459822428 27.6498741375 
H 11.5077122252 14.6712465442 20.4805452230 
H 8.0594775737 7.7404542108 25.3743165903 
Si 14.4129523018 12.7847993669 21.0230184096 
Si 11.1513358920 2.0767632490 24.2495005765 
Si 9.8894147404 7.3429130472 27.9689484407 
Si 9.8188138798 9.8370749700 1.3197700616 
Si 10.7940147387 11.4570503248 29.1959139308 
Si 12.4978184343 12.4700928540 1.1889062416 
Si 12.4889403842 9.6920125186 4.0385514619 
Si 9.7491089692 12.5485129148 3.8573071804 
Si 9.7596323093 9.7812002695 6.5631697625 
Si 11.0860292814 11.1421809119 5.1973782420 
Si 12.5007017643 12.4577287439 6.5264346196 
Si 12.1441625311 10.0729215921 9.4138637213 
Si 10.3495746647 11.9477539993 9.4199569507 
Si 9.9418848309 1.7833640563 14.0020654909 
Si 14.2151917000 9.4183079361 18.0612108966 
H 8.0264414534 2.3631088716 16.2676629515 
Si 4.8911702847 11.6539964266 17.0171887616 
Si 1.7439422559 4.3586664699 11.4891942337 
Si 2.7830162055 5.8231211933 19.9261199326 
Si 11.5264945954 8.1382885944 22.9594935972 
Si 9.1884886140 5.1844391574 22.8249445451 
H 1.0966656160 3.0434444378 25.5627086987 
Si 7.5781569393 14.7580722450 13.8582301229 
Si 15.0350674075 2.1410110096 15.5271012194 
Si 14.6618472141 10.5725358967 16.0828447566 
H 13.7833763761 0.3487509842 28.5199169953 
Si 9.8061728397 15.3997353508 1.3306441326 
Si 11.1851865123 13.9114320672 2.5248175023 
Si 12.5092377244 15.2617264696 3.8809184444 
Si 9.7775024394 15.1390953485 6.8054049271 
Si 11.2122930725 13.6917614152 8.0248124692 
Si 12.8984384080 14.7990741753 9.2161560025 
Si 0.5301515388 0.3625877103 10.6204403283 
H 2.8431100160 15.8355580148 12.7571425506 
Si 12.6477841757 1.3696257455 20.5288223486 
H 13.1100780899 11.9156301190 18.5251751653 
Si 4.7031511030 12.3936113033 21.2075436608 
Si 4.2089287885 3.1324204186 13.7635507115 
Si 2.6922320346 9.0978836332 21.5268523191 
Si 9.9739761312 9.0530046828 12.9953643863 
Si 16.1632150778 2.6660214244 19.4828667851 
Si 5.4384165497 8.6939567895 26.2253766948 
Si 11.9709998295 0.7104427445 16.8644771987 
Si 1.6950885455 11.1004785115 25.6953829109 
Si 15.6534195232 16.2599288087 12.6457946414 
Si 9.5068115069 12.7792444769 11.4950531081 
H 10.6697383276 5.5047820103 13.8334763783 
H 11.8069106580 1.5516453202 15.6302467043 
Si 13.8373940166 0.2601333834 2.3754279212 
Si 13.7474406357 3.1133122485 29.0089279523 
Si 15.1835670489 4.4157303404 1.1123248935 
Si 15.1963058290 1.6613030852 3.7720312625 
Si 13.9575164777 2.9904041973 5.3380205235 
Si 15.2613355096 4.4020141603 6.7868615895 
Si 13.9334724374 0.1540063130 7.8655682613 
Si 15.4473998913 1.4503101163 9.0946429462 
Si 13.3653586822 0.9894155130 12.0341281475 
H 0.5547966801 3.5492326525 27.0547589639 
H 8.0022182232 12.8686114177 18.2193126240 
H 9.7472030391 2.4809018627 15.3295985612 
Si 14.1362503593 2.6381329441 10.5394120944 
Si 12.1454168611 0.2262664731 25.3055919929 
Si 9.3659192957 10.7707363285 25.6679926728 
H 8.9176510716 14.5310710929 0.4510073679 
H 4.7011637230 11.3575347139 10.7098174582 
Si 0.1218048923 8.8374228208 18.8424625119 
Si 15.3229768701 3.5029364720 17.4484019221 
Si 9.2643674347 0.3421698241 21.6420670854 
Si 8.0585979137 2.6033863738 12.8064742736 
Si 11.2998518233 10.7666312485 26.9889638036 
Si 12.4019192034 4.3974855402 27.5274529556 
Si 8.8280072007 12.6421967056 20.7899230891 
Si 1.9721651580 5.9890348448 23.8380904117 
Si 13.8746655369 5.7046603122 2.6240668357 
Si 13.5050780135 8.3883726767 29.0351171212 
Si 15.2075947991 7.0948977949 4.0091399121 
Si 13.8556225267 8.3989123068 5.4799224630 
Si 13.8759361569 5.6929640921 8.3145338114 
Si 15.1526649186 7.1728291556 9.7577796523 
Si 10.6030144870 11.7194659372 22.2502182547 
Si 14.2605104804 10.1922458432 24.8795639363 
Si 0.0532138919 11.5718459558 21.7355454274 
Si 3.2645323199 0.0772533709 26.1213523788 
Si 11.5420515456 7.4448721581 16.0073531591 
Si 8.9463703418 5.5002208103 18.1844523209 
Si 1.1356345544 2.3750657317 24.2129411998 
Si 1.8660846771 2.9192006067 13.4019995684 
Si 1.3044022139 15.2066173991 17.8963128748 
Si 1.3869485317 11.7753080577 11.1013367442 
Si 0.4378295920 9.3948666259 21.0704459984 
Si 6.2278788270 0.1766275846 14.9026037903 
Si 8.4908041977 15.8029291445 17.9437697579 
Si 4.3364306197 15.3192790401 15.7646492845 
Si 14.9440388867 7.1142828951 27.7610462804 
Si 8.5249480380 11.3821977741 18.7948591568 
Si 5.4927599902 2.1656414898 18.1053575156 
Si 14.9886246171 9.7387485291 1.1518722961 
Si 13.7372756756 11.0520320511 2.6147482959 
Si 15.2012416990 12.4275433737 3.8758798124 
Si 15.2061938591 9.7894755895 6.8574317324 
Si 3.2316753896 2.0047125783 17.2935225756 
Si 13.7503891258 11.2126025825 8.0909884562 
Si 14.6316618438 13.0673819995 9.3472483186 
Si 11.0435449610 5.9149316341 12.4223957582 
H 7.9751931129 4.2718407691 15.3410526608 
Si 14.1988365399 14.1532082494 15.1872865005 
Si 9.3799286958 7.2758634065 11.6020068615 
Si 10.3580454647 15.2906575098 16.5828996920 
Si 4.9868740356 14.6939059344 26.3194995131 
Si 10.6190927171 12.9203484582 16.1421951549 
Si 11.3878178241 6.8584484427 20.6862503054 
Si 13.5064952435 3.8438861752 14.3982425821 
Si 13.6831277151 5.9145406741 26.2433927338 
Si 14.1877593398 3.4035837611 22.9589077097 
Si 6.0841521556 1.5941638496 20.3048082835 
Si 9.7536050092 9.8068407297 23.4660225889 
Si 7.7610284810 8.2401825454 20.6346336214 
Si 1.5646870943 7.6683220901 12.3140651693 
Si 14.3969555217 13.2049021808 29.2549713854 
Si 15.2933616499 15.1121516882 1.1161976095 
Si 13.8562089667 13.8337776365 5.1800066792 
Si 15.2832944298 15.1920541389 6.4444396715 
Si 0.0067338951 6.0346468452 11.6579298182 
Si 14.4346994520 14.4072508018 22.7369735451 
Si 15.6897299335 16.2709082688 22.1590541680 
Si 12.2468221120 12.9912751188 14.3939363094 
Si 13.4809688133 9.3908429959 22.7685821728 
Si 5.6793782319 4.5870196920 17.5847086365 
Si 6.1706357664 15.6126619428 20.8384052753 
Si 15.2786029097 1.5488141182 23.8711344637 
Si 0.3415035631 7.6410526299 24.3159695073 
Si 14.6841482243 5.8702481637 13.5561758499 
Si 8.4864221876 0.8993481022 26.0761218679 
Si 11.8029847679 8.5225208279 27.1819551285 
Si 12.7128953063 11.1407799719 21.3148489466 
Si 2.1423304996 1.9090576975 19.3871913651 

