&CONTROL
  dt          = 30.D0,
  prefix = 'aSiHcSi_merged-8',
  pseudo_dir = './',
  outdir='./',
 wf_collect=.true.,
 verbosity ="high",
/

&SYSTEM
    ibrav= 0, nat=  398, ntyp= 2,
  ecutwfc     = 42.D0,
  nbnd=1478,
  degauss     = 0.05D0,
  occupations = "smearing",
  smearing    = "methfessel-paxton",
/
&ELECTRONS
  electron_maxstep=200,
  conv_thr    = 1.D-8,
  mixing_beta = 0.3D0,
  scf_must_converge=.false.,
/
&IONS
/
ATOMIC_SPECIES
Si  28.08  Si.pbe-hgh.UPF
H  1.00784  H.pbe-hgh.UPF

K_POINTS {automatic}
2 2 2 0 0 0

CELL_PARAMETERS angstrom
16.29000014898320 0.00000000000000 0.00000000000000
0.00000000000000 16.29000014898320 0.00000000000000
0.00000000000000 0.00000000000000 29.48209827789657

ATOMIC_POSITIONS angstrom
Si 16.0815207271 16.0327647566 29.1424055415 
Si 16.2518815486 2.5229463531 2.4714518683 
Si 2.5383241132 16.1261879075 2.5754882967 
Si 2.9004019465 2.2916446410 29.3024048889 
Si 1.2558938515 1.0980616690 1.0421538474 
Si 3.9318684660 3.9668756763 1.1714210555 
Si 1.2853184788 3.8496854152 3.9639270777 
Si 3.9138354358 1.3064873339 3.8650736021 
Si 16.2018549582 16.1946059081 5.4533626827 
Si 2.6328712741 2.5893769737 5.4519180598 
Si 1.2602302495 1.2572801305 6.8790579912 
Si 3.9434995261 4.0141655467 6.8728372684 
Si 16.1347401576 2.7540362952 8.1478200906 
Si 2.7150543248 16.0493479768 8.0589610464 
Si 0.6245243967 4.6527824226 9.3933502965 
Si 4.4815419410 0.7755424721 9.2560226827 
Si 1.9663007580 4.1600262080 25.6837426642 
Si 13.5909914743 13.0463027393 15.9865793449 
Si 2.6098535039 5.7273034124 22.1735745611 
Si 10.1813152531 4.8266130141 23.9630199982 
Si 8.1536989346 4.9114350449 12.4589283576 
Si 8.8148285906 1.4107645119 23.0073577825 
Si 12.3054661125 7.8472514518 24.8551777742 
H 1.5990589946 1.2187233291 25.7716582812 
Si 7.7990656313 15.1860431289 20.5058017436 
Si 1.3938717817 3.5887196128 27.9128841150 
Si 13.8328816865 11.1665181721 26.7654408500 
Si 11.7449760774 3.5589577825 11.2173192707 
Si 7.0205665242 0.0634374960 23.7413735833 
Si 2.1247698794 15.1088773982 19.8723198979 
H 6.8394380126 2.2235687303 26.1196944514 
Si 0.2786404525 8.3044791760 22.2689786311 
H 0.2918320947 1.5244393909 23.3266783889 
Si 8.0857044739 1.1687146577 12.2633146355 
Si 0.1040303845 5.1951253975 29.1816462143 
Si 16.2738567588 8.0023322532 2.5203479283 
Si 2.6180473739 5.2380169679 2.6328928903 
Si 3.0174618876 7.5616388792 29.3547061312 
Si 1.3369382312 6.5749209901 1.1886150152 
Si 4.0555095671 6.6514188308 3.8983294090 
Si 16.2649624188 5.3250870187 5.2400007374 
Si 2.7139628948 8.0109496633 5.2791529639 
Si 1.3482597813 6.6823046711 6.6350346637 
Si 0.0817267678 8.0646089238 8.0687785851 
Si 2.5744064635 5.4731305401 8.2669572497 
Si 3.5659787726 7.2490989363 9.6167656373 
Si 5.2162698177 5.1281572069 15.4466736791 
H 12.6733268959 4.6224178623 26.7268782654 
H 3.1936219492 3.0043484375 25.1810139243 
Si 9.7161380089 7.2280522561 16.2062799413 
Si 2.2519622006 7.8956979122 27.0532745755 
Si 5.4944704403 10.3291470045 27.2709114250 
Si 0.8547623718 14.8767937661 15.7266946486 
H 2.0049406383 13.6926410752 23.6830579929 
Si 12.4496651939 9.6273086380 27.9879750193 
Si 1.4649694874 11.5742568759 17.6234844055 
H 8.5863776285 0.1403183146 27.1422810302 
Si 13.5718670141 13.4468086830 10.8458448324 
Si 3.2625612298 6.0841032856 25.9528552572 
Si 15.0313369975 12.4517014439 28.2525473692 
Si 3.9440859661 9.3391874054 1.1916811534 
Si 16.2558888887 10.8565846293 29.4384352903 
Si 2.6383284241 10.6489522874 2.6487572074 
Si 1.4063303739 12.0951947906 1.3138313830 
Si 1.2746289807 9.3199000452 3.9810856589 
Si 4.0473319870 12.1128205708 3.8497723931 
Si 4.0631658672 9.4170373161 6.6120975913 
Si 16.1906963081 10.7062930879 5.2899434119 
Si 1.2682856546 12.0022766298 6.6609494281 
Si 1.8318268068 9.0122633924 9.5124579736 
Si 2.6766587945 10.6842690077 8.0214892995 
Si 3.7068221139 12.3870790133 9.2893964180 
Si 13.0687340695 15.8820333853 22.9161696525 
Si 5.0115208058 10.6272377172 16.3207884110 
Si 10.4644680357 14.7984225753 14.2597538846 
Si 15.2452572794 10.2334269636 11.0915191573 
Si 6.1852316066 12.0603993503 22.1629904878 
Si 13.3867474524 9.6331078781 23.7998660663 
Si 14.7751930351 15.0895248780 15.7519313247 
Si 3.4717411218 7.0594833346 17.5030795161 
H 9.2258741644 5.6334241415 15.6134833912 
Si 0.6951236284 6.8826553829 14.7296100848 
Si 13.6292729746 3.7881906646 12.7301931438 
Si 2.1276043395 14.0060932581 17.6488095279 
Si 1.4985008237 0.9445251596 19.1510403636 
Si 8.4831804776 14.1047943690 13.0986309260 
Si 7.1294814652 5.5807422810 18.7701611359 
Si 14.7011061145 7.4338112480 15.1006717737 
Si 16.2543576287 13.5009403535 2.5978003487 
Si 3.2154016794 12.9401570983 0.0434303738 
Si 3.9855277265 14.8855740761 1.1750473536 
Si 1.2531522445 14.8243399656 4.0535526564 
Si 2.6474996942 13.3818604524 5.2853736867 
Si 4.0167230767 14.8122690755 6.5452321924 
Si 16.2926065490 13.3157393418 8.1529204936 
Si 1.8894608273 14.1911965298 9.3169326978 
Si 16.0269003566 3.9149431558 18.5753139484 
Si 1.3513157854 3.7305566441 16.8897634256 
Si 12.5477635748 2.2142671403 20.5460742899 
Si 5.3490007389 1.9081291675 14.6716187975 
Si 1.0210832733 4.6520167925 23.5416028854 
Si 13.7206761655 14.9915242371 24.9757300740 
Si 14.5086234727 9.4120525761 21.7295446789 
Si 13.3654727122 13.1090518199 20.3192095436 
H 6.6427362608 15.4957811917 14.1150262641 
Si 12.2100881617 4.9114839149 14.2166805390 
Si 14.9213794965 11.3317476436 20.4239594388 
Si 10.9278045099 13.4979429934 26.6482495093 
Si 5.4325032797 11.2489455729 10.5731649054 
Si 14.5959867435 9.3400670654 16.6590365245 
Si 4.4277360705 4.6725259027 21.2275235095 
Si 12.7641762267 8.8767468812 18.0431915566 
Si 3.3821949909 14.9374740166 26.0202808160 
Si 4.6744155428 0.4592770062 29.2771976949 
Si 5.3468830389 2.6747202845 2.5278511223 
Si 7.9566388028 16.1729076279 2.3744999881 
Si 8.0686162638 2.5575137334 29.1736270836 
Si 6.5623125300 1.2994305059 1.0349749565 
Si 6.6701849110 4.0287125168 3.9178760401 
Si 5.3027860085 16.1901098681 5.1367839114 
Si 8.0870891240 2.6359826641 5.1551217765 
Si 6.6822720911 1.2677562296 6.4395683522 
Si 5.4282352996 2.5159579430 7.9753498156 
Si 7.9879156031 -0.0019701452 7.9270581387 
Si 7.2578303764 3.3264017404 9.2437286478 
Si 10.2193035335 15.9816793162 16.2775971370 
Si 9.1277920735 9.9802152013 26.3481217489 
Si 1.7239381358 16.2506109286 24.9380224703 
Si 14.2619602904 16.1998024182 13.6586728649 
Si 3.3977356511 1.6570513952 11.1882794039 
Si 1.5647620283 9.0568491228 13.8330889583 
Si 3.7451524843 0.8835077061 16.0887348154 
Si 13.9112365872 4.0334691969 17.5561767751 
Si 0.0318813222 6.1888154066 19.0955550546 
Si 9.8269425899 8.0890439240 13.9657878826 
Si 1.3594200604 6.1530588563 16.9374359786 
Si 4.2056707885 14.8704895360 16.5456188924 
Si 0.3078924058 14.7779786252 21.3990503572 
H 5.1296558869 12.7490591066 18.7731977920 
Si 5.9334533643 1.1719368197 25.5170803626 
Si 6.8475830126 14.1708828996 27.0352904955 
Si 4.7755927337 5.8476865135 29.4245492221 
Si 5.4173698695 8.0903145440 2.5600662111 
Si 8.0012408232 5.3378095088 2.4511298580 
Si 8.1922736549 7.9302978725 29.1073218446 
Si 6.6826956311 6.7566685218 1.0784669478 
Si 5.3167465386 5.3137491786 5.3968160182 
Si 8.0634686237 7.9686608229 5.3288597816 
Si 6.6764728511 6.6430457708 6.8014316264 
H 4.1019686475 13.8063941463 11.4655290561 
Si 5.2690819982 8.0753766139 8.1202838108 
Si 8.1166554742 5.2298556778 8.0801881571 
Si 4.0121455867 13.0058383789 24.7950637758 
Si 1.5366471171 7.1632832155 20.6426576438 
Si 6.2924523875 7.2052299659 15.6791400241 
Si 12.9661885186 0.2143145000 26.6662041072 
Si 7.9206867724 0.0242235560 16.6459169908 
Si 2.9125217066 10.6391619973 19.2535496193 
Si 11.7172830772 6.4560039890 23.1162646535 
Si 4.3806742601 6.8365546825 11.9499788950 
Si 6.0331970352 6.0057972549 23.9552662063 
H 11.2153555926 15.4373652512 10.4808269736 
Si 12.4622410740 13.3865519724 18.1571103843 
Si 13.4995231235 8.0237698934 13.0263703031 
Si 3.8700316254 6.8555325327 23.8170836117 
H 0.6695515861 10.0190179816 28.3844207948 
Si 4.8697815145 11.1229424217 29.4237532054 
Si 8.0627355737 10.7228111481 2.4484469870 
Si 6.6860350811 12.1180496608 1.0734903697 
Si 6.7668171919 9.4182753561 3.9545222883 
Si 5.4089479395 10.8213656490 5.2855505793 
Si 6.7301646916 12.1835354614 6.7064697879 
Si 6.6048620104 9.5707660475 9.3154585929 
Si 8.1092272342 10.7125158680 7.9359912144 
Si 11.6731534668 11.3450565738 23.7217385059 
Si 13.9986975980 5.6683824818 22.8578540621 
Si 1.7200936957 12.3760018132 12.1414061591 
Si 15.9690382760 6.6367089607 23.8968032054 
Si 9.6913446286 16.2133231183 21.4035021541 
Si 9.1283948035 4.5900659220 19.6059196579 
Si 2.9355720568 2.2532165306 17.8786224840 
H 2.2599768807 1.5124043388 21.9659616250 
H 14.4086843218 1.8367626768 10.7302455250 
Si 2.4473281724 11.4933933151 21.4110495712 
Si 11.0009629006 14.7890884053 22.7146889929 
Si 7.4929113685 10.1228015726 13.3570709995 
H 5.4125317395 3.9553260662 26.8937469417 
Si 0.6854017563 11.1891286923 24.5411049812 
Si 3.7979157947 4.9848214956 13.3974909562 
Si 10.5980623269 2.4907898928 24.2133524947 
Si 3.8564620553 15.2433839294 21.5607891484 
Si 5.4187056496 13.5339927638 2.4940911716 
Si 8.0371928535 13.3153646718 28.9699352666 
Si 6.7401341716 14.8476346658 3.8825270043 
Si 8.0662542138 13.4879898034 5.2850493836 
Si 5.3422892589 13.5817387542 8.0579291729 
Si 6.2936578476 15.4058115209 9.3296689642 
Si 7.7608004210 7.3805103675 17.4827663504 
Si 6.7653673819 6.7473343517 11.9184035677 
Si 16.2158154883 7.8063798414 26.0928657420 
Si 5.4303855797 8.5584076983 20.3210669158 
Si 9.2664199747 9.3278495653 20.6129102067 
H 3.9485657161 11.2970336533 17.1356441253 
Si 5.9492383744 12.2474737120 25.9442170025 
Si 10.9162548998 10.7697100585 10.8600552037 
Si 11.4949245751 12.6661267158 21.7824650453 
Si 8.8501127309 4.8129782840 21.9726245792 
Si 1.0031626442 10.9787596304 15.3098177789 
Si 12.3818499232 12.0194625799 12.3132573100 
Si 10.9994479306 5.9079106440 19.3396373462 
Si 9.3881714359 3.9708667263 1.0801356346 
Si 10.7056577779 16.1742108279 29.4318313003 
Si 10.7626564884 2.6422054442 2.4829616795 
Si 12.1635476312 1.2820702527 1.1814154868 
Si 9.3779413158 1.2270621802 3.7612671341 
Si 12.1604036612 3.9644484663 3.8538704048 
Si 9.4421239164 4.0279631768 6.5200249984 
Si 10.6922836878 16.1530989877 5.1966620530 
Si 12.0884018606 1.1444083485 6.5546074996 
Si 6.9171576033 15.3905315008 11.6578702652 
Si 9.0293678926 1.6898105855 9.1736497002 
Si 10.7321127382 2.5738200235 7.8139942918 
Si 12.5177899745 3.4736796318 9.0294822396 
Si 5.2637551681 12.0457220602 14.4740297748 
Si 0.7155398855 2.7722159354 14.7683495620 
Si 16.2143168083 2.7679968253 22.5544832709 
Si 5.1790634574 5.4235763596 27.1506244640 
Si 15.1851797589 9.9068287506 25.3629479528 
H 14.6729244142 3.1741879790 25.0064504204 
H 9.5431219173 13.0943908198 17.5701807718 
H 7.8867872821 15.6037187327 19.0468211461 
Si 4.7791602437 2.9616849271 12.6108201279 
Si 10.9235528199 10.1688534030 17.4269272563 
Si 3.5917332628 9.6293123081 26.1525080268 
Si 9.4481186364 1.1263183033 27.8997056170 
Si 8.0286243134 8.1545623046 10.5287943475 
Si 14.2055154399 3.3783342609 23.5625056931 
Si 10.8977168797 5.2248057778 29.2220072069 
Si 10.8161691389 8.0151687733 2.4617139313 
Si 12.2356960419 6.6579511209 1.0961031390 
Si 9.3954530659 6.6888206712 3.8225309343 
Si 10.8054503188 5.3690537291 5.1737839447 
Si 12.1398131010 6.6710645710 6.6370394464 
Si 1.1479921485 14.5669742532 11.5093689362 
Si 9.4573550665 6.6273910806 9.4380451575 
Si 10.8593050593 7.9828005430 8.1142694627 
Si 13.8593203568 0.2337566151 17.4512794694 
Si 1.3867465357 4.8125873240 13.6145971279 
Si 14.3356725411 15.2109342491 21.0123041920 
Si 8.0904285740 9.0398097827 22.6229112210 
Si 10.5074736361 1.7922095264 12.2891999178 
Si 6.6950597412 3.3700752308 15.9256398478 
Si 6.5954626803 12.7382588365 18.4383401198 
H 0.1370445133 9.0968899432 19.1036331495 
Si 1.6400935050 13.0197337491 14.3780950270 
H 2.2100154502 2.5408164832 10.7839029439 
Si 11.0498654811 7.5975583295 21.0092970180 
Si 7.3716323174 1.9557937079 17.8572184806 
Si 14.2602335504 6.0209795351 20.4654407511 
H 9.7016236187 9.2833615749 17.5439417043 
Si 14.1053645190 8.1705265047 10.6952502744 
Si 0.3997223947 12.5071363144 21.3387594663 
Si 9.5195665771 2.5578232434 18.5072987477 
Si 9.8261932499 6.7164810914 27.8138537468 
Si 9.4576808665 9.3649256056 1.0609722707 
Si 10.9029948397 10.7796306686 29.3229833935 
Si 12.1115010808 12.1181962708 1.3015432445 
Si 12.1594099712 9.3480654555 3.9181118969 
Si 9.3757747457 12.0676972704 3.9096800168 
Si 9.4865467468 9.3013946051 6.6626299077 
Si 10.7772686186 10.7118968480 5.2629967741 
Si 12.1294037909 12.0938753006 6.6404298877 
Si 12.2729024022 9.2831009349 9.5254595789 
Si 9.5353352972 11.9730523695 9.3188785163 
Si 11.7669512876 12.8675036977 14.4447835334 
H 10.1226875426 0.0297820299 25.3309009120 
Si 14.7306724647 2.1943118901 14.1802701476 
Si 10.9313720200 8.4690081775 26.6408495027 
Si 12.6990976761 12.7240702464 25.3860029537 
Si 11.3977873042 1.5610821173 15.4524816525 
H 8.5360415281 12.7588982667 10.1320242689 
Si 7.6616920601 12.8526635075 20.5104599151 
Si 9.2449823346 10.6222692671 24.1134376636 
Si 13.2032894708 8.1503269045 20.2702397784 
Si 6.2926804476 2.0012916783 20.0304618731 
Si 2.4561899325 11.6455419165 25.9480496752 
Si 9.2881997049 14.7076872745 1.0670750651 
Si 10.6920882078 13.4719441532 2.5675988872 
Si 12.1181148208 14.7949853853 3.9319979652 
Si 9.3969191659 14.8465106558 6.6785207587 
Si 14.3281139810 0.8847066501 19.7058934531 
Si 12.5090585344 1.9122342475 22.9030796009 
Si 10.7883783987 13.4677250432 8.0164773427 
Si 12.1353333510 14.7448610549 9.4914372375 
H 9.2316896944 13.0248488091 12.3529991784 
Si 10.8302274090 0.9175065654 19.6046519277 
Si 10.1193969625 14.8578484959 24.9099849949 
Si 11.7117281871 6.9015680731 17.3292530647 
Si 5.8118973832 9.7469261091 22.3351069776 
Si 3.8533995352 8.6522055191 13.4529173010 
Si 6.0446326153 6.3514873481 20.6829301901 
Si 1.8753211072 9.8777348103 23.0047928399 
Si 6.5801500802 14.3793460315 16.7607202815 
Si 3.9739129563 9.1737787439 23.8396079348 
Si 9.2934450850 9.4805194467 11.9861534296 
H 0.9352871006 4.2910792592 10.8353197233 
H 14.1069935190 5.7674745527 27.0844666354 
Si 4.9846748856 5.1504582171 17.7955124489 
Si 10.4910533159 3.2607693298 14.2165626106 
Si 0.1187215211 14.2403597502 27.5370168440 
Si 3.8456454952 13.8224560864 14.4719955101 
H 14.7321874347 4.6423405325 12.1062929800 
H 6.4545867590 12.3316930128 10.7593443560 
Si 13.4770429233 16.2295968284 2.6353281116 
Si 13.5202440037 2.6484933842 29.2496908972 
Si 14.9338413466 3.9682929063 1.1185979800 
Si 14.8986223663 1.2469392384 3.9685852492 
Si 13.4814249333 2.5957789437 5.2709274585 
Si 14.8730959360 3.9900563465 6.5658106970 
Si 11.4551443948 6.7601057118 13.0120125212 
Si 13.4079570326 16.2195133183 8.1367348216 
Si 14.2460123803 1.8593731970 9.2376258534 
Si 11.1826452723 1.8995932074 26.4836804367 
Si 5.2177522077 15.9116974755 27.1227933632 
Si 10.2744288940 5.4712083200 11.3721887329 
Si 9.0191214825 5.4513670999 26.0122027211 
Si 4.4578399908 3.3595030207 19.2885153878 
Si 2.6109449339 16.1911198481 12.5154750220 
Si 7.4196063679 9.0888752631 19.0200808830 
Si 12.7775503169 4.3900573002 19.5883188452 
Si 5.2095257576 10.4889844859 12.7735023462 
Si 7.2493432863 8.7426150200 27.1020379660 
Si 4.0421517670 13.0159707590 22.3999675938 
Si 14.7288479847 1.2087228981 27.8625286911 
Si 13.5673058141 5.3131953186 2.5045337308 
Si 13.6728324350 8.0425685536 29.2458877065 
Si 14.8901352762 6.6800729411 3.8958529127 
Si 13.5506900139 8.0249427734 5.3191601713 
Si 13.5319402238 5.3288011387 7.9591346616 
Si 15.1522413786 6.4610375991 9.2865956187 
Si 11.7395677974 15.6344579630 18.0175716132 
H 4.2912258692 11.2085137925 19.0954960904 
Si 0.5151191267 13.3617748822 23.5890985457 
Si 16.1781041380 2.2306223004 20.2352740098 
H 0.6766377362 4.7368062433 12.2701839644 
Si 11.8759802586 0.2314352901 13.4900057806 
Si 1.8567993770 0.5879728944 14.7083240099 
H 15.5562008023 1.9545067979 26.8361684038 
Si 10.6810761677 10.9404129701 15.2574280903 
Si 7.0956960049 10.7317869381 17.3773088849 
Si 9.5637124775 11.9129585590 27.7646186427 
Si 6.9269967634 3.1331860487 11.5835458955 
Si 13.9212386473 10.3991940051 13.0704755221 
Si 3.2398040996 8.3458231963 19.4560916344 
Si 13.3289668219 5.7657641027 16.0877029420 
H 10.2153124834 2.9291863768 17.2042489680 
Si 9.7315972190 11.7049678370 20.5159141033 
Si 7.4798793684 12.2521326521 24.1152950358 
Si 15.0632328178 6.6804476111 27.8527995987 
Si 12.0353453301 3.7406564442 27.7675668525 
H 10.9620298003 9.7730389794 14.2497004890 
Si 14.9123874164 9.4056994760 1.2212900247 
Si 13.5178493736 10.7426360782 2.5956923787 
Si 14.8718253160 12.1254779009 3.9486553508 
Si 14.8875125862 9.3924068359 6.7407574682 
Si 13.4405370329 10.7306792181 8.0542439106 
Si 14.8146962855 11.9779067895 9.4923217004 
Si 1.1838040848 10.0542532520 11.6415666649 
Si 7.4128297278 2.9742770972 21.9593576350 
Si 15.8676981851 10.3664022348 18.4502508875 
Si 15.1093660982 15.0444830276 11.7242934327 
Si 13.5172140636 2.1608685198 16.2284209971 
Si 10.4843418359 12.2157733717 18.3723591838 
H 0.5358432649 0.5512454600 18.0415700412 
Si 7.2191253360 0.5647824502 14.4478201895 
Si 2.2870671509 13.4379957929 27.4561179663 
Si 2.9288279968 0.6200299857 23.0049107683 
Si 8.5193931479 4.3451620597 14.7464443629 
Si 7.3078243868 13.1068852499 14.8890197902 
Si 16.0531109668 14.8812409361 25.2571661842 
Si 8.3328889362 11.0654224312 15.3527731961 
Si 13.4372464529 13.5504619539 0.0286981693 
Si 14.8381864657 14.8926276462 1.2969499336 
Si 13.5313700738 13.4907753934 5.3553641880 
Si 14.8798888661 14.8075612654 6.8567105607 
Si 14.8490844758 11.1228121017 15.1751140719 
Si 4.6060952821 14.8529126258 12.4674486840 
Si 7.4532452182 7.8421038117 13.8183479091 
Si 7.5808122093 6.7231925715 22.3928918902 
Si 6.9340503334 6.5403861898 26.0435127095 
Si 4.3772533600 8.4538096073 15.7641958776 
Si 7.8647306219 14.4323862720 24.8530845452 
Si 4.3012442193 2.1839188700 24.2284473290 
Si 12.0890860406 14.8814364161 28.1221480485 
Si 5.5472500407 3.8233281950 23.1090415395 
Si 5.9771105647 16.2948871490 21.4652966321 
H 15.0414367976 15.9791380761 10.5300031135 
H 7.2562828264 3.3646832408 28.1980939337 

