&CONTROL
  dt          = 30.D0,
  prefix = 'aSiHcSi_merged-14',
  pseudo_dir = './',
  outdir='./',
 wf_collect=.true.,
 verbosity ="high",
/

&SYSTEM
    ibrav= 0, nat=  398, ntyp= 2,
  ecutwfc     = 42.D0,
  nbnd=1478,
  degauss     = 0.05D0,
  occupations = "smearing",
  smearing    = "methfessel-paxton",
/
&ELECTRONS
  electron_maxstep=200,
  conv_thr    = 1.D-8,
  mixing_beta = 0.3D0,
  scf_must_converge=.false.,
/
&IONS
/
ATOMIC_SPECIES
Si  28.08  Si.pbe-hgh.UPF
H  1.00784  H.pbe-hgh.UPF

K_POINTS {automatic}
2 2 2 0 0 0

CELL_PARAMETERS angstrom
16.29000014898320 0.00000000000000 0.00000000000000
0.00000000000000 16.29000014898320 0.00000000000000
0.00000000000000 0.00000000000000 29.41874646731717

ATOMIC_POSITIONS angstrom
Si 16.1882690981 0.0918363419 29.1948992254 
Si 0.0067557400 2.6356894441 2.5953100458 
Si 2.6619652143 16.2471737386 2.6409708822 
Si 3.0987326983 2.3664157416 29.2234354095 
Si 1.4064020499 1.2859505308 1.1563832605 
Si 4.0281912368 4.0286147768 1.2735228252 
Si 1.2682221236 4.0027788366 4.0495198700 
Si 4.0405716370 1.3266836761 3.9980664824 
Si 16.2319100085 16.2148543783 5.4148733123 
Si 2.6412769142 2.6440462142 5.4032234887 
Si 1.2541768855 1.2967149629 6.7916412282 
Si 4.0015733766 4.0436830270 6.7282732483 
H 4.9155564150 8.3950678668 20.3043186931 
Si 16.1658703478 2.6213053740 8.1886786604 
Si 2.5622215434 16.1676459579 8.1276347615 
Si 1.3554860254 3.9412352160 9.4619220075 
Si 4.0979613075 1.1009335961 9.3686057437 
Si 5.1034615667 0.6121228196 16.5674612605 
Si 8.5214782679 13.6165667745 23.0013116942 
Si 13.4900097634 2.4946832028 11.1625020658 
H 10.6691355976 7.4956806686 19.9447039362 
Si 10.1610504929 1.2035312750 28.0595415430 
Si 12.7839685769 0.0820726046 17.2491818724 
Si 11.5450163256 4.6653583027 26.0480347533 
Si 4.1027016975 11.8701973086 19.1121534112 
Si 13.9961074880 3.0274313677 16.0096524088 
Si 0.2326945071 6.3643238682 22.3135014018 
Si 8.4181182170 1.1541742036 24.5809512858 
H 5.3733868691 14.8439368358 12.1863921179 
Si 9.4768704867 6.5475212099 17.0828482799 
Si 12.4509846839 10.6513143374 19.9551770100 
Si 5.8465950835 4.9785661355 27.6111115906 
Si 3.7614913544 9.4479394464 12.4324505133 
Si 15.5447652222 0.4347801040 22.1935905912 
Si 7.7133476505 1.1588559496 22.3293875249 
Si 15.8873113453 5.6508707317 0.1385084596 
Si 0.0625628859 8.1027601041 2.6657355830 
Si 2.6222827740 5.3324989688 2.6609520948 
Si 3.2555565298 7.6892221603 29.3508185817 
Si 1.3993843178 6.7512928217 1.2116610851 
Si 3.9741410163 6.7440600617 4.0391644712 
Si 16.2331806285 5.3514116589 5.4698275307 
Si 2.6966140447 8.1177794842 5.4925976404 
Si 1.3225052911 6.7219708215 6.8152056441 
Si 16.1835612880 8.0431712836 8.1409908724 
Si 2.7136696748 5.3879175493 8.1773818618 
Si 4.0743733873 6.6820766111 9.6618223898 
H 2.6022786538 9.1512496737 23.7245715761 
H 0.9654203428 6.6120296105 27.4079751463 
Si 15.2427974894 4.3538446298 14.5120322824 
Si 7.3845502875 15.1822964289 21.6131293046 
Si 10.5763151767 2.2623552207 14.0725162101 
Si 4.8379834342 4.7685880336 17.4161332586 
Si 5.8662408237 10.8628399893 24.7554927085 
Si 11.8307755082 11.9595805394 11.8972058401 
Si 0.2770717255 16.2703544088 16.1658953713 
Si 13.5985500344 14.1859022797 20.6226295298 
Si 6.8359519525 6.2618597673 22.9719223665 
Si 4.1198387777 14.4756525124 12.9725198610 
Si 4.0437644770 9.4304439862 1.3542743424 
Si 16.1357012676 10.9411786001 0.0908433240 
Si 2.6173957739 10.8021108688 2.6467193053 
Si 1.3572095074 12.2543155121 1.2487169382 
Si 1.3218927871 9.4692467666 4.1014145387 
Si 3.9622493162 12.0934354706 4.0869405155 
Si 4.0820948473 9.4421727864 6.9343515673 
Si 16.1902238981 10.8280282590 5.4127257438 
Si 1.2868090138 12.1541157212 6.8303857173 
Si 1.6301240249 0.3175263119 22.3654843268 
Si 1.2767743737 9.4010405360 9.5029023214 
Si 2.6819204645 10.8451164692 8.2534293214 
Si 3.9438253261 12.2945518124 9.7296620191 
Si 5.3320428488 8.6861864594 25.7625846564 
Si 14.3362264011 0.6906194433 15.6297387169 
Si 0.0121925927 4.1019523575 21.5615288233 
Si 11.0266522308 8.7422892200 24.9769864507 
Si 2.5516004633 2.3712212917 10.7779696308 
Si 13.1031385498 4.9180650750 19.6805824305 
Si 3.7209781240 9.0503819928 22.7037999112 
Si 13.1681519404 12.7138564163 18.8694487529 
H 7.3575251773 13.9719494178 15.5719014613 
Si 1.9732891680 10.5855027368 16.5074764365 
Si 0.3364862431 8.9792761421 15.7608874886 
Si 13.2844951215 15.8234382547 13.8450210437 
Si 12.6127769654 9.2184296343 16.4608771421 
Si 6.1683225864 5.0611238563 15.5085923189 
Si 5.5390235907 15.2781956597 18.3173765566 
H 13.0974207598 10.5727150867 26.2487882792 
Si 16.1783973580 13.5904539043 2.5341014019 
Si 2.7059970847 13.5482465139 29.1629210480 
Si 3.9941777165 14.8319148156 1.3083693304 
Si 1.2629474216 14.8872845262 3.9856517714 
Si 2.5888231137 13.4904984634 5.3791589541 
Si 3.9436298461 14.8298134056 6.7701949620 
Si 16.2566870987 13.5239581237 8.2432504351 
Si 1.3042556039 14.8974169062 9.7109222776 
Si 5.7552570526 14.8642993359 25.0350002187 
Si 4.9017262048 8.5362207181 17.2717460510 
Si 0.8421164447 1.5989449646 12.3154521586 
Si 9.3171144552 0.1338661713 18.7742202705 
H 11.2549402929 9.4874752768 22.5003104419 
Si 5.1021909467 10.8219357990 11.1210216333 
Si 14.2062159099 3.2258598595 18.4222249691 
Si 14.8513487858 9.3426083054 12.1408518983 
Si 11.3796891141 12.8796886178 25.7337248661 
Si 11.1458624519 9.9420477309 18.1618984816 
Si 11.0400914810 0.7051989934 20.2738408717 
Si 12.0158624899 1.0974377620 12.5309738952 
Si 0.2066353939 10.9414718201 27.2502906652 
H 8.7116151497 5.0056401158 13.0086166629 
H 2.0632099689 14.1051690390 14.7830671936 
H 6.0157830250 8.9812309421 22.1200437250 
Si 10.3242437144 5.8969637639 27.5805749318 
Si 5.8566460136 15.8276573648 0.2602158730 
Si 5.4571826299 2.6801937245 2.6122905463 
Si 8.1734098348 16.2215821484 2.8303217020 
Si 8.4220603970 2.3887982018 29.2833908148 
Si 6.9491185836 1.2602693455 1.4018385717 
Si 6.7907472021 4.0996065975 3.9296384781 
Si 5.3309677088 16.2352331685 5.4259641797 
Si 8.0759141839 2.7391635251 5.4018702263 
Si 6.7154548214 1.3560920134 6.7307150043 
Si 14.6489618240 14.8132301855 12.2337562997 
Si 5.3197276087 2.6630403544 8.0857718853 
Si 7.9519635727 0.0114213101 8.2274819870 
Si 6.6844712411 3.9687327363 9.5042555837 
Si 10.6532854274 13.0172902491 13.6191439083 
Si 1.2514320204 6.6336627307 12.2831209563 
Si 6.9968319940 11.4490030647 12.3423114742 
Si 11.3834032341 9.4698494966 14.4698457999 
Si 5.3582534590 8.1500173945 13.5022043911 
Si 15.1050981181 11.7134875071 17.9900635835 
H 9.4282285462 6.8378578825 10.6079292762 
Si 7.4580344782 8.3479734763 26.9165644053 
Si 13.5006145535 7.9416357126 10.8501338158 
Si 0.5333834749 16.0568739569 18.6617818215 
Si 1.1065471301 5.9498411044 24.4826338351 
Si 7.9522079227 13.3071056417 27.2370816480 
H 6.0051456549 13.1646007204 21.0828858183 
Si 14.2215448001 13.0406175293 22.5715038083 
Si 4.9248905850 5.9050273140 0.1305751062 
Si 5.3804893092 8.1696794247 2.8048862538 
Si 8.0913082340 5.4775288401 2.4678091987 
Si 7.3170608169 8.8837841612 29.2506771687 
Si 6.6738501610 6.9978908440 1.2381614919 
Si 5.3666265191 5.3653070291 5.3251167168 
Si 8.1054642441 8.0711900838 5.3368253779 
Si 6.6966398712 6.7045731013 6.7146229499 
Si 5.4729676401 8.0217499334 8.2677268322 
Si 8.0330063235 5.3484468789 8.1236632307 
Si 2.5884810237 8.0297157434 10.9302999000 
Si 0.2429669812 6.2415461371 18.7277386511 
Si 13.4651186431 15.5698681124 25.3942913693 
H 2.9220350667 14.5528019531 18.1824327666 
Si 8.2318909353 12.5540026448 18.2737779744 
Si 4.4922770511 16.1714903979 20.2383324447 
Si 7.8483103018 5.0289348160 24.7600526142 
Si 4.8534426444 7.2431856662 23.8527784732 
Si 11.7040393070 3.5761111527 15.7028737206 
Si 11.3788257441 5.9356525143 15.8354051734 
Si 9.9458595910 14.4456300421 24.6991263903 
Si 6.6864260412 2.7856063155 27.7266390080 
Si 2.6072145238 5.1513541671 13.5350357122 
Si 10.9745893904 3.3181752903 22.8724575847 
Si 15.6746779734 4.7130065531 25.6383492900 
Si 4.9764810155 1.1486812155 28.2148136869 
Si 15.0053381572 9.5594444974 23.9813383953 
H 9.2071080842 5.3177076486 17.8823615526 
H 9.6275692781 4.6849063028 19.3266454917 
Si 15.3893912007 2.5482121433 24.8763155003 
Si 13.3967332225 13.7229730555 26.9134460182 
Si 4.6032771121 11.2684772831 22.8118843857 
Si 5.5513877008 10.6702107376 0.0461730168 
Si 8.1220800443 10.8869328996 2.6173858732 
Si 6.6882342312 12.2705566422 1.3448544598 
Si 6.7685276419 9.5545737874 4.0795269914 
Si 5.3544578890 10.8301785390 5.5041297890 
Si 6.6232208406 12.2605545821 6.8891937915 
Si 7.4090830278 8.9645988520 9.3172994499 
Si 8.1046334541 10.7876453487 7.9632133875 
Si 10.4183184653 10.5420898864 10.6803876487 
Si 14.6279314338 10.3787174749 16.1783395010 
Si 5.7308872124 11.6943793370 20.7763424801 
Si 8.9831531622 11.5476064356 22.0390539160 
Si 14.8530103658 16.0897960472 20.0355784441 
Si 4.1486069179 2.5448726933 17.8121095861 
Si 2.2445176705 0.7175647326 20.1059480856 
Si 15.9992399363 11.4719556749 22.9644794236 
H 9.2294253844 0.3974939226 27.1271437925 
Si 7.4565032182 8.4289021971 22.2937614229 
Si 8.1055782741 16.1263019375 13.3391362795 
Si 12.8957179779 10.1985500733 24.7906481106 
Si 5.2749626882 13.4853182433 2.7476991525 
Si 7.5620461292 14.0680767087 0.0281570647 
Si 6.6834286811 14.8637943459 4.0631113308 
Si 8.0159832733 13.5141678336 5.4502934830 
Si 5.2630546981 5.5327845206 19.5773814678 
Si 5.2927839484 13.6867603852 8.3450098792 
Si 5.9697149046 15.7638983042 9.5736838254 
Si 3.8543280653 3.6190353031 12.2184291328 
Si 1.1020852991 4.8949169848 15.3553794873 
Si 7.3126625169 1.5734755494 16.2638303782 
Si 0.7788330521 12.5690383150 17.1202395067 
Si 1.0859256189 10.8992644297 21.0805323186 
H 11.1285624718 3.0227887176 16.9967396090 
Si 13.6176419145 5.8503743635 25.5845424027 
Si 11.6464704465 15.1553364786 21.5930657195 
Si 7.7743048311 1.9564778879 18.5530207159 
Si 14.2205999801 6.8671147228 18.8102582350 
Si 14.9666819869 2.0143725484 28.2322590035 
Si 16.2632845487 4.0764585073 27.8140715225 
Si 6.8582203827 12.7212194963 16.3055167420 
Si 6.5431066198 0.6715976101 11.6551189754 
H 11.9553451393 10.0469227519 28.6832778056 
Si 9.4900979668 3.9914247065 1.2356608985 
Si 11.1736694822 15.9458738958 0.1193562672 
Si 10.7299135881 2.6593262343 2.7416271233 
Si 12.1589049812 1.3312351022 1.4414832744 
Si 9.4664611766 1.3153539810 4.1724608115 
Si 12.1204931609 3.9943080365 4.1057096757 
Si 9.4701752966 4.0061345766 6.8333275919 
Si 10.7904146487 16.1954855681 5.4801240919 
Si 12.1876894115 1.2601699765 6.7876991162 
Si 9.4583976265 1.2437512854 9.5870105175 
Si 10.8316772191 2.5786092836 8.1865605107 
Si 12.1613484812 3.8625870953 9.6594394713 
Si 7.8209105215 11.0363122009 20.0516999171 
H 11.0838301314 4.5569646417 10.4875183469 
H 1.8470090869 11.3350382237 13.2953611847 
Si 1.1101537362 12.1768728514 12.2776490694 
Si 9.0572237928 9.7418273391 25.7343132410 
Si 5.2509023580 5.0766645164 10.9718391700 
Si 2.6563614543 13.6214374846 11.2203393214 
Si 6.8058969022 3.0335075377 14.4922628847 
H 7.3517910972 13.1097197099 23.8545730167 
Si 0.2438254642 13.3276473319 24.3936715457 
Si 4.6818274928 2.1851406200 25.1000450672 
Si 10.9522395102 7.0099780241 23.3855793605 
Si 11.2228327026 10.9043143297 21.9568285196 
Si 8.0049223632 15.3600203305 25.7283412355 
Si 7.3441673772 11.0066318207 14.7108735897 
Si 7.9229022125 6.0515884453 26.8921174270 
Si 14.1204001891 8.8312163308 20.2151210538 
Si 11.3253456736 4.8717037346 0.0609529950 
Si 10.7534526383 8.1187894643 2.4069329866 
Si 12.2943400424 6.6501482108 1.2615905816 
Si 9.4691978966 6.7563427218 3.8941300511 
Si 10.7451447383 5.3825255592 5.3875432968 
Si 12.1689559113 6.6914107812 6.7182120370 
Si 9.0197893725 7.1843624757 9.2002422577 
Si 10.8032674588 8.0895977840 7.9932205089 
Si 15.8142018246 13.1354253301 26.6627982983 
H 10.3421301346 7.3994882177 22.0748271117 
H 10.4805625559 14.1936888998 21.4090514604 
Si 9.2590894747 0.6022738855 15.2680352291 
Si 11.6471383365 2.3315062713 26.4979650618 
Si 7.7196030106 14.7552052049 19.2279161786 
Si 10.5465370565 15.7492373040 16.9120724567 
Si 15.9382175958 10.1018526324 19.4186967494 
Si 4.1928179783 12.0600572603 27.9307462710 
Si 12.4923449943 13.7538588958 14.8870036248 
Si 15.7764416043 13.2617054113 13.5253863633 
Si 3.2878270201 9.8350550099 18.3645348072 
H 3.7904712647 13.6334920847 16.3249036959 
Si 1.2324232193 7.5312254489 26.2219289637 
Si 3.1752142490 4.8596491344 20.4920985518 
Si 1.6955120855 6.8067276923 20.5241061479 
Si 9.3280450453 9.5665469375 1.0410352975 
Si 10.7868471387 10.9143163898 29.1282069272 
Si 12.0943802906 12.3268548827 1.1058742147 
Si 12.1459381411 9.4631543065 3.8100218550 
Si 9.4218102862 12.2024318616 4.0528147696 
Si 9.5145655470 9.4820018367 6.5987425076 
Si 10.8642735094 10.8214959690 5.2583361623 
Si 12.1411488810 12.1489355011 6.7390110908 
Si 12.0745553604 9.3159741552 9.5086683957 
Si 9.3583118656 12.1524378511 9.3704885435 
H 1.6042815687 3.8961444956 16.3553520985 
Si 3.5614175726 13.4164604127 22.5216390330 
H 0.4290509109 9.2136077943 18.4576451398 
Si 15.4289270311 3.4050335711 12.3145107587 
Si 2.2913188410 2.9557716570 19.2616006433 
Si 14.8199579555 2.6608249143 22.6212214898 
Si 8.6537041991 6.6044384704 13.4555462592 
Si 14.3733024415 6.5556662100 14.3886500597 
Si 5.8104312831 12.7405557265 26.2554074972 
Si 6.4334423388 8.8927925313 15.4534321693 
Si 9.8453177100 8.0966187740 18.8146416282 
Si 10.1137932025 4.9992055657 24.1955657070 
Si 1.0425681545 14.7434438248 27.7626769724 
Si 9.4106516361 14.9105629364 1.3145943371 
Si 10.7531594183 13.5162366636 2.6474018202 
Si 12.1430711011 14.8760444261 4.0282501163 
Si 9.3128790552 14.9055944863 6.8271202364 
Si 10.7610437784 16.0869290071 10.9678970579 
Si 10.7436460583 13.5320216738 8.0846833917 
Si 12.1071027807 14.8601779659 9.4635106198 
Si 12.3292658028 12.1354310910 23.6546137970 
H 2.1792110599 2.3243549613 15.1758957151 
Si 7.9135843324 2.4776601527 10.8507221908 
Si 2.0410392787 14.6950788144 23.8221829769 
Si 5.6087447913 1.8613442870 19.6132135010 
H 6.2572496972 5.7468351226 11.9481296902 
Si 0.0985105179 3.9098769658 19.1929372890 
Si 10.1747015131 11.8230540481 17.1324482864 
H 12.5329559646 5.1831848274 12.1676229576 
Si 11.6305551164 15.8414224149 23.8851685131 
Si 5.1486826071 1.8688051071 13.2033099270 
Si 3.7993981847 3.7953093947 22.5409083120 
Si 9.6356002481 2.2303127904 21.3726898898 
Si 2.1180909794 3.2849925600 27.2854460672 
Si 13.5649763441 16.2699308688 2.7222195762 
Si 13.1811676506 3.0215995476 0.1311755428 
Si 14.7818882252 4.0838541673 1.5033773751 
Si 14.9387120566 1.3174325850 4.0395469149 
Si 13.5284867437 2.6314377541 5.4097250316 
Si 14.8268160456 3.9914084165 6.8194125249 
Si 13.5265482337 16.1940520481 8.1461979905 
Si 14.7915644853 1.2530268115 9.5956302102 
Si 2.0808520390 15.8962056854 25.9130909633 
Si 5.8249619633 7.7796316612 19.2617183183 
H 2.8639123462 10.1604477629 13.4675491078 
Si 14.9757718070 14.9772053270 23.7248951823 
Si 8.0761748239 13.1514872703 11.0946624365 
Si 13.3571811022 13.4235791428 10.8060645336 
Si 10.8760185995 7.2260322961 13.9043880741 
Si 9.4747527867 14.5673000532 12.3000367355 
Si 13.3464297021 7.0084793441 16.5452206882 
Si 11.4467713347 7.8938245622 27.0614811504 
Si 14.0914528589 11.9985950897 14.5319487737 
Si 13.0365613192 4.1874911483 22.0468793026 
Si 13.1670930904 1.2215740792 19.2152955363 
Si 2.5387150732 10.7733101485 26.8258369912 
Si 3.2223249295 8.5415312581 27.0555385636 
Si 13.4947012834 5.4323729597 2.8766503439 
Si 14.1904471898 7.3825140375 29.3920636643 
Si 14.9604266268 6.7816736720 4.0902942526 
Si 13.4786882133 8.1308766444 5.3267641666 
Si 13.4344608629 5.3006357285 8.1997989466 
Si 14.8845478061 6.5881810503 9.5231130002 
Si 13.1879768706 6.2921102975 23.2598142194 
Si 3.9569061962 0.1593865743 14.4023003580 
H 4.5823607519 13.1677772704 13.5917550554 
Si 9.7653663893 11.6588997166 27.0431532713 
Si 8.6619958092 3.2066213693 12.9908183213 
Si 1.3253739601 1.8499901569 25.5042292249 
Si 10.7317706481 1.6288240829 24.4610110564 
Si 13.7824152660 7.7237895406 27.0887523284 
Si 4.4102569003 6.2564514872 14.4838491232 
Si 9.7444500291 11.2009552324 14.8815317380 
Si 0.6619816231 14.0964538889 15.3510255129 
Si 7.1599437655 7.7090145105 12.0602739518 
H 6.9403382735 14.0492617585 10.5766571487 
H 8.6822931494 1.2685528106 12.8350166400 
Si 2.7494425151 2.0152522084 23.6151926767 
Si 14.9289543465 9.3177823452 1.2136792111 
Si 13.5108446736 10.8293314590 2.4350396570 
Si 14.8681763560 12.1482676111 3.9104574554 
Si 14.8137351755 9.4399573463 6.7696948433 
Si 13.4362038929 10.7612555484 8.1641728446 
Si 14.8235091756 12.1242887309 9.4968126408 
Si 16.2569640287 5.1915578875 10.9125603958 
H 2.9833180473 10.8910053996 15.4243076103 
Si 1.6185467218 14.0087485281 18.7276503949 
Si 4.3697273800 0.1295142978 26.1867735617 
Si 3.5759808327 6.6933492912 16.6419789453 
Si 16.1080571373 16.2040052382 11.0097010967 
Si 2.5622867034 9.0291072526 20.6073023629 
Si 14.6832522743 7.8659849519 22.3542169469 
Si 6.8322378325 4.7201578632 21.1169527267 
Si 8.2333081653 9.6942279587 11.4358022205 
Si 12.7270513164 6.6092766004 12.6427945506 
Si 2.4276335622 12.7833984269 20.5168397175 
Si 7.8677605620 8.6958301395 19.9668268336 
Si 7.7069456805 6.8648015428 15.5795209167 
Si 15.6551462632 8.9789666321 26.1724172134 
Si 16.0951065872 8.0056391232 13.6447970552 
Si 4.8103718840 13.2577632313 17.3448222172 
Si 12.9284282982 14.2047498099 29.2326728959 
Si 14.7885997053 15.0097038773 1.1400411469 
Si 13.5354751538 13.4881689934 5.3666559868 
Si 14.9000558863 14.8291129356 6.7892877285 
Si 11.7201338272 13.6390632647 17.1200335754 
Si 1.1922211279 6.8854735530 16.6690441921 
H 11.6572544266 5.1059376467 19.2234151104 
Si 3.4280024714 5.3993857094 24.2567566997 
Si 16.1979453581 10.7667126985 10.8427791292 
H 1.3472351403 3.5356305023 22.0364356476 
Si 13.0630325695 10.4728085158 13.1394124097 
Si 7.9292390225 10.2438036937 23.7426052677 
Si 5.8669738737 2.7202671249 21.8035274318 
Si 5.1793403874 15.1764808988 22.4582710531 
Si 13.8360419465 1.4515579303 26.2587612343 
Si 1.7407331259 1.0302838654 14.5397153228 
H 2.6325617641 11.0666604712 25.3458975314 
Si 7.0018656040 2.8208252958 25.3590182923 
Si 4.0229458568 4.2131804785 26.2029244535 
Si 8.6196743888 3.7087932039 19.9091366718 

