&CONTROL
  dt          = 30.D0,
  prefix = 'aSiHcSi_merged-12',
  pseudo_dir = './',
  outdir='./',
 wf_collect=.true.,
 verbosity ="high",
/

&SYSTEM
    ibrav= 0, nat=  398, ntyp= 2,
  ecutwfc     = 42.D0,
  nbnd=1478,
  degauss     = 0.05D0,
  occupations = "smearing",
  smearing    = "methfessel-paxton",
/
&ELECTRONS
  electron_maxstep=200,
  conv_thr    = 1.D-8,
  mixing_beta = 0.3D0,
  scf_must_converge=.false.,
/
&IONS
/
ATOMIC_SPECIES
Si  28.08  Si.pbe-hgh.UPF
H  1.00784  H.pbe-hgh.UPF

K_POINTS {automatic}
2 2 2 0 0 0

CELL_PARAMETERS angstrom
16.29000014898320 0.00000000000000 0.00000000000000
0.00000000000000 16.29000014898320 0.00000000000000
0.00000000000000 0.00000000000000 29.53925988841934

ATOMIC_POSITIONS angstrom
Si 0.4065870007 15.5253312520 0.3908753025 
Si 16.2820506289 2.4751352026 2.7811715352 
Si 2.7302040250 16.1007755073 2.9324066380 
Si 2.6605968543 2.4746465026 0.0337645556 
Si 1.4098506429 1.0811819709 1.4845014135 
Si 3.9736034463 3.9602456462 1.3174893921 
Si 1.3463049813 3.7971012947 4.2152819253 
Si 4.0928136674 1.2057678920 4.2387360977 
Si 0.0275024073 16.0962794672 5.6788636350 
Si 2.7158851148 2.5050110629 5.6554980805 
Si 1.3853781757 1.1990694440 7.1162735605 
Si 4.0536525071 3.8583028253 7.0683608809 
Si 16.2561169487 2.6825231945 8.3553273557 
Si 2.7599821452 16.1859884980 8.5919368274 
Si 0.9716463809 4.3649706999 9.7413094297 
Si 4.2306433587 1.2165192921 10.0481928007 
Si 3.0892682083 8.1246864443 26.0492554111 
Si 6.7341720316 6.9712404038 13.1084601251 
Si 3.6773535036 9.7906158895 12.5423697486 
H 3.0182438076 11.3640995839 27.4684100739 
Si 2.2582501407 9.1098567833 16.5461505732 
Si 4.2731276791 4.3100896894 25.7357257067 
Si 3.2605575598 14.8187687855 25.7206016056 
Si 11.1749238122 14.5367563029 13.7419886320 
H 10.4668463757 15.3881857407 22.6699050014 
Si 8.2769653657 8.3117445160 19.9003039942 
H 4.4482940507 14.8934910162 22.4144199426 
Si 4.5850648919 1.6236063958 17.2680310063 
Si 15.6478972131 5.8107570831 10.8970625121 
Si 13.1642423404 2.7790740254 10.7962745574 
H 11.0942883115 14.6274590238 16.8112654307 
Si 15.4920344917 10.2525025538 19.7089782079 
Si 13.9325601974 15.2944530799 17.8715771644 
Si 16.1542881577 5.2216129378 0.0521940999 
Si 16.2513928486 7.9582678028 2.7198716631 
Si 2.6632847044 5.1719284373 2.8549606064 
Si 2.9938739674 7.5939908195 0.2283948989 
Si 1.3109182140 6.5074315195 1.4500970376 
Si 4.0690302672 6.5410377898 4.2210125418 
Si 0.0038664478 5.2439302380 5.4912893347 
Si 2.7280537449 7.9770501730 5.5110215603 
Si 1.3850816977 6.5921558103 6.8444237517 
Si 0.0449618665 7.9733360529 8.1658034643 
Si 2.6717392144 5.3156388186 8.3527279009 
Si 4.2284116287 6.5930680503 9.5944106903 
Si 9.8210618998 4.8868371447 24.3850725875 
H 6.3425767180 12.4922472543 21.9127251526 
Si 8.2833836258 13.4599384231 10.9833466902 
Si 12.9343904383 16.0082808864 13.2587854187 
Si 8.1081195142 5.8963284539 23.0193249066 
Si 13.4442022830 3.4148238612 23.0374029336 
Si 1.4003340248 6.4595714991 25.5734074736 
Si 15.3550518804 13.4145381927 13.7955137709 
Si 5.5613571809 5.5786245810 27.3012769415 
Si 6.4682214892 10.3752965749 17.5990184134 
Si 13.6458724848 6.5366069098 15.5702029657 
Si 2.5710181435 0.4273095099 20.8504047493 
Si 7.0687197646 7.7498046709 24.3986606471 
Si 7.5821642793 11.8566114484 21.3358234070 
Si 10.7147964680 13.2579912913 26.8409075761 
Si 4.0291197668 9.2709974648 1.5337906226 
Si 0.1791785986 10.4479499756 29.3803091310 
Si 2.6623561743 10.7180055980 2.7686587047 
Si 1.2722701886 11.9855793796 1.3280939864 
Si 1.3408168803 9.3076988351 4.1124262224 
Si 4.0344140169 12.0603341903 4.1683145021 
Si 4.1062529176 9.2963772850 6.9270746009 
Si 0.0404467672 10.6930656078 5.4974335008 
Si 1.3924740997 11.9905315397 6.9610152105 
Si 1.4780047455 9.0573215328 9.7262444072 
Si 2.7260500749 10.5762988867 8.3438956622 
Si 4.0903375874 12.0309796100 9.6149995544 
Si 8.1616321646 10.4569909256 13.2098979436 
Si 9.1650635938 12.1319939010 23.0140078398 
Si 2.8313486359 13.3577186722 11.0735891292 
Si 1.5024804707 15.7164129537 16.8293729970 
Si 15.1369450684 9.3584910556 25.5053194795 
Si 8.3732555566 11.7253303372 18.0162604593 
Si 11.0990938615 9.2349802745 22.7008916850 
Si 9.9601133411 11.1374893919 14.6014333984 
Si 16.2278700884 3.0790380882 13.0559983996 
Si 7.2845785566 15.7282557838 19.3605626375 
Si 6.6724492210 12.9869908488 14.8248978995 
Si 4.6064699521 10.7522308883 23.8572650918 
Si 4.9305920851 2.0416745887 25.9935739062 
Si 2.1028761192 3.6700555836 22.7837788482 
H 14.9597587368 2.0481091387 26.5224743545 
Si 16.2697679688 13.2733527614 2.8631429814 
Si 2.4247176522 13.6275136546 0.0136749345 
Si 3.9829050364 14.8072680454 1.4055134326 
Si 1.3315348382 14.7053252245 4.2464458445 
Si 2.7415744451 13.4099281226 5.6352046089 
Si 4.0473645670 14.8346026657 7.0448771693 
Si 0.0739587184 13.3624590622 8.3688267975 
Si 1.2948155488 14.7739875751 9.8288933353 
Si 7.1796383757 4.2332171787 16.6801701953 
H 6.6413841907 3.1653099289 23.4457241231 
Si 6.6966235812 9.6678870284 20.9797867076 
Si 1.4609914694 3.3088899903 16.6564797088 
Si 1.9886343482 11.5422796056 12.4006699189 
Si 13.4515002030 10.5030916261 26.7578431773 
Si 12.3377691828 3.2963955601 17.4580570652 
H 15.6663049133 3.4244186713 19.2527443390 
Si 15.0652527778 15.7270340338 14.2580395022 
H 13.6461494148 2.4942759528 17.4259183504 
Si 9.6369360281 6.7291710015 11.7617357276 
H 3.1250410486 0.1369282027 27.6555708246 
H 7.6452554499 3.6555900634 28.7164142650 
Si 11.8611563585 11.7233918272 25.4650279290 
Si 16.2109284883 7.2476654163 22.4100481321 
Si 13.0706725795 4.3388741197 20.9755921327 
Si 1.5281176730 14.5443474430 27.4257553827 
Si 5.3700474191 16.1640295778 0.0370038309 
Si 5.3500270089 2.5896864837 2.7404487116 
Si 8.1069792141 16.0529643568 2.7496295135 
Si 8.2569123755 2.4056257720 0.1540014545 
Si 6.7291872915 1.1754750078 1.4390050455 
Si 6.7025531413 3.9005427957 4.1546969033 
Si 5.4461217198 16.1230113575 5.6196964975 
Si 8.0693818938 2.4792728627 5.4370552536 
Si 6.8135206223 1.2118196271 6.9911452556 
Si 3.5310041423 2.3427300814 12.1402222645 
Si 5.4533870599 2.5503135533 8.4983564521 
Si 8.2925548958 16.0594966469 8.1619338212 
Si 6.6553121409 4.1142350176 9.8333833028 
Si 7.8785445421 3.2626263898 18.7465595815 
Si 8.7836332403 12.7422824665 15.9078071670 
Si 9.2369024945 14.6355877339 25.5895063702 
Si 2.3721824017 2.7816967154 20.4902030142 
Si 7.2854419266 0.8499274998 14.7620088152 
Si 8.7586280901 1.0373015975 18.4011865549 
Si 15.7622855942 14.5678539132 21.3429423687 
Si 1.5293329070 9.7834808695 20.3918372788 
Si 8.7723116902 9.0854054931 25.5328205305 
Si 5.4927925702 7.7423438508 26.3954259978 
Si 0.9495946077 3.5276321123 28.3746450281 
Si 1.2743553087 6.9122868932 16.6921631348 
Si 4.7795837837 5.8396555434 0.0296816391 
Si 5.4328127897 7.9538043427 2.9041287045 
Si 8.0375349435 5.2140706677 2.7090514322 
Si 7.9583492528 7.9511979427 0.0228783045 
Si 6.6085272604 6.6041615404 1.3837932148 
Si 5.4312326597 5.2277379778 5.6741373534 
Si 8.2122126151 7.9295811125 5.5866420657 
Si 6.8973489631 6.5831963102 6.9993571698 
Si 5.5508664208 8.0057531532 8.3224501595 
Si 8.2316628753 5.1667156373 8.3939351684 
Si 4.0987758075 9.3750091157 14.9009024152 
Si 15.8257025647 16.0730499270 10.9045950234 
Si 10.7000703079 2.3586291216 26.8328138189 
Si 8.3088937660 13.4760329432 19.6548327446 
Si 9.1932290041 4.7084453531 15.5963156714 
Si 1.8045084765 3.9198953159 11.8711196069 
Si 3.0199868376 7.8819654421 11.1615865844 
Si 14.9079076663 11.7939275279 28.1404873149 
Si 13.2549124812 8.8283167107 16.0653991185 
Si 0.0260928335 6.9735047138 12.9196451759 
Si 11.4471134247 3.3346607705 19.6112032577 
Si 13.8493671667 12.2552277521 15.1752335217 
Si 8.7874451004 3.4569823816 25.9474631215 
Si 4.4854352510 0.1155044090 22.3087875492 
Si 5.2545513181 10.6275146472 0.0501532324 
Si 8.0973029541 10.6430878873 2.7883407136 
Si 6.7009078513 11.9831684596 1.3917717689 
Si 6.8112563123 9.3006289751 4.2491929957 
Si 5.3949711193 10.6820209877 5.5285678807 
Si 6.7599916818 12.0123601399 6.8996030892 
Si 6.7689348919 9.3501017055 9.9009395901 
Si 8.0558286137 10.5994795569 8.3062331058 
Si 9.6016355978 4.7927623938 19.2838491796 
Si 13.0645475395 9.0647986429 11.8525394124 
Si 7.0335170743 3.6160216531 12.1925067545 
Si 5.3863537093 10.8242978490 11.1843908930 
H 5.4626072000 5.3553538390 9.9210262869 
H 15.4759399715 1.4383109022 16.5696342848 
Si 5.2136797077 11.3048528534 15.8324820543 
H 1.0998633431 10.8631006294 26.7430440081 
Si 3.5163757222 12.5173501445 16.9142392906 
Si 13.6196618746 15.0289749475 11.2278431443 
Si 5.5877795611 8.7819065003 22.8360633382 
Si 14.1055762890 15.1135852082 26.7595269151 
H 9.6218677780 1.4247250420 21.1537434091 
Si 4.3587316299 3.1632899689 19.1580710110 
Si 6.4666250691 9.1833246840 28.1346090022 
Si 5.3633033591 13.3955277625 2.7454053994 
Si 7.9999050432 13.3762729823 29.5237222377 
Si 6.7404599716 14.7264859347 4.1634109850 
Si 8.1209397443 13.3182154218 5.4758107626 
Si 5.4700028600 13.4180568327 8.2944764804 
Si 6.9491348736 14.7750464251 9.5743239936 
Si 11.8441495983 12.4909114742 18.2988625586 
Si 2.8590742161 5.1816861474 16.3527274994 
Si 14.1103655490 15.8076695346 20.1484042380 
H 2.8088032757 5.6258655815 27.9868536242 
Si 7.6712542902 10.6963561878 26.8223273817 
Si 0.7474080128 10.7232835581 25.2799349266 
Si 11.5694839058 6.3898502984 25.2514000015 
Si 1.2006740090 15.7819313343 22.5396959438 
Si 5.8453733335 16.1429828976 11.1233923214 
H 8.8153335806 2.4174523121 23.0364281381 
Si 3.6817029337 12.4911395342 22.5167734781 
Si 9.4150825161 6.4401212389 20.9732585312 
Si 6.5856886802 14.7564758250 28.1566748293 
Si 4.3170780995 5.3799028692 18.2165661806 
Si 9.5436106173 3.8571299453 1.4425999734 
Si 10.9841027505 15.9284924657 0.0313281575 
Si 10.9219726899 2.4432230923 2.7166725613 
Si 12.3335174928 1.1154007452 1.2908036247 
Si 9.4839892167 1.1297343163 4.0817053921 
Si 12.1866794315 3.8500112152 4.1178023677 
Si 9.3821767158 3.8174149249 6.8187541349 
Si 10.8462241892 16.0477841368 5.4261848059 
Si 12.2392635519 1.1727024497 6.6974363945 
Si 10.0925673323 0.7063946795 9.3572399726 
Si 10.8746991095 2.5085948629 8.0518705389 
Si 11.8759476786 4.1712174381 9.3568264230 
Si 11.8515126784 15.7609335241 20.6503944206 
Si 0.7931731393 13.4873382034 19.7182830748 
Si 10.2749990440 6.0057972549 17.2952662039 
Si 10.0794375922 14.8292595456 11.6971924447 
Si 4.1291403678 14.0576511086 18.5489419329 
Si 12.6204984254 5.6377898616 17.4467730679 
H 7.0183022142 14.3972976117 23.3552453700 
Si 5.2700919782 7.2826726266 14.9167059192 
Si 2.2681055907 13.9653682577 23.7502148140 
H 14.9460751367 1.1006289731 25.0650663502 
Si 11.4473089047 3.4781919618 13.7656200399 
H 14.4052634217 4.6036517821 20.2746550348 
Si 15.3010342399 9.1623757438 12.7506215308 
Si 15.5421914021 6.8131785323 20.1809565024 
Si 3.9218989859 12.1672780413 28.3443672867 
Si 9.5428286973 0.9858317130 28.3188453661 
Si 12.8512299875 5.4050057594 13.6037744349 
Si 3.8309193350 5.5428028707 14.2463714945 
Si 12.1687604313 3.8394715851 28.0051679654 
Si 10.8565846293 5.1760335173 29.5183460924 
Si 10.7940310287 7.9254760325 2.7310315955 
Si 12.1701450813 6.5602599900 1.3755104063 
Si 9.4155223461 6.5735037601 4.0762701683 
Si 10.7490380483 5.1861333174 5.4344853380 
Si 12.1403669610 6.6026954404 6.6879542921 
Si 10.1423169928 5.9328506343 9.5957694962 
Si 11.0028525406 7.7979904913 8.3669953634 
Si 5.5599236608 15.7231570138 17.7132171921 
Si 14.4027547617 4.2719222191 12.1153797469 
Si 2.5796192636 0.8187516975 13.6966458680 
Si 2.5654143835 1.3526075824 16.0450465684 
Si 13.3554869421 5.2842154083 26.4720508379 
Si 12.2002001316 10.8833653895 21.4891321658 
Si 9.7218720889 0.8446544267 11.6428992850 
Si 5.9642740445 15.2415431594 15.3812993987 
H 10.2602240138 3.9817647364 12.9253167138 
Si 1.9528126379 8.4730480975 22.3724446543 
Si 14.8901678562 10.1181589225 14.9651207662 
Si 13.7213114755 0.2456825242 24.9245480909 
Si 12.4855683542 7.4759697684 23.2799497966 
Si 9.3217571053 6.4963217394 28.3066456518 
Si 9.3858745458 9.2686517048 1.3732299755 
Si 10.7061790579 10.5892331468 29.4809198501 
Si 12.1183591708 11.8878067987 1.3678272448 
Si 12.1806358414 9.2830846449 4.1135191750 
Si 9.5106722370 11.9348034492 4.1814890120 
Si 9.5606825374 9.2240496844 7.0568996481 
Si 10.8870957996 10.6080806770 5.6227685805 
Si 12.2874330824 11.9690938995 7.0050287077 
Si 12.9040747480 8.7026230696 9.5178744679 
Si 9.4086316760 12.0071310498 9.5415354151 
Si 11.9186763490 10.4025823251 19.2596860650 
Si 16.0029214764 3.8548004753 15.2311218014 
Si 0.2638295844 0.7190568966 12.9786350779 
Si 7.9995466632 8.4994378977 11.7988665772 
Si 9.7207317889 9.8588709902 18.7776348829 
Si 11.8621500485 1.6441334250 12.4073457917 
H 11.0352370609 12.2837841223 17.0275814308 
Si 0.8388356387 3.6847654537 18.9162035510 
Si 6.7451189117 12.3831042533 12.4690237663 
Si 11.6818197468 7.3064886068 12.7395738476 
Si 6.6001216204 0.7001947054 21.3864832377 
Si 7.4983685186 1.2689486576 12.4054848183 
Si 6.2903998475 2.9292515368 20.4956677773 
Si 9.2590731847 11.9418895992 28.1434707802 
Si 2.1750408199 15.2304659593 19.0136831087 
Si 11.9936266397 9.1643957038 28.0729901061 
H 15.9566741659 8.2120822951 19.7068513812 
Si 9.4675526066 14.6604788541 1.3710352085 
Si 10.8274906890 13.2945623416 2.7646265958 
Si 12.2237391818 14.6731687642 4.1048050934 
Si 9.5396032772 14.6376565639 6.7916961728 
Si 10.8882523896 13.3729009523 8.2846989853 
Si 11.7785334777 15.1797714788 9.6075556609 
Si 10.6135378271 2.7760440854 15.8296758246 
Si 2.2016749701 11.9573650994 20.7514186894 
Si 14.8049222854 4.3846816001 24.6842166724 
Si 3.8828844355 7.1003875249 22.0860024512 
H 12.0163348999 13.7202852055 22.8404942272 
Si 2.2384252105 6.1726557265 12.6041658803 
Si 2.4376356223 13.9808763379 15.4727824866 
Si 8.0337230835 16.1400344076 26.9294367380 
Si 7.3474742472 8.1514346246 17.6899697946 
Si 13.6502219148 9.1213249434 18.4327640237 
Si 11.5767166659 1.3192831291 24.8516747367 
Si 3.6754312836 0.6353458438 24.5653802299 
Si 16.2125249083 7.7333680607 26.8758820598 
Si 12.5793987550 11.3890721542 12.0429790209 
Si 6.0846408556 6.3275899179 16.9538514381 
Si 13.6117938045 16.0461877168 2.7594867646 
Si 13.6440642948 2.5853859236 29.4266266905 
Si 14.8613508459 3.8699501754 1.4564804716 
Si 14.9871259371 1.0799520759 4.1620226398 
Si 13.6261290046 2.5222458831 5.4114151760 
Si 14.9324404066 3.8787141955 6.8294473469 
Si 13.4953203034 16.1727773079 8.1752855667 
Si 14.7113199445 1.3825811826 9.5571912228 
Si 14.5749237733 8.6872290195 23.3122066684 
H 12.5548660148 12.5139781144 24.3692395442 
H 5.8731152037 6.2301757170 12.1134892343 
Si 7.2627988264 1.6151926108 25.4834604272 
H 11.6944607870 11.8651636985 10.9356407855 
H 10.1336018427 10.9994642206 10.3850585205 
Si 5.0486294262 13.5206186737 26.7898341958 
Si 15.5317495120 16.2273325184 16.4884308593 
Si 1.0868867289 6.0584139554 18.9495829147 
Si 10.5188114762 1.2332377193 19.9607413200 
Si 0.4717355983 5.3596543990 23.6737672094 
Si 5.0500792362 10.3403219446 19.4327565887 
Si 9.6153843579 8.2264500752 17.0664255576 
Si 3.2415471296 6.8268784224 19.7254315757 
H 13.8242805664 15.7806281343 23.6407423169 
Si 8.1154988842 1.1017090001 23.2883389464 
Si 11.0979535615 12.9211955382 21.9527213105 
Si 11.9194582690 6.4261118388 21.2125856148 
Si 14.9890155771 12.8983732480 22.8448660377 
Si 13.5218241337 5.2485891780 2.7928749900 
Si 13.4471507730 7.9069054323 29.4819832635 
Si 14.9299969065 6.5982482703 4.1191316344 
Si 13.5937119043 7.9866612730 5.4740974855 
H 15.4275912511 3.2116223994 25.3611088128 
Si 13.4755116632 5.2594871881 8.0218881901 
Si 14.5218346628 6.9647895637 9.2340907982 
Si 5.9096699640 2.6187967140 15.5271642640 
Si 0.3300516930 12.8447465675 24.4908231379 
Si 9.2607184747 0.7594398069 16.0947316035 
Si 4.4614237908 12.4655642340 20.2218092989 
Si 15.9032103854 6.2000717967 15.1518088886 
Si 10.9411460201 9.1553221737 15.4077074971 
H 0.5748985403 1.6211824438 25.0397216652 
Si 13.3157882118 6.9767790038 19.3194439878 
Si 1.5469423971 1.5254216780 23.8699965129 
Si 10.0172586616 16.0934938772 23.9377004965 
Si 14.4991752726 10.7104470380 21.9011457628 
Si 11.8377802083 12.3295101528 13.9965284344 
Si 7.7082000105 13.4212333827 24.2968092790 
Si 11.2003036324 3.2272282195 23.5104446415 
Si 14.7059116645 6.4556293190 28.1096778669 
Si 14.9292801465 9.2629502047 1.2474665765 
Si 13.5629889640 10.5937943469 2.7116656567 
Si 14.8701963160 11.9543025793 4.1757288563 
Si 14.9890807371 9.3648441556 6.8430649458 
Si 13.7177276755 10.6213896071 8.3821194645 
Si 15.2294559793 11.8525389484 9.7904036796 
Si 2.5832519336 9.6413669082 24.3598755988 
Si 14.3371060611 12.8650439077 11.7014460981 
Si 5.0377314161 3.5959523729 13.5004165646 
H 10.9031251597 8.0654560038 14.1276532091 
H 9.8776533603 8.7173166497 21.9494719919 
H 7.3820253375 10.0361387718 14.4391742438 
Si 4.7577226035 14.2742266605 12.1648580072 
Si 6.1778359465 11.9681327895 25.3894074237 
Si 15.4471066713 2.0386935186 27.9417471744 
Si 7.8006457613 4.8908119047 27.4913030004 
Si 3.9329110260 15.2009158990 14.1313160773 
H 13.8094566663 13.5952594543 23.4546745188 
Si 2.2435402705 4.7564031135 26.8633278744 
Si 15.9505002559 12.0204888499 18.1918418201 
Si 13.9460157375 13.0203853491 17.4151365206 
Si 4.0803029473 1.2258746392 28.1375038497 
Si 0.5367212959 10.8185963489 16.2005116932 
Si 0.2701615075 10.4530324556 11.1685578497 
Si 15.9909483262 16.0745648970 27.8088205049 
Si 3.1387898087 9.0256049025 18.8217960764 
Si 13.5812989242 13.1412245702 0.0438917955 
Si 14.8847107061 14.5308430329 1.4804309035 
Si 13.5717041141 13.3527665121 5.5675892430 
Si 14.9241325065 14.6921791944 6.9969940290 
H 13.6385745647 1.9484632078 22.7044068569 
H 10.7738802985 2.9892150273 22.0892517697 
Si 1.7311220258 8.7545393001 28.0870212545 
Si 15.8256048247 13.4057090126 26.6476026594 
Si 4.1300037378 4.9518179553 23.3185280700 
Si 6.2935601076 4.2935227593 22.4959482999 
Si 1.0941618430 12.3831042533 14.4434278973 
Si 10.6855396277 13.8799434969 19.8601896793 
Si 10.4466793555 7.8563249819 26.7355114969 
Si 10.1646668730 10.5016092360 24.3498913290 
H 14.6721262042 3.3494683806 15.7019185255 
Si 8.4282343071 5.2926373384 13.3129308821 
Si 12.2722508022 14.4841558925 28.1577382427 
Si 10.0313495117 14.8115848955 15.7701542159 

