&CONTROL
  dt          = 30.D0,
  prefix = 'aSiHcSi_merged-7',
  pseudo_dir = './',
  outdir='./',
 wf_collect=.true.,
 verbosity ="high",
/

&SYSTEM
    ibrav= 0, nat=  398, ntyp= 2,
  ecutwfc     = 42.D0,
  nbnd=1478,
  degauss     = 0.05D0,
  occupations = "smearing",
  smearing    = "methfessel-paxton",
/
&ELECTRONS
  electron_maxstep=200,
  conv_thr    = 1.D-8,
  mixing_beta = 0.3D0,
  scf_must_converge=.false.,
/
&IONS
/
ATOMIC_SPECIES
Si  28.08  Si.pbe-hgh.UPF
H  1.00784  H.pbe-hgh.UPF

K_POINTS {automatic}
2 2 2 0 0 0

CELL_PARAMETERS angstrom
16.29000014898320 0.00000000000000 0.00000000000000
0.00000000000000 16.29000014898320 0.00000000000000
0.00000000000000 0.00000000000000 29.50140192807311

ATOMIC_POSITIONS angstrom
Si 0.3045871648 16.1458010677 29.0782043174 
Si 0.3351358021 2.7569684952 2.5262935513 
Si 3.0225606576 0.1008196254 2.5067429722 
Si 2.9134339466 2.8905790764 29.3288482282 
Si 1.6010626646 1.3611468004 1.0333987079 
Si 4.3619733399 4.1518486280 1.2474343290 
Si 1.6755242553 4.1072140276 3.9845478486 
Si 4.3281552996 1.3787253396 4.0285639403 
Si 0.3150860699 0.0527172098 5.3218463980 
Si 3.0251507677 2.7724602854 5.4045683290 
Si 1.6612379252 1.3839853807 6.7432829457 
Si 4.3954818702 4.1236832177 6.8059734248 
Si 0.4113029558 0.0595329458 10.6972083391 
Si 3.2139355794 2.8465309160 10.7451481173 
Si 0.2960300277 2.7596074752 8.0855672320 
Si 3.0762687881 0.0432976801 8.1097288802 
Si 1.7157279757 4.0882361774 9.4279990254 
Si 4.4883837410 1.3753386486 9.4848187255 
Si 8.9432589518 8.5946529486 21.9129923213 
Si 7.0892451648 2.1919172600 25.3314672697 
Si 3.9659145663 10.8411742891 24.6926734138 
Si 2.7921711855 16.0509932668 21.5863823006 
Si 1.0943361460 12.9748385087 26.5520877745 
H 6.7861860021 10.9382952700 12.1003245162 
Si 5.0229238059 12.7877152770 19.8175077424 
Si 9.9762730212 10.0999467024 26.2908233590 
Si 10.1080754124 15.0392865175 18.8137815446 
Si 4.3501467998 12.2032463616 28.0650966738 
Si 11.2292835427 5.9078780640 20.5591139840 
Si 4.0990853175 0.9799102980 24.6560916754 
H 1.9520144279 1.7023050156 26.5197837394 
Si 16.1012479173 6.0724722255 0.1642130635 
Si 0.4170810188 8.2713127356 2.7639951971 
Si 3.0238149877 5.4952686503 2.6364517861 
Si 3.2285802895 8.0806382839 29.3553109857 
Si 1.7029403256 6.9391816835 1.3077322444 
Si 4.4156163104 6.8244349224 4.0150522982 
Si 0.3793989905 5.4827905101 5.4142447888 
Si 3.0749655881 8.2085310751 5.3650659518 
Si 1.7433069459 6.8677663228 6.7706012439 
Si 0.3903002586 8.2379671053 8.1305568700 
Si 3.0873948582 5.5286631506 8.1727438747 
Si 4.4885629311 6.8304622225 9.5890176771 
Si 3.0448942478 8.1304042344 10.9130110942 
Si 13.7942092262 2.7731444654 10.8529462399 
Si 6.8038443622 12.3837069833 12.4791225170 
Si 12.7938403170 5.9621563445 22.2726144108 
Si 16.1788534780 7.3953994276 21.9122842877 
Si 12.5751959350 12.1850178514 12.1757596010 
Si 5.1972756775 15.9360347357 18.4285817396 
Si 0.4583957172 5.5668143309 27.4921499470 
Si 5.6748170319 2.6607597543 13.7618434728 
Si 8.3876722067 13.0276343991 27.4644481305 
Si 16.1906800181 8.0387566935 19.6404698294 
Si 10.8652834894 10.9220215599 24.3292751448 
H 3.1579468489 8.2556906255 25.2976586631 
H 13.7588599258 3.5505195625 23.2181343426 
Si 13.4612416231 2.7427636151 20.5336837756 
Si 4.2305293287 1.2660099416 15.0908226269 
Si 5.3920063393 7.0658038546 25.8340236516 
Si 4.4551684307 9.5192081971 1.2638046569 
Si 0.4595539362 10.8434060192 29.4218956499 
Si 3.0916465483 10.9360472500 2.6003007682 
Si 1.7465160760 12.3224402927 1.2252345240 
Si 1.7560783061 9.6437615382 4.0670042670 
Si 4.4132542604 12.2472293620 4.0483593810 
Si 4.4069826103 9.5433011073 6.7453775452 
Si 0.3559071813 10.9543083402 5.4254258202 
Si 1.7279780558 12.2939979524 6.7862074855 
Si 1.7403910359 9.5780150976 9.5629974406 
Si 3.1012576484 10.9164666698 8.1533319523 
Si 4.6926929229 12.0163348999 9.5245276125 
Si 16.0856909671 13.3180851018 15.3359202741 
Si 2.9371196069 16.0339376366 19.1845846654 
Si 0.2856923936 5.3412792788 10.7807268080 
Si 4.0050757266 9.3409630154 12.7038051941 
Si 9.7440101991 14.9209885365 12.3088109236 
H 8.3151654160 5.5028760803 24.0262072428 
Si 14.3573871113 1.8932889773 17.3824620272 
Si 11.4421938446 8.4522620573 27.0508679769 
H 4.9160776950 14.5630157832 13.4955343176 
Si 12.4587387239 15.1196776683 19.5903764489 
Si 14.1090623490 13.6240113046 18.5194460575 
H 0.7955628823 2.5646324635 12.4982099240 
Si 14.9231713965 9.7597952093 18.6372746568 
Si 11.5146354753 4.4424785206 25.8738505442 
Si 1.8044107365 9.4480046064 28.0580753401 
H 8.4778047775 5.5651690409 26.1583325630 
Si 0.3610857723 13.6334920847 2.6310087775 
Si 3.1035708284 13.7058033953 29.3501777418 
Si 4.4531973407 14.9547902868 1.2748735829 
Si 1.7254042358 15.0103066073 3.9549579425 
Si 3.0520129779 13.6426307748 5.3684881145 
Si 4.4290555605 14.9770912970 6.7332819705 
Si 0.3474510422 13.6343880347 8.1273117158 
Si 1.8184690066 14.8773313361 9.4980058521 
Si 13.6943352352 10.5729268567 13.5152412541 
Si 10.5611980566 9.8141712298 15.6254765340 
Si 4.8258148041 11.9600529494 17.6113044020 
H 3.7195283140 5.7173828023 27.3889540430 
Si 5.4988361603 7.9530224227 21.5419826907 
Si 9.0234383325 0.5324191069 19.8860985019 
Si 11.5901070460 14.0544419785 15.5526080712 
Si 15.4649279314 11.9004804188 19.5856267232 
H 5.3875754593 14.5184952128 19.1599214934 
Si 8.9463866318 6.8289146725 13.7538780943 
H 4.1738727082 3.1652773489 26.6547526532 
Si 5.0014210057 4.3330260096 20.5252463746 
Si 12.0265976000 2.1691764198 26.0847265652 
H 5.9286152342 16.1150455474 27.9973614550 
Si 9.7388462691 15.2509261995 16.4840558343 
Si 9.1987838941 12.2915870324 23.4730854581 
Si 6.2520043172 15.8197567147 0.0142047185 
Si 5.6328051215 2.7228735249 2.6371332685 
Si 8.5428344581 0.1724589736 2.5512930393 
Si 7.6630767101 3.2060837993 29.3555469969 
Si 7.0072738841 1.4118135879 1.2284531270 
Si 7.0142134241 4.0788531373 4.0562067539 
Si 5.7744792528 0.0505006295 5.3435594298 
Si 8.4492484073 2.7958201456 5.4189355118 
Si 7.0960055149 1.4179418860 6.7562045598 
Si 5.8138847632 2.8046819057 8.1746909673 
Si 8.4142900670 0.0068569335 8.0992558825 
Si 7.1323647952 4.1759741182 9.6310866762 
Si 1.4042843498 4.1306227578 15.2925827147 
Si 14.9925505071 4.2973346193 12.1910118257 
Si 12.2449324720 8.8284796107 14.2982084613 
Si 7.6111116096 12.5130170044 14.7062718527 
Si 1.5654836753 1.7407819959 22.1602435709 
H 14.9868164271 3.0782724582 18.0937113263 
Si 15.6188521428 14.6533601240 23.6349006477 
H 5.1647119672 13.0688643895 27.1332948939 
Si 5.7638093027 9.3259273453 25.1101772539 
Si 10.2825738940 4.7923225638 16.1779197865 
Si 2.5723539235 0.2889666836 13.6913351222 
Si 13.7485646457 13.2946112116 23.1226973074 
Si 4.6818763628 13.0215908091 23.9546368418 
Si 15.7405221540 9.7174574989 16.4186807276 
H 7.8510796018 3.8508745852 14.1525895413 
Si 6.0487702753 5.2052740676 29.4771517757 
Si 5.7862732129 8.1930555749 2.6683014996 
Si 8.3922334068 5.4739124601 2.7839322445 
Si 8.8074166405 7.7612728310 29.4749686719 
Si 7.1313222352 6.8012053822 1.3355196149 
Si 5.7473889826 5.4926296702 5.4492924543 
Si 8.5050905278 8.2128153451 5.3917942220 
Si 7.1574839755 6.8606801727 6.8012236991 
Si 5.7503048926 8.2249676852 8.1409118621 
Si 8.4922540077 5.5466147307 8.2629591618 
Si 12.7588493967 1.1350139054 18.9674543472 
H 3.6056449230 2.4517590524 28.0934475211 
Si 7.8986138222 6.4266331188 19.0692931867 
Si 5.9383077843 0.1492032065 25.8760926507 
Si 5.8250108333 5.5415159607 11.0880724133 
Si 1.7508329260 1.5345196430 11.9246731691 
Si 10.7698240885 7.8704809920 12.7188509090 
Si 6.9676077337 13.3389363020 20.9805120092 
Si 1.9863537482 12.5123002444 14.8189082053 
Si 15.3769619306 4.1630235681 20.2861080106 
Si 2.7179376549 11.1908228523 26.7062621010 
Si 11.0782263713 0.0223399433 10.8979948806 
Si 10.5317946063 2.0778546790 18.9578958930 
Si 11.6533122466 7.2233444461 18.6750954541 
Si 11.8652614385 1.5801365305 23.8060087788 
Si 7.1575654255 2.9040346166 17.6932592965 
Si 5.7929684030 10.8850921296 29.4034572737 
Si 8.5299653580 10.9050147997 2.5609990005 
Si 7.1276895652 12.3258937727 1.2685838840 
Si 7.1697829256 9.5730792276 3.9935752776 
Si 5.7954119030 10.9032554797 5.3890210902 
Si 7.1542259754 12.3482925229 6.6676413512 
Si 6.7393359616 9.9482053510 9.3896177015 
Si 8.4196657670 10.9739540804 8.0835611367 
Si 9.6850241086 9.8610049802 12.1061362924 
Si 1.7565832961 7.6759621002 24.9877464359 
Si 3.2484703797 13.5279817537 10.9101789596 
Si 0.2918223207 0.7626375340 14.6674775092 
Si 0.4227857769 10.9536404502 10.9780321841 
H 5.3515582689 12.7467296366 12.3277213223 
Si 10.2910121141 0.9179838624 27.1060355985 
Si 2.0398989787 6.4052280586 21.9329057676 
Si 2.9333077468 2.7178073349 16.5232336961 
Si 10.3241948444 3.7279176641 12.1142196765 
Si 6.8195805024 1.1980545770 19.2788121432 
Si 15.3855630507 9.5050033169 12.2631722549 
Si 13.3971241825 6.1869257666 12.2886614661 
Si 4.8687552445 0.5118823037 22.3835986849 
Si 5.7467210926 13.5945264043 2.6875452641 
Si 7.9962072131 14.1571830095 29.4884508126 
Si 7.1556269154 15.0537031677 3.8983742536 
Si 8.5017999478 13.6683852650 5.2566187983 
Si 5.7396838125 0.0560310845 10.9949659888 
Si 5.7696737028 13.5990387344 8.1187268078 
Si 7.0592226946 14.9715201169 9.5476272102 
Si 7.1235193251 1.4338230071 12.3649225901 
Si 14.4978069126 11.5320820655 15.5081789599 
Si 10.3563838847 3.0780932682 22.7305351716 
Si 15.1039578181 4.3555387898 26.3352819718 
Si 6.6213800706 8.3707794766 19.4754684884 
Si 5.6547640417 8.1644503347 13.9084654404 
Si 14.9403736366 0.2444607742 27.3276796312 
Si 6.4170871787 14.5232844728 24.6097154716 
Si 16.0918974572 0.1224273332 25.1755523606 
Si 1.8677788371 14.9338902166 27.7176291619 
Si 13.6651761350 2.9440754369 15.4021804228 
Si 12.7614069267 12.4782052741 16.8848913823 
Si 9.4269579262 4.1005351275 1.2145845179 
Si 11.3213709135 0.0686908581 29.1187097423 
Si 11.0543615211 2.8539917361 2.5104070464 
Si 12.4410640738 1.5217075579 1.1374472023 
Si 9.8262095399 1.4998137977 4.0057888580 
Si 12.4546336439 4.1248398077 3.9972924542 
Si 9.7858103395 4.1648154681 6.8229662323 
Si 11.1904156023 0.1016867421 5.3363315864 
Si 12.5324346846 1.4356263101 6.7474131420 
Si 9.7664252393 1.3526466784 9.4589164946 
Si 11.1597089521 2.7768748754 8.1491722546 
Si 12.5125771744 4.2052635385 9.4689174698 
Si 9.9710928012 1.0832915259 15.3733575531 
Si 8.7243213498 0.3453235682 22.2229930528 
Si 7.0977974149 7.1748979856 12.3269837872 
H 6.8604521127 6.7680389419 25.9501116682 
Si 8.5141966379 2.7396848051 10.9038361582 
Si 15.6708824033 7.4847012085 15.4583805935 
Si 8.5074199978 13.7912770261 25.2481848121 
Si 11.0904764514 9.2864892549 22.6889971976 
Si 13.8349016465 2.1141162193 22.7290601015 
Si 0.4467223031 7.8839691121 26.9101462897 
H 13.9679257877 0.0876237479 11.8636642700 
Si 13.4042429126 6.1341135861 17.6550549811 
H 11.1317716018 11.5275697354 21.1950462040 
H 15.9740393061 15.2638930396 22.2808158006 
Si 10.4277177954 12.8365852774 21.5299461187 
Si 0.5357096869 8.1192781643 13.5317915406 
Si 8.5445449081 2.6244167640 27.1978439613 
Si 9.9902987114 5.6739699519 29.0614770225 
Si 11.2452151628 8.1658024047 2.6020561016 
Si 12.8069863471 6.8997273031 1.3236394003 
Si 9.8627154302 6.8372062825 4.0292129711 
Si 11.1647099821 5.4749876001 5.4280219436 
Si 12.5199076745 6.8555488227 6.7706307453 
Si 4.1396148379 15.1900667589 12.3624149709 
Si 9.7216114489 7.0211692542 9.6811800567 
Si 11.1546264720 8.1869305349 8.1834233822 
H 8.5002198177 9.6643358084 26.2841855436 
Si 11.2240218727 10.9388165500 10.7252346710 
Si 12.7675645468 12.2011775316 25.0191949303 
Si 11.3101633934 5.6484598117 11.0561518964 
Si 11.1913767124 10.8425752292 17.6619288077 
Si 15.0219702474 15.2827894398 11.9099224682 
Si 15.5488377222 12.1824440314 27.8933395118 
H 0.6626299651 13.6106209245 12.3477232728 
Si 11.1468398519 5.0721847664 23.6907763029 
Si 11.2365000128 3.5845493728 20.5835706462 
Si 11.7669838676 7.3866679876 23.7989874452 
Si 13.0276343991 15.0932064180 27.9613992460 
H 10.8238254390 7.2847903266 27.7988170200 
Si 2.0650670289 5.5224240805 24.1157144963 
Si 0.9282253855 13.0754944196 24.1567804478 
Si 9.9081971106 9.4978845869 1.2009902719 
Si 11.4118129944 10.8833816795 29.4879787902 
Si 12.6701014759 12.3471196429 1.2672681215 
Si 12.5576516048 9.5530913974 4.0150227968 
Si 9.8865639904 12.2895507824 3.9201757896 
Si 9.8328721499 9.5807681076 6.7837293678 
Si 11.1978275524 10.9360472500 5.3776925519 
Si 12.5457924847 12.2856086024 6.7867385107 
Si 12.6030518353 9.4490145864 9.5417564312 
Si 9.7567489792 12.3134482126 9.4914860423 
Si 6.1778848165 4.9097734649 18.5007126673 
Si 5.2242682078 8.5723682284 17.6239605034 
H 8.1967534050 8.3084865160 28.1847543600 
Si 4.4125375004 4.0853202674 12.3747170556 
H 1.7672369562 4.7889342438 27.3043735237 
Si 11.7576334075 13.7330565656 26.4869781805 
Si 6.8289961225 9.2411867645 22.9943957104 
Si 2.5526104433 6.2945700876 18.2528713897 
Si 5.5833812611 5.7110134122 22.3649833003 
Si 13.0122403490 9.8014976096 21.3416681716 
Si 9.5988988778 11.3371070537 14.0454699509 
H 1.8916599773 3.5851846828 28.4474643442 
Si 1.9953132482 14.1420984693 18.0772200426 
H 13.6385256947 16.0750698870 16.5194575166 
Si 12.5510378648 9.4321544363 19.0313838852 
Si 7.8009389813 5.0065686458 22.7108577365 
Si 6.7181263814 9.0820986231 15.8777725233 
Si 9.8754379203 15.1101154382 1.0923100574 
Si 11.1990818824 13.7069436954 2.5225970256 
Si 12.5543447348 15.0495003476 3.9271381205 
Si 9.8123793297 15.0084495473 6.6851651839 
Si 11.1293606818 13.6686296150 8.1105254181 
Si 12.5014022343 14.9926645371 9.5081543344 
Si 14.7168748346 11.5274882854 21.8055187141 
Si 8.3212904561 13.5653673041 10.9745805200 
Si 8.8967672914 11.3313566836 18.3399890296 
Si 15.4957974817 5.9149967941 18.6298403036 
Si 2.9262215968 10.4416946155 18.0179517262 
Si 10.9314697600 13.2145947309 13.4841762779 
Si 6.7589328318 15.2814373698 22.4139261261 
Si 3.6046675230 13.6258846546 16.3267838606 
Si 2.7810125354 10.4639793357 22.5371534819 
Si 14.0784697288 10.8829092695 26.5997325386 
Si 16.0450962867 14.5545612731 17.3684783627 
Si 1.6021182567 12.1395035910 19.2674541034 
Si 1.6852819654 12.4775373841 12.3519124719 
Si 0.6947961994 5.8779533338 16.7774472765 
Si 3.1939966192 8.4002317968 21.4060992334 
Si 15.9974643263 1.9244843276 23.6148101930 
Si 13.8854820970 0.1175365865 2.4824220165 
Si 13.4948153134 3.2734918199 29.4484469116 
Si 15.1806674288 4.2180674786 1.3301828113 
Si 15.2458925894 1.4221039810 3.9212083387 
Si 13.8739487769 2.7604056852 5.3187192494 
Si 15.2452246994 4.1195944277 6.6987653302 
Si 13.8711306069 0.0516000416 8.1159241746 
Si 15.2224838592 1.4251143730 9.4656428142 
Si 2.2449086305 8.4522946373 19.2248540790 
Si 15.7578547141 3.0664947880 14.2451059378 
Si 15.0850777080 5.3761561692 22.3361309292 
Si 9.4801773567 4.7605570635 26.9493831543 
Si 10.7553096984 15.9208035856 23.2918288446 
H 7.2048878759 12.1249729109 27.3893080598 
Si -0.0047695166 0.5945638284 17.0184442288 
Si 6.0180473350 2.2720477708 21.2721038658 
H 13.8675142268 8.5481124182 21.6183028175 
Si 2.5516819133 8.8506503009 14.4927997084 
Si 10.4649404457 12.0108614598 27.6366773150 
Si 13.0800067496 7.5970207595 25.6468077550 
Si 1.1927326339 3.0063846875 20.1613170804 
Si 4.6350100324 6.3443523280 17.2119144227 
Si 13.2293860510 5.6497141417 26.8744790948 
Si 13.9329185774 5.5109885004 2.8204874316 
Si 14.4202828019 8.0208702734 0.0577876411 
Si 15.3218202801 6.8892854130 4.1069786666 
Si 13.9083206772 8.2301804853 5.4298510305 
Si 14.0569995086 8.0739430938 10.9190588816 
Si 13.9110248172 5.4895182802 8.0764512988 
Si 15.3322133002 6.8119567823 9.4158739492 
Si 2.8208090058 5.2659868982 13.6853168362 
H 7.4111355678 5.2653190082 16.2345034754 
Si 6.9983958340 11.3088601934 16.6688526160 
Si 8.8871724813 8.1439249345 15.7575838118 
H 6.3277365279 2.4721704226 16.5080699755 
Si 1.7621056061 1.6019537277 18.2675630879 
Si 12.6164096354 5.0056564058 15.8311013054 
Si 3.9461710861 6.8799838229 14.9837915407 
Si 12.9994038289 9.5986382378 28.3234404505 
Si 1.6510892551 6.6360410707 12.1469367313 
H 7.2932122567 5.9030236440 15.8005083516 
H 5.4137697795 12.4676330640 22.7315972220 
Si 1.7355854859 10.4258770254 15.9973712067 
Si 16.2001607982 4.2561697889 24.2096469600 
Si 10.2558908738 15.3141476901 25.5207187631 
Si 12.3310088328 5.3847409992 29.0708289669 
H 4.4820143510 10.7244564381 12.3795257841 
H 2.5449215633 2.4998308429 23.0571451923 
Si 15.3986765008 9.6365124881 1.4035675486 
Si 13.9309800674 10.9529236902 2.6900882850 
Si 15.2920910299 12.3097340926 4.0462352800 
Si 15.2868945198 9.5820224376 6.7811332444 
Si 13.9197562573 10.8967557697 8.1756645135 
Si 15.3328160302 12.2424726820 9.5253241503 
Si 0.0771743644 8.8640243911 23.7832926994 
Si 12.0556100903 14.4648848223 21.9079180802 
Si 9.6300290681 6.7068537013 17.4604342325 
Si 9.4420424664 2.7782758154 17.0031330012 
Si 14.9828090870 8.9225054916 25.6783742550 
Si 5.2297253578 15.4886298817 16.0816272106 
Si 13.1844093606 15.6973862336 15.1204715358 
Si 8.9748126821 13.2352015810 19.7144298440 
Si 8.1525749246 10.0205492416 20.1818795576 
Si 2.7701471053 13.9421875875 22.8293648680 
Si 7.5592605391 14.8346352457 15.3568367681 
H 6.6803661611 10.0386637218 28.4804174101 
Si 11.9598574694 1.8802081072 12.1174943321 
Si 12.1805381014 1.4061576999 14.4173646237 
Si 15.2629645096 15.1750147988 14.1791703045 
Si 4.8729091946 3.1815999291 25.2875691837 
Si 14.1308746592 13.5393195938 29.3109113758 
Si 15.3357156503 14.9716667269 1.2048372547 
Si 13.8793570569 13.6660883750 5.3672490556 
Si 15.2615309896 14.9990502172 6.7447285144 
Si 13.8881536570 13.5775196442 10.8060980136 
Si 13.4872078833 6.8368479025 14.6146699997 
Si 4.4342520706 5.3335252388 24.4336806063 
Si 9.0016260223 6.3274595979 21.1588184824 
Si 8.1533731346 8.6393852890 10.8057439968 
Si 8.4891263276 0.0661678629 13.7417825195 
Si 0.4839873074 11.0186701308 23.0238086081 
Si 4.6815505628 6.6324084007 28.0761301981 
Si 14.0809132288 2.4262814922 27.2974996970 
Si 7.4765724984 11.3287828636 22.1285885666 
Si 2.0932161491 0.3138464009 25.9222623448 
Si 3.0710722781 12.3518600330 21.1107902001 
Si 9.2471814846 4.5402999715 14.0822286977 
Si 2.6636267944 4.8761183246 20.1886943814 
H 6.7940377821 9.7698135594 26.1485380975 
Si 7.9160441224 2.5660822735 22.9657793505 

