&CONTROL
  dt          = 30.D0,
  prefix = 'R0.8-T1200-2-27',
  pseudo_dir = './',
  outdir='./',
  wf_collect=.true.,
  verbosity ="high",
/

&SYSTEM
  ibrav= 0, nat=  61, ntyp= 1,
  ecutwfc     = 42.D0,
  nbnd=244,
  degauss     = 0.05D0,
  occupations = "smearing",
  smearing    = "methfessel-paxton",
/
&ELECTRONS
  electron_maxstep=200,
  conv_thr    = 1.D-8,
  mixing_beta = 0.3D0,
  scf_must_converge=.false.,
/
&IONS
/
ATOMIC_SPECIES
Si  28.08  Si.pbe-hgh.UPF

K_POINTS {automatic}
4 4 4 0 0 0

CELL_PARAMETERS angstrom
10.86000000000000 0.00000000000000 0.00000000000000
0.00000000000000 10.86000000000000 0.00000000000000
0.00000000000000 0.00000000000000 10.86000000000000

ATOMIC_POSITIONS angstrom
Si 0.0000000000 0.0000000000 0.0000000000 
Si 0.0000000000 2.7150000000 2.7150000000 
Si 2.7150000000 0.0000000000 2.7150000000 
Si 2.7150000000 2.7150000000 0.0000000000 
Si 1.3575000000 1.3575000000 1.3575000000 
Si 1.3575000000 4.0725000000 4.0725000000 
Si 4.0725000000 1.3575000000 4.0725000000 
Si 4.0725000000 4.0725000000 1.3575000000 
Si 5.4300000000 0.0000000000 0.0000000000 
Si 5.3217801000 2.6593859400 2.7821691000 
Si 8.1450000000 0.0000000000 2.7150000000 
Si 8.1450000000 2.7150000000 0.0000000000 
Si 6.7875000000 1.3575000000 1.3575000000 
Si 9.5025000000 4.0725000000 1.3575000000 
Si 9.5025000000 1.3575000000 4.0725000000 
Si 0.0000000000 0.0000000000 5.4300000000 
Si 0.0000000000 2.7150000000 8.1450000000 
Si 2.7150000000 0.0000000000 8.1450000000 
Si 2.9238269400 2.9285401800 5.4349738800 
Si 1.3575000000 1.3575000000 6.7875000000 
Si 1.3575000000 4.0725000000 9.5025000000 
Si 4.0725000000 1.3575000000 9.5025000000 
Si 9.5025000000 4.0725000000 6.7875000000 
Si 5.4300000000 0.0000000000 5.4300000000 
Si 5.3551637400 2.7207449400 8.2310655000 
Si 8.1450000000 0.0000000000 8.1450000000 
Si 8.2256355000 2.8524767400 5.3720836200 
Si 6.7875000000 1.3575000000 6.7875000000 
Si 6.7875000000 4.0725000000 9.5025000000 
Si 9.5025000000 1.3575000000 9.5025000000 
Si 0.0000000000 5.4300000000 0.0000000000 
Si 0.0000000000 8.1450000000 2.7150000000 
Si 2.5411965600 5.4915001800 2.6716034400 
Si 2.7150000000 8.1450000000 0.0000000000 
Si 1.3575000000 6.7875000000 1.3575000000 
Si 1.3575000000 9.5025000000 4.0725000000 
Si 4.1757025800 6.6186052800 4.2040471800 
Si 4.0725000000 9.5025000000 1.3575000000 
Si 5.4300000000 5.4300000000 0.0000000000 
Si 5.4641981400 8.0822835000 2.6381980800 
Si 8.2315650600 5.3699767800 2.7619803600 
Si 8.1450000000 8.1450000000 0.0000000000 
Si 6.7875000000 6.7875000000 1.3575000000 
Si 6.7875000000 9.5025000000 4.0725000000 
Si 9.5025000000 6.7875000000 4.0725000000 
Si 9.5025000000 9.5025000000 1.3575000000 
Si 0.0000000000 5.4300000000 5.4300000000 
Si 0.0000000000 8.1450000000 8.1450000000 
Si 2.5992649800 5.3288934000 8.1170680800 
Si 2.8431154200 8.1158300400 5.5186284600 
Si 1.3575000000 6.7875000000 6.7875000000 
Si 1.3575000000 9.5025000000 9.5025000000 
Si 4.0725000000 6.7875000000 9.5025000000 
Si 4.0725000000 9.5025000000 6.7875000000 
Si 5.7073535400 5.3382330000 5.5919551800 
Si 5.5388497800 8.1518526600 8.1706296000 
Si 8.3115489600 5.3242018800 8.2011896400 
Si 8.0086852800 8.2080640200 5.3823028800 
Si 9.5025000000 9.5025000000 6.7875000000 
Si 6.7875000000 9.5025000000 9.5025000000 
Si 9.5025000000 6.7875000000 9.5025000000 

