&CONTROL
  dt          = 30.D0,
  prefix = 'R1-T3000-2-24',
  pseudo_dir = './',
  outdir='./',
 wf_collect=.true.,
 verbosity ="high",
/

&SYSTEM
    ibrav= 0, nat=  61, ntyp= 1,
  ecutwfc     = 42.D0,
  nbnd=244,
  degauss     = 0.05D0,
  occupations = "smearing",
  smearing    = "methfessel-paxton",
/
&ELECTRONS
  electron_maxstep=200,
  conv_thr    = 1.D-8,
  mixing_beta = 0.3D0,
  scf_must_converge=.false.,
/
&IONS
/
ATOMIC_SPECIES
Si  28.08  Si.pbe-hgh.UPF

K_POINTS {automatic}
4 4 4 0 0 0
CELL_PARAMETERS angstrom
10.86000000000000 0.00000000000000 0.00000000000000
0.00000000000000 10.86000000000000 0.00000000000000
0.00000000000000 0.00000000000000 10.86000000000000

ATOMIC_POSITIONS angstrom
Si 0.0000000000 0.0000000000 0.0000000000 
Si 0.0000000000 2.7150000000 2.7150000000 
Si 2.7150000000 0.0000000000 2.7150000000 
Si 2.7150000000 2.7150000000 0.0000000000 
Si 1.3575000000 1.3575000000 1.3575000000 
Si 1.5581276400 4.0479021000 4.1782764000 
Si 3.8568529800 1.6472230800 3.9871947000 
Si 4.1413089600 3.8685817800 1.1588597400 
Si 5.4300000000 0.0000000000 0.0000000000 
Si 5.5927805400 2.7564743400 2.7260011800 
Si 8.1450000000 0.0000000000 2.7150000000 
Si 8.1450000000 2.7150000000 0.0000000000 
Si 6.7875000000 1.3575000000 1.3575000000 
Si 9.5025000000 4.0725000000 1.3575000000 
Si 9.5025000000 1.3575000000 4.0725000000 
Si 0.0000000000 0.0000000000 5.4300000000 
Si 0.0000000000 2.7150000000 8.1450000000 
Si 2.7150000000 0.0000000000 8.1450000000 
Si 2.8169971200 2.9399323200 5.6143485000 
Si 1.3575000000 1.3575000000 6.7875000000 
Si 1.3575000000 4.0725000000 9.5025000000 
Si 4.0725000000 1.3575000000 9.5025000000 
Si 9.2259501000 3.8088300600 6.5659234200 
Si 5.1902003400 0.1952074140 5.1885930600 
Si 5.4598324200 2.8354917000 8.1482797200 
Si 8.1450000000 0.0000000000 8.1450000000 
Si 7.9979881800 2.5699538400 5.2408405200 
Si 6.6705703800 1.4765147400 6.8948402400 
Si 6.8562003600 3.9021826200 9.5788023600 
Si 9.5025000000 1.3575000000 9.5025000000 
Si 0.0000000000 5.4300000000 0.0000000000 
Si 0.0000000000 8.1450000000 2.7150000000 
Si 2.7411726000 5.3997874800 2.5833007800 
Si 2.7150000000 8.1450000000 0.0000000000 
Si 1.3575000000 6.7875000000 1.3575000000 
Si 1.3575000000 9.5025000000 4.0725000000 
Si 4.0420485600 6.8069068200 4.0876497000 
Si 4.0725000000 9.5025000000 1.3575000000 
Si 5.0632469400 5.5035765000 -0.0189901218 
Si 5.4284035800 8.1166336800 2.9317330200 
Si 8.1991696800 5.5043692800 2.3691741600 
Si 8.1450000000 8.1450000000 0.0000000000 
Si 6.6110250000 6.6634788000 1.3162211400 
Si 6.6698101800 9.6548332200 3.7265329800 
Si 9.6431261400 6.7464600600 4.1452945800 
Si 9.5025000000 9.5025000000 1.3575000000 
Si -0.1107567960 5.4251564400 5.2647325200 
Si 0.0000000000 8.1450000000 8.1450000000 
Si 2.3557294800 5.3995268400 8.0746597800 
Si 2.6865576600 8.0840862600 5.6671389600 
Si 1.0939603800 6.7783776000 6.7488058200 
Si 1.3575000000 9.5025000000 9.5025000000 
Si 3.9583722600 6.7365557400 9.3526754400 
Si 4.0102613400 9.6862077600 6.9200571600 
Si 5.1876808200 5.6546934000 5.7167474400 
Si 5.5437042000 8.1984312000 7.8835237800 
Si 8.3800972800 5.2004521800 8.1786117000 
Si 7.9808076600 8.3633511600 5.2168507800 
Si 9.5025000000 9.5025000000 6.7875000000 
Si 6.7875000000 9.5025000000 9.5025000000 
Si 9.5025000000 6.7875000000 9.5025000000 

