&CONTROL
  dt          = 30.D0,
  prefix = 'R1-T3000-4-77',
  pseudo_dir = './',
  outdir='./',
 wf_collect=.true.,
 verbosity ="high",
/

&SYSTEM
    ibrav= 0, nat=  61, ntyp= 1,
  ecutwfc     = 42.D0,
  nbnd=244,
  degauss     = 0.05D0,
  occupations = "smearing",
  smearing    = "methfessel-paxton",
/
&ELECTRONS
  electron_maxstep=200,
  conv_thr    = 1.D-8,
  mixing_beta = 0.3D0,
  scf_must_converge=.false.,
/
&IONS
/
ATOMIC_SPECIES
Si  28.08  Si.pbe-hgh.UPF

K_POINTS {automatic}
4 4 4 0 0 0
CELL_PARAMETERS angstrom
10.86000000000000 0.00000000000000 0.00000000000000
0.00000000000000 10.86000000000000 0.00000000000000
0.00000000000000 0.00000000000000 10.86000000000000

ATOMIC_POSITIONS angstrom
Si 0.0000000000 0.0000000000 0.0000000000 
Si 0.0000000000 2.7150000000 2.7150000000 
Si 2.7150000000 0.0000000000 2.7150000000 
Si 2.7150000000 2.7150000000 0.0000000000 
Si 1.3575000000 1.3575000000 1.3575000000 
Si 1.6115262600 3.9262701000 3.9537676200 
Si 4.0963051200 1.2359874600 4.1055469800 
Si 4.2774825000 4.0387145400 1.0662043920 
Si 5.4300000000 0.0000000000 0.0000000000 
Si 5.3122667400 2.7790957200 2.9082862800 
Si 8.1450000000 0.0000000000 2.7150000000 
Si 8.1450000000 2.7150000000 0.0000000000 
Si 6.7875000000 1.3575000000 1.3575000000 
Si 6.0580555200 4.9478051400 3.5281099200 
Si 9.5025000000 1.3575000000 4.0725000000 
Si 9.5025000000 4.0725000000 1.3575000000 
Si 0.0000000000 0.0000000000 5.4300000000 
Si 0.0000000000 2.7150000000 8.1450000000 
Si 2.7150000000 0.0000000000 8.1450000000 
Si 9.3609290400 4.2341728200 6.6314852400 
Si 1.3575000000 1.3575000000 6.7875000000 
Si 1.3575000000 4.0725000000 9.5025000000 
Si 4.0725000000 1.3575000000 9.5025000000 
Si 4.3024605000 4.6877624400 6.4159685400 
Si 5.7080485800 10.8003677400 5.2474108200 
Si 5.0735313600 3.1392784800 8.3040229800 
Si 8.1450000000 0.0000000000 8.1450000000 
Si 8.2146343200 2.7732747600 5.4870475800 
Si 6.5377634400 1.5869066400 6.8161704000 
Si 6.7903561800 4.1374102200 9.6494358000 
Si 9.5025000000 1.3575000000 9.5025000000 
Si 0.0000000000 5.4300000000 0.0000000000 
Si 0.0000000000 8.1450000000 2.7150000000 
Si 2.8421488800 5.1193497000 2.7485899800 
Si 2.7150000000 8.1450000000 0.0000000000 
Si 1.3575000000 6.7875000000 1.3575000000 
Si 1.3575000000 9.5025000000 4.0725000000 
Si 4.3530463800 6.0180798600 4.4999278800 
Si 4.0725000000 9.5025000000 1.3575000000 
Si 5.5746226200 5.6647932000 10.7582418000 
Si 5.1679373400 7.7349589800 2.6745465000 
Si 8.0889298200 5.0219029200 2.8400094600 
Si 8.1450000000 8.1450000000 0.0000000000 
Si 6.6504359400 6.6044112600 1.6346363400 
Si 6.6352862400 9.3172609800 3.6493944000 
Si 9.4329851400 6.4123304400 3.8687121000 
Si 9.5025000000 9.5025000000 1.3575000000 
Si 10.9804374000 5.5686387600 5.2967803800 
Si 0.0000000000 8.1450000000 8.1450000000 
Si 2.6268928200 5.4230713200 8.1748107000 
Si 2.7233839200 7.9868566800 5.3788602600 
Si 1.3649825400 6.8188962600 7.0780701600 
Si 1.3575000000 9.5025000000 9.5025000000 
Si 4.3201080000 6.8560700400 9.1455426600 
Si 3.9566238000 9.5391633600 6.6416827800 
Si 9.5025000000 6.7875000000 9.5025000000 
Si 5.4110601600 8.6057137800 7.9614768600 
Si 8.5435402800 5.3055987000 8.6475682200 
Si 8.3855490000 8.0483134200 5.1656676000 
Si 9.5025000000 9.5025000000 6.7875000000 
Si 6.7875000000 9.5025000000 9.5025000000 

