&CONTROL
  dt          = 30.D0,
  prefix = 'R1-T3000-342',
  pseudo_dir = './',
  outdir='./',
 wf_collect=.true.,
 verbosity ="high",
/

&SYSTEM
    ibrav= 0, nat=  61, ntyp= 1,
  ecutwfc     = 42.D0,
  nbnd=244,
  degauss     = 0.05D0,
  occupations = "smearing",
  smearing    = "methfessel-paxton",
/
&ELECTRONS
  electron_maxstep=200,
  conv_thr    = 1.D-8,
  mixing_beta = 0.3D0,
  scf_must_converge=.false.,
/
&IONS
/
ATOMIC_SPECIES
Si  28.08  Si.pbe-hgh.UPF

K_POINTS {automatic}
4 4 4 0 0 0
CELL_PARAMETERS angstrom
10.86000000000000 0.00000000000000 0.00000000000000
0.00000000000000 10.86000000000000 0.00000000000000
0.00000000000000 0.00000000000000 10.86000000000000

ATOMIC_POSITIONS angstrom
Si 0.0000000000 0.0000000000 0.0000000000 
Si 0.0000000000 2.7150000000 2.7150000000 
Si 2.7150000000 0.0000000000 2.7150000000 
Si 2.7150000000 2.7150000000 0.0000000000 
Si 1.3575000000 1.3575000000 1.3575000000 
Si 1.0228100040 4.3438371000 4.2904819200 
Si 3.9077863800 1.4250817800 4.1799922800 
Si 4.2847587000 4.1238352200 1.6268171400 
Si 5.4300000000 0.0000000000 0.0000000000 
Si 5.7299206200 2.9345457600 3.3299800800 
Si 8.1450000000 0.0000000000 2.7150000000 
Si 8.1450000000 2.7150000000 0.0000000000 
Si 6.7875000000 1.3575000000 1.3575000000 
Si 9.5025000000 4.0725000000 1.3575000000 
Si 9.5025000000 1.3575000000 4.0725000000 
Si 0.0000000000 0.0000000000 5.4300000000 
Si 0.0000000000 2.7150000000 8.1450000000 
Si 2.7150000000 0.0000000000 8.1450000000 
Si 2.5773495000 2.7645324600 5.5132527600 
Si 1.3575000000 1.3575000000 6.7875000000 
Si 1.3575000000 4.0725000000 9.5025000000 
Si 4.0725000000 1.3575000000 9.5025000000 
Si 4.1258008800 4.2946413000 6.4685200800 
Si 5.7264780000 0.3781701780 4.9802439600 
Si 5.1357591600 2.7288030600 8.0549597400 
Si 8.1450000000 0.0000000000 8.1450000000 
Si 5.4725929200 4.8668112600 4.9078512000 
Si 7.7965026000 1.4975505600 6.0585442200 
Si 6.6611221800 3.9800162400 9.3688351200 
Si 9.5025000000 1.3575000000 9.5025000000 
Si 9.0661560600 3.4012325400 6.6152061000 
Si 0.0000000000 5.4300000000 0.0000000000 
Si 0.0000000000 8.1450000000 2.7150000000 
Si 2.5017421800 5.2220635800 2.7172806000 
Si 2.7150000000 8.1450000000 0.0000000000 
Si 1.3575000000 6.7875000000 1.3575000000 
Si 1.3575000000 9.5025000000 4.0725000000 
Si 4.1430682800 6.6392718600 3.8437666800 
Si 4.0725000000 9.5025000000 1.3575000000 
Si 5.5435847400 5.5526637000 0.0313757346 
Si 5.5072689000 8.2594426800 2.9237292000 
Si 9.2435758800 6.1303396800 2.9331774000 
Si 8.1450000000 8.1450000000 0.0000000000 
Si 6.9721960200 7.0189591800 1.5550651200 
Si 7.0852377600 9.3515785800 4.1356943400 
Si 7.4826594600 5.8256189400 5.8652688000 
Si 9.5025000000 9.5025000000 1.3575000000 
Si 9.5731334400 5.3245059600 5.1382352400 
Si 0.0000000000 8.1450000000 8.1450000000 
Si 2.8325812200 5.8121525400 7.9340010600 
Si 3.1955441400 8.5493612400 5.1573162600 
Si 1.8264673800 7.0958588400 6.1455979800 
Si 1.3575000000 9.5025000000 9.5025000000 
Si 4.4259495600 7.1471289000 9.4019907000 
Si 4.6454193000 9.9456531600 6.7562123400 
Si 9.5025000000 9.5025000000 6.7875000000 
Si 5.7855998400 8.4146320800 7.7297461800 
Si 8.0940014400 5.0741721000 8.0942295000 
Si 7.3104524400 8.3239076400 6.1034177400 
Si 9.5025000000 6.7875000000 9.5025000000 
Si 6.7875000000 9.5025000000 9.5025000000 

