&CONTROL
  dt          = 30.D0,
  prefix = 'R1-T3000-3-125',
  pseudo_dir = './',
  outdir='./',
 wf_collect=.true.,
 verbosity ="high",
/

&SYSTEM
    ibrav= 0, nat=  61, ntyp= 1,
  ecutwfc     = 42.D0,
  nbnd=244,
  degauss     = 0.05D0,
  occupations = "smearing",
  smearing    = "methfessel-paxton",
/
&ELECTRONS
  electron_maxstep=200,
  conv_thr    = 1.D-8,
  mixing_beta = 0.3D0,
  scf_must_converge=.false.,
/
&IONS
/
ATOMIC_SPECIES
Si  28.08  Si.pbe-hgh.UPF

K_POINTS {automatic}
4 4 4 0 0 0
CELL_PARAMETERS angstrom
10.86000000000000 0.00000000000000 0.00000000000000
0.00000000000000 10.86000000000000 0.00000000000000
0.00000000000000 0.00000000000000 10.86000000000000

ATOMIC_POSITIONS angstrom
Si 0.0000000000 0.0000000000 0.0000000000 
Si 0.0000000000 2.7150000000 2.7150000000 
Si 2.7150000000 0.0000000000 2.7150000000 
Si 2.7150000000 2.7150000000 0.0000000000 
Si 1.3575000000 1.3575000000 1.3575000000 
Si 2.0865318000 3.0983688600 4.8195702600 
Si 4.3223017200 2.7900751800 4.8934508400 
Si 4.0203720000 4.3656874200 1.7721130800 
Si 5.4300000000 0.0000000000 0.0000000000 
Si 7.0957719600 3.1838262000 3.3885263400 
Si 8.1450000000 0.0000000000 2.7150000000 
Si 8.1450000000 2.7150000000 0.0000000000 
Si 6.7875000000 1.3575000000 1.3575000000 
Si 9.5025000000 4.0725000000 1.3575000000 
Si 9.5025000000 1.3575000000 4.0725000000 
Si 0.0000000000 0.0000000000 5.4300000000 
Si 0.0000000000 2.7150000000 8.1450000000 
Si 2.7150000000 0.0000000000 8.1450000000 
Si 8.7055171800 3.8043340200 7.7011192200 
Si 1.3575000000 1.3575000000 6.7875000000 
Si 1.3575000000 4.0725000000 9.5025000000 
Si 4.0725000000 1.3575000000 9.5025000000 
Si 3.5675534400 2.8331350800 7.2878310600 
Si 5.1271689000 0.1849403700 4.9296906600 
Si 5.7443209800 2.3445871200 8.0286568200 
Si 8.1450000000 0.0000000000 8.1450000000 
Si 8.4188131800 2.9408228400 5.1919705200 
Si 7.2017872800 1.3611706800 6.2240614800 
Si 6.9584038200 4.0944806400 9.5359162200 
Si 9.5025000000 1.3575000000 9.5025000000 
Si 0.0000000000 5.4300000000 0.0000000000 
Si 0.0000000000 8.1450000000 2.7150000000 
Si 1.8334612200 4.7303227800 2.4939229800 
Si 2.7150000000 8.1450000000 0.0000000000 
Si 1.3575000000 6.7875000000 1.3575000000 
Si 1.3575000000 9.5025000000 4.0725000000 
Si 4.7955045000 6.8328296400 4.6509036000 
Si 4.0725000000 9.5025000000 1.3575000000 
Si 5.6396631600 5.6071917600 -0.0505168104 
Si 5.5014805200 8.1771890400 2.5730489400 
Si 8.2214109600 5.3462694000 2.8112196000 
Si 8.1450000000 8.1450000000 0.0000000000 
Si 7.0951203600 6.6224062800 1.2181119000 
Si 6.8790606600 9.2096275200 4.4596590000 
Si 9.8629651200 6.6162378000 4.4067165000 
Si 9.5025000000 9.5025000000 1.3575000000 
Si 1.0332996780 5.3149708800 4.8626627400 
Si 0.0000000000 8.1450000000 8.1450000000 
Si 2.9145742200 4.8764006400 7.8678636600 
Si 2.8768574400 8.1916980000 5.3076078000 
Si 1.5417616200 6.6360681600 6.4765999200 
Si 1.3575000000 9.5025000000 9.5025000000 
Si 4.0611513000 6.6660852000 9.3388832400 
Si 4.0957404000 9.4191603600 6.6223519800 
Si 5.0748997200 4.5646100400 3.6278590200 
Si 5.2319027400 8.3576931000 8.3710183200 
Si 7.9577736000 6.1457391600 7.9391921400 
Si 8.4942684600 7.6447884000 5.8420501200 
Si 9.5025000000 9.5025000000 6.7875000000 
Si 6.7875000000 9.5025000000 9.5025000000 
Si 9.5025000000 6.7875000000 9.5025000000 

