&CONTROL
  dt          = 30.D0,
  prefix = 'R1-T3000-263',
  pseudo_dir = './',
  outdir='./',
 wf_collect=.true.,
 verbosity ="high",
/

&SYSTEM
    ibrav= 0, nat=  61, ntyp= 1,
  ecutwfc     = 42.D0,
  nbnd=244,
  degauss     = 0.05D0,
  occupations = "smearing",
  smearing    = "methfessel-paxton",
/
&ELECTRONS
  electron_maxstep=200,
  conv_thr    = 1.D-8,
  mixing_beta = 0.3D0,
  scf_must_converge=.false.,
/
&IONS
/
ATOMIC_SPECIES
Si  28.08  Si.pbe-hgh.UPF

K_POINTS {automatic}
4 4 4 0 0 0
CELL_PARAMETERS angstrom
10.86000000000000 0.00000000000000 0.00000000000000
0.00000000000000 10.86000000000000 0.00000000000000
0.00000000000000 0.00000000000000 10.86000000000000

ATOMIC_POSITIONS angstrom
Si 0.0000000000 0.0000000000 0.0000000000 
Si 0.0000000000 2.7150000000 2.7150000000 
Si 2.7150000000 0.0000000000 2.7150000000 
Si 2.7150000000 2.7150000000 0.0000000000 
Si 1.3575000000 1.3575000000 1.3575000000 
Si 1.0913865600 3.7841018400 4.3952049000 
Si 4.4711814600 1.2066654600 4.0995088200 
Si 3.9255316200 4.1933500800 1.2464890800 
Si 5.4300000000 0.0000000000 0.0000000000 
Si 5.6646954600 3.0480219000 2.9183209200 
Si 8.1450000000 0.0000000000 2.7150000000 
Si 8.1450000000 2.7150000000 0.0000000000 
Si 6.7875000000 1.3575000000 1.3575000000 
Si 9.5025000000 4.0725000000 1.3575000000 
Si 9.5025000000 1.3575000000 4.0725000000 
Si 0.0000000000 0.0000000000 5.4300000000 
Si 0.0000000000 2.7150000000 8.1450000000 
Si 2.7150000000 0.0000000000 8.1450000000 
Si 2.7070939200 2.6040108000 5.4431406000 
Si 1.3575000000 1.3575000000 6.7875000000 
Si 1.3575000000 4.0725000000 9.5025000000 
Si 4.0725000000 1.3575000000 9.5025000000 
Si 4.1430574200 3.9028559400 6.6918559800 
Si 5.6014359600 10.7077645200 5.2672520400 
Si 5.5669337400 2.2233352200 8.0897334600 
Si 8.1450000000 0.0000000000 8.1450000000 
Si 5.9319709200 4.1000735400 5.1694251600 
Si 6.9199159800 1.0754668860 6.7053441000 
Si 6.8362179600 4.2208910400 9.2287845600 
Si 9.5025000000 1.3575000000 9.5025000000 
Si 9.1613222400 3.3215310000 6.3497334000 
Si 0.0000000000 5.4300000000 0.0000000000 
Si 0.0000000000 8.1450000000 2.7150000000 
Si 2.4112783800 5.1597163200 3.0228484200 
Si 2.7150000000 8.1450000000 0.0000000000 
Si 1.3575000000 6.7875000000 1.3575000000 
Si 1.3575000000 9.5025000000 4.0725000000 
Si 3.8961444600 6.7282587000 4.0156370400 
Si 4.0725000000 9.5025000000 1.3575000000 
Si 5.5661626800 5.3954434800 10.8439706400 
Si 5.7463409400 7.7033129400 2.5474845000 
Si 9.3520455600 5.9157895200 3.1347715800 
Si 8.1450000000 8.1450000000 0.0000000000 
Si 7.0715215800 6.2962370400 1.4587477800 
Si 6.7357412400 9.1679251200 3.9064940400 
Si 8.1218030400 5.4127760400 5.2632338400 
Si 9.5025000000 9.5025000000 1.3575000000 
Si 10.4476458000 4.9299404400 5.4644805000 
Si 0.0000000000 8.1450000000 8.1450000000 
Si 2.8269883200 5.6616438000 8.0470536600 
Si 2.5467134400 7.9455995400 5.3531329200 
Si 1.1629865400 6.7176593400 6.9642465000 
Si 1.3575000000 9.5025000000 9.5025000000 
Si 4.5357333000 6.9462406200 9.5533573800 
Si 3.8362841400 9.4607433000 6.7999347000 
Si 9.5025000000 9.5025000000 6.7875000000 
Si 5.8922341800 8.2519167000 7.8093391200 
Si 9.0578590200 4.6119596400 8.6745336000 
Si 7.5304977600 7.6250014800 6.0796995000 
Si 9.5025000000 6.7875000000 9.5025000000 
Si 6.7875000000 9.5025000000 9.5025000000 

