&CONTROL
  dt          = 30.D0,
  prefix = 'R1-T3000-410',
  pseudo_dir = './',
  outdir='./',
 wf_collect=.true.,
 verbosity ="high",
/

&SYSTEM
    ibrav= 0, nat=  61, ntyp= 1,
  ecutwfc     = 42.D0,
  nbnd=244,
  degauss     = 0.05D0,
  occupations = "smearing",
  smearing    = "methfessel-paxton",
/
&ELECTRONS
  electron_maxstep=200,
  conv_thr    = 1.D-8,
  mixing_beta = 0.3D0,
  scf_must_converge=.false.,
/
&IONS
/
ATOMIC_SPECIES
Si  28.08  Si.pbe-hgh.UPF

K_POINTS {automatic}
4 4 4 0 0 0
CELL_PARAMETERS angstrom
10.86000000000000 0.00000000000000 0.00000000000000
0.00000000000000 10.86000000000000 0.00000000000000
0.00000000000000 0.00000000000000 10.86000000000000

ATOMIC_POSITIONS angstrom
Si 0.0000000000 0.0000000000 0.0000000000 
Si 0.0000000000 2.7150000000 2.7150000000 
Si 2.7150000000 0.0000000000 2.7150000000 
Si 2.7150000000 2.7150000000 0.0000000000 
Si 1.3575000000 1.3575000000 1.3575000000 
Si 1.4184680400 4.1768211600 4.0034195400 
Si 4.4893828200 1.4298276000 4.0174180800 
Si 4.3652856000 4.4517855000 1.4111918400 
Si 5.4300000000 0.0000000000 0.0000000000 
Si 5.7532370400 3.1591631400 2.9161380600 
Si 8.1450000000 0.0000000000 2.7150000000 
Si 8.1450000000 2.7150000000 0.0000000000 
Si 6.7875000000 1.3575000000 1.3575000000 
Si 9.5025000000 4.0725000000 1.3575000000 
Si 9.5025000000 1.3575000000 4.0725000000 
Si 0.0000000000 0.0000000000 5.4300000000 
Si 0.0000000000 2.7150000000 8.1450000000 
Si 2.7150000000 0.0000000000 8.1450000000 
Si 2.8994028000 2.7682357200 5.0994976200 
Si 1.3575000000 1.3575000000 6.7875000000 
Si 1.3575000000 4.0725000000 9.5025000000 
Si 4.0725000000 1.3575000000 9.5025000000 
Si 4.3370170200 4.1356074600 6.6515328000 
Si 5.5471468200 10.9592604000 5.5391104200 
Si 5.6244917400 2.2933279200 7.8329487600 
Si 8.1450000000 0.0000000000 8.1450000000 
Si 7.7284429800 4.7349600000 2.8156722000 
Si 7.9514530800 1.1446874400 5.8390201800 
Si 6.7917897000 3.9165504000 8.8756716600 
Si 9.5025000000 1.3575000000 9.5025000000 
Si 8.5803122400 3.6548026800 7.0648535400 
Si 0.0000000000 5.4300000000 0.0000000000 
Si 0.0000000000 8.1450000000 2.7150000000 
Si 3.1687308000 5.6809854600 2.9726860800 
Si 2.7150000000 8.1450000000 0.0000000000 
Si 1.3575000000 6.7875000000 1.3575000000 
Si 1.3575000000 9.5025000000 4.0725000000 
Si 4.2550348800 6.7083740400 4.5804547800 
Si 4.0725000000 9.5025000000 1.3575000000 
Si 5.2163077800 5.4147634200 10.3958218800 
Si 6.1268970600 8.3646652200 1.9116966600 
Si 9.6688969200 5.9649527400 3.5577142800 
Si 8.1450000000 8.1450000000 0.0000000000 
Si 6.4261335000 6.1963576200 1.2019413600 
Si 6.5474397000 9.3894582600 4.1730961800 
Si 8.2824984600 6.4001238000 5.4126131400 
Si 9.5025000000 9.5025000000 1.3575000000 
Si 10.4882513400 5.0430799200 5.6031952800 
Si 0.0000000000 8.1450000000 8.1450000000 
Si 2.9911698000 5.4372110400 8.1809466000 
Si 2.5415332200 8.3007975600 5.4490701600 
Si 1.2536023800 6.5389797600 6.6770212200 
Si 1.3575000000 9.5025000000 9.5025000000 
Si 4.0366620000 7.0053624600 9.1552623600 
Si 4.0252590000 9.8382369000 6.9296356800 
Si 9.5025000000 9.5025000000 6.7875000000 
Si 5.6972863200 8.3402410800 8.0110310400 
Si 6.5413363800 5.1469884000 6.3134935800 
Si 6.1778087400 7.7381409600 5.7869899200 
Si 9.5025000000 6.7875000000 9.5025000000 
Si 6.7875000000 9.5025000000 9.5025000000 

