&CONTROL
  dt          = 30.D0,
  prefix = 'R1-T3000-286',
  pseudo_dir = './',
  outdir='./',
 wf_collect=.true.,
 verbosity ="high",
/

&SYSTEM
    ibrav= 0, nat=  61, ntyp= 1,
  ecutwfc     = 42.D0,
  nbnd=244,
  degauss     = 0.05D0,
  occupations = "smearing",
  smearing    = "methfessel-paxton",
/
&ELECTRONS
  electron_maxstep=200,
  conv_thr    = 1.D-8,
  mixing_beta = 0.3D0,
  scf_must_converge=.false.,
/
&IONS
/
ATOMIC_SPECIES
Si  28.08  Si.pbe-hgh.UPF

K_POINTS {automatic}
4 4 4 0 0 0
CELL_PARAMETERS angstrom
10.86000000000000 0.00000000000000 0.00000000000000
0.00000000000000 10.86000000000000 0.00000000000000
0.00000000000000 0.00000000000000 10.86000000000000

ATOMIC_POSITIONS angstrom
Si 0.0000000000 0.0000000000 0.0000000000 
Si 0.0000000000 2.7150000000 2.7150000000 
Si 2.7150000000 0.0000000000 2.7150000000 
Si 2.7150000000 2.7150000000 0.0000000000 
Si 1.3575000000 1.3575000000 1.3575000000 
Si 0.9080013420 4.1136702600 4.1900269200 
Si 4.1271040800 1.4398188000 3.9614782200 
Si 3.9248908800 4.0513990200 1.3849866600 
Si 5.4300000000 0.0000000000 0.0000000000 
Si 5.4872756400 3.2597376000 2.7572454000 
Si 8.1450000000 0.0000000000 2.7150000000 
Si 8.1450000000 2.7150000000 0.0000000000 
Si 6.7875000000 1.3575000000 1.3575000000 
Si 9.5025000000 4.0725000000 1.3575000000 
Si 9.5025000000 1.3575000000 4.0725000000 
Si 0.0000000000 0.0000000000 5.4300000000 
Si 0.0000000000 2.7150000000 8.1450000000 
Si 2.7150000000 0.0000000000 8.1450000000 
Si 2.6278267800 2.6376007800 5.5253508000 
Si 1.3575000000 1.3575000000 6.7875000000 
Si 1.3575000000 4.0725000000 9.5025000000 
Si 4.0725000000 1.3575000000 9.5025000000 
Si 3.8400525600 4.2121704600 6.7267926000 
Si 5.6104389000 0.1501872840 5.1484002000 
Si 4.9846639800 3.2122359600 8.3436294000 
Si 8.1450000000 0.0000000000 8.1450000000 
Si 5.4200088000 4.3482788400 4.8309406800 
Si 6.9664402200 2.0791795800 7.3213993200 
Si 6.8448625200 4.0872044400 9.5076259200 
Si 9.5025000000 1.3575000000 9.5025000000 
Si 8.9345763000 3.3423930600 6.9696765000 
Si 0.0000000000 5.4300000000 0.0000000000 
Si 0.0000000000 8.1450000000 2.7150000000 
Si 2.8351441800 5.5731239400 3.0368686800 
Si 2.7150000000 8.1450000000 0.0000000000 
Si 1.3575000000 6.7875000000 1.3575000000 
Si 1.3575000000 9.5025000000 4.0725000000 
Si 4.6738942200 6.7422246600 4.0329044400 
Si 4.0725000000 9.5025000000 1.3575000000 
Si 5.5458979200 5.5381330200 10.7903765400 
Si 5.6033473200 8.3461380600 2.5239943200 
Si 8.9992367400 6.1538407200 2.9276822400 
Si 8.1450000000 8.1450000000 0.0000000000 
Si 7.1963464200 6.6603185400 1.5369723600 
Si 6.9360105000 9.2809451400 4.0705669200 
Si 7.4959521000 5.8435488000 4.8996736200 
Si 9.5025000000 9.5025000000 1.3575000000 
Si 9.7286812200 4.7284222800 5.0422002600 
Si 0.0000000000 8.1450000000 8.1450000000 
Si 2.6134372800 5.8768021200 8.2237458600 
Si 3.1239007200 8.4174013800 5.2718241000 
Si 1.4862344400 7.1232694800 6.8538220200 
Si 1.3575000000 9.5025000000 9.5025000000 
Si 4.3829439600 6.9502914000 9.4012739400 
Si 4.5250796400 9.7744344000 6.8261833200 
Si 9.5025000000 9.5025000000 6.7875000000 
Si 5.7661604400 8.3108104800 7.8916470600 
Si 8.2374403200 5.2587812400 8.1127566600 
Si 7.5469289400 8.2746575400 5.8657900800 
Si 9.5025000000 6.7875000000 9.5025000000 
Si 6.7875000000 9.5025000000 9.5025000000 

