&CONTROL
  dt          = 30.D0,
  prefix = 'R1-T3000-3-381',
  pseudo_dir = './',
  outdir='./',
 wf_collect=.true.,
 verbosity ="high",
/

&SYSTEM
    ibrav= 0, nat=  61, ntyp= 1,
  ecutwfc     = 42.D0,
  nbnd=244,
  degauss     = 0.05D0,
  occupations = "smearing",
  smearing    = "methfessel-paxton",
/
&ELECTRONS
  electron_maxstep=200,
  conv_thr    = 1.D-8,
  mixing_beta = 0.3D0,
  scf_must_converge=.false.,
/
&IONS
/
ATOMIC_SPECIES
Si  28.08  Si.pbe-hgh.UPF

K_POINTS {automatic}
4 4 4 0 0 0
CELL_PARAMETERS angstrom
10.86000000000000 0.00000000000000 0.00000000000000
0.00000000000000 10.86000000000000 0.00000000000000
0.00000000000000 0.00000000000000 10.86000000000000

ATOMIC_POSITIONS angstrom
Si 0.0000000000 0.0000000000 0.0000000000 
Si 0.0000000000 2.7150000000 2.7150000000 
Si 2.7150000000 0.0000000000 2.7150000000 
Si 2.7150000000 2.7150000000 0.0000000000 
Si 1.3575000000 1.3575000000 1.3575000000 
Si 2.7459510000 2.7891412200 5.6185296000 
Si 3.9411700200 1.4815755000 3.9669408000 
Si 4.1300905800 4.2064363800 1.5095617200 
Si 5.4300000000 0.0000000000 0.0000000000 
Si 5.6003934000 2.5977445800 2.8916379000 
Si 8.1450000000 0.0000000000 2.7150000000 
Si 8.1450000000 2.7150000000 0.0000000000 
Si 6.7875000000 1.3575000000 1.3575000000 
Si 9.5025000000 4.0725000000 1.3575000000 
Si 9.5025000000 1.3575000000 4.0725000000 
Si 0.0000000000 0.0000000000 5.4300000000 
Si 0.0000000000 2.7150000000 8.1450000000 
Si 2.7150000000 0.0000000000 8.1450000000 
Si 9.0642121200 3.6004375200 6.7478501400 
Si 1.3575000000 1.3575000000 6.7875000000 
Si 1.3575000000 4.0725000000 9.5025000000 
Si 4.0725000000 1.3575000000 9.5025000000 
Si 4.0626608400 4.4038603200 6.4428361800 
Si 4.5306182400 10.6644874200 5.5705501200 
Si 5.2162100400 3.0011827200 7.8481527600 
Si 8.1450000000 0.0000000000 8.1450000000 
Si 7.8295170000 3.3632659800 4.3409809200 
Si 5.9540818800 1.0070456280 7.0104883800 
Si 7.3184888400 3.9458506800 8.6059744200 
Si 9.5025000000 1.3575000000 9.5025000000 
Si 0.0000000000 5.4300000000 0.0000000000 
Si 0.0000000000 8.1450000000 2.7150000000 
Si 1.2852810000 3.8244684600 4.3061746200 
Si 2.7150000000 8.1450000000 0.0000000000 
Si 1.3575000000 6.7875000000 1.3575000000 
Si 1.3575000000 9.5025000000 4.0725000000 
Si 4.1362699200 6.1002249000 4.7021519400 
Si 4.0725000000 9.5025000000 1.3575000000 
Si 5.7543339000 5.4034255800 10.8510622200 
Si 5.3232570600 7.7485231200 2.8991638800 
Si 8.2129075800 5.2366811400 3.0017908800 
Si 8.1450000000 8.1450000000 0.0000000000 
Si 6.9595658400 6.4879812000 1.4886019200 
Si 6.4020677400 9.4868290200 4.2331085400 
Si 9.5203864200 6.6312680400 3.8267164800 
Si 9.5025000000 9.5025000000 1.3575000000 
Si 10.5111007800 5.1555243600 5.4477561000 
Si 0.0000000000 8.1450000000 8.1450000000 
Si 2.7323868600 5.5304115600 8.2191412200 
Si 2.3411662200 7.6884890400 5.4007540200 
Si 0.8591975880 6.3542511600 6.8916039600 
Si 1.3575000000 9.5025000000 9.5025000000 
Si 4.1811868800 6.4612764600 9.6981863400 
Si 3.9802334400 8.8541037000 7.3172833800 
Si 2.5216811400 5.2847366400 2.9928205200 
Si 5.7324835800 7.7102742000 8.1068705400 
Si 7.2323147400 6.3531543000 9.1181103000 
Si 8.6337325800 8.2795336800 4.9306463400 
Si 9.5025000000 9.5025000000 6.7875000000 
Si 6.7875000000 9.5025000000 9.5025000000 
Si 9.5025000000 6.7875000000 9.5025000000 

