&CONTROL
  dt          = 30.D0,
  prefix = 'R1-T3000-3-90',
  pseudo_dir = './',
  outdir='./',
  wf_collect=.true.,
  verbosity ="high",
/

&SYSTEM
  ibrav= 0, nat=  61, ntyp= 1,
  ecutwfc     = 42.D0,
  nbnd=244,
  degauss     = 0.05D0,
  occupations = "smearing",
  smearing    = "methfessel-paxton",
/
&ELECTRONS
  electron_maxstep=200,
  conv_thr    = 1.D-8,
  mixing_beta = 0.3D0,
  scf_must_converge=.false.,
/
&IONS
/
ATOMIC_SPECIES
Si  28.08  Si.pbe-hgh.UPF

K_POINTS {automatic}
4 4 4 0 0 0

CELL_PARAMETERS angstrom
10.86000000000000 0.00000000000000 0.00000000000000
0.00000000000000 10.86000000000000 0.00000000000000
0.00000000000000 0.00000000000000 10.86000000000000

ATOMIC_POSITIONS angstrom
Si 0.0000000000 0.0000000000 0.0000000000 
Si 0.0000000000 2.7150000000 2.7150000000 
Si 2.7150000000 0.0000000000 2.7150000000 
Si 2.7150000000 2.7150000000 0.0000000000 
Si 1.3575000000 1.3575000000 1.3575000000 
Si 2.3644392000 3.9331770600 2.8956886800 
Si 3.8254675800 1.8205052400 3.5858091000 
Si 4.4060106000 3.7868385600 1.6915644600 
Si 5.4300000000 0.0000000000 0.0000000000 
Si 6.9419726400 4.0801671600 4.1042329200 
Si 8.1450000000 0.0000000000 2.7150000000 
Si 8.1450000000 2.7150000000 0.0000000000 
Si 6.7875000000 1.3575000000 1.3575000000 
Si 9.5025000000 4.0725000000 1.3575000000 
Si 9.5025000000 1.3575000000 4.0725000000 
Si 0.0000000000 0.0000000000 5.4300000000 
Si 0.0000000000 2.7150000000 8.1450000000 
Si 2.7150000000 0.0000000000 8.1450000000 
Si 9.4630130400 4.1000735400 6.7040626200 
Si 1.3575000000 1.3575000000 6.7875000000 
Si 1.3575000000 4.0725000000 9.5025000000 
Si 4.0725000000 1.3575000000 9.5025000000 
Si 3.1521910200 3.1659289200 7.0560026400 
Si 5.3007334200 0.2834709780 5.0963808000 
Si 5.3350727400 2.6718315000 8.0678179800 
Si 8.1450000000 0.0000000000 8.1450000000 
Si 7.9586749800 2.6077683600 5.6755446000 
Si 6.5994916800 1.2666561000 6.7176159000 
Si 6.8598493200 4.2412101000 9.2151552600 
Si 9.5025000000 1.3575000000 9.5025000000 
Si 0.0000000000 5.4300000000 0.0000000000 
Si 0.0000000000 8.1450000000 2.7150000000 
Si 3.4680867000 6.0156363600 2.2360522800 
Si 2.7150000000 8.1450000000 0.0000000000 
Si 1.3575000000 6.7875000000 1.3575000000 
Si 1.3575000000 9.5025000000 4.0725000000 
Si 4.2974106000 6.3040236600 4.3236592200 
Si 4.0725000000 9.5025000000 1.3575000000 
Si 5.2823908800 5.3695206600 10.7474361000 
Si 5.1915361200 8.1454235400 3.0541143600 
Si 8.1958139400 5.5175316000 2.6637082200 
Si 8.1450000000 8.1450000000 0.0000000000 
Si 6.4088335200 6.8447104800 1.3733881800 
Si 6.8581334400 9.3196393200 3.9374884800 
Si 9.5389896000 6.7322769000 4.2645699600 
Si 9.5025000000 9.5025000000 1.3575000000 
Si 0.1769170020 5.2257342600 5.6239161600 
Si 0.0000000000 8.1450000000 8.1450000000 
Si 2.6235153600 5.3559782400 8.3610162600 
Si 3.0068733600 7.9046356200 5.5435413000 
Si 1.5669025200 6.7932558000 6.9605215200 
Si 1.3575000000 9.5025000000 9.5025000000 
Si 4.0680691200 6.9177874200 9.4217993400 
Si 4.2144727800 9.6509670600 6.3951933600 
Si 4.5661304400 3.9994339200 4.8637596000 
Si 5.3692274400 8.3336925000 8.0407005600 
Si 8.1890807400 6.0556120200 7.6465042800 
Si 8.1571414800 8.0376489000 5.6904010800 
Si 9.5025000000 9.5025000000 6.7875000000 
Si 6.7875000000 9.5025000000 9.5025000000 
Si 9.5025000000 6.7875000000 9.5025000000 

