&CONTROL
  dt          = 30.D0,
  prefix = 'R1-T3000-2-66',
  pseudo_dir = './',
  outdir='./',
  wf_collect=.true.,
  verbosity ="high",
/

&SYSTEM
  ibrav= 0, nat=  61, ntyp= 1,
  ecutwfc     = 42.D0,
  nbnd=244,
  degauss     = 0.05D0,
  occupations = "smearing",
  smearing    = "methfessel-paxton",
/
&ELECTRONS
  electron_maxstep=200,
  conv_thr    = 1.D-8,
  mixing_beta = 0.3D0,
  scf_must_converge=.false.,
/
&IONS
/
ATOMIC_SPECIES
Si  28.08  Si.pbe-hgh.UPF

K_POINTS {automatic}
4 4 4 0 0 0

CELL_PARAMETERS angstrom
10.86000000000000 0.00000000000000 0.00000000000000
0.00000000000000 10.86000000000000 0.00000000000000
0.00000000000000 0.00000000000000 10.86000000000000

ATOMIC_POSITIONS angstrom
Si 0.0000000000 0.0000000000 0.0000000000 
Si 0.0000000000 2.7150000000 2.7150000000 
Si 2.7150000000 0.0000000000 2.7150000000 
Si 2.7150000000 2.7150000000 0.0000000000 
Si 1.3575000000 1.3575000000 1.3575000000 
Si 1.1353152600 4.3075538400 4.1621167200 
Si 4.0398331200 1.9903339200 3.6403588800 
Si 4.6553344800 3.9391174800 1.4640909000 
Si 5.4300000000 0.0000000000 0.0000000000 
Si 6.4042071600 3.0991290600 3.3023631000 
Si 8.1450000000 0.0000000000 2.7150000000 
Si 8.1450000000 2.7150000000 0.0000000000 
Si 6.7875000000 1.3575000000 1.3575000000 
Si 9.5025000000 4.0725000000 1.3575000000 
Si 9.5025000000 1.3575000000 4.0725000000 
Si 0.0000000000 0.0000000000 5.4300000000 
Si 0.0000000000 2.7150000000 8.1450000000 
Si 2.7150000000 0.0000000000 8.1450000000 
Si 2.6304114600 2.8314517800 5.3620707000 
Si 1.3575000000 1.3575000000 6.7875000000 
Si 1.3575000000 4.0725000000 9.5025000000 
Si 4.0725000000 1.3575000000 9.5025000000 
Si 9.3178800000 4.1666127600 6.9082306200 
Si 4.8471438000 11.1905784000 5.1818164200 
Si 5.1689147400 2.8204940400 8.0931326400 
Si 8.1450000000 0.0000000000 8.1450000000 
Si 8.2026557400 2.9374345200 5.1135070200 
Si 6.8330251200 1.5732990600 6.6485245800 
Si 6.8116526400 4.3454661000 9.5097544800 
Si 9.5025000000 1.3575000000 9.5025000000 
Si 0.0000000000 5.4300000000 0.0000000000 
Si 0.0000000000 8.1450000000 2.7150000000 
Si 2.6677372800 4.8772260000 2.4062827800 
Si 2.7150000000 8.1450000000 0.0000000000 
Si 1.3575000000 6.7875000000 1.3575000000 
Si 1.3575000000 9.5025000000 4.0725000000 
Si 4.5035334000 6.5886208200 4.4409798000 
Si 4.0725000000 9.5025000000 1.3575000000 
Si 5.1067521000 5.4907834200 10.6910184000 
Si 5.2169268000 8.1020921400 2.6339409600 
Si 7.9628235000 5.1569361600 2.3666003400 
Si 8.1450000000 8.1450000000 0.0000000000 
Si 6.5201919600 6.7433106600 0.9636707880 
Si 6.5678999400 9.8577088800 4.3014179400 
Si 9.1578796200 6.9804604800 3.6894678000 
Si 9.5025000000 9.5025000000 1.3575000000 
Si 10.5695927400 5.6089076400 5.4192703200 
Si 0.0000000000 8.1450000000 8.1450000000 
Si 2.4550116000 5.7380221800 8.1637769400 
Si 2.7384141600 8.1672738600 5.2171874400 
Si 1.1328826200 6.8899749600 6.7187887800 
Si 1.3575000000 9.5025000000 9.5025000000 
Si 4.0525284600 6.9357064200 9.2396228400 
Si 3.9715888800 9.5909872800 6.5606889000 
Si 6.4346368800 6.4271869200 6.1235413200 
Si 5.5693012200 8.1432624000 7.8413869800 
Si 8.1746803800 5.6243722800 8.0993228400 
Si 8.0371710600 8.0299708800 5.6848299000 
Si 9.5025000000 9.5025000000 6.7875000000 
Si 6.7875000000 9.5025000000 9.5025000000 
Si 9.5025000000 6.7875000000 9.5025000000 

