&CONTROL
  dt          = 30.D0,
  prefix = 'R1-T3000-32',
  pseudo_dir = './',
  outdir='./',
  wf_collect=.true.,
  verbosity ="high",
/

&SYSTEM
  ibrav= 0, nat=  61, ntyp= 1,
  ecutwfc     = 42.D0,
  nbnd=244,
  degauss     = 0.05D0,
  occupations = "smearing",
  smearing    = "methfessel-paxton",
/
&ELECTRONS
  electron_maxstep=200,
  conv_thr    = 1.D-8,
  mixing_beta = 0.3D0,
  scf_must_converge=.false.,
/
&IONS
/
ATOMIC_SPECIES
Si  28.08  Si.pbe-hgh.UPF

K_POINTS {automatic}
4 4 4 0 0 0

CELL_PARAMETERS angstrom
10.86000000000000 0.00000000000000 0.00000000000000
0.00000000000000 10.86000000000000 0.00000000000000
0.00000000000000 0.00000000000000 10.86000000000000

ATOMIC_POSITIONS angstrom
Si 0.0000000000 0.0000000000 0.0000000000 
Si 0.0000000000 2.7150000000 2.7150000000 
Si 2.7150000000 0.0000000000 2.7150000000 
Si 2.7150000000 2.7150000000 0.0000000000 
Si 1.3575000000 1.3575000000 1.3575000000 
Si 1.1626824600 4.0104785400 4.1311657200 
Si 4.3080751200 1.1172333600 3.9249451800 
Si 4.1347712400 3.8534863800 1.3255281600 
Si 5.4300000000 0.0000000000 0.0000000000 
Si 5.4797496600 2.6109069000 2.8643793000 
Si 8.1450000000 0.0000000000 2.7150000000 
Si 8.1450000000 2.7150000000 0.0000000000 
Si 6.7875000000 1.3575000000 1.3575000000 
Si 9.5025000000 4.0725000000 1.3575000000 
Si 9.5025000000 1.3575000000 4.0725000000 
Si 0.0000000000 0.0000000000 5.4300000000 
Si 0.0000000000 2.7150000000 8.1450000000 
Si 2.7150000000 0.0000000000 8.1450000000 
Si 2.9120981400 2.5934548800 5.0091207000 
Si 1.3575000000 1.3575000000 6.7875000000 
Si 1.3575000000 4.0725000000 9.5025000000 
Si 4.0725000000 1.3575000000 9.5025000000 
Si 3.6184977000 4.2079893600 7.0687848600 
Si 5.7302898600 0.0799716282 5.4132213000 
Si 5.0325565800 2.5475496600 7.8716755200 
Si 8.1450000000 0.0000000000 8.1450000000 
Si 8.5991543400 2.9262161400 5.5430960400 
Si 6.8480662200 1.3842699000 6.8786914200 
Si 6.6138268800 3.8825260200 9.1376257200 
Si 9.5025000000 1.3575000000 9.5025000000 
Si 9.4377852600 4.4002765200 6.9281587200 
Si 0.0000000000 5.4300000000 0.0000000000 
Si 0.0000000000 8.1450000000 2.7150000000 
Si 2.9343937200 5.3544687000 2.9663221200 
Si 2.7150000000 8.1450000000 0.0000000000 
Si 1.3575000000 6.7875000000 1.3575000000 
Si 1.3575000000 9.5025000000 4.0725000000 
Si 4.2817939200 6.7353611400 4.2157542600 
Si 4.0725000000 9.5025000000 1.3575000000 
Si 5.6755337400 5.1572619600 -0.0330727182 
Si 5.3007768600 7.9533753000 2.4201075600 
Si 8.1740287800 5.2853882400 2.6913686400 
Si 8.1450000000 8.1450000000 0.0000000000 
Si 6.8948945400 6.4697798400 1.2509308200 
Si 6.9106849800 9.2568359400 3.9059293200 
Si 9.5284119600 6.6839064600 3.8999454600 
Si 9.5025000000 9.5025000000 1.3575000000 
Si 0.2365329720 5.6856769800 5.6308231200 
Si 0.0000000000 8.1450000000 8.1450000000 
Si 2.5880357400 5.7445273200 8.3787397800 
Si 2.9805595800 8.0839233600 5.2853448000 
Si 1.4560653600 6.9706430400 6.6116657400 
Si 1.3575000000 9.5025000000 9.5025000000 
Si 4.1312417400 6.6057361800 9.7673536800 
Si 4.0528216800 9.4549983600 6.8718496200 
Si 9.5025000000 9.5025000000 6.7875000000 
Si 5.4570196800 7.8566778600 8.0677528200 
Si 7.9331214000 5.7100142400 8.0674921800 
Si 8.0917860000 8.1135060000 5.6184970200 
Si 9.5025000000 6.7875000000 9.5025000000 
Si 6.7875000000 9.5025000000 9.5025000000 

