&CONTROL
  dt          = 30.D0,
  prefix = 'R1-T1200-85',
  pseudo_dir = './',
  outdir='./',
  wf_collect=.true.,
  verbosity ="high",
/

&SYSTEM
  ibrav= 0, nat=  61, ntyp= 1,
  ecutwfc     = 42.D0,
  nbnd=244,
  degauss     = 0.05D0,
  occupations = "smearing",
  smearing    = "methfessel-paxton",
/
&ELECTRONS
  electron_maxstep=200,
  conv_thr    = 1.D-8,
  mixing_beta = 0.3D0,
  scf_must_converge=.false.,
/
&IONS
/
ATOMIC_SPECIES
Si  28.08  Si.pbe-hgh.UPF

K_POINTS {automatic}
4 4 4 0 0 0

CELL_PARAMETERS angstrom
10.86000000000000 0.00000000000000 0.00000000000000
0.00000000000000 10.86000000000000 0.00000000000000
0.00000000000000 0.00000000000000 10.86000000000000

ATOMIC_POSITIONS angstrom
Si 0.0000000000 0.0000000000 0.0000000000 
Si 0.0000000000 2.7150000000 2.7150000000 
Si 2.7150000000 0.0000000000 2.7150000000 
Si 2.7150000000 2.7150000000 0.0000000000 
Si 1.3575000000 1.3575000000 1.3575000000 
Si 1.3287210000 4.0910488800 4.1594886000 
Si 3.9911911800 1.3611706800 4.1460222000 
Si 4.0992481800 4.1063397600 1.3473241800 
Si 5.4300000000 0.0000000000 0.0000000000 
Si 5.3400357600 2.6848309200 2.7129366000 
Si 8.1450000000 0.0000000000 2.7150000000 
Si 8.1450000000 2.7150000000 0.0000000000 
Si 6.7875000000 1.3575000000 1.3575000000 
Si 9.5025000000 4.0725000000 1.3575000000 
Si 9.5025000000 1.3575000000 4.0725000000 
Si 0.0000000000 0.0000000000 5.4300000000 
Si 0.0000000000 2.7150000000 8.1450000000 
Si 2.7150000000 0.0000000000 8.1450000000 
Si 2.7063663000 2.6960493000 5.4099198600 
Si 1.3575000000 1.3575000000 6.7875000000 
Si 1.3575000000 4.0725000000 9.5025000000 
Si 4.0725000000 1.3575000000 9.5025000000 
Si 4.4685642000 4.0015190400 6.6969167400 
Si 5.4003087600 0.1813956660 5.4558685200 
Si 5.5960711200 2.8520314800 8.3913916800 
Si 8.1450000000 0.0000000000 8.1450000000 
Si 8.0338587600 2.7497085600 5.1913515000 
Si 6.7930168800 1.4257333800 6.5836578000 
Si 7.1019947400 4.2702388800 9.5226887400 
Si 9.5025000000 1.3575000000 9.5025000000 
Si 9.4970048400 4.2412209600 6.7780952400 
Si 0.0000000000 5.4300000000 0.0000000000 
Si 0.0000000000 8.1450000000 2.7150000000 
Si 2.6039565000 5.4593002800 2.6567686800 
Si 2.7150000000 8.1450000000 0.0000000000 
Si 1.3575000000 6.7875000000 1.3575000000 
Si 1.3575000000 9.5025000000 4.0725000000 
Si 3.8864899200 6.9043427400 4.0086540600 
Si 4.0725000000 9.5025000000 1.3575000000 
Si 5.6101239600 5.3315975400 -0.0438542004 
Si 5.4409143000 8.0989644600 2.6031745800 
Si 8.1823475400 5.3234742600 2.7877945800 
Si 8.1450000000 8.1450000000 0.0000000000 
Si 6.8375428800 6.7455912600 1.5049570800 
Si 6.6360464400 9.5436594000 4.0368683400 
Si 9.6133697400 6.6714066000 4.1137571400 
Si 9.5025000000 9.5025000000 1.3575000000 
Si 0.0588250362 5.4760572600 5.5614277200 
Si 0.0000000000 8.1450000000 8.1450000000 
Si 2.9170937400 5.3625268200 8.0843360400 
Si 2.6601895800 8.3238967800 5.6693544000 
Si 1.4082813600 6.8213180400 6.8260204200 
Si 1.3575000000 9.5025000000 9.5025000000 
Si 4.3170780600 6.6885111000 9.3369501600 
Si 4.2616703400 9.5040747000 6.8017591800 
Si 9.5025000000 9.5025000000 6.7875000000 
Si 5.5917705600 8.1326630400 8.1511359000 
Si 7.9489009800 5.6395002600 7.7999778000 
Si 8.2008855600 8.3468005200 5.2738114800 
Si 9.5025000000 6.7875000000 9.5025000000 
Si 6.7875000000 9.5025000000 9.5025000000 

