&CONTROL
  dt          = 30.D0,
  prefix = 'R1-T1200-118',
  pseudo_dir = './',
  outdir='./',
 wf_collect=.true.,
 verbosity ="high",
/

&SYSTEM
    ibrav= 0, nat=  61, ntyp= 1,
  ecutwfc     = 42.D0,
  nbnd=244,
  degauss     = 0.05D0,
  occupations = "smearing",
  smearing    = "methfessel-paxton",
/
&ELECTRONS
  electron_maxstep=200,
  conv_thr    = 1.D-8,
  mixing_beta = 0.3D0,
  scf_must_converge=.false.,
/
&IONS
/
ATOMIC_SPECIES
Si  28.08  Si.pbe-hgh.UPF

K_POINTS {automatic}
4 4 4 0 0 0
CELL_PARAMETERS angstrom
10.86000000000000 0.00000000000000 0.00000000000000
0.00000000000000 10.86000000000000 0.00000000000000
0.00000000000000 0.00000000000000 10.86000000000000

ATOMIC_POSITIONS angstrom
Si 0.0000000000 0.0000000000 0.0000000000 
Si 0.0000000000 2.7150000000 2.7150000000 
Si 2.7150000000 0.0000000000 2.7150000000 
Si 2.7150000000 2.7150000000 0.0000000000 
Si 1.3575000000 1.3575000000 1.3575000000 
Si 1.5025353000 3.9715454400 3.9820470600 
Si 4.0219141200 1.2546666600 4.2453043200 
Si 4.0753018800 4.1158096800 1.4446515000 
Si 5.4300000000 0.0000000000 0.0000000000 
Si 5.4285882000 2.6117431200 2.8826349600 
Si 8.1450000000 0.0000000000 2.7150000000 
Si 8.1450000000 2.7150000000 0.0000000000 
Si 6.7875000000 1.3575000000 1.3575000000 
Si 9.5025000000 4.0725000000 1.3575000000 
Si 9.5025000000 1.3575000000 4.0725000000 
Si 0.0000000000 0.0000000000 5.4300000000 
Si 0.0000000000 2.7150000000 8.1450000000 
Si 2.7150000000 0.0000000000 8.1450000000 
Si 2.8100793000 2.6097557400 5.5205072400 
Si 1.3575000000 1.3575000000 6.7875000000 
Si 1.3575000000 4.0725000000 9.5025000000 
Si 4.0725000000 1.3575000000 9.5025000000 
Si 3.9559830600 4.0870958400 6.8463503400 
Si 5.5829631000 10.7124451800 5.4389377800 
Si 5.4120484200 2.7397499400 8.2774051200 
Si 8.1450000000 0.0000000000 8.1450000000 
Si 8.4229834200 2.5719303600 5.6965044000 
Si 6.6272824200 1.4214654000 6.8339373600 
Si 6.8403447600 4.0544506800 9.6721875000 
Si 9.5025000000 1.3575000000 9.5025000000 
Si 9.5696473800 4.2323592000 6.7784101800 
Si 0.0000000000 5.4300000000 0.0000000000 
Si 0.0000000000 8.1450000000 2.7150000000 
Si 2.7836677800 5.5626549000 2.6765556000 
Si 2.7150000000 8.1450000000 0.0000000000 
Si 1.3575000000 6.7875000000 1.3575000000 
Si 1.3575000000 9.5025000000 4.0725000000 
Si 4.2523416000 6.7612839600 4.0900823400 
Si 4.0725000000 9.5025000000 1.3575000000 
Si 5.3093671200 5.3538496800 0.0095072458 
Si 5.5668903000 8.1931966800 2.6699961600 
Si 8.2270255800 5.3437933200 2.8564080600 
Si 8.1450000000 8.1450000000 0.0000000000 
Si 6.8370107400 6.6451905600 1.3668070200 
Si 6.9401373000 9.3505686000 4.1209030200 
Si 9.6513471600 6.7870764600 4.1485417200 
Si 9.5025000000 9.5025000000 1.3575000000 
Si 11.0259408000 5.3447924400 5.5872310800 
Si 0.0000000000 8.1450000000 8.1450000000 
Si 2.6699418600 5.4358535400 8.2018412400 
Si 2.8787036400 8.1226284000 5.4342897000 
Si 1.3694568600 6.8588284800 6.8951443200 
Si 1.3575000000 9.5025000000 9.5025000000 
Si 3.9870426600 6.6799099800 9.5019787200 
Si 4.2161343600 9.5655857400 6.7396834200 
Si 9.5025000000 9.5025000000 6.7875000000 
Si 5.3577484200 8.1984637800 8.2212806400 
Si 7.9605320400 5.3667079200 8.1655688400 
Si 8.1614746200 7.9251284400 5.4671955000 
Si 9.5025000000 6.7875000000 9.5025000000 
Si 6.7875000000 9.5025000000 9.5025000000 

