&CONTROL
  dt          = 30.D0,
  prefix = 'R1-T3000-3-107',
  pseudo_dir = './',
  outdir='./',
 wf_collect=.true.,
 verbosity ="high",
/

&SYSTEM
    ibrav= 0, nat=  61, ntyp= 1,
  ecutwfc     = 42.D0,
  nbnd=244,
  degauss     = 0.05D0,
  occupations = "smearing",
  smearing    = "methfessel-paxton",
/
&ELECTRONS
  electron_maxstep=200,
  conv_thr    = 1.D-8,
  mixing_beta = 0.3D0,
  scf_must_converge=.false.,
/
&IONS
/
ATOMIC_SPECIES
Si  28.08  Si.pbe-hgh.UPF

K_POINTS {automatic}
4 4 4 0 0 0
CELL_PARAMETERS angstrom
10.86000000000000 0.00000000000000 0.00000000000000
0.00000000000000 10.86000000000000 0.00000000000000
0.00000000000000 0.00000000000000 10.86000000000000

ATOMIC_POSITIONS angstrom
Si 0.0000000000 0.0000000000 0.0000000000 
Si 0.0000000000 2.7150000000 2.7150000000 
Si 2.7150000000 0.0000000000 2.7150000000 
Si 2.7150000000 2.7150000000 0.0000000000 
Si 1.3575000000 1.3575000000 1.3575000000 
Si 1.7864808600 2.8929085200 4.8938200800 
Si 3.9826335000 2.0426791200 5.1530048400 
Si 3.4366361400 4.6195833600 1.0474763220 
Si 5.4300000000 0.0000000000 0.0000000000 
Si 6.9549069000 3.2201746200 3.4808689200 
Si 8.1450000000 0.0000000000 2.7150000000 
Si 8.1450000000 2.7150000000 0.0000000000 
Si 6.7875000000 1.3575000000 1.3575000000 
Si 9.5025000000 4.0725000000 1.3575000000 
Si 9.5025000000 1.3575000000 4.0725000000 
Si 0.0000000000 0.0000000000 5.4300000000 
Si 0.0000000000 2.7150000000 8.1450000000 
Si 2.7150000000 0.0000000000 8.1450000000 
Si 9.7061250000 4.1470539000 6.6584832000 
Si 1.3575000000 1.3575000000 6.7875000000 
Si 1.3575000000 4.0725000000 9.5025000000 
Si 4.0725000000 1.3575000000 9.5025000000 
Si 3.6617856600 3.1779943800 7.1272985400 
Si 5.2343353800 10.9406898000 5.3342365200 
Si 5.7104595000 3.0387691800 8.1550129200 
Si 8.1450000000 0.0000000000 8.1450000000 
Si 7.9789506000 2.5235925000 5.4588333000 
Si 6.6762936000 1.1854015800 6.8117829600 
Si 7.1695005000 4.3446624600 9.2652198600 
Si 9.5025000000 1.3575000000 9.5025000000 
Si 0.0000000000 5.4300000000 0.0000000000 
Si 0.0000000000 8.1450000000 2.7150000000 
Si 2.3890696800 4.8603495600 2.8701025200 
Si 2.7150000000 8.1450000000 0.0000000000 
Si 1.3575000000 6.7875000000 1.3575000000 
Si 1.3575000000 9.5025000000 4.0725000000 
Si 3.6166297800 6.6540740400 3.5088008400 
Si 4.0725000000 9.5025000000 1.3575000000 
Si 5.4408708600 5.1398533800 10.7069500200 
Si 5.1385176000 7.8402358200 2.6929107600 
Si 7.9657339800 5.3986471800 2.3928924000 
Si 8.1450000000 8.1450000000 0.0000000000 
Si 6.5460387600 6.8246846400 1.0360744080 
Si 6.4429556400 9.3867541200 3.8814183000 
Si 9.3448345200 6.7600785000 3.9564609000 
Si 9.5025000000 9.5025000000 1.3575000000 
Si -0.0905568702 5.8146177600 5.2608880800 
Si 0.0000000000 8.1450000000 8.1450000000 
Si 2.5921951200 5.0015187000 7.9903318800 
Si 2.5139053800 7.7805818400 5.1443494200 
Si 1.0528237860 6.5987097600 6.8156274000 
Si 1.3575000000 9.5025000000 9.5025000000 
Si 3.7508159400 6.6840476400 9.5946036600 
Si 4.0329587400 9.1113445200 6.5348638200 
Si 4.4425870800 4.1473688400 4.0260083400 
Si 5.4292398000 7.9519526400 8.4018498600 
Si 8.3301304200 5.6480688000 7.4805200400 
Si 7.8522035400 7.8282138000 5.8104801000 
Si 9.5025000000 9.5025000000 6.7875000000 
Si 6.7875000000 9.5025000000 9.5025000000 
Si 9.5025000000 6.7875000000 9.5025000000 

