&CONTROL
  dt          = 30.D0,
  prefix = 'R1-T3000-16',
  pseudo_dir = './',
  outdir='./',
  wf_collect=.true.,
  verbosity ="high",
/

&SYSTEM
  ibrav= 0, nat=  61, ntyp= 1,
  ecutwfc     = 42.D0,
  nbnd=244,
  degauss     = 0.05D0,
  occupations = "smearing",
  smearing    = "methfessel-paxton",
/
&ELECTRONS
  electron_maxstep=200,
  conv_thr    = 1.D-8,
  mixing_beta = 0.3D0,
  scf_must_converge=.false.,
/
&IONS
/
ATOMIC_SPECIES
Si  28.08  Si.pbe-hgh.UPF

K_POINTS {automatic}
4 4 4 0 0 0

CELL_PARAMETERS angstrom
10.86000000000000 0.00000000000000 0.00000000000000
0.00000000000000 10.86000000000000 0.00000000000000
0.00000000000000 0.00000000000000 10.86000000000000

ATOMIC_POSITIONS angstrom
Si 0.0000000000 0.0000000000 0.0000000000 
Si 0.0000000000 2.7150000000 2.7150000000 
Si 2.7150000000 0.0000000000 2.7150000000 
Si 2.7150000000 2.7150000000 0.0000000000 
Si 1.3575000000 1.3575000000 1.3575000000 
Si 1.3857794400 4.0124224800 4.2769612200 
Si 4.0395833400 1.6494602400 3.9208075200 
Si 4.0899954600 4.1407659600 1.4476814400 
Si 5.4300000000 0.0000000000 0.0000000000 
Si 5.5410869400 2.9949165000 2.7226020000 
Si 8.1450000000 0.0000000000 2.7150000000 
Si 8.1450000000 2.7150000000 0.0000000000 
Si 6.7875000000 1.3575000000 1.3575000000 
Si 9.5025000000 4.0725000000 1.3575000000 
Si 9.5025000000 1.3575000000 4.0725000000 
Si 0.0000000000 0.0000000000 5.4300000000 
Si 0.0000000000 2.7150000000 8.1450000000 
Si 2.7150000000 0.0000000000 8.1450000000 
Si 2.8541274600 2.7674646600 5.6073655200 
Si 1.3575000000 1.3575000000 6.7875000000 
Si 1.3575000000 4.0725000000 9.5025000000 
Si 4.0725000000 1.3575000000 9.5025000000 
Si 4.1241175800 3.8164212000 7.0435136400 
Si 5.2817501400 0.0040315252 5.3300337000 
Si 5.7569620200 2.6050207800 8.4513714600 
Si 8.1450000000 0.0000000000 8.1450000000 
Si 7.7843611200 2.5275346800 5.2198264200 
Si 6.8120001600 1.2246061800 6.7484474400 
Si 6.9200680200 4.4254608600 9.5808114600 
Si 9.5025000000 1.3575000000 9.5025000000 
Si 9.4270990200 3.7785089400 6.6217329600 
Si 0.0000000000 5.4300000000 0.0000000000 
Si 0.0000000000 8.1450000000 2.7150000000 
Si 2.5701276000 5.4865154400 2.7979161000 
Si 2.7150000000 8.1450000000 0.0000000000 
Si 1.3575000000 6.7875000000 1.3575000000 
Si 1.3575000000 9.5025000000 4.0725000000 
Si 4.2611490600 6.6993493800 4.2526456800 
Si 4.0725000000 9.5025000000 1.3575000000 
Si 5.1577180800 5.4450628200 -0.0455658450 
Si 5.5338759000 8.2247558400 3.0435584400 
Si 8.1481494000 5.4673692600 2.7157602000 
Si 8.1450000000 8.1450000000 0.0000000000 
Si 6.6271955400 6.8569171200 1.3499957400 
Si 6.7319945400 9.5450820600 4.0712293800 
Si 9.3789023400 7.2691844400 4.2238884000 
Si 9.5025000000 9.5025000000 1.3575000000 
Si -0.1620572640 5.4605600400 5.2943260200 
Si 0.0000000000 8.1450000000 8.1450000000 
Si 2.7435726600 5.2460098800 8.1536119800 
Si 2.8612299000 8.1460099800 5.6194309800 
Si 1.5973756800 6.5969721600 6.7648243200 
Si 1.3575000000 9.5025000000 9.5025000000 
Si 3.9263135400 7.0079362800 9.3365700600 
Si 4.0828170000 9.4913467800 6.9171249600 
Si 9.5025000000 9.5025000000 6.7875000000 
Si 5.5258177800 8.2474966800 8.3971040400 
Si 8.3927817600 5.3039588400 8.0874854400 
Si 7.9770826800 8.4400336200 5.5848744600 
Si 9.5025000000 6.7875000000 9.5025000000 
Si 6.7875000000 9.5025000000 9.5025000000 

