&CONTROL
  dt          = 30.D0,
  prefix = 'R1-T3000-3-179',
  pseudo_dir = './',
  outdir='./',
 wf_collect=.true.,
 verbosity ="high",
/

&SYSTEM
    ibrav= 0, nat=  61, ntyp= 1,
  ecutwfc     = 42.D0,
  nbnd=244,
  degauss     = 0.05D0,
  occupations = "smearing",
  smearing    = "methfessel-paxton",
/
&ELECTRONS
  electron_maxstep=200,
  conv_thr    = 1.D-8,
  mixing_beta = 0.3D0,
  scf_must_converge=.false.,
/
&IONS
/
ATOMIC_SPECIES
Si  28.08  Si.pbe-hgh.UPF

K_POINTS {automatic}
4 4 4 0 0 0
CELL_PARAMETERS angstrom
10.86000000000000 0.00000000000000 0.00000000000000
0.00000000000000 10.86000000000000 0.00000000000000
0.00000000000000 0.00000000000000 10.86000000000000

ATOMIC_POSITIONS angstrom
Si 0.0000000000 0.0000000000 0.0000000000 
Si 0.0000000000 2.7150000000 2.7150000000 
Si 2.7150000000 0.0000000000 2.7150000000 
Si 2.7150000000 2.7150000000 0.0000000000 
Si 1.3575000000 1.3575000000 1.3575000000 
Si 2.9128909200 2.9959699200 5.5396208400 
Si 4.4178697200 1.4288067600 3.7535200800 
Si 5.1446426400 4.6655754600 2.0970877200 
Si 5.4300000000 0.0000000000 0.0000000000 
Si 6.4732116000 3.0622593600 3.1612156800 
Si 8.1450000000 0.0000000000 2.7150000000 
Si 8.1450000000 2.7150000000 0.0000000000 
Si 6.7875000000 1.3575000000 1.3575000000 
Si 9.5025000000 4.0725000000 1.3575000000 
Si 9.5025000000 1.3575000000 4.0725000000 
Si 0.0000000000 0.0000000000 5.4300000000 
Si 0.0000000000 2.7150000000 8.1450000000 
Si 2.7150000000 0.0000000000 8.1450000000 
Si 9.7513569000 4.2988658400 6.5318230200 
Si 1.3575000000 1.3575000000 6.7875000000 
Si 1.3575000000 4.0725000000 9.5025000000 
Si 4.0725000000 1.3575000000 9.5025000000 
Si 4.1235745800 3.7959066600 7.2147106800 
Si 5.5867858200 10.5777377400 5.1905152800 
Si 5.7319514400 2.6361564000 8.5155975000 
Si 8.1450000000 0.0000000000 8.1450000000 
Si 7.7176047000 2.7231450000 5.2541548800 
Si 6.7954603800 1.1634969600 6.8878464000 
Si 7.3514163600 4.1187310200 9.1196307000 
Si 9.5025000000 1.3575000000 9.5025000000 
Si 0.0000000000 5.4300000000 0.0000000000 
Si 0.0000000000 8.1450000000 2.7150000000 
Si 1.5023072400 3.8947869600 3.6395335200 
Si 2.7150000000 8.1450000000 0.0000000000 
Si 1.3575000000 6.7875000000 1.3575000000 
Si 1.3575000000 9.5025000000 4.0725000000 
Si 3.3151561800 7.1705213400 3.3607790400 
Si 4.0725000000 9.5025000000 1.3575000000 
Si 5.4634705200 5.3745597000 10.4988507000 
Si 5.2963677000 7.8039960000 2.5842564600 
Si 7.8674727000 5.4925970400 2.6698115400 
Si 8.1450000000 8.1450000000 0.0000000000 
Si 6.8261616000 6.7506411600 1.2775486800 
Si 7.2291327600 8.6796052200 3.8959598400 
Si 9.2198576400 7.0124757600 3.8780517000 
Si 9.5025000000 9.5025000000 1.3575000000 
Si 0.0378162576 5.5751439000 5.0146375800 
Si 0.0000000000 8.1450000000 8.1450000000 
Si 2.6703219600 5.4839307600 8.1718459200 
Si 2.7524127000 8.3338336800 5.4502321800 
Si 1.2949029600 6.8558637000 6.6469064400 
Si 1.3575000000 9.5025000000 9.5025000000 
Si 4.0776259200 7.0660372800 9.2464537800 
Si 4.0309930800 9.7368262200 6.7717964400 
Si 3.0495748800 4.8697760400 2.5854727800 
Si 5.7778240800 8.6133700800 7.8415390200 
Si 8.3061624000 5.6369807400 7.4691822000 
Si 7.6137939600 7.7411274600 6.2984199000 
Si 9.5025000000 9.5025000000 6.7875000000 
Si 6.7875000000 9.5025000000 9.5025000000 
Si 9.5025000000 6.7875000000 9.5025000000 

