&CONTROL
  dt          = 30.D0,
  prefix = 'R1-T3000-4-7',
  pseudo_dir = './',
  outdir='./',
 wf_collect=.true.,
 verbosity ="high",
/

&SYSTEM
    ibrav= 0, nat=  61, ntyp= 1,
  ecutwfc     = 42.D0,
  nbnd=244,
  degauss     = 0.05D0,
  occupations = "smearing",
  smearing    = "methfessel-paxton",
/
&ELECTRONS
  electron_maxstep=200,
  conv_thr    = 1.D-8,
  mixing_beta = 0.3D0,
  scf_must_converge=.false.,
/
&IONS
/
ATOMIC_SPECIES
Si  28.08  Si.pbe-hgh.UPF

K_POINTS {automatic}
4 4 4 0 0 0
CELL_PARAMETERS angstrom
10.86000000000000 0.00000000000000 0.00000000000000
0.00000000000000 10.86000000000000 0.00000000000000
0.00000000000000 0.00000000000000 10.86000000000000

ATOMIC_POSITIONS angstrom
Si 0.0000000000 0.0000000000 0.0000000000 
Si 0.0000000000 2.7150000000 2.7150000000 
Si 2.7150000000 0.0000000000 2.7150000000 
Si 2.7150000000 2.7150000000 0.0000000000 
Si 1.3575000000 1.3575000000 1.3575000000 
Si 1.5769697400 4.0659948600 4.0980861600 
Si 4.0066884000 1.3604539200 4.1867037600 
Si 4.1951637000 4.0051245600 1.4383418400 
Si 5.4300000000 0.0000000000 0.0000000000 
Si 5.3931846000 2.5325520000 2.7589395600 
Si 8.1450000000 0.0000000000 2.7150000000 
Si 8.1450000000 2.7150000000 0.0000000000 
Si 6.7875000000 1.3575000000 1.3575000000 
Si 6.3475722600 4.4494180200 3.9829050000 
Si 9.5025000000 1.3575000000 4.0725000000 
Si 9.5025000000 4.0725000000 1.3575000000 
Si 0.0000000000 0.0000000000 5.4300000000 
Si 0.0000000000 2.7150000000 8.1450000000 
Si 2.7150000000 0.0000000000 8.1450000000 
Si 9.3883614000 4.1909826000 6.9094903800 
Si 1.3575000000 1.3575000000 6.7875000000 
Si 1.3575000000 4.0725000000 9.5025000000 
Si 4.0725000000 1.3575000000 9.5025000000 
Si 4.3145802600 3.8639337000 6.9051898200 
Si 5.3603874000 0.1812740340 5.4629926800 
Si 5.5949742600 2.5161099600 8.2038394800 
Si 8.1450000000 0.0000000000 8.1450000000 
Si 7.8336003600 2.9329384800 5.4285664800 
Si 6.8232511200 1.2805569000 6.8080905600 
Si 6.7124465400 4.1668191000 9.5883483000 
Si 9.5025000000 1.3575000000 9.5025000000 
Si 0.0000000000 5.4300000000 0.0000000000 
Si 0.0000000000 8.1450000000 2.7150000000 
Si 2.7271197600 5.3045670000 2.5056517800 
Si 2.7150000000 8.1450000000 0.0000000000 
Si 1.3575000000 6.7875000000 1.3575000000 
Si 1.3575000000 9.5025000000 4.0725000000 
Si 3.9190264800 6.9653542200 3.8317229400 
Si 4.0725000000 9.5025000000 1.3575000000 
Si 5.5747203600 5.5190411400 0.1543510080 
Si 5.5122210600 8.0779503600 2.7082776600 
Si 8.2065870600 5.3916316200 2.8299422400 
Si 8.1450000000 8.1450000000 0.0000000000 
Si 6.8640955800 7.0804050600 1.4411871600 
Si 6.9120099000 9.4633822800 4.3266891600 
Si 9.7154428800 6.6594931800 4.0825563600 
Si 9.5025000000 9.5025000000 1.3575000000 
Si 0.2104809180 5.3023732800 5.7169212000 
Si 0.0000000000 8.1450000000 8.1450000000 
Si 2.9476212000 5.1686215200 8.2136786400 
Si 2.6377745400 8.0915579400 5.2925015400 
Si 1.4134724400 6.6679748400 6.9318511200 
Si 1.3575000000 9.5025000000 9.5025000000 
Si 4.1522232600 6.6479598600 9.4958428200 
Si 4.1926767600 9.3148826400 6.7324180800 
Si 9.5025000000 6.7875000000 9.5025000000 
Si 5.5306070400 8.2225512600 8.1107041200 
Si 8.0809260000 5.6604926400 8.1673498800 
Si 8.1652430400 8.0964015000 5.3188913400 
Si 9.5025000000 9.5025000000 6.7875000000 
Si 6.7875000000 9.5025000000 9.5025000000 

