&CONTROL
  dt          = 30.D0,
  prefix = 'R1-T3000-2-407',
  pseudo_dir = './',
  outdir='./',
  wf_collect=.true.,
  verbosity ="high",
/

&SYSTEM
  ibrav= 0, nat=  61, ntyp= 1,
  ecutwfc     = 42.D0,
  nbnd=244,
  degauss     = 0.05D0,
  occupations = "smearing",
  smearing    = "methfessel-paxton",
/
&ELECTRONS
  electron_maxstep=200,
  conv_thr    = 1.D-8,
  mixing_beta = 0.3D0,
  scf_must_converge=.false.,
/
&IONS
/
ATOMIC_SPECIES
Si  28.08  Si.pbe-hgh.UPF

K_POINTS {automatic}
4 4 4 0 0 0

CELL_PARAMETERS angstrom
10.86000000000000 0.00000000000000 0.00000000000000
0.00000000000000 10.86000000000000 0.00000000000000
0.00000000000000 0.00000000000000 10.86000000000000

ATOMIC_POSITIONS angstrom
Si 0.0000000000 0.0000000000 0.0000000000 
Si 0.0000000000 2.7150000000 2.7150000000 
Si 2.7150000000 0.0000000000 2.7150000000 
Si 2.7150000000 2.7150000000 0.0000000000 
Si 1.3575000000 1.3575000000 1.3575000000 
Si 1.2236179200 4.2181869000 3.8117622600 
Si 3.6615684600 1.0994772600 4.4971368600 
Si 4.1751052800 4.3325644200 1.3321853400 
Si 5.4300000000 0.0000000000 0.0000000000 
Si 4.8866307600 2.3756684400 2.6837992200 
Si 8.1450000000 0.0000000000 2.7150000000 
Si 8.1450000000 2.7150000000 0.0000000000 
Si 6.7875000000 1.3575000000 1.3575000000 
Si 9.5025000000 4.0725000000 1.3575000000 
Si 9.5025000000 1.3575000000 4.0725000000 
Si 0.0000000000 0.0000000000 5.4300000000 
Si 0.0000000000 2.7150000000 8.1450000000 
Si 2.7150000000 0.0000000000 8.1450000000 
Si 2.5975491000 3.0174292800 5.4413812800 
Si 1.3575000000 1.3575000000 6.7875000000 
Si 1.3575000000 4.0725000000 9.5025000000 
Si 4.0725000000 1.3575000000 9.5025000000 
Si 9.5387181000 3.8742072600 6.6487743600 
Si 5.6077564800 10.4298136800 5.7222751800 
Si 5.3309893800 2.8689839400 8.1545242200 
Si 8.1450000000 0.0000000000 8.1450000000 
Si 8.0780155200 2.8259131800 5.2655253000 
Si 6.8315373000 1.4759934600 6.9781364400 
Si 7.0199908800 3.9869449200 9.4829302800 
Si 9.5025000000 1.3575000000 9.5025000000 
Si 0.0000000000 5.4300000000 0.0000000000 
Si 0.0000000000 8.1450000000 2.7150000000 
Si 2.9853705600 5.4875254200 2.6182808400 
Si 2.7150000000 8.1450000000 0.0000000000 
Si 1.3575000000 6.7875000000 1.3575000000 
Si 1.3575000000 9.5025000000 4.0725000000 
Si 4.6470917400 6.8938302600 4.9351858200 
Si 4.0725000000 9.5025000000 1.3575000000 
Si 5.7595575600 5.8303973400 0.0589827234 
Si 4.2197290200 7.4256987600 2.8418665200 
Si 6.4718758200 3.9848272200 3.5253623400 
Si 8.1450000000 8.1450000000 0.0000000000 
Si 6.7435170000 7.3085085000 1.8299751600 
Si 6.7923327000 9.3697799400 3.8328741000 
Si 8.3119182000 5.5912818600 2.7890652000 
Si 9.5025000000 9.5025000000 1.3575000000 
Si 0.3415198500 5.4040446000 5.4301303200 
Si 0.0000000000 8.1450000000 8.1450000000 
Si 3.4824870600 5.2196635200 6.2111706600 
Si 2.6593099200 8.5281516600 5.5356026400 
Si 1.3430779200 6.7323529200 6.6577773000 
Si 1.3575000000 9.5025000000 9.5025000000 
Si 4.9985213400 7.6873053000 9.5922796200 
Si 4.2606386400 9.1905139200 7.6544103600 
Si 7.8666039000 8.0255508600 5.2225631400 
Si 5.9003466000 8.2356810000 6.2503644000 
Si 8.8918530600 4.9040067600 8.6235567600 
Si 9.7977291000 6.6529663200 4.1462394000 
Si 9.5025000000 9.5025000000 6.7875000000 
Si 6.7875000000 9.5025000000 9.5025000000 
Si 9.5025000000 6.7875000000 9.5025000000 

