&CONTROL
  dt          = 30.D0,
  prefix = 'R1-T3000-3-203',
  pseudo_dir = './',
  outdir='./',
 wf_collect=.true.,
 verbosity ="high",
/

&SYSTEM
    ibrav= 0, nat=  61, ntyp= 1,
  ecutwfc     = 42.D0,
  nbnd=244,
  degauss     = 0.05D0,
  occupations = "smearing",
  smearing    = "methfessel-paxton",
/
&ELECTRONS
  electron_maxstep=200,
  conv_thr    = 1.D-8,
  mixing_beta = 0.3D0,
  scf_must_converge=.false.,
/
&IONS
/
ATOMIC_SPECIES
Si  28.08  Si.pbe-hgh.UPF

K_POINTS {automatic}
4 4 4 0 0 0
CELL_PARAMETERS angstrom
10.86000000000000 0.00000000000000 0.00000000000000
0.00000000000000 10.86000000000000 0.00000000000000
0.00000000000000 0.00000000000000 10.86000000000000

ATOMIC_POSITIONS angstrom
Si 0.0000000000 0.0000000000 0.0000000000 
Si 0.0000000000 2.7150000000 2.7150000000 
Si 2.7150000000 0.0000000000 2.7150000000 
Si 2.7150000000 2.7150000000 0.0000000000 
Si 1.3575000000 1.3575000000 1.3575000000 
Si 2.5463985000 2.6290865400 5.5558891200 
Si 4.8298438200 1.0034531400 2.7818758800 
Si 3.6381543000 4.6704298800 0.7756418340 
Si 5.4300000000 0.0000000000 0.0000000000 
Si 6.7635102600 3.0808082400 3.3416111400 
Si 8.1450000000 0.0000000000 2.7150000000 
Si 8.1450000000 2.7150000000 0.0000000000 
Si 6.7875000000 1.3575000000 1.3575000000 
Si 9.5025000000 4.0725000000 1.3575000000 
Si 9.5025000000 1.3575000000 4.0725000000 
Si 0.0000000000 0.0000000000 5.4300000000 
Si 0.0000000000 2.7150000000 8.1450000000 
Si 2.7150000000 0.0000000000 8.1450000000 
Si 9.5201909400 4.0962073800 6.7475352000 
Si 1.3575000000 1.3575000000 6.7875000000 
Si 1.3575000000 4.0725000000 9.5025000000 
Si 4.0725000000 1.3575000000 9.5025000000 
Si 3.9191893800 3.5819212200 6.9003462600 
Si 5.5882736400 10.6003048200 4.8482515200 
Si 5.4762636000 2.9927662200 8.5361011800 
Si 8.1450000000 0.0000000000 8.1450000000 
Si 8.1632991000 2.6528590800 5.4027088200 
Si 6.4602447600 1.4226600000 6.7865551800 
Si 7.0990734000 4.3950420000 9.3343872000 
Si 9.5025000000 1.3575000000 9.5025000000 
Si 0.0000000000 5.4300000000 0.0000000000 
Si 0.0000000000 8.1450000000 2.7150000000 
Si 1.4704222800 4.3239198600 4.1780374800 
Si 2.7150000000 8.1450000000 0.0000000000 
Si 1.3575000000 6.7875000000 1.3575000000 
Si 1.3575000000 9.5025000000 4.0725000000 
Si 4.3261353000 6.9258129600 4.3375491600 
Si 4.0725000000 9.5025000000 1.3575000000 
Si 5.6479710600 5.5560194400 10.6352957400 
Si 5.4760789800 8.3897192400 2.9891281200 
Si 7.9414293000 5.1778851000 2.5385575800 
Si 8.1450000000 8.1450000000 0.0000000000 
Si 6.6390872400 6.8724577800 1.5186841200 
Si 7.4266653000 9.1811091600 4.2749195400 
Si 8.8584042600 6.8312766600 3.9119566200 
Si 9.5025000000 9.5025000000 1.3575000000 
Si 10.5433115400 5.6990565000 5.2495828200 
Si 0.0000000000 8.1450000000 8.1450000000 
Si 2.8966009200 5.4214857600 7.8890732400 
Si 2.6989815000 8.2523293800 5.5461368400 
Si 1.2229880400 6.6594714600 6.8382487800 
Si 1.3575000000 9.5025000000 9.5025000000 
Si 4.3376686200 6.8516391600 9.5725795800 
Si 4.2277980000 9.8236302000 6.7044970200 
Si 2.9593282800 5.5827350400 2.9271392400 
Si 5.6006214600 8.0356180800 7.8942100200 
Si 8.0696533200 6.0486181800 7.6746208200 
Si 7.6330161600 8.2030032600 6.4280448600 
Si 9.5025000000 9.5025000000 6.7875000000 
Si 6.7875000000 9.5025000000 9.5025000000 
Si 9.5025000000 6.7875000000 9.5025000000 

