&CONTROL
  dt          = 30.D0,
  prefix = 'R1-T1200-2-11',
  pseudo_dir = './',
  outdir='./',
  wf_collect=.true.,
  verbosity ="high",
/

&SYSTEM
  ibrav= 0, nat=  61, ntyp= 1,
  ecutwfc     = 42.D0,
  nbnd=244,
  degauss     = 0.05D0,
  occupations = "smearing",
  smearing    = "methfessel-paxton",
/
&ELECTRONS
  electron_maxstep=200,
  conv_thr    = 1.D-8,
  mixing_beta = 0.3D0,
  scf_must_converge=.false.,
/
&IONS
/
ATOMIC_SPECIES
Si  28.08  Si.pbe-hgh.UPF

K_POINTS {automatic}
4 4 4 0 0 0

CELL_PARAMETERS angstrom
10.86000000000000 0.00000000000000 0.00000000000000
0.00000000000000 10.86000000000000 0.00000000000000
0.00000000000000 0.00000000000000 10.86000000000000

ATOMIC_POSITIONS angstrom
Si 0.0000000000 0.0000000000 0.0000000000 
Si 0.0000000000 2.7150000000 2.7150000000 
Si 2.7150000000 0.0000000000 2.7150000000 
Si 2.7150000000 2.7150000000 0.0000000000 
Si 1.3575000000 1.3575000000 1.3575000000 
Si 1.2925789200 4.0744113600 4.0316012400 
Si 4.2194901000 1.3468029000 4.0366837200 
Si 3.9745971000 4.0680256800 1.2965971200 
Si 5.4300000000 0.0000000000 0.0000000000 
Si 5.5050100200 2.8193103000 2.6872961400 
Si 8.1450000000 0.0000000000 2.7150000000 
Si 8.1450000000 2.7150000000 0.0000000000 
Si 6.7875000000 1.3575000000 1.3575000000 
Si 9.5025000000 4.0725000000 1.3575000000 
Si 9.5025000000 1.3575000000 4.0725000000 
Si 0.0000000000 0.0000000000 5.4300000000 
Si 0.0000000000 2.7150000000 8.1450000000 
Si 2.7150000000 0.0000000000 8.1450000000 
Si 2.8706998200 2.7642935400 5.4761550000 
Si 1.3575000000 1.3575000000 6.7875000000 
Si 1.3575000000 4.0725000000 9.5025000000 
Si 4.0725000000 1.3575000000 9.5025000000 
Si 9.5264788800 4.0843591200 6.7376526000 
Si 5.3357134800 -0.0050589247 5.4015142200 
Si 5.3925004200 2.7342547800 8.1836941800 
Si 8.1450000000 0.0000000000 8.1450000000 
Si 8.2017435000 2.6810625000 5.4034581600 
Si 6.6423886800 1.4193585600 6.7931797800 
Si 6.7788445800 3.9985434000 9.5697885600 
Si 9.5025000000 1.3575000000 9.5025000000 
Si 0.0000000000 5.4300000000 0.0000000000 
Si 0.0000000000 8.1450000000 2.7150000000 
Si 2.6619163200 5.3310219600 2.5787070000 
Si 2.7150000000 8.1450000000 0.0000000000 
Si 1.3575000000 6.7875000000 1.3575000000 
Si 1.3575000000 9.5025000000 4.0725000000 
Si 4.0707841200 6.6872839200 3.9679616400 
Si 4.0725000000 9.5025000000 1.3575000000 
Si 5.3729632800 5.4131670000 0.0300791592 
Si 5.4313900800 8.2515691800 2.8405633200 
Si 8.1068814000 5.3953348800 2.7327452400 
Si 8.1450000000 8.1450000000 0.0000000000 
Si 6.8184727200 6.8059728600 1.4888734200 
Si 6.8474689200 9.5012511000 4.0926235800 
Si 9.3669780600 6.8631181800 4.0010086200 
Si 9.5025000000 9.5025000000 1.3575000000 
Si 0.1411191840 5.4421089000 5.4970930800 
Si 0.0000000000 8.1450000000 8.1450000000 
Si 2.7120135000 5.3983648200 8.2638844200 
Si 2.7245785200 8.1349545000 5.3858106600 
Si 1.3542528600 6.7761730200 6.7981753800 
Si 1.3575000000 9.5025000000 9.5025000000 
Si 4.1082511200 6.6557464800 9.5404014000 
Si 4.1070456600 9.4838425200 6.6860241600 
Si 5.2643089800 5.3429245200 5.6133168000 
Si 5.3099101200 8.1910355400 8.1257452200 
Si 8.2397860800 5.2119094800 8.3407623600 
Si 8.1332277600 8.0444255400 5.4426084600 
Si 9.5025000000 9.5025000000 6.7875000000 
Si 6.7875000000 9.5025000000 9.5025000000 
Si 9.5025000000 6.7875000000 9.5025000000 

