&CONTROL
  dt          = 30.D0,
  prefix = 'R1-T3000-4-224',
  pseudo_dir = './',
  outdir='./',
  wf_collect=.true.,
  verbosity ="high",
/

&SYSTEM
  ibrav= 0, nat=  61, ntyp= 1,
  ecutwfc     = 42.D0,
  nbnd=244,
  degauss     = 0.05D0,
  occupations = "smearing",
  smearing    = "methfessel-paxton",
/
&ELECTRONS
  electron_maxstep=200,
  conv_thr    = 1.D-8,
  mixing_beta = 0.3D0,
  scf_must_converge=.false.,
/
&IONS
/
ATOMIC_SPECIES
Si  28.08  Si.pbe-hgh.UPF

K_POINTS {automatic}
4 4 4 0 0 0

CELL_PARAMETERS angstrom
10.86000000000000 0.00000000000000 0.00000000000000
0.00000000000000 10.86000000000000 0.00000000000000
0.00000000000000 0.00000000000000 10.86000000000000

ATOMIC_POSITIONS angstrom
Si 0.0000000000 0.0000000000 0.0000000000 
Si 0.0000000000 2.7150000000 2.7150000000 
Si 2.7150000000 0.0000000000 2.7150000000 
Si 2.7150000000 2.7150000000 0.0000000000 
Si 1.3575000000 1.3575000000 1.3575000000 
Si 1.6829633400 3.9915604200 4.0643332800 
Si 4.1224017000 1.5755579400 3.7216568400 
Si 4.1782981200 4.6000136400 0.8601206880 
Si 5.4300000000 0.0000000000 0.0000000000 
Si 4.8241749000 3.6486124800 2.9424844200 
Si 8.1450000000 0.0000000000 2.7150000000 
Si 8.1450000000 2.7150000000 0.0000000000 
Si 6.7875000000 1.3575000000 1.3575000000 
Si 6.6983285400 3.9351970200 4.2558819600 
Si 9.5025000000 1.3575000000 4.0725000000 
Si 9.5025000000 4.0725000000 1.3575000000 
Si 0.0000000000 0.0000000000 5.4300000000 
Si 0.0000000000 2.7150000000 8.1450000000 
Si 2.7150000000 0.0000000000 8.1450000000 
Si 9.3663916200 4.4707144800 6.8239353000 
Si 1.3575000000 1.3575000000 6.7875000000 
Si 1.3575000000 4.0725000000 9.5025000000 
Si 4.0725000000 1.3575000000 9.5025000000 
Si 4.8005652600 4.2969327600 5.5866555000 
Si 5.6892933600 10.1743756200 6.1026141000 
Si 5.8520087400 2.3724864600 8.5100697600 
Si 8.1450000000 0.0000000000 8.1450000000 
Si 8.1849973800 2.6938121400 5.7515103000 
Si 6.9731191200 1.3614421800 6.6961782600 
Si 7.1158086600 4.5598750800 9.5708094000 
Si 9.5025000000 1.3575000000 9.5025000000 
Si 0.0000000000 5.4300000000 0.0000000000 
Si 0.0000000000 8.1450000000 2.7150000000 
Si 2.8769986200 5.6308665600 2.9952314400 
Si 2.7150000000 8.1450000000 0.0000000000 
Si 1.3575000000 6.7875000000 1.3575000000 
Si 1.3575000000 9.5025000000 4.0725000000 
Si 4.1738020800 6.4407076200 4.6425088200 
Si 4.0725000000 9.5025000000 1.3575000000 
Si 5.1226294200 5.8956876600 10.0841507400 
Si 5.2481710200 7.8088830000 2.8041606000 
Si 7.8942643200 5.3531655000 2.8968507000 
Si 8.1450000000 8.1450000000 0.0000000000 
Si 6.7940811600 6.6031515000 1.1652454200 
Si 6.7843071600 9.5136097800 4.1788519800 
Si 9.9733896000 6.1308066600 3.4305762600 
Si 9.5025000000 9.5025000000 1.3575000000 
Si 0.1681051980 5.2160471400 5.5353311400 
Si 0.0000000000 8.1450000000 8.1450000000 
Si 2.9706987000 2.6883169800 5.4181951800 
Si 2.8956126600 7.9378889400 5.5064326800 
Si 1.5615594000 6.5833863000 7.0501925400 
Si 1.3575000000 9.5025000000 9.5025000000 
Si 2.8010329200 6.2206405800 8.9318613000 
Si 4.2801540600 8.9237706000 7.4393172000 
Si 9.5025000000 6.7875000000 9.5025000000 
Si 6.2739197400 7.6433983200 8.5058778000 
Si 8.0589127800 6.4548256200 7.4620471800 
Si 9.0586952400 8.4047060400 4.5155662800 
Si 9.5025000000 9.5025000000 6.7875000000 
Si 6.7875000000 9.5025000000 9.5025000000 

