&CONTROL
  dt          = 30.D0,
  prefix = 'R1-T3000-3-387',
  pseudo_dir = './',
  outdir='./',
 wf_collect=.true.,
 verbosity ="high",
/

&SYSTEM
    ibrav= 0, nat=  61, ntyp= 1,
  ecutwfc     = 42.D0,
  nbnd=244,
  degauss     = 0.05D0,
  occupations = "smearing",
  smearing    = "methfessel-paxton",
/
&ELECTRONS
  electron_maxstep=200,
  conv_thr    = 1.D-8,
  mixing_beta = 0.3D0,
  scf_must_converge=.false.,
/
&IONS
/
ATOMIC_SPECIES
Si  28.08  Si.pbe-hgh.UPF

K_POINTS {automatic}
4 4 4 0 0 0
CELL_PARAMETERS angstrom
10.86000000000000 0.00000000000000 0.00000000000000
0.00000000000000 10.86000000000000 0.00000000000000
0.00000000000000 0.00000000000000 10.86000000000000

ATOMIC_POSITIONS angstrom
Si 0.0000000000 0.0000000000 0.0000000000 
Si 0.0000000000 2.7150000000 2.7150000000 
Si 2.7150000000 0.0000000000 2.7150000000 
Si 2.7150000000 2.7150000000 0.0000000000 
Si 1.3575000000 1.3575000000 1.3575000000 
Si 2.6553351600 2.6709301200 5.4339204600 
Si 4.4827365000 1.2635067000 4.1747360400 
Si 4.1158531200 3.6504912600 1.5570850800 
Si 5.4300000000 0.0000000000 0.0000000000 
Si 5.9013891600 2.8085914800 3.0251833200 
Si 8.1450000000 0.0000000000 2.7150000000 
Si 8.1450000000 2.7150000000 0.0000000000 
Si 6.7875000000 1.3575000000 1.3575000000 
Si 9.5025000000 4.0725000000 1.3575000000 
Si 9.5025000000 1.3575000000 4.0725000000 
Si 0.0000000000 0.0000000000 5.4300000000 
Si 0.0000000000 2.7150000000 8.1450000000 
Si 2.7150000000 0.0000000000 8.1450000000 
Si 8.9536138800 3.6429870000 6.6841019400 
Si 1.3575000000 1.3575000000 6.7875000000 
Si 1.3575000000 4.0725000000 9.5025000000 
Si 4.0725000000 1.3575000000 9.5025000000 
Si 3.9849141000 4.5209094000 6.0861286200 
Si 5.5902393000 10.6099267800 5.2652320800 
Si 5.1318169800 2.9134339200 7.8659414400 
Si 8.1450000000 0.0000000000 8.1450000000 
Si 7.9237057800 3.0637471800 4.5142739400 
Si 6.6246000000 1.0776530040 6.8386397400 
Si 7.5069315600 3.0249987000 8.4248947800 
Si 9.5025000000 1.3575000000 9.5025000000 
Si 0.0000000000 5.4300000000 0.0000000000 
Si 0.0000000000 8.1450000000 2.7150000000 
Si 1.1813508000 4.1360853000 4.1795144400 
Si 2.7150000000 8.1450000000 0.0000000000 
Si 1.3575000000 6.7875000000 1.3575000000 
Si 1.3575000000 9.5025000000 4.0725000000 
Si 3.8725565400 6.5213431200 4.3885151400 
Si 4.0725000000 9.5025000000 1.3575000000 
Si 5.2515919200 5.6768586600 10.9402554000 
Si 5.1979109400 8.2061852400 3.1160815200 
Si 8.0764191000 5.0760074400 2.8157699400 
Si 8.1450000000 8.1450000000 0.0000000000 
Si 6.6874251000 7.0678291800 1.6591799400 
Si 6.8720668200 9.4701480600 3.9108054600 
Si 9.3251019000 6.5600807400 4.1832502800 
Si 9.5025000000 9.5025000000 1.3575000000 
Si 10.6046379600 5.3042412000 6.1301550600 
Si 0.0000000000 8.1450000000 8.1450000000 
Si 2.7373607400 5.6175956400 8.0809694400 
Si 2.8261738200 8.3900450400 5.2520154600 
Si 1.3321419000 7.0104340800 6.8079711000 
Si 1.3575000000 9.5025000000 9.5025000000 
Si 3.9452859600 6.9194490000 9.3974512200 
Si 4.4184235800 9.5085598800 7.0557202800 
Si 2.5744498800 5.0987808600 2.6268493800 
Si 5.7130984800 7.9923627000 8.3243637600 
Si 7.2423276600 5.6174327400 9.1358772600 
Si 8.1715309800 7.9695132600 5.5120364400 
Si 9.5025000000 9.5025000000 6.7875000000 
Si 6.7875000000 9.5025000000 9.5025000000 
Si 9.5025000000 6.7875000000 9.5025000000 

