&CONTROL
  dt          = 30.D0,
  prefix = 'R1-T3000-3-276',
  pseudo_dir = './',
  outdir='./',
  wf_collect=.true.,
  verbosity ="high",
/

&SYSTEM
  ibrav= 0, nat=  61, ntyp= 1,
  ecutwfc     = 42.D0,
  nbnd=244,
  degauss     = 0.05D0,
  occupations = "smearing",
  smearing    = "methfessel-paxton",
/
&ELECTRONS
  electron_maxstep=200,
  conv_thr    = 1.D-8,
  mixing_beta = 0.3D0,
  scf_must_converge=.false.,
/
&IONS
/
ATOMIC_SPECIES
Si  28.08  Si.pbe-hgh.UPF

K_POINTS {automatic}
4 4 4 0 0 0

CELL_PARAMETERS angstrom
10.86000000000000 0.00000000000000 0.00000000000000
0.00000000000000 10.86000000000000 0.00000000000000
0.00000000000000 0.00000000000000 10.86000000000000

ATOMIC_POSITIONS angstrom
Si 0.0000000000 0.0000000000 0.0000000000 
Si 0.0000000000 2.7150000000 2.7150000000 
Si 2.7150000000 0.0000000000 2.7150000000 
Si 2.7150000000 2.7150000000 0.0000000000 
Si 1.3575000000 1.3575000000 1.3575000000 
Si 3.0234240000 2.2686974400 5.5988404200 
Si 4.5445950600 1.1863681200 3.7519562400 
Si 4.1612805000 4.0618354800 1.1921673600 
Si 5.4300000000 0.0000000000 0.0000000000 
Si 5.3901003600 2.7540091200 2.5115379000 
Si 8.1450000000 0.0000000000 2.7150000000 
Si 8.1450000000 2.7150000000 0.0000000000 
Si 6.7875000000 1.3575000000 1.3575000000 
Si 9.5025000000 4.0725000000 1.3575000000 
Si 9.5025000000 1.3575000000 4.0725000000 
Si 0.0000000000 0.0000000000 5.4300000000 
Si 0.0000000000 2.7150000000 8.1450000000 
Si 2.7150000000 0.0000000000 8.1450000000 
Si 9.3114074400 3.9610655400 7.1796220200 
Si 1.3575000000 1.3575000000 6.7875000000 
Si 1.3575000000 4.0725000000 9.5025000000 
Si 4.0725000000 1.3575000000 9.5025000000 
Si 3.3197608200 5.0229780600 5.6724820800 
Si 5.9107287600 0.2617097100 5.4358969800 
Si 6.0515938200 2.2040044200 8.5168029600 
Si 8.1450000000 0.0000000000 8.1450000000 
Si 8.2271776200 3.1091854200 4.6656080400 
Si 7.4959955400 1.9835029800 6.7650958200 
Si 7.0144740000 4.5203555400 9.2464537800 
Si 9.5025000000 1.3575000000 9.5025000000 
Si 0.0000000000 5.4300000000 0.0000000000 
Si 0.0000000000 8.1450000000 2.7150000000 
Si 1.7475912000 3.8495116200 4.0486948800 
Si 2.7150000000 8.1450000000 0.0000000000 
Si 1.3575000000 6.7875000000 1.3575000000 
Si 1.3575000000 9.5025000000 4.0725000000 
Si 4.3845621000 6.3838446600 4.0406802000 
Si 4.0725000000 9.5025000000 1.3575000000 
Si 5.6168897400 5.4709530600 10.8081435000 
Si 5.5802806800 8.1852580200 3.0012478800 
Si 7.9415487600 5.1541017000 2.9978921400 
Si 8.1450000000 8.1450000000 0.0000000000 
Si 6.7996957800 6.8950140000 1.4035029600 
Si 7.2826291200 9.4001336400 4.5926071200 
Si 9.3405231000 6.7215906600 4.1029188600 
Si 9.5025000000 9.5025000000 1.3575000000 
Si -0.1263191760 5.1789493800 5.1922311600 
Si 0.0000000000 8.1450000000 8.1450000000 
Si 2.6401854600 5.5120798800 8.1414922200 
Si 2.9298976800 8.1561749400 5.2084885800 
Si 1.5543049200 6.7872719400 6.6737197800 
Si 1.3575000000 9.5025000000 9.5025000000 
Si 4.1082728400 6.8592085800 9.5242525800 
Si 4.4819763000 9.4736449800 6.6030537600 
Si 2.8701242400 5.4367657800 2.6082136200 
Si 5.3630698200 8.2711823400 8.1170789400 
Si 8.5559967000 5.8969257000 7.8888017400 
Si 7.8459807600 7.5743830200 6.0413419800 
Si 9.5025000000 9.5025000000 6.7875000000 
Si 6.7875000000 9.5025000000 9.5025000000 
Si 9.5025000000 6.7875000000 9.5025000000 

