&CONTROL
  dt          = 30.D0,
  prefix = 'R1-T3000-3-54',
  pseudo_dir = './',
  outdir='./',
 wf_collect=.true.,
 verbosity ="high",
/

&SYSTEM
    ibrav= 0, nat=  61, ntyp= 1,
  ecutwfc     = 42.D0,
  nbnd=244,
  degauss     = 0.05D0,
  occupations = "smearing",
  smearing    = "methfessel-paxton",
/
&ELECTRONS
  electron_maxstep=200,
  conv_thr    = 1.D-8,
  mixing_beta = 0.3D0,
  scf_must_converge=.false.,
/
&IONS
/
ATOMIC_SPECIES
Si  28.08  Si.pbe-hgh.UPF

K_POINTS {automatic}
4 4 4 0 0 0
CELL_PARAMETERS angstrom
10.86000000000000 0.00000000000000 0.00000000000000
0.00000000000000 10.86000000000000 0.00000000000000
0.00000000000000 0.00000000000000 10.86000000000000

ATOMIC_POSITIONS angstrom
Si 0.0000000000 0.0000000000 0.0000000000 
Si 0.0000000000 2.7150000000 2.7150000000 
Si 2.7150000000 0.0000000000 2.7150000000 
Si 2.7150000000 2.7150000000 0.0000000000 
Si 1.3575000000 1.3575000000 1.3575000000 
Si 1.4047844400 3.0614883000 5.0779513800 
Si 3.6657495600 2.0966641800 3.8971870200 
Si 3.5097022200 3.8696460600 1.9024873800 
Si 5.4300000000 0.0000000000 0.0000000000 
Si 5.6901947400 2.8304635200 3.2766357600 
Si 8.1450000000 0.0000000000 2.7150000000 
Si 8.1450000000 2.7150000000 0.0000000000 
Si 6.7875000000 1.3575000000 1.3575000000 
Si 9.5025000000 4.0725000000 1.3575000000 
Si 9.5025000000 1.3575000000 4.0725000000 
Si 0.0000000000 0.0000000000 5.4300000000 
Si 0.0000000000 2.7150000000 8.1450000000 
Si 2.7150000000 0.0000000000 8.1450000000 
Si 9.5080711800 3.8647264800 6.4218003600 
Si 1.3575000000 1.3575000000 6.7875000000 
Si 1.3575000000 4.0725000000 9.5025000000 
Si 4.0725000000 1.3575000000 9.5025000000 
Si 3.4485495600 3.7810501800 6.2304145800 
Si 5.0049721800 0.2756561220 5.1358243200 
Si 5.7692989800 2.7174978000 7.9408645800 
Si 8.1450000000 0.0000000000 8.1450000000 
Si 8.2833889800 2.8854477000 5.0069161200 
Si 6.8818299600 1.5421634400 6.5342013600 
Si 7.1622134400 4.0081870800 9.2763296400 
Si 9.5025000000 1.3575000000 9.5025000000 
Si 0.0000000000 5.4300000000 0.0000000000 
Si 0.0000000000 8.1450000000 2.7150000000 
Si 2.1552864600 5.5740144600 3.5575731000 
Si 2.7150000000 8.1450000000 0.0000000000 
Si 1.3575000000 6.7875000000 1.3575000000 
Si 1.3575000000 9.5025000000 4.0725000000 
Si 3.8480238000 6.8475232200 4.2382236000 
Si 4.0725000000 9.5025000000 1.3575000000 
Si 5.6391636000 5.7531175800 10.5027603000 
Si 5.5468101600 8.4239608200 2.8208741400 
Si 7.9580342400 4.7459611800 3.0252484800 
Si 8.1450000000 8.1450000000 0.0000000000 
Si 6.9316013400 6.4514698800 1.8613931400 
Si 6.8157251400 9.7584159000 4.0716420600 
Si 9.6105461400 6.6234271200 3.5601795000 
Si 9.5025000000 9.5025000000 1.3575000000 
Si 0.2186465520 5.3275250400 4.9765298400 
Si 0.0000000000 8.1450000000 8.1450000000 
Si 2.5849515000 5.3399814600 7.7720676000 
Si 2.6066063400 8.2481048400 5.1972484800 
Si 1.4597577600 6.8537460000 6.7999455600 
Si 1.3575000000 9.5025000000 9.5025000000 
Si 3.5948337600 6.8311137600 9.3809223000 
Si 3.6911511000 9.6507172800 6.5925195600 
Si 5.1949678800 5.2938590400 5.4342462600 
Si 5.1220538400 8.4772399800 8.1941523600 
Si 8.2087590600 5.2290682800 7.8904850400 
Si 8.3271222000 8.1996692400 5.1615733800 
Si 9.5025000000 9.5025000000 6.7875000000 
Si 6.7875000000 9.5025000000 9.5025000000 
Si 9.5025000000 6.7875000000 9.5025000000 

