&CONTROL
  dt          = 30.D0,
  prefix = 'R1-T1200-2-32',
  pseudo_dir = './',
  outdir='./',
 wf_collect=.true.,
 verbosity ="high",
/

&SYSTEM
    ibrav= 0, nat=  61, ntyp= 1,
  ecutwfc     = 42.D0,
  nbnd=244,
  degauss     = 0.05D0,
  occupations = "smearing",
  smearing    = "methfessel-paxton",
/
&ELECTRONS
  electron_maxstep=200,
  conv_thr    = 1.D-8,
  mixing_beta = 0.3D0,
  scf_must_converge=.false.,
/
&IONS
/
ATOMIC_SPECIES
Si  28.08  Si.pbe-hgh.UPF

K_POINTS {automatic}
4 4 4 0 0 0
CELL_PARAMETERS angstrom
10.86000000000000 0.00000000000000 0.00000000000000
0.00000000000000 10.86000000000000 0.00000000000000
0.00000000000000 0.00000000000000 10.86000000000000

ATOMIC_POSITIONS angstrom
Si 0.0000000000 0.0000000000 0.0000000000 
Si 0.0000000000 2.7150000000 2.7150000000 
Si 2.7150000000 0.0000000000 2.7150000000 
Si 2.7150000000 2.7150000000 0.0000000000 
Si 1.3575000000 1.3575000000 1.3575000000 
Si 1.5808141800 4.0430042400 4.0345334400 
Si 4.1315241000 1.3370180400 4.0784512800 
Si 4.1119326600 4.0032783600 1.4275035600 
Si 5.4300000000 0.0000000000 0.0000000000 
Si 5.5774679400 2.7845040000 2.8463299800 
Si 8.1450000000 0.0000000000 2.7150000000 
Si 8.1450000000 2.7150000000 0.0000000000 
Si 6.7875000000 1.3575000000 1.3575000000 
Si 9.5025000000 4.0725000000 1.3575000000 
Si 9.5025000000 1.3575000000 4.0725000000 
Si 0.0000000000 0.0000000000 5.4300000000 
Si 0.0000000000 2.7150000000 8.1450000000 
Si 2.7150000000 0.0000000000 8.1450000000 
Si 2.9881072800 2.7076152000 5.5009375200 
Si 1.3575000000 1.3575000000 6.7875000000 
Si 1.3575000000 4.0725000000 9.5025000000 
Si 4.0725000000 1.3575000000 9.5025000000 
Si 9.6127398600 4.1520712200 6.7287256800 
Si 5.4563789400 -0.0787206648 5.4125479800 
Si 5.3625702600 2.8061262600 8.1830643000 
Si 8.1450000000 0.0000000000 8.1450000000 
Si 8.3042510400 2.7184860600 5.4222459600 
Si 6.7027159800 1.4322711000 6.9707299200 
Si 6.8116092000 3.9290176800 9.6960795000 
Si 9.5025000000 1.3575000000 9.5025000000 
Si 0.0000000000 5.4300000000 0.0000000000 
Si 0.0000000000 8.1450000000 2.7150000000 
Si 2.8106983200 5.4567373200 2.6286521400 
Si 2.7150000000 8.1450000000 0.0000000000 
Si 1.3575000000 6.7875000000 1.3575000000 
Si 1.3575000000 9.5025000000 4.0725000000 
Si 4.1715757800 6.7160194800 4.0357823400 
Si 4.0725000000 9.5025000000 1.3575000000 
Si 5.4641004000 5.4296524800 0.1863293640 
Si 5.5725592200 8.0934584400 2.7882832800 
Si 8.2516234800 5.2273524000 2.9167462200 
Si 8.1450000000 8.1450000000 0.0000000000 
Si 6.7514556600 6.6516848400 1.5843545400 
Si 6.9228807600 9.5779444200 4.0843265400 
Si 9.6311692800 6.6947338800 4.3020478200 
Si 9.5025000000 9.5025000000 1.3575000000 
Si 0.0241404768 5.4078564600 5.5495143000 
Si 0.0000000000 8.1450000000 8.1450000000 
Si 2.5818889800 5.3159700000 8.1960420000 
Si 2.7242310000 8.1591940200 5.4447370200 
Si 1.3904601000 6.6974597400 6.8895622800 
Si 1.3575000000 9.5025000000 9.5025000000 
Si 4.1221627800 6.7614142800 9.3793584600 
Si 4.0334040000 9.6446682600 6.6858069600 
Si 5.6457990600 5.4312706200 5.3641232400 
Si 5.3607132000 8.1613225800 8.0699574000 
Si 8.2285568400 5.2424260800 8.1315010200 
Si 8.0378769600 8.2023408000 5.5004379600 
Si 9.5025000000 9.5025000000 6.7875000000 
Si 6.7875000000 9.5025000000 9.5025000000 
Si 9.5025000000 6.7875000000 9.5025000000 

