&CONTROL
  dt          = 30.D0,
  prefix = 'R1-T3000-2-419',
  pseudo_dir = './',
  outdir='./',
  wf_collect=.true.,
  verbosity ="high",
/

&SYSTEM
  ibrav= 0, nat=  61, ntyp= 1,
  ecutwfc     = 42.D0,
  nbnd=244,
  degauss     = 0.05D0,
  occupations = "smearing",
  smearing    = "methfessel-paxton",
/
&ELECTRONS
  electron_maxstep=200,
  conv_thr    = 1.D-8,
  mixing_beta = 0.3D0,
  scf_must_converge=.false.,
/
&IONS
/
ATOMIC_SPECIES
Si  28.08  Si.pbe-hgh.UPF

K_POINTS {automatic}
4 4 4 0 0 0

CELL_PARAMETERS angstrom
10.86000000000000 0.00000000000000 0.00000000000000
0.00000000000000 10.86000000000000 0.00000000000000
0.00000000000000 0.00000000000000 10.86000000000000

ATOMIC_POSITIONS angstrom
Si 0.0000000000 0.0000000000 0.0000000000 
Si 0.0000000000 2.7150000000 2.7150000000 
Si 2.7150000000 0.0000000000 2.7150000000 
Si 2.7150000000 2.7150000000 0.0000000000 
Si 1.3575000000 1.3575000000 1.3575000000 
Si 1.4257659600 4.2332171400 3.8013149400 
Si 3.9939061800 1.5735379800 3.7846014000 
Si 3.9049519200 4.3650684000 1.3666332600 
Si 5.4300000000 0.0000000000 0.0000000000 
Si 5.5908257400 2.9479687200 2.6874807600 
Si 8.1450000000 0.0000000000 2.7150000000 
Si 8.1450000000 2.7150000000 0.0000000000 
Si 6.7875000000 1.3575000000 1.3575000000 
Si 9.5025000000 4.0725000000 1.3575000000 
Si 9.5025000000 1.3575000000 4.0725000000 
Si 0.0000000000 0.0000000000 5.4300000000 
Si 0.0000000000 2.7150000000 8.1450000000 
Si 2.7150000000 0.0000000000 8.1450000000 
Si 2.9275302000 2.7303451800 5.3838884400 
Si 1.3575000000 1.3575000000 6.7875000000 
Si 1.3575000000 4.0725000000 9.5025000000 
Si 4.0725000000 1.3575000000 9.5025000000 
Si 9.5185076400 4.1334463200 6.9430912200 
Si 5.9046688800 9.7708288800 5.9378136000 
Si 5.4888829200 2.7346566000 8.0432743800 
Si 8.1450000000 0.0000000000 8.1450000000 
Si 8.2053490200 2.8310282400 5.7272925000 
Si 6.7290840600 1.3668939000 6.7735883400 
Si 6.7549960200 3.9758242800 9.4278266400 
Si 9.5025000000 1.3575000000 9.5025000000 
Si 0.0000000000 5.4300000000 0.0000000000 
Si 0.0000000000 8.1450000000 2.7150000000 
Si 2.8950696600 5.8906269000 2.6238737400 
Si 2.7150000000 8.1450000000 0.0000000000 
Si 1.3575000000 6.7875000000 1.3575000000 
Si 1.3575000000 9.5025000000 4.0725000000 
Si 4.4255043000 6.5998609200 4.9454485200 
Si 4.0725000000 9.5025000000 1.3575000000 
Si 5.1761583600 5.7173121600 10.3017199800 
Si 4.8475890600 7.4973530400 2.7675624000 
Si 6.9349788000 4.2399286200 4.4988201600 
Si 8.1450000000 8.1450000000 0.0000000000 
Si 6.4527079200 6.5151529200 1.1241294600 
Si 6.9966418800 9.1226606400 4.0719787200 
Si 7.9456647000 5.4394590600 2.5562593800 
Si 9.5025000000 9.5025000000 1.3575000000 
Si 10.7433636000 5.4221699400 5.1052425600 
Si 0.0000000000 8.1450000000 8.1450000000 
Si 3.0066127200 4.8697543200 6.1757887800 
Si 2.5965717000 8.0280052200 5.4855814800 
Si 1.3348351800 6.4610809800 6.5386756800 
Si 1.3575000000 9.5025000000 9.5025000000 
Si 4.7337545400 8.1548826000 9.5923122000 
Si 3.9811022400 9.0463691400 7.5951582000 
Si 8.2785780000 7.8635739600 5.5885668600 
Si 6.1017996000 7.5192793800 6.5999695200 
Si 8.1114317400 5.3498749200 8.2246038000 
Si 9.4490470800 6.7479044400 3.6293577000 
Si 9.5025000000 9.5025000000 6.7875000000 
Si 6.7875000000 9.5025000000 9.5025000000 
Si 9.5025000000 6.7875000000 9.5025000000 

