&CONTROL
  dt          = 30.D0,
  prefix = 'R1-T1200-65',
  pseudo_dir = './',
  outdir='./',
 wf_collect=.true.,
 verbosity ="high",
/

&SYSTEM
    ibrav= 0, nat=  61, ntyp= 1,
  ecutwfc     = 42.D0,
  nbnd=244,
  degauss     = 0.05D0,
  occupations = "smearing",
  smearing    = "methfessel-paxton",
/
&ELECTRONS
  electron_maxstep=200,
  conv_thr    = 1.D-8,
  mixing_beta = 0.3D0,
  scf_must_converge=.false.,
/
&IONS
/
ATOMIC_SPECIES
Si  28.08  Si.pbe-hgh.UPF

K_POINTS {automatic}
4 4 4 0 0 0
CELL_PARAMETERS angstrom
10.86000000000000 0.00000000000000 0.00000000000000
0.00000000000000 10.86000000000000 0.00000000000000
0.00000000000000 0.00000000000000 10.86000000000000

ATOMIC_POSITIONS angstrom
Si 0.0000000000 0.0000000000 0.0000000000 
Si 0.0000000000 2.7150000000 2.7150000000 
Si 2.7150000000 0.0000000000 2.7150000000 
Si 2.7150000000 2.7150000000 0.0000000000 
Si 1.3575000000 1.3575000000 1.3575000000 
Si 1.4025798600 3.9644104200 4.2937616400 
Si 4.2565770000 1.1688183600 3.8514555600 
Si 4.1150494800 4.0628889000 1.6025341800 
Si 5.4300000000 0.0000000000 0.0000000000 
Si 5.5283047200 2.7444306000 2.6766642000 
Si 8.1450000000 0.0000000000 2.7150000000 
Si 8.1450000000 2.7150000000 0.0000000000 
Si 6.7875000000 1.3575000000 1.3575000000 
Si 9.5025000000 4.0725000000 1.3575000000 
Si 9.5025000000 1.3575000000 4.0725000000 
Si 0.0000000000 0.0000000000 5.4300000000 
Si 0.0000000000 2.7150000000 8.1450000000 
Si 2.7150000000 0.0000000000 8.1450000000 
Si 3.0646702800 2.6000034600 5.2772758200 
Si 1.3575000000 1.3575000000 6.7875000000 
Si 1.3575000000 4.0725000000 9.5025000000 
Si 4.0725000000 1.3575000000 9.5025000000 
Si 4.3313046600 4.1593582800 6.5725588800 
Si 5.6371653600 -0.1142417700 5.2813157400 
Si 5.4386554200 2.8255765200 8.1512879400 
Si 8.1450000000 0.0000000000 8.1450000000 
Si 8.0006923200 2.5159036200 5.3765253600 
Si 6.8267914800 1.3113341400 6.7067559000 
Si 6.8441023200 4.1482485000 9.6457542600 
Si 9.5025000000 1.3575000000 9.5025000000 
Si 9.4687797000 3.9654529800 6.6950162400 
Si 0.0000000000 5.4300000000 0.0000000000 
Si 0.0000000000 8.1450000000 2.7150000000 
Si 2.6489169000 5.3438584800 2.8369795200 
Si 2.7150000000 8.1450000000 0.0000000000 
Si 1.3575000000 6.7875000000 1.3575000000 
Si 1.3575000000 9.5025000000 4.0725000000 
Si 3.9669082200 6.9839791200 3.9815909400 
Si 4.0725000000 9.5025000000 1.3575000000 
Si 5.4134276400 5.3980390200 0.2135184600 
Si 5.5305744600 7.9561663200 2.4703459200 
Si 8.3177391600 5.2943803200 2.8159871400 
Si 8.1450000000 8.1450000000 0.0000000000 
Si 7.0309269000 6.7050943200 1.4597577600 
Si 6.8349364800 9.2336172600 3.8892918000 
Si 9.4823329800 6.7358824200 4.0054395000 
Si 9.5025000000 9.5025000000 1.3575000000 
Si -0.0672124314 5.4037622400 5.5114282800 
Si 0.0000000000 8.1450000000 8.1450000000 
Si 3.0127269000 5.1715320000 8.2466713200 
Si 2.7590047200 8.0626160400 5.7811146600 
Si 1.4333788200 6.7082980200 6.9607387200 
Si 1.3575000000 9.5025000000 9.5025000000 
Si 4.2635925600 6.7813315200 9.4969939800 
Si 4.2358126800 9.4616121000 6.8530075200 
Si 9.5025000000 9.5025000000 6.7875000000 
Si 5.5874482800 8.1709228200 8.1480625200 
Si 8.1197396400 5.5067041800 7.9913744400 
Si 8.1195007200 8.2437174000 5.2525910400 
Si 9.5025000000 6.7875000000 9.5025000000 
Si 6.7875000000 9.5025000000 9.5025000000 

