&CONTROL
  dt          = 30.D0,
  prefix = 'R1-T3000-3-373',
  pseudo_dir = './',
  outdir='./',
  wf_collect=.true.,
  verbosity ="high",
/

&SYSTEM
  ibrav= 0, nat=  61, ntyp= 1,
  ecutwfc     = 42.D0,
  nbnd=244,
  degauss     = 0.05D0,
  occupations = "smearing",
  smearing    = "methfessel-paxton",
/
&ELECTRONS
  electron_maxstep=200,
  conv_thr    = 1.D-8,
  mixing_beta = 0.3D0,
  scf_must_converge=.false.,
/
&IONS
/
ATOMIC_SPECIES
Si  28.08  Si.pbe-hgh.UPF

K_POINTS {automatic}
4 4 4 0 0 0

CELL_PARAMETERS angstrom
10.86000000000000 0.00000000000000 0.00000000000000
0.00000000000000 10.86000000000000 0.00000000000000
0.00000000000000 0.00000000000000 10.86000000000000

ATOMIC_POSITIONS angstrom
Si 0.0000000000 0.0000000000 0.0000000000 
Si 0.0000000000 2.7150000000 2.7150000000 
Si 2.7150000000 0.0000000000 2.7150000000 
Si 2.7150000000 2.7150000000 0.0000000000 
Si 1.3575000000 1.3575000000 1.3575000000 
Si 2.9720127600 2.9783984400 5.4184123800 
Si 4.2749412600 1.2746816400 4.0952299800 
Si 4.5495472200 4.0280934600 1.3752886800 
Si 5.4300000000 0.0000000000 0.0000000000 
Si 5.7422250000 2.7928662000 3.0276051000 
Si 8.1450000000 0.0000000000 2.7150000000 
Si 8.1450000000 2.7150000000 0.0000000000 
Si 6.7875000000 1.3575000000 1.3575000000 
Si 9.5025000000 4.0725000000 1.3575000000 
Si 9.5025000000 1.3575000000 4.0725000000 
Si 0.0000000000 0.0000000000 5.4300000000 
Si 0.0000000000 2.7150000000 8.1450000000 
Si 2.7150000000 0.0000000000 8.1450000000 
Si 9.0533086800 3.3691412400 6.7611862200 
Si 1.3575000000 1.3575000000 6.7875000000 
Si 1.3575000000 4.0725000000 9.5025000000 
Si 4.0725000000 1.3575000000 9.5025000000 
Si 4.5158486400 4.5169129200 6.4218981000 
Si 5.5022298600 10.5484266000 5.4574215000 
Si 5.6243722800 2.8269666000 8.0193606600 
Si 8.1450000000 0.0000000000 8.1450000000 
Si 7.8957521400 2.9650406400 4.6641093600 
Si 6.2654489400 0.8663467260 7.1292967800 
Si 7.5291619800 3.7542151200 8.8411042800 
Si 9.5025000000 1.3575000000 9.5025000000 
Si 0.0000000000 5.4300000000 0.0000000000 
Si 0.0000000000 8.1450000000 2.7150000000 
Si 1.6175427000 4.5480485400 3.7857851400 
Si 2.7150000000 8.1450000000 0.0000000000 
Si 1.3575000000 6.7875000000 1.3575000000 
Si 1.3575000000 9.5025000000 4.0725000000 
Si 4.0472287800 6.4164681000 4.5922813200 
Si 4.0725000000 9.5025000000 1.3575000000 
Si 5.6597324400 5.6606555400 -0.0685948008 
Si 5.2175675400 7.8975549000 2.8038348000 
Si 7.8681677400 5.1467386200 3.2518858200 
Si 8.1450000000 8.1450000000 0.0000000000 
Si 6.7222096800 6.8398126200 1.5680645400 
Si 6.4900228800 9.7904746200 3.5628076200 
Si 9.2126791800 6.7465035000 4.3771881600 
Si 9.5025000000 9.5025000000 1.3575000000 
Si 10.3202905800 5.1832065000 5.3596054800 
Si 0.0000000000 8.1450000000 8.1450000000 
Si 2.8929736800 5.0842936200 8.1701843400 
Si 2.1992368800 7.8588064200 5.2185015000 
Si 1.3102698600 6.4048370400 6.9148335000 
Si 1.3575000000 9.5025000000 9.5025000000 
Si 3.7830810000 6.2479643400 9.7007493000 
Si 3.5954093400 9.2124945600 6.6241981800 
Si 3.1213486200 5.5248729600 2.3850732000 
Si 5.2411880400 7.8733045200 8.0480745000 
Si 6.3883841400 6.0988456800 8.7195700200 
Si 8.0581417200 8.6410196400 5.0845325400 
Si 9.5025000000 9.5025000000 6.7875000000 
Si 6.7875000000 9.5025000000 9.5025000000 
Si 9.5025000000 6.7875000000 9.5025000000 

