&CONTROL
  dt          = 30.D0,
  prefix = 'R1-T3000-4-166',
  pseudo_dir = './',
  outdir='./',
  wf_collect=.true.,
  verbosity ="high",
/

&SYSTEM
  ibrav= 0, nat=  61, ntyp= 1,
  ecutwfc     = 42.D0,
  nbnd=244,
  degauss     = 0.05D0,
  occupations = "smearing",
  smearing    = "methfessel-paxton",
/
&ELECTRONS
  electron_maxstep=200,
  conv_thr    = 1.D-8,
  mixing_beta = 0.3D0,
  scf_must_converge=.false.,
/
&IONS
/
ATOMIC_SPECIES
Si  28.08  Si.pbe-hgh.UPF

K_POINTS {automatic}
4 4 4 0 0 0

CELL_PARAMETERS angstrom
10.86000000000000 0.00000000000000 0.00000000000000
0.00000000000000 10.86000000000000 0.00000000000000
0.00000000000000 0.00000000000000 10.86000000000000

ATOMIC_POSITIONS angstrom
Si 0.0000000000 0.0000000000 0.0000000000 
Si 0.0000000000 2.7150000000 2.7150000000 
Si 2.7150000000 0.0000000000 2.7150000000 
Si 2.7150000000 2.7150000000 0.0000000000 
Si 1.3575000000 1.3575000000 1.3575000000 
Si 1.4340087000 4.0947847200 4.0348483800 
Si 4.3621036200 1.2380725800 4.4027091600 
Si 4.0438078800 4.2579236400 1.0570798200 
Si 5.4300000000 0.0000000000 0.0000000000 
Si 5.2465311600 2.9037359400 2.6727871800 
Si 8.1450000000 0.0000000000 2.7150000000 
Si 8.1450000000 2.7150000000 0.0000000000 
Si 6.7875000000 1.3575000000 1.3575000000 
Si 6.9424722000 4.2984205800 3.5389807800 
Si 9.5025000000 1.3575000000 4.0725000000 
Si 9.5025000000 4.0725000000 1.3575000000 
Si 0.0000000000 0.0000000000 5.4300000000 
Si 0.0000000000 2.7150000000 8.1450000000 
Si 2.7150000000 0.0000000000 8.1450000000 
Si 9.4662058800 4.2355629000 6.9218490600 
Si 1.3575000000 1.3575000000 6.7875000000 
Si 1.3575000000 4.0725000000 9.5025000000 
Si 4.0725000000 1.3575000000 9.5025000000 
Si 5.3590081800 4.9783869000 5.5063240800 
Si 5.1644078400 10.5560720400 6.0109448400 
Si 5.6946799200 2.6854933800 8.4455613600 
Si 8.1450000000 0.0000000000 8.1450000000 
Si 8.3367876000 2.9394544800 5.5308459600 
Si 6.7252613400 1.5778928400 6.5693551800 
Si 6.9145511400 4.2661663800 9.6840357600 
Si 9.5025000000 1.3575000000 9.5025000000 
Si 0.0000000000 5.4300000000 0.0000000000 
Si 0.0000000000 8.1450000000 2.7150000000 
Si 2.8007722800 5.8083406800 2.7735028200 
Si 2.7150000000 8.1450000000 0.0000000000 
Si 1.3575000000 6.7875000000 1.3575000000 
Si 1.3575000000 9.5025000000 4.0725000000 
Si 3.9558093000 6.7396291200 4.6711032000 
Si 4.0725000000 9.5025000000 1.3575000000 
Si 5.1406027200 6.0455556600 10.2772415400 
Si 5.3234416800 8.0514736800 3.1604663400 
Si 8.3995258200 5.8447868400 1.9512487800 
Si 8.1450000000 8.1450000000 0.0000000000 
Si 6.3872112600 6.8173324200 1.4322168000 
Si 6.8653444800 9.4794225000 4.2162646800 
Si 9.5245566600 6.6306816000 4.1434158000 
Si 9.5025000000 9.5025000000 1.3575000000 
Si 10.6222528800 5.1191868000 5.1438281400 
Si 0.0000000000 8.1450000000 8.1450000000 
Si 3.4156111800 3.2399941200 5.6566373400 
Si 2.4766664400 8.2341823200 5.8016726400 
Si 0.9394573320 6.5019580200 6.5047381800 
Si 1.3575000000 9.5025000000 9.5025000000 
Si 2.8285304400 5.4542612400 8.0946964800 
Si 4.2479758800 8.7976317000 7.1096401800 
Si 9.5025000000 6.7875000000 9.5025000000 
Si 4.8158452800 8.2746032400 9.2494294200 
Si 7.6881741000 6.1325442600 7.6840255800 
Si 8.2258635600 7.6689301800 5.7282916200 
Si 9.5025000000 9.5025000000 6.7875000000 
Si 6.7875000000 9.5025000000 9.5025000000 

