&CONTROL
  dt          = 30.D0,
  prefix = 'R1-T3000-4-181',
  pseudo_dir = './',
  outdir='./',
  wf_collect=.true.,
  verbosity ="high",
/

&SYSTEM
  ibrav= 0, nat=  61, ntyp= 1,
  ecutwfc     = 42.D0,
  nbnd=244,
  degauss     = 0.05D0,
  occupations = "smearing",
  smearing    = "methfessel-paxton",
/
&ELECTRONS
  electron_maxstep=200,
  conv_thr    = 1.D-8,
  mixing_beta = 0.3D0,
  scf_must_converge=.false.,
/
&IONS
/
ATOMIC_SPECIES
Si  28.08  Si.pbe-hgh.UPF

K_POINTS {automatic}
4 4 4 0 0 0

CELL_PARAMETERS angstrom
10.86000000000000 0.00000000000000 0.00000000000000
0.00000000000000 10.86000000000000 0.00000000000000
0.00000000000000 0.00000000000000 10.86000000000000

ATOMIC_POSITIONS angstrom
Si 0.0000000000 0.0000000000 0.0000000000 
Si 0.0000000000 2.7150000000 2.7150000000 
Si 2.7150000000 0.0000000000 2.7150000000 
Si 2.7150000000 2.7150000000 0.0000000000 
Si 1.3575000000 1.3575000000 1.3575000000 
Si 1.2714345000 4.2376371600 4.1714563200 
Si 4.0559819400 2.0310697800 4.0335126000 
Si 4.1844014400 4.4449654200 0.4149247620 
Si 5.4300000000 0.0000000000 0.0000000000 
Si 5.2850190000 3.1718476200 2.1373240200 
Si 8.1450000000 0.0000000000 2.7150000000 
Si 8.1450000000 2.7150000000 0.0000000000 
Si 6.7875000000 1.3575000000 1.3575000000 
Si 6.2900468400 4.0930579800 4.3226383800 
Si 9.5025000000 1.3575000000 4.0725000000 
Si 9.5025000000 4.0725000000 1.3575000000 
Si 0.0000000000 0.0000000000 5.4300000000 
Si 0.0000000000 2.7150000000 8.1450000000 
Si 2.7150000000 0.0000000000 8.1450000000 
Si 9.5780530200 4.3528074600 6.5373724800 
Si 1.3575000000 1.3575000000 6.7875000000 
Si 1.3575000000 4.0725000000 9.5025000000 
Si 4.0725000000 1.3575000000 9.5025000000 
Si 3.7570495800 4.2467052600 4.6620025200 
Si 5.3877871800 -0.2221793100 5.4864720000 
Si 5.3145147600 2.6249814600 8.0154510600 
Si 8.1450000000 0.0000000000 8.1450000000 
Si 7.9504213800 2.8892269800 5.4361359000 
Si 6.7575046800 1.2328815000 6.8273344800 
Si 6.6779551800 4.1214243000 9.3002107800 
Si 9.5025000000 1.3575000000 9.5025000000 
Si 0.0000000000 5.4300000000 0.0000000000 
Si 0.0000000000 8.1450000000 2.7150000000 
Si 2.6394795600 5.5398814800 2.4344427600 
Si 2.7150000000 8.1450000000 0.0000000000 
Si 1.3575000000 6.7875000000 1.3575000000 
Si 1.3575000000 9.5025000000 4.0725000000 
Si 4.1331096600 6.6040094400 3.7545192000 
Si 4.0725000000 9.5025000000 1.3575000000 
Si 5.5449965400 6.2334553800 10.0397442000 
Si 5.7351442800 7.6733502000 2.3758422000 
Si 8.2481157000 5.1997680000 3.0508237800 
Si 8.1450000000 8.1450000000 0.0000000000 
Si 7.2026995200 6.3483541800 0.9976984260 
Si 6.6592977000 9.0892661400 4.0262364000 
Si 9.4073012400 6.8505857400 4.0629649200 
Si 9.5025000000 9.5025000000 1.3575000000 
Si 0.2994807900 5.8519870200 5.5535216400 
Si 0.0000000000 8.1450000000 8.1450000000 
Si 1.5009388800 1.7672152200 4.3697925000 
Si 2.7848515200 8.1119204400 5.0847280200 
Si 1.8945595800 7.0317957000 7.2258313200 
Si 1.3575000000 9.5025000000 9.5025000000 
Si 2.5457686200 6.4451059200 9.3695736000 
Si 3.9142698000 9.1298065200 6.8358595800 
Si 9.5025000000 6.7875000000 9.5025000000 
Si 5.5277074200 7.9998126600 8.0569471200 
Si 8.3116032600 5.7202878000 7.9556341800 
Si 8.4336370800 7.2841278000 6.1239865800 
Si 9.5025000000 9.5025000000 6.7875000000 
Si 6.7875000000 9.5025000000 9.5025000000 

