&CONTROL
  dt          = 30.D0,
  prefix = 'R1-T1200-3-86',
  pseudo_dir = './',
  outdir='./',
  wf_collect=.true.,
  verbosity ="high",
/

&SYSTEM
  ibrav= 0, nat=  61, ntyp= 1,
  ecutwfc     = 42.D0,
  nbnd=244,
  degauss     = 0.05D0,
  occupations = "smearing",
  smearing    = "methfessel-paxton",
/
&ELECTRONS
  electron_maxstep=200,
  conv_thr    = 1.D-8,
  mixing_beta = 0.3D0,
  scf_must_converge=.false.,
/
&IONS
/
ATOMIC_SPECIES
Si  28.08  Si.pbe-hgh.UPF

K_POINTS {automatic}
4 4 4 0 0 0

CELL_PARAMETERS angstrom
10.86000000000000 0.00000000000000 0.00000000000000
0.00000000000000 10.86000000000000 0.00000000000000
0.00000000000000 0.00000000000000 10.86000000000000

ATOMIC_POSITIONS angstrom
Si 0.0000000000 0.0000000000 0.0000000000 
Si 0.0000000000 2.7150000000 2.7150000000 
Si 2.7150000000 0.0000000000 2.7150000000 
Si 2.7150000000 2.7150000000 0.0000000000 
Si 1.3575000000 1.3575000000 1.3575000000 
Si 1.4648402400 3.9720667200 4.0114233600 
Si 4.2903516000 1.1239557000 4.0191339600 
Si 3.9465131400 3.9586980600 1.3193053800 
Si 5.4300000000 0.0000000000 0.0000000000 
Si 5.3413389600 2.7021852000 2.6770334400 
Si 8.1450000000 0.0000000000 2.7150000000 
Si 8.1450000000 2.7150000000 0.0000000000 
Si 6.7875000000 1.3575000000 1.3575000000 
Si 9.5025000000 4.0725000000 1.3575000000 
Si 9.5025000000 1.3575000000 4.0725000000 
Si 0.0000000000 0.0000000000 5.4300000000 
Si 0.0000000000 2.7150000000 8.1450000000 
Si 2.7150000000 0.0000000000 8.1450000000 
Si 9.5409552600 4.0642246800 6.8787674400 
Si 1.3575000000 1.3575000000 6.7875000000 
Si 1.3575000000 4.0725000000 9.5025000000 
Si 4.0725000000 1.3575000000 9.5025000000 
Si 4.0953928800 4.1140829400 6.8663327400 
Si 5.5782390000 0.0006204883 5.5059331200 
Si 5.4880249800 2.7475148400 8.1357690000 
Si 8.1450000000 0.0000000000 8.1450000000 
Si 8.1266357400 2.5418916000 5.5342885800 
Si 6.8790063600 1.4421971400 6.9586644600 
Si 7.0083272400 4.3210854000 9.6534757200 
Si 9.5025000000 1.3575000000 9.5025000000 
Si 0.0000000000 5.4300000000 0.0000000000 
Si 0.0000000000 8.1450000000 2.7150000000 
Si 2.5416309600 5.2583685600 2.6170102200 
Si 2.7150000000 8.1450000000 0.0000000000 
Si 1.3575000000 6.7875000000 1.3575000000 
Si 1.3575000000 9.5025000000 4.0725000000 
Si 3.9655833000 6.8576447400 3.9708504000 
Si 4.0725000000 9.5025000000 1.3575000000 
Si 5.2794478200 5.3328464400 0.0971543202 
Si 5.3878740600 8.1863983200 2.6439321600 
Si 8.1519938400 5.1939036000 2.9249346600 
Si 8.1450000000 8.1450000000 0.0000000000 
Si 6.8957090400 6.7089713400 1.3526455800 
Si 6.7458736200 9.5032493400 4.0377588600 
Si 9.5282056200 6.7826130000 3.9914409600 
Si 9.5025000000 9.5025000000 1.3575000000 
Si 0.0198010380 5.5794118800 5.5037285400 
Si 0.0000000000 8.1450000000 8.1450000000 
Si 2.7575712000 5.3554895400 8.2489519200 
Si 2.7315072000 8.1536988600 5.4834746400 
Si 1.3221072600 6.8770407000 6.7718724600 
Si 1.3575000000 9.5025000000 9.5025000000 
Si 4.0355760000 6.6834612000 9.5560072200 
Si 4.1426773200 9.4504806000 6.7882927800 
Si 5.2080541800 5.2416333000 5.1975742800 
Si 5.4101479200 8.1905359800 8.1805990800 
Si 8.1454561200 5.4522304200 8.1915568200 
Si 8.2066087800 8.0891035800 5.1882781200 
Si 9.5025000000 9.5025000000 6.7875000000 
Si 6.7875000000 9.5025000000 9.5025000000 
Si 9.5025000000 6.7875000000 9.5025000000 

