&CONTROL
  dt          = 30.D0,
  prefix = 'R1-T3000-3-134',
  pseudo_dir = './',
  outdir='./',
 wf_collect=.true.,
 verbosity ="high",
/

&SYSTEM
    ibrav= 0, nat=  61, ntyp= 1,
  ecutwfc     = 42.D0,
  nbnd=244,
  degauss     = 0.05D0,
  occupations = "smearing",
  smearing    = "methfessel-paxton",
/
&ELECTRONS
  electron_maxstep=200,
  conv_thr    = 1.D-8,
  mixing_beta = 0.3D0,
  scf_must_converge=.false.,
/
&IONS
/
ATOMIC_SPECIES
Si  28.08  Si.pbe-hgh.UPF

K_POINTS {automatic}
4 4 4 0 0 0
CELL_PARAMETERS angstrom
10.86000000000000 0.00000000000000 0.00000000000000
0.00000000000000 10.86000000000000 0.00000000000000
0.00000000000000 0.00000000000000 10.86000000000000

ATOMIC_POSITIONS angstrom
Si 0.0000000000 0.0000000000 0.0000000000 
Si 0.0000000000 2.7150000000 2.7150000000 
Si 2.7150000000 0.0000000000 2.7150000000 
Si 2.7150000000 2.7150000000 0.0000000000 
Si 1.3575000000 1.3575000000 1.3575000000 
Si 1.9126849200 2.9487289200 4.8600672000 
Si 4.4007978000 2.4012111600 5.0481298200 
Si 3.9702313800 3.6242535000 1.3230195000 
Si 5.4300000000 0.0000000000 0.0000000000 
Si 7.0949248800 3.1453818000 3.3066962400 
Si 8.1450000000 0.0000000000 2.7150000000 
Si 8.1450000000 2.7150000000 0.0000000000 
Si 6.7875000000 1.3575000000 1.3575000000 
Si 9.5025000000 4.0725000000 1.3575000000 
Si 9.5025000000 1.3575000000 4.0725000000 
Si 0.0000000000 0.0000000000 5.4300000000 
Si 0.0000000000 2.7150000000 8.1450000000 
Si 2.7150000000 0.0000000000 8.1450000000 
Si 9.0768640200 3.8669853600 6.7420617600 
Si 1.3575000000 1.3575000000 6.7875000000 
Si 1.3575000000 4.0725000000 9.5025000000 
Si 4.0725000000 1.3575000000 9.5025000000 
Si 3.5356576200 4.1816538600 6.4742867400 
Si 5.4772084200 0.0948146418 5.6780858400 
Si 5.1440562000 3.0224248800 8.3217247800 
Si 8.1450000000 0.0000000000 8.1450000000 
Si 7.8873356400 2.5494718800 5.5752850800 
Si 6.5893484400 1.4547621600 6.9635514600 
Si 7.1926431600 4.1389089000 8.9954683200 
Si 9.5025000000 1.3575000000 9.5025000000 
Si 0.0000000000 5.4300000000 0.0000000000 
Si 0.0000000000 8.1450000000 2.7150000000 
Si 1.4538933600 4.9857282600 2.8371098400 
Si 2.7150000000 8.1450000000 0.0000000000 
Si 1.3575000000 6.7875000000 1.3575000000 
Si 1.3575000000 9.5025000000 4.0725000000 
Si 4.0541683200 6.4999815000 3.9268131000 
Si 4.0725000000 9.5025000000 1.3575000000 
Si 5.6049220200 4.8536598000 11.0654712000 
Si 5.3938579200 8.1439683000 2.5466157000 
Si 8.0583697800 5.3495382600 2.6590818600 
Si 8.1450000000 8.1450000000 0.0000000000 
Si 6.8141504400 6.8128581000 1.2005295600 
Si 6.9419726400 9.3635788800 4.1870295600 
Si 9.6646506600 6.5613296400 4.0823283000 
Si 9.5025000000 9.5025000000 1.3575000000 
Si 0.5828844360 5.1217932000 4.9427226600 
Si 0.0000000000 8.1450000000 8.1450000000 
Si 2.7070287600 5.6112642600 8.1111059400 
Si 2.8106657400 8.0368887000 5.1153966600 
Si 1.3698478200 6.9106958400 6.6990778800 
Si 1.3575000000 9.5025000000 9.5025000000 
Si 4.2231825000 6.5216037600 9.4905214200 
Si 4.0028874000 9.6244035000 6.5319316200 
Si 4.9233375600 4.1307747600 3.4304350800 
Si 4.9837408800 8.4824419200 8.3131128000 
Si 8.1503105400 6.0982375200 7.4554443000 
Si 8.2616038200 8.0095323600 5.8367938800 
Si 9.5025000000 9.5025000000 6.7875000000 
Si 6.7875000000 9.5025000000 9.5025000000 
Si 9.5025000000 6.7875000000 9.5025000000 

