&CONTROL
  dt          = 30.D0,
  prefix = 'R1-T3000-364',
  pseudo_dir = './',
  outdir='./',
 wf_collect=.true.,
 verbosity ="high",
/

&SYSTEM
    ibrav= 0, nat=  61, ntyp= 1,
  ecutwfc     = 42.D0,
  nbnd=244,
  degauss     = 0.05D0,
  occupations = "smearing",
  smearing    = "methfessel-paxton",
/
&ELECTRONS
  electron_maxstep=200,
  conv_thr    = 1.D-8,
  mixing_beta = 0.3D0,
  scf_must_converge=.false.,
/
&IONS
/
ATOMIC_SPECIES
Si  28.08  Si.pbe-hgh.UPF

K_POINTS {automatic}
4 4 4 0 0 0
CELL_PARAMETERS angstrom
10.86000000000000 0.00000000000000 0.00000000000000
0.00000000000000 10.86000000000000 0.00000000000000
0.00000000000000 0.00000000000000 10.86000000000000

ATOMIC_POSITIONS angstrom
Si 0.0000000000 0.0000000000 0.0000000000 
Si 0.0000000000 2.7150000000 2.7150000000 
Si 2.7150000000 0.0000000000 2.7150000000 
Si 2.7150000000 2.7150000000 0.0000000000 
Si 1.3575000000 1.3575000000 1.3575000000 
Si 1.3128328200 4.2998975400 4.0740638400 
Si 4.0068730200 1.2770925600 4.2032326800 
Si 4.4094423600 4.0757580000 1.3827495000 
Si 5.4300000000 0.0000000000 0.0000000000 
Si 5.6414442000 2.8107091800 2.8723396800 
Si 8.1450000000 0.0000000000 2.7150000000 
Si 8.1450000000 2.7150000000 0.0000000000 
Si 6.7875000000 1.3575000000 1.3575000000 
Si 9.5025000000 4.0725000000 1.3575000000 
Si 9.5025000000 1.3575000000 4.0725000000 
Si 0.0000000000 0.0000000000 5.4300000000 
Si 0.0000000000 2.7150000000 8.1450000000 
Si 2.7150000000 0.0000000000 8.1450000000 
Si 2.6112435600 2.5865913600 5.2999840800 
Si 1.3575000000 1.3575000000 6.7875000000 
Si 1.3575000000 4.0725000000 9.5025000000 
Si 4.0725000000 1.3575000000 9.5025000000 
Si 3.9898554000 4.0490532600 6.7109044200 
Si 5.8824710400 0.2016593400 5.5486455000 
Si 5.3060765400 2.5667827200 8.0108464200 
Si 8.1450000000 0.0000000000 8.1450000000 
Si 5.0013883800 4.5488304600 4.4558254200 
Si 8.0352597000 1.3496590800 5.9523877200 
Si 6.8283444600 4.0962725400 9.2815315800 
Si 9.5025000000 1.3575000000 9.5025000000 
Si 9.0338801400 3.5673796800 7.0487807400 
Si 0.0000000000 5.4300000000 0.0000000000 
Si 0.0000000000 8.1450000000 2.7150000000 
Si 2.2733781000 5.1434371800 2.2916229000 
Si 2.7150000000 8.1450000000 0.0000000000 
Si 1.3575000000 6.7875000000 1.3575000000 
Si 1.3575000000 9.5025000000 4.0725000000 
Si 3.4806843000 6.2821081800 4.1227383600 
Si 4.0725000000 9.5025000000 1.3575000000 
Si 5.4422718000 5.4267094200 10.7685913800 
Si 5.3744945400 8.0066653200 3.0135414000 
Si 9.1643087400 6.1329026400 2.6227986000 
Si 8.1450000000 8.1450000000 0.0000000000 
Si 7.1410581600 6.5766639600 1.4543929200 
Si 6.9441229200 9.4462886400 4.3942057800 
Si 7.3562164800 5.6716893000 5.4345612000 
Si 9.5025000000 9.5025000000 1.3575000000 
Si 9.8845656600 4.7065176600 4.5998073000 
Si 0.0000000000 8.1450000000 8.1450000000 
Si 3.0683301000 5.1579352800 8.3756989800 
Si 2.9812437600 8.5383166200 5.4602559600 
Si 1.8240999000 7.0044610800 7.4136007200 
Si 1.3575000000 9.5025000000 9.5025000000 
Si 4.2262558800 7.0221303000 9.5508161400 
Si 4.5643059600 9.3582031800 7.1215210200 
Si 9.5025000000 9.5025000000 6.7875000000 
Si 6.3341493000 7.6261200600 8.0243345400 
Si 7.8825029400 5.7806476800 7.8410177400 
Si 7.8959367600 8.0359873200 5.9367927600 
Si 9.5025000000 6.7875000000 9.5025000000 
Si 6.7875000000 9.5025000000 9.5025000000 

