&CONTROL
  dt          = 30.D0,
  prefix = 'R1-T1200-3-118',
  pseudo_dir = './',
  outdir='./',
 wf_collect=.true.,
 verbosity ="high",
/

&SYSTEM
    ibrav= 0, nat=  61, ntyp= 1,
  ecutwfc     = 42.D0,
  nbnd=244,
  degauss     = 0.05D0,
  occupations = "smearing",
  smearing    = "methfessel-paxton",
/
&ELECTRONS
  electron_maxstep=200,
  conv_thr    = 1.D-8,
  mixing_beta = 0.3D0,
  scf_must_converge=.false.,
/
&IONS
/
ATOMIC_SPECIES
Si  28.08  Si.pbe-hgh.UPF

K_POINTS {automatic}
4 4 4 0 0 0
CELL_PARAMETERS angstrom
10.86000000000000 0.00000000000000 0.00000000000000
0.00000000000000 10.86000000000000 0.00000000000000
0.00000000000000 0.00000000000000 10.86000000000000

ATOMIC_POSITIONS angstrom
Si 0.0000000000 0.0000000000 0.0000000000 
Si 0.0000000000 2.7150000000 2.7150000000 
Si 2.7150000000 0.0000000000 2.7150000000 
Si 2.7150000000 2.7150000000 0.0000000000 
Si 1.3575000000 1.3575000000 1.3575000000 
Si 1.4979849600 3.9796361400 3.9017916600 
Si 4.1300580000 1.2145932600 4.0317098400 
Si 4.1393107200 4.0260952200 1.2637890600 
Si 5.4300000000 0.0000000000 0.0000000000 
Si 5.3946072600 2.7857746200 2.8079073000 
Si 8.1450000000 0.0000000000 2.7150000000 
Si 8.1450000000 2.7150000000 0.0000000000 
Si 6.7875000000 1.3575000000 1.3575000000 
Si 9.5025000000 4.0725000000 1.3575000000 
Si 9.5025000000 1.3575000000 4.0725000000 
Si 0.0000000000 0.0000000000 5.4300000000 
Si 0.0000000000 2.7150000000 8.1450000000 
Si 2.7150000000 0.0000000000 8.1450000000 
Si 9.4180092000 4.1317847400 6.8874011400 
Si 1.3575000000 1.3575000000 6.7875000000 
Si 1.3575000000 4.0725000000 9.5025000000 
Si 4.0725000000 1.3575000000 9.5025000000 
Si 4.3117349400 4.4297831400 6.9109673400 
Si 5.4533598600 -0.0939574620 5.3641992600 
Si 5.5532610000 2.6331373200 8.1522001800 
Si 8.1450000000 0.0000000000 8.1450000000 
Si 8.1401890200 2.5923580200 5.4809659800 
Si 6.7243491000 1.3673608800 6.8578728000 
Si 6.8835458400 3.9747925800 9.6630759600 
Si 9.5025000000 1.3575000000 9.5025000000 
Si 0.0000000000 5.4300000000 0.0000000000 
Si 0.0000000000 8.1450000000 2.7150000000 
Si 2.8538994000 5.3370384000 2.7168462000 
Si 2.7150000000 8.1450000000 0.0000000000 
Si 1.3575000000 6.7875000000 1.3575000000 
Si 1.3575000000 9.5025000000 4.0725000000 
Si 4.0288428000 6.8655182400 4.2591508200 
Si 4.0725000000 9.5025000000 1.3575000000 
Si 5.5253508000 5.4359838600 10.8602172000 
Si 5.2568047200 8.1666114000 2.6277942000 
Si 8.2426096800 5.4611030400 2.6477223000 
Si 8.1450000000 8.1450000000 0.0000000000 
Si 6.7918114200 6.7466664000 1.5269594400 
Si 6.8769972600 9.3679228800 4.0666356000 
Si 9.4786731600 6.8653879200 4.1534613000 
Si 9.5025000000 9.5025000000 1.3575000000 
Si 10.8449263200 5.4816175800 5.4621456000 
Si 0.0000000000 8.1450000000 8.1450000000 
Si 2.7901729200 5.4148394400 8.1728233200 
Si 2.6357763000 8.1029392200 5.4665764800 
Si 1.2166023600 6.8150735400 6.7647374400 
Si 1.3575000000 9.5025000000 9.5025000000 
Si 4.0078830000 6.7271292600 9.5782485000 
Si 4.1048302200 9.4576590600 6.7357629600 
Si 5.6093963400 5.6221894200 5.5157831400 
Si 5.3347035000 8.1802841400 8.2556525400 
Si 8.1752451000 5.2673932200 8.4651636600 
Si 8.0018000400 7.9539183000 5.6001762000 
Si 9.5025000000 9.5025000000 6.7875000000 
Si 6.7875000000 9.5025000000 9.5025000000 
Si 9.5025000000 6.7875000000 9.5025000000 

