&CONTROL
  dt          = 30.D0,
  prefix = 'R1-T3000-4-341',
  pseudo_dir = './',
  outdir='./',
 wf_collect=.true.,
 verbosity ="high",
/

&SYSTEM
    ibrav= 0, nat=  61, ntyp= 1,
  ecutwfc     = 42.D0,
  nbnd=244,
  degauss     = 0.05D0,
  occupations = "smearing",
  smearing    = "methfessel-paxton",
/
&ELECTRONS
  electron_maxstep=200,
  conv_thr    = 1.D-8,
  mixing_beta = 0.3D0,
  scf_must_converge=.false.,
/
&IONS
/
ATOMIC_SPECIES
Si  28.08  Si.pbe-hgh.UPF

K_POINTS {automatic}
4 4 4 0 0 0
CELL_PARAMETERS angstrom
10.86000000000000 0.00000000000000 0.00000000000000
0.00000000000000 10.86000000000000 0.00000000000000
0.00000000000000 0.00000000000000 10.86000000000000

ATOMIC_POSITIONS angstrom
Si 0.0000000000 0.0000000000 0.0000000000 
Si 0.0000000000 2.7150000000 2.7150000000 
Si 2.7150000000 0.0000000000 2.7150000000 
Si 2.7150000000 2.7150000000 0.0000000000 
Si 1.3575000000 1.3575000000 1.3575000000 
Si 1.2546449400 4.3354749000 4.0257477000 
Si 4.0743462000 1.5553149000 4.0322202600 
Si 3.9963822600 4.4440640400 1.6393495800 
Si 5.4300000000 0.0000000000 0.0000000000 
Si 5.1607588800 2.7328864200 2.3286880800 
Si 8.1450000000 0.0000000000 2.7150000000 
Si 8.1450000000 2.7150000000 0.0000000000 
Si 6.7875000000 1.3575000000 1.3575000000 
Si 6.5292383400 4.2389946600 4.1603031000 
Si 9.5025000000 1.3575000000 4.0725000000 
Si 9.5025000000 4.0725000000 1.3575000000 
Si 0.0000000000 0.0000000000 5.4300000000 
Si 0.0000000000 2.7150000000 8.1450000000 
Si 2.7150000000 0.0000000000 8.1450000000 
Si 9.5184967800 4.2836184000 6.7986640800 
Si 1.3575000000 1.3575000000 6.7875000000 
Si 1.3575000000 4.0725000000 9.5025000000 
Si 4.0725000000 1.3575000000 9.5025000000 
Si 4.6752082800 4.3117240800 5.4672498000 
Si 5.6691154800 0.4691889240 5.3819336400 
Si 5.1727917600 2.9217309600 7.5404129400 
Si 8.1450000000 0.0000000000 8.1450000000 
Si 8.1415573800 2.9859244200 5.2778188200 
Si 7.1502131400 1.6261981200 7.0882134000 
Si 6.5751870000 4.1569365000 9.2241799200 
Si 9.5025000000 1.3575000000 9.5025000000 
Si 0.0000000000 5.4300000000 0.0000000000 
Si 0.0000000000 8.1450000000 2.7150000000 
Si 2.5572150600 5.7166714200 2.9000761200 
Si 2.7150000000 8.1450000000 0.0000000000 
Si 1.3575000000 6.7875000000 1.3575000000 
Si 1.3575000000 9.5025000000 4.0725000000 
Si 3.9965777400 6.3921525600 4.7247407400 
Si 4.0725000000 9.5025000000 1.3575000000 
Si 5.1470427000 5.7752937000 10.6454172600 
Si 4.9571230200 8.1092923200 3.1933721400 
Si 8.0206421400 5.6789220600 2.6898373800 
Si 8.1450000000 8.1450000000 0.0000000000 
Si 6.5246880000 7.2597905400 1.3385601600 
Si 6.7060825800 9.5308011600 3.9900400200 
Si 9.1177302000 7.4631874800 3.9919188000 
Si 9.5025000000 9.5025000000 1.3575000000 
Si 0.0462210288 6.0101629200 5.2333797000 
Si 0.0000000000 8.1450000000 8.1450000000 
Si 2.6363410200 3.0257914800 5.3546533200 
Si 2.7951250800 8.4777286800 6.0704359200 
Si 1.5795327000 6.8355772200 7.4008510800 
Si 1.3575000000 9.5025000000 9.5025000000 
Si 2.6554329000 6.1685560200 9.5723080800 
Si 4.3294041600 9.8819375400 6.8810371800 
Si 9.5025000000 6.7875000000 9.5025000000 
Si 5.9411150400 8.5668567000 7.3858208400 
Si 8.1478561800 5.8971103200 7.8734239800 
Si 7.6978069200 8.7184080000 5.7582869400 
Si 9.5025000000 9.5025000000 6.7875000000 
Si 6.7875000000 9.5025000000 9.5025000000 

