&CONTROL
  dt          = 30.D0,
  prefix = 'R1-T1200-129',
  pseudo_dir = './',
  outdir='./',
 wf_collect=.true.,
 verbosity ="high",
/

&SYSTEM
    ibrav= 0, nat=  61, ntyp= 1,
  ecutwfc     = 42.D0,
  nbnd=244,
  degauss     = 0.05D0,
  occupations = "smearing",
  smearing    = "methfessel-paxton",
/
&ELECTRONS
  electron_maxstep=200,
  conv_thr    = 1.D-8,
  mixing_beta = 0.3D0,
  scf_must_converge=.false.,
/
&IONS
/
ATOMIC_SPECIES
Si  28.08  Si.pbe-hgh.UPF

K_POINTS {automatic}
4 4 4 0 0 0
CELL_PARAMETERS angstrom
10.86000000000000 0.00000000000000 0.00000000000000
0.00000000000000 10.86000000000000 0.00000000000000
0.00000000000000 0.00000000000000 10.86000000000000

ATOMIC_POSITIONS angstrom
Si 0.0000000000 0.0000000000 0.0000000000 
Si 0.0000000000 2.7150000000 2.7150000000 
Si 2.7150000000 0.0000000000 2.7150000000 
Si 2.7150000000 2.7150000000 0.0000000000 
Si 1.3575000000 1.3575000000 1.3575000000 
Si 1.4006033400 4.0390620600 4.0605540000 
Si 4.0060476600 1.4252229600 4.0558190400 
Si 4.0695026400 4.0798522200 1.3278304800 
Si 5.4300000000 0.0000000000 0.0000000000 
Si 5.3466712200 2.7525973200 2.7266093400 
Si 8.1450000000 0.0000000000 2.7150000000 
Si 8.1450000000 2.7150000000 0.0000000000 
Si 6.7875000000 1.3575000000 1.3575000000 
Si 9.5025000000 4.0725000000 1.3575000000 
Si 9.5025000000 1.3575000000 4.0725000000 
Si 0.0000000000 0.0000000000 5.4300000000 
Si 0.0000000000 2.7150000000 8.1450000000 
Si 2.7150000000 0.0000000000 8.1450000000 
Si 2.7568978800 2.7703751400 5.4534250200 
Si 1.3575000000 1.3575000000 6.7875000000 
Si 1.3575000000 4.0725000000 9.5025000000 
Si 4.0725000000 1.3575000000 9.5025000000 
Si 4.0284952800 4.1959021800 6.7096446600 
Si 5.3299142400 10.9102818000 5.3236371600 
Si 5.3446512600 2.8068647400 8.1371156400 
Si 8.1450000000 0.0000000000 8.1450000000 
Si 8.0741167800 2.7501755400 5.2121918400 
Si 6.6924315600 1.4516996400 6.5619812400 
Si 6.7644442200 4.0884750600 9.4610691000 
Si 9.5025000000 1.3575000000 9.5025000000 
Si 9.3972014400 4.0590336000 6.7625545800 
Si 0.0000000000 5.4300000000 0.0000000000 
Si 0.0000000000 8.1450000000 2.7150000000 
Si 2.6514038400 5.3640689400 2.6726351400 
Si 2.7150000000 8.1450000000 0.0000000000 
Si 1.3575000000 6.7875000000 1.3575000000 
Si 1.3575000000 9.5025000000 4.0725000000 
Si 3.8831667600 6.7189191000 3.9924400800 
Si 4.0725000000 9.5025000000 1.3575000000 
Si 5.4661095000 5.3847029400 -0.0664506024 
Si 5.2835094600 8.1199459800 2.6868074400 
Si 8.1857467200 5.5965055200 2.6072253600 
Si 8.1450000000 8.1450000000 0.0000000000 
Si 6.7647048600 6.8520084000 1.3796218200 
Si 6.6354382800 9.5361117000 3.9764541600 
Si 9.4421401200 6.8481531000 4.0135845000 
Si 9.5025000000 9.5025000000 1.3575000000 
Si 10.8563293200 5.4438030600 5.2944889200 
Si 0.0000000000 8.1450000000 8.1450000000 
Si 2.6987100000 5.4080193600 8.1423827400 
Si 2.6573877000 8.0282332800 5.5018280400 
Si 1.2526792800 6.7300180200 6.7522375800 
Si 1.3575000000 9.5025000000 9.5025000000 
Si 4.0549611000 6.8459268000 9.4502851200 
Si 3.9961759200 9.5227539000 6.6880658400 
Si 9.5025000000 9.5025000000 6.7875000000 
Si 5.4074112000 8.2423924800 8.1118878600 
Si 8.1196636200 5.4346155000 8.1579125400 
Si 8.0766797400 8.3634054600 5.3774376000 
Si 9.5025000000 6.7875000000 9.5025000000 
Si 6.7875000000 9.5025000000 9.5025000000 

