&CONTROL
  dt          = 30.D0,
  prefix = 'R1-T3000-4-394',
  pseudo_dir = './',
  outdir='./',
 wf_collect=.true.,
 verbosity ="high",
/

&SYSTEM
    ibrav= 0, nat=  61, ntyp= 1,
  ecutwfc     = 42.D0,
  nbnd=244,
  degauss     = 0.05D0,
  occupations = "smearing",
  smearing    = "methfessel-paxton",
/
&ELECTRONS
  electron_maxstep=200,
  conv_thr    = 1.D-8,
  mixing_beta = 0.3D0,
  scf_must_converge=.false.,
/
&IONS
/
ATOMIC_SPECIES
Si  28.08  Si.pbe-hgh.UPF

K_POINTS {automatic}
4 4 4 0 0 0
CELL_PARAMETERS angstrom
10.86000000000000 0.00000000000000 0.00000000000000
0.00000000000000 10.86000000000000 0.00000000000000
0.00000000000000 0.00000000000000 10.86000000000000

ATOMIC_POSITIONS angstrom
Si 0.0000000000 0.0000000000 0.0000000000 
Si 0.0000000000 2.7150000000 2.7150000000 
Si 2.7150000000 0.0000000000 2.7150000000 
Si 2.7150000000 2.7150000000 0.0000000000 
Si 1.3575000000 1.3575000000 1.3575000000 
Si 1.1655060600 4.1022672600 4.3561089000 
Si 3.9726097200 1.0717364760 4.2409168800 
Si 4.2730842000 4.1382355800 1.4430116400 
Si 5.4300000000 0.0000000000 0.0000000000 
Si 5.4714743400 2.6553568800 2.8391515200 
Si 8.1450000000 0.0000000000 2.7150000000 
Si 8.1450000000 2.7150000000 0.0000000000 
Si 6.7875000000 1.3575000000 1.3575000000 
Si 7.4340283800 3.8183108400 3.6916723800 
Si 9.5025000000 1.3575000000 4.0725000000 
Si 9.5025000000 4.0725000000 1.3575000000 
Si 0.0000000000 0.0000000000 5.4300000000 
Si 0.0000000000 2.7150000000 8.1450000000 
Si 2.7150000000 0.0000000000 8.1450000000 
Si 8.8939707600 4.3283507400 7.0381705200 
Si 1.3575000000 1.3575000000 6.7875000000 
Si 1.3575000000 4.0725000000 9.5025000000 
Si 4.0725000000 1.3575000000 9.5025000000 
Si 6.7304524200 4.3712260200 6.2154929400 
Si 5.2607143200 10.4969610600 5.4851579400 
Si 5.2557404400 2.7942671400 7.9460339400 
Si 8.1450000000 0.0000000000 8.1450000000 
Si 8.1718785000 2.4513409200 5.8956985200 
Si 6.6741107400 1.0806959760 6.9886923600 
Si 6.6009903600 4.2397005600 9.1981593600 
Si 9.5025000000 1.3575000000 9.5025000000 
Si 0.0000000000 5.4300000000 0.0000000000 
Si 0.0000000000 8.1450000000 2.7150000000 
Si 2.4786103800 5.1286567200 2.8636191000 
Si 2.7150000000 8.1450000000 0.0000000000 
Si 1.3575000000 6.7875000000 1.3575000000 
Si 1.3575000000 9.5025000000 4.0725000000 
Si 3.9527685000 6.6652055400 4.1245302600 
Si 4.0725000000 9.5025000000 1.3575000000 
Si 4.9537890000 5.5286848200 -0.1513395300 
Si 5.4704426400 7.7973279600 2.7819736200 
Si 8.3185210800 5.7365126400 2.4138196200 
Si 8.1450000000 8.1450000000 0.0000000000 
Si 6.7096446600 6.5221793400 1.1781145200 
Si 6.8045610600 9.6012499800 3.9926029800 
Si 9.3919995000 6.9234129000 4.3217913000 
Si 9.5025000000 9.5025000000 1.3575000000 
Si -0.0442743738 5.4537725400 5.9942204400 
Si 0.0000000000 8.1450000000 8.1450000000 
Si 2.7643804200 2.9418111000 5.6750341800 
Si 2.4099534600 8.2059028800 5.7727633200 
Si 1.5453019800 6.5325832200 7.3832253000 
Si 1.3575000000 9.5025000000 9.5025000000 
Si 2.8590144600 5.9951869800 9.4842117600 
Si 4.0945349400 9.3601797000 7.3888616400 
Si 9.5025000000 6.7875000000 9.5025000000 
Si 6.2607357000 7.8054946800 7.6026624600 
Si 7.5651303000 6.1006375800 8.3512748400 
Si 7.9881707400 8.3517526800 5.6591568600 
Si 9.5025000000 9.5025000000 6.7875000000 
Si 6.7875000000 9.5025000000 9.5025000000 

