&CONTROL
  dt          = 30.D0,
  prefix = 'R1-T3000-3-169',
  pseudo_dir = './',
  outdir='./',
 wf_collect=.true.,
 verbosity ="high",
/

&SYSTEM
    ibrav= 0, nat=  61, ntyp= 1,
  ecutwfc     = 42.D0,
  nbnd=244,
  degauss     = 0.05D0,
  occupations = "smearing",
  smearing    = "methfessel-paxton",
/
&ELECTRONS
  electron_maxstep=200,
  conv_thr    = 1.D-8,
  mixing_beta = 0.3D0,
  scf_must_converge=.false.,
/
&IONS
/
ATOMIC_SPECIES
Si  28.08  Si.pbe-hgh.UPF

K_POINTS {automatic}
4 4 4 0 0 0
CELL_PARAMETERS angstrom
10.86000000000000 0.00000000000000 0.00000000000000
0.00000000000000 10.86000000000000 0.00000000000000
0.00000000000000 0.00000000000000 10.86000000000000

ATOMIC_POSITIONS angstrom
Si 0.0000000000 0.0000000000 0.0000000000 
Si 0.0000000000 2.7150000000 2.7150000000 
Si 2.7150000000 0.0000000000 2.7150000000 
Si 2.7150000000 2.7150000000 0.0000000000 
Si 1.3575000000 1.3575000000 1.3575000000 
Si 2.3362683600 2.6128074000 5.0443722600 
Si 4.5143608200 1.1638770600 3.6747633600 
Si 5.4330082200 4.3825747200 1.6920640200 
Si 5.4300000000 0.0000000000 0.0000000000 
Si 6.5501112600 3.0513342000 3.1271152800 
Si 8.1450000000 0.0000000000 2.7150000000 
Si 8.1450000000 2.7150000000 0.0000000000 
Si 6.7875000000 1.3575000000 1.3575000000 
Si 9.5025000000 4.0725000000 1.3575000000 
Si 9.5025000000 1.3575000000 4.0725000000 
Si 0.0000000000 0.0000000000 5.4300000000 
Si 0.0000000000 2.7150000000 8.1450000000 
Si 2.7150000000 0.0000000000 8.1450000000 
Si 9.3020787000 3.9222084600 6.7100030400 
Si 1.3575000000 1.3575000000 6.7875000000 
Si 1.3575000000 4.0725000000 9.5025000000 
Si 4.0725000000 1.3575000000 9.5025000000 
Si 3.5280990600 3.5455728000 6.5063997600 
Si 5.3759823600 10.7980437000 5.5825612800 
Si 5.4931074600 2.5503298200 7.9849018800 
Si 8.1450000000 0.0000000000 8.1450000000 
Si 7.7709055800 3.0760189800 5.2775473200 
Si 6.9022033200 1.2956088600 6.8360767800 
Si 6.7457867400 4.2082934400 9.2791641000 
Si 9.5025000000 1.3575000000 9.5025000000 
Si 0.0000000000 5.4300000000 0.0000000000 
Si 0.0000000000 8.1450000000 2.7150000000 
Si 1.4181856800 3.9902898000 3.5866127400 
Si 2.7150000000 8.1450000000 0.0000000000 
Si 1.3575000000 6.7875000000 1.3575000000 
Si 1.3575000000 9.5025000000 4.0725000000 
Si 3.4843332600 7.2946511400 3.1307099400 
Si 4.0725000000 9.5025000000 1.3575000000 
Si 6.0656901000 5.8738264800 0.1027508040 
Si 5.6725689600 8.2606807200 3.0841965600 
Si 7.8384547800 5.1715754400 2.8282155000 
Si 8.1450000000 8.1450000000 0.0000000000 
Si 7.1667963600 7.3019707800 1.8018586200 
Si 7.0632788400 9.4457565000 4.5294670800 
Si 9.4605478200 6.6793669800 3.8639119800 
Si 9.5025000000 9.5025000000 1.3575000000 
Si 0.2160759900 5.2096397400 5.3021669400 
Si 0.0000000000 8.1450000000 8.1450000000 
Si 2.8020429000 5.3780240400 8.2345950000 
Si 2.8953628800 8.0366823600 5.1489757800 
Si 1.5762529800 6.6783895800 6.6573972000 
Si 1.3575000000 9.5025000000 9.5025000000 
Si 4.3591171200 6.9649306800 9.4346032800 
Si 4.0888443000 9.3417285600 6.9116949600 
Si 2.9557662000 4.9990969200 2.3852252400 
Si 5.7642056400 8.1371482200 7.9583057400 
Si 7.8477943800 5.7215584200 7.9087298400 
Si 7.7722956600 7.7210256000 6.1376158800 
Si 9.5025000000 9.5025000000 6.7875000000 
Si 6.7875000000 9.5025000000 9.5025000000 
Si 9.5025000000 6.7875000000 9.5025000000 

