&CONTROL
  dt          = 30.D0,
  prefix = 'R1-T1200-4-60',
  pseudo_dir = './',
  outdir='./',
  wf_collect=.true.,
  verbosity ="high",
/

&SYSTEM
  ibrav= 0, nat=  61, ntyp= 1,
  ecutwfc     = 42.D0,
  nbnd=244,
  degauss     = 0.05D0,
  occupations = "smearing",
  smearing    = "methfessel-paxton",
/
&ELECTRONS
  electron_maxstep=200,
  conv_thr    = 1.D-8,
  mixing_beta = 0.3D0,
  scf_must_converge=.false.,
/
&IONS
/
ATOMIC_SPECIES
Si  28.08  Si.pbe-hgh.UPF

K_POINTS {automatic}
4 4 4 0 0 0

CELL_PARAMETERS angstrom
10.86000000000000 0.00000000000000 0.00000000000000
0.00000000000000 10.86000000000000 0.00000000000000
0.00000000000000 0.00000000000000 10.86000000000000

ATOMIC_POSITIONS angstrom
Si 0.0000000000 0.0000000000 0.0000000000 
Si 0.0000000000 2.7150000000 2.7150000000 
Si 2.7150000000 0.0000000000 2.7150000000 
Si 2.7150000000 2.7150000000 0.0000000000 
Si 1.3575000000 1.3575000000 1.3575000000 
Si 1.3168727400 4.0735099800 4.2561208800 
Si 4.0689053400 1.1807643600 4.0285387200 
Si 4.0343814000 3.9458072400 1.3149613800 
Si 5.4300000000 0.0000000000 0.0000000000 
Si 5.2128760200 2.7905964600 2.8085046000 
Si 8.1450000000 0.0000000000 2.7150000000 
Si 8.1450000000 2.7150000000 0.0000000000 
Si 6.7875000000 1.3575000000 1.3575000000 
Si 6.6215157600 4.3019283600 4.1812194600 
Si 9.5025000000 1.3575000000 4.0725000000 
Si 9.5025000000 4.0725000000 1.3575000000 
Si 0.0000000000 0.0000000000 5.4300000000 
Si 0.0000000000 2.7150000000 8.1450000000 
Si 2.7150000000 0.0000000000 8.1450000000 
Si 9.5079625800 4.1205446400 6.9395182800 
Si 1.3575000000 1.3575000000 6.7875000000 
Si 1.3575000000 4.0725000000 9.5025000000 
Si 4.0725000000 1.3575000000 9.5025000000 
Si 3.9043437600 4.0084477200 6.6920840400 
Si 5.4009169200 -0.1131894360 5.5186501800 
Si 5.2342376400 2.8737949200 7.9773867600 
Si 8.1450000000 0.0000000000 8.1450000000 
Si 8.0358895800 2.9374453800 5.4879163800 
Si 6.7429631400 1.2529290600 6.8633028000 
Si 6.7453740600 4.1272778400 9.2928911400 
Si 9.5025000000 1.3575000000 9.5025000000 
Si 0.0000000000 5.4300000000 0.0000000000 
Si 0.0000000000 8.1450000000 2.7150000000 
Si 2.6492970000 5.3736583200 2.6998720200 
Si 2.7150000000 8.1450000000 0.0000000000 
Si 1.3575000000 6.7875000000 1.3575000000 
Si 1.3575000000 9.5025000000 4.0725000000 
Si 4.1040483000 7.0312744200 4.0557864600 
Si 4.0725000000 9.5025000000 1.3575000000 
Si 5.5417494000 5.3378203200 0.0101750489 
Si 5.5246014600 8.3718111000 2.8079833200 
Si 8.2494949200 5.3831065200 2.7906616200 
Si 8.1450000000 8.1450000000 0.0000000000 
Si 6.9326547600 6.7354914600 1.3151242800 
Si 6.8240439000 9.5881636800 4.0435038000 
Si 9.5530750200 6.8642910600 4.2038408400 
Si 9.5025000000 9.5025000000 1.3575000000 
Si 0.0594123450 5.4549997200 5.5655979600 
Si 0.0000000000 8.1450000000 8.1450000000 
Si 2.5584965400 5.3517211200 8.0173950000 
Si 2.6187261000 8.2214652600 5.4020789400 
Si 1.3958792400 6.9123682800 6.8066353200 
Si 1.3575000000 9.5025000000 9.5025000000 
Si 4.2479650200 6.6796602000 9.5542913400 
Si 3.9483376200 9.4592772000 6.8747275200 
Si 9.5025000000 6.7875000000 9.5025000000 
Si 5.5763167800 8.1721391400 8.2078251000 
Si 8.2349533800 5.5986015000 8.1893848200 
Si 8.1060886200 8.1966284400 5.4495914400 
Si 9.5025000000 9.5025000000 6.7875000000 
Si 6.7875000000 9.5025000000 9.5025000000 

