&CONTROL
  dt          = 30.D0,
  prefix = 'R1-T3000-4-298',
  pseudo_dir = './',
  outdir='./',
  wf_collect=.true.,
  verbosity ="high",
/

&SYSTEM
  ibrav= 0, nat=  61, ntyp= 1,
  ecutwfc     = 42.D0,
  nbnd=244,
  degauss     = 0.05D0,
  occupations = "smearing",
  smearing    = "methfessel-paxton",
/
&ELECTRONS
  electron_maxstep=200,
  conv_thr    = 1.D-8,
  mixing_beta = 0.3D0,
  scf_must_converge=.false.,
/
&IONS
/
ATOMIC_SPECIES
Si  28.08  Si.pbe-hgh.UPF

K_POINTS {automatic}
4 4 4 0 0 0

CELL_PARAMETERS angstrom
10.86000000000000 0.00000000000000 0.00000000000000
0.00000000000000 10.86000000000000 0.00000000000000
0.00000000000000 0.00000000000000 10.86000000000000

ATOMIC_POSITIONS angstrom
Si 0.0000000000 0.0000000000 0.0000000000 
Si 0.0000000000 2.7150000000 2.7150000000 
Si 2.7150000000 0.0000000000 2.7150000000 
Si 2.7150000000 2.7150000000 0.0000000000 
Si 1.3575000000 1.3575000000 1.3575000000 
Si 1.2620188800 4.2258432000 4.0929059400 
Si 4.3536979800 1.0989668400 3.9372821400 
Si 4.1372581800 3.8595245400 1.4830090200 
Si 5.4300000000 0.0000000000 0.0000000000 
Si 6.0507576000 2.5571390400 2.8713840000 
Si 8.1450000000 0.0000000000 2.7150000000 
Si 8.1450000000 2.7150000000 0.0000000000 
Si 6.7875000000 1.3575000000 1.3575000000 
Si 6.6448864800 4.1206858200 4.6245898200 
Si 9.5025000000 1.3575000000 4.0725000000 
Si 9.5025000000 4.0725000000 1.3575000000 
Si 0.0000000000 0.0000000000 5.4300000000 
Si 0.0000000000 2.7150000000 8.1450000000 
Si 2.7150000000 0.0000000000 8.1450000000 
Si 9.4414450800 4.6171941600 7.0589131200 
Si 1.3575000000 1.3575000000 6.7875000000 
Si 1.3575000000 4.0725000000 9.5025000000 
Si 4.0725000000 1.3575000000 9.5025000000 
Si 4.5381442200 4.2320008200 5.7149012400 
Si 5.4234188400 10.9057206000 5.7577873800 
Si 5.4356254800 2.9632813200 7.9468810200 
Si 8.1450000000 0.0000000000 8.1450000000 
Si 8.3563790400 2.8934080800 5.6704512600 
Si 6.8590022400 1.5855817200 6.8075801400 
Si 6.7370661600 4.2697827600 9.1909809000 
Si 9.5025000000 1.3575000000 9.5025000000 
Si 0.0000000000 5.4300000000 0.0000000000 
Si 0.0000000000 8.1450000000 2.7150000000 
Si 2.5429015800 5.5909886400 2.8533889800 
Si 2.7150000000 8.1450000000 0.0000000000 
Si 1.3575000000 6.7875000000 1.3575000000 
Si 1.3575000000 9.5025000000 4.0725000000 
Si 4.0914181200 6.5547919200 4.4938571400 
Si 4.0725000000 9.5025000000 1.3575000000 
Si 5.1413412000 5.6310620400 10.4901844200 
Si 5.3861364600 8.2097581800 3.0532672800 
Si 8.0250621600 5.3535673200 2.9413658400 
Si 8.1450000000 8.1450000000 0.0000000000 
Si 6.6826358400 6.7175616000 1.4440107600 
Si 6.7446464400 9.4560409200 4.5908695200 
Si 9.6015323400 6.8269218000 4.3621579200 
Si 9.5025000000 9.5025000000 1.3575000000 
Si 0.1148553600 5.7607087200 5.7241322400 
Si 0.0000000000 8.1450000000 8.1450000000 
Si 2.8077878400 2.6306503800 5.1155052600 
Si 2.6497531200 8.1229759200 5.9480980200 
Si 1.7208213000 6.7497397800 7.6321256400 
Si 1.3575000000 9.5025000000 9.5025000000 
Si 2.7557141400 6.1435780200 9.6005875200 
Si 4.3189459800 9.5486224200 6.9789400800 
Si 9.5025000000 6.7875000000 9.5025000000 
Si 5.9065911000 7.9839136200 7.8414087000 
Si 7.6222864800 6.3915552600 8.0476075200 
Si 7.9102393800 7.8815472600 6.0240094200 
Si 9.5025000000 9.5025000000 6.7875000000 
Si 6.7875000000 9.5025000000 9.5025000000 

