&CONTROL
  dt          = 30.D0,
  prefix = 'R1-T1200-122',
  pseudo_dir = './',
  outdir='./',
 wf_collect=.true.,
 verbosity ="high",
/

&SYSTEM
    ibrav= 0, nat=  61, ntyp= 1,
  ecutwfc     = 42.D0,
  nbnd=244,
  degauss     = 0.05D0,
  occupations = "smearing",
  smearing    = "methfessel-paxton",
/
&ELECTRONS
  electron_maxstep=200,
  conv_thr    = 1.D-8,
  mixing_beta = 0.3D0,
  scf_must_converge=.false.,
/
&IONS
/
ATOMIC_SPECIES
Si  28.08  Si.pbe-hgh.UPF

K_POINTS {automatic}
4 4 4 0 0 0
CELL_PARAMETERS angstrom
10.86000000000000 0.00000000000000 0.00000000000000
0.00000000000000 10.86000000000000 0.00000000000000
0.00000000000000 0.00000000000000 10.86000000000000

ATOMIC_POSITIONS angstrom
Si 0.0000000000 0.0000000000 0.0000000000 
Si 0.0000000000 2.7150000000 2.7150000000 
Si 2.7150000000 0.0000000000 2.7150000000 
Si 2.7150000000 2.7150000000 0.0000000000 
Si 1.3575000000 1.3575000000 1.3575000000 
Si 1.3327935000 4.2271246800 4.1144413200 
Si 4.2046444800 1.3407430200 4.1657656800 
Si 4.0247377200 3.9784632600 1.4646013200 
Si 5.4300000000 0.0000000000 0.0000000000 
Si 5.4018074400 2.7043789200 2.7076260600 
Si 8.1450000000 0.0000000000 2.7150000000 
Si 8.1450000000 2.7150000000 0.0000000000 
Si 6.7875000000 1.3575000000 1.3575000000 
Si 9.5025000000 4.0725000000 1.3575000000 
Si 9.5025000000 1.3575000000 4.0725000000 
Si 0.0000000000 0.0000000000 5.4300000000 
Si 0.0000000000 2.7150000000 8.1450000000 
Si 2.7150000000 0.0000000000 8.1450000000 
Si 2.6136001800 2.7840370200 5.3644164600 
Si 1.3575000000 1.3575000000 6.7875000000 
Si 1.3575000000 4.0725000000 9.5025000000 
Si 4.0725000000 1.3575000000 9.5025000000 
Si 4.0226743200 3.8219815200 6.7889769600 
Si 5.5567470600 10.8000310800 5.5772507400 
Si 5.4019051800 2.5637202000 8.2063047000 
Si 8.1450000000 0.0000000000 8.1450000000 
Si 8.1954229800 2.6018931000 5.5407394200 
Si 6.9742811400 1.1945239800 6.7802238000 
Si 6.6216460800 4.0695786600 9.4350485400 
Si 9.5025000000 1.3575000000 9.5025000000 
Si 9.4894354200 3.9797230200 6.8939062800 
Si 0.0000000000 5.4300000000 0.0000000000 
Si 0.0000000000 8.1450000000 2.7150000000 
Si 2.7725797200 5.5316278800 2.8443317400 
Si 2.7150000000 8.1450000000 0.0000000000 
Si 1.3575000000 6.7875000000 1.3575000000 
Si 1.3575000000 9.5025000000 4.0725000000 
Si 4.1319910800 6.8852508600 4.1410809000 
Si 4.0725000000 9.5025000000 1.3575000000 
Si 5.3906107800 5.3574226200 0.0535846518 
Si 5.4971473800 8.1510707400 2.6999480400 
Si 8.0426988000 5.2770260400 2.7033037800 
Si 8.1450000000 8.1450000000 0.0000000000 
Si 6.8443303800 6.7386408600 1.3978992000 
Si 6.9250744800 9.4474398000 4.0668419400 
Si 9.5176714200 6.5327135400 3.9662240400 
Si 9.5025000000 9.5025000000 1.3575000000 
Si 10.8986616000 5.5049231400 5.4701820000 
Si 0.0000000000 8.1450000000 8.1450000000 
Si 2.7978292200 5.2309470600 8.1178608600 
Si 2.7812025600 8.2467147600 5.4851145000 
Si 1.5487337400 6.7828627800 6.7300180200 
Si 1.3575000000 9.5025000000 9.5025000000 
Si 4.0179719400 6.7341991200 9.5184316200 
Si 4.1118783600 9.4140127200 6.9433627200 
Si 9.5025000000 9.5025000000 6.7875000000 
Si 5.5166736600 7.9064275200 8.2249078800 
Si 8.3387532600 5.3499183600 8.2315650600 
Si 8.3316508200 8.1802841400 5.3914795800 
Si 9.5025000000 6.7875000000 9.5025000000 
Si 6.7875000000 9.5025000000 9.5025000000 

