&CONTROL
  dt          = 30.D0,
  prefix = 'R1-T3000-4-34',
  pseudo_dir = './',
  outdir='./',
 wf_collect=.true.,
 verbosity ="high",
/

&SYSTEM
    ibrav= 0, nat=  61, ntyp= 1,
  ecutwfc     = 42.D0,
  nbnd=244,
  degauss     = 0.05D0,
  occupations = "smearing",
  smearing    = "methfessel-paxton",
/
&ELECTRONS
  electron_maxstep=200,
  conv_thr    = 1.D-8,
  mixing_beta = 0.3D0,
  scf_must_converge=.false.,
/
&IONS
/
ATOMIC_SPECIES
Si  28.08  Si.pbe-hgh.UPF

K_POINTS {automatic}
4 4 4 0 0 0
CELL_PARAMETERS angstrom
10.86000000000000 0.00000000000000 0.00000000000000
0.00000000000000 10.86000000000000 0.00000000000000
0.00000000000000 0.00000000000000 10.86000000000000

ATOMIC_POSITIONS angstrom
Si 0.0000000000 0.0000000000 0.0000000000 
Si 0.0000000000 2.7150000000 2.7150000000 
Si 2.7150000000 0.0000000000 2.7150000000 
Si 2.7150000000 2.7150000000 0.0000000000 
Si 1.3575000000 1.3575000000 1.3575000000 
Si 0.9535058280 4.3120390200 3.9357400200 
Si 4.1509743600 1.2936214800 3.8670722400 
Si 3.9917450400 4.0713488400 1.4091067200 
Si 5.4300000000 0.0000000000 0.0000000000 
Si 5.5114608600 2.8313757600 2.8600678800 
Si 8.1450000000 0.0000000000 2.7150000000 
Si 8.1450000000 2.7150000000 0.0000000000 
Si 6.7875000000 1.3575000000 1.3575000000 
Si 6.1914271800 4.7838625800 4.1730636000 
Si 9.5025000000 1.3575000000 4.0725000000 
Si 9.5025000000 4.0725000000 1.3575000000 
Si 0.0000000000 0.0000000000 5.4300000000 
Si 0.0000000000 2.7150000000 8.1450000000 
Si 2.7150000000 0.0000000000 8.1450000000 
Si 9.3946602000 3.7405749600 6.5973414000 
Si 1.3575000000 1.3575000000 6.7875000000 
Si 1.3575000000 4.0725000000 9.5025000000 
Si 4.0725000000 1.3575000000 9.5025000000 
Si 4.1007903000 3.9492172800 6.8197976400 
Si 5.2766350800 10.6898998200 5.5547596800 
Si 5.6147611800 2.5589852400 8.0410480800 
Si 8.1450000000 0.0000000000 8.1450000000 
Si 7.8563194800 3.0544836000 4.5961909200 
Si 6.7842202800 1.5089427000 6.3832039200 
Si 6.9803084400 4.2622024800 9.5185728000 
Si 9.5025000000 1.3575000000 9.5025000000 
Si 0.0000000000 5.4300000000 0.0000000000 
Si 0.0000000000 8.1450000000 2.7150000000 
Si 2.9575363800 5.3108766600 3.1758549600 
Si 2.7150000000 8.1450000000 0.0000000000 
Si 1.3575000000 6.7875000000 1.3575000000 
Si 1.3575000000 9.5025000000 4.0725000000 
Si 4.1384093400 5.7916705800 5.5234503000 
Si 4.0725000000 9.5025000000 1.3575000000 
Si 5.3756348400 5.2596391800 10.8937746000 
Si 5.9940901200 8.6398576200 2.3340420600 
Si 8.2393299600 5.2398414000 3.0891052800 
Si 8.1450000000 8.1450000000 0.0000000000 
Si 6.9726304200 6.7237843800 1.4929242000 
Si 6.7245228600 9.7431684600 4.2257346000 
Si 9.4809754800 6.8834155200 4.3532635800 
Si 9.5025000000 9.5025000000 1.3575000000 
Si 0.0157762134 5.4469850400 5.8583292600 
Si 0.0000000000 8.1450000000 8.1450000000 
Si 3.0418968600 5.1748117200 8.3249936400 
Si 2.8229158200 7.8586109400 5.3258851800 
Si 1.4436089400 6.7916159400 7.1687294400 
Si 1.3575000000 9.5025000000 9.5025000000 
Si 4.2283844400 6.7833080400 9.4635017400 
Si 3.8986748400 9.3766434600 6.7298659800 
Si 9.5025000000 6.7875000000 9.5025000000 
Si 5.3141129400 8.1960311400 8.0908411800 
Si 8.1839222400 5.2889503200 7.7586880800 
Si 8.1679580400 8.1143422200 5.6099827800 
Si 9.5025000000 9.5025000000 6.7875000000 
Si 6.7875000000 9.5025000000 9.5025000000 

