&CONTROL
  dt          = 30.D0,
  prefix = 'R1-T3000-86',
  pseudo_dir = './',
  outdir='./',
  wf_collect=.true.,
  verbosity ="high",
/

&SYSTEM
  ibrav= 0, nat=  61, ntyp= 1,
  ecutwfc     = 42.D0,
  nbnd=244,
  degauss     = 0.05D0,
  occupations = "smearing",
  smearing    = "methfessel-paxton",
/
&ELECTRONS
  electron_maxstep=200,
  conv_thr    = 1.D-8,
  mixing_beta = 0.3D0,
  scf_must_converge=.false.,
/
&IONS
/
ATOMIC_SPECIES
Si  28.08  Si.pbe-hgh.UPF

K_POINTS {automatic}
4 4 4 0 0 0

CELL_PARAMETERS angstrom
10.86000000000000 0.00000000000000 0.00000000000000
0.00000000000000 10.86000000000000 0.00000000000000
0.00000000000000 0.00000000000000 10.86000000000000

ATOMIC_POSITIONS angstrom
Si 0.0000000000 0.0000000000 0.0000000000 
Si 0.0000000000 2.7150000000 2.7150000000 
Si 2.7150000000 0.0000000000 2.7150000000 
Si 2.7150000000 2.7150000000 0.0000000000 
Si 1.3575000000 1.3575000000 1.3575000000 
Si 1.5155455800 4.0787988000 3.8510320200 
Si 4.3278403200 1.4266999200 3.9076995000 
Si 4.5482114400 4.1553943800 1.3093359000 
Si 5.4300000000 0.0000000000 0.0000000000 
Si 5.9160936000 2.8057135800 2.5445414400 
Si 8.1450000000 0.0000000000 2.7150000000 
Si 8.1450000000 2.7150000000 0.0000000000 
Si 6.7875000000 1.3575000000 1.3575000000 
Si 9.5025000000 4.0725000000 1.3575000000 
Si 9.5025000000 1.3575000000 4.0725000000 
Si 0.0000000000 0.0000000000 5.4300000000 
Si 0.0000000000 2.7150000000 8.1450000000 
Si 2.7150000000 0.0000000000 8.1450000000 
Si 2.9086881000 2.7496759800 5.3696944200 
Si 1.3575000000 1.3575000000 6.7875000000 
Si 1.3575000000 4.0725000000 9.5025000000 
Si 4.0725000000 1.3575000000 9.5025000000 
Si 3.5272194000 4.4096704200 6.6905745000 
Si 5.6711354400 10.9019196000 5.2299805200 
Si 5.2700865000 3.0973588800 8.1433710000 
Si 8.1450000000 0.0000000000 8.1450000000 
Si 8.5170636000 2.5226911200 6.2300996400 
Si 6.8367175200 1.5103870800 7.0304490600 
Si 6.7552675200 4.4234952000 9.5601014400 
Si 9.5025000000 1.3575000000 9.5025000000 
Si 9.6959274600 4.4679451800 6.6616760400 
Si 0.0000000000 5.4300000000 0.0000000000 
Si 0.0000000000 8.1450000000 2.7150000000 
Si 2.6445294600 5.5071385800 2.6644358400 
Si 2.7150000000 8.1450000000 0.0000000000 
Si 1.3575000000 6.7875000000 1.3575000000 
Si 1.3575000000 9.5025000000 4.0725000000 
Si 3.9115765200 6.8801249400 4.0487926200 
Si 4.0725000000 9.5025000000 1.3575000000 
Si 5.5228747200 5.7183873000 -0.0562665288 
Si 5.2810876800 8.2833889800 2.7762612600 
Si 7.9455126600 5.4516114000 3.0327201600 
Si 8.1450000000 8.1450000000 0.0000000000 
Si 6.6511852800 6.9186236400 1.5494396400 
Si 7.0598579400 9.2678479800 3.7958089200 
Si 9.8083284600 6.5566924200 4.1007142800 
Si 9.5025000000 9.5025000000 1.3575000000 
Si 0.3505760040 5.5039674600 5.3585955000 
Si 0.0000000000 8.1450000000 8.1450000000 
Si 2.4603981600 5.8000870800 8.3041315800 
Si 2.9309945400 8.7822322200 5.5016760000 
Si 1.5284472600 7.0426882800 6.4120915200 
Si 1.3575000000 9.5025000000 9.5025000000 
Si 4.2897325800 7.1806102800 9.3926402400 
Si 4.6053024600 9.4746223800 6.8188636800 
Si 9.5025000000 9.5025000000 6.7875000000 
Si 5.8511725200 8.0673835800 7.8763779000 
Si 8.2427834400 5.5785973800 8.0960648400 
Si 8.1258429600 7.9469353200 5.2602799200 
Si 9.5025000000 6.7875000000 9.5025000000 
Si 6.7875000000 9.5025000000 9.5025000000 

