&CONTROL
  dt          = 30.D0,
  prefix = 'R1-T3000-2-89',
  pseudo_dir = './',
  outdir='./',
 wf_collect=.true.,
 verbosity ="high",
/

&SYSTEM
    ibrav= 0, nat=  61, ntyp= 1,
  ecutwfc     = 42.D0,
  nbnd=244,
  degauss     = 0.05D0,
  occupations = "smearing",
  smearing    = "methfessel-paxton",
/
&ELECTRONS
  electron_maxstep=200,
  conv_thr    = 1.D-8,
  mixing_beta = 0.3D0,
  scf_must_converge=.false.,
/
&IONS
/
ATOMIC_SPECIES
Si  28.08  Si.pbe-hgh.UPF

K_POINTS {automatic}
4 4 4 0 0 0
CELL_PARAMETERS angstrom
10.86000000000000 0.00000000000000 0.00000000000000
0.00000000000000 10.86000000000000 0.00000000000000
0.00000000000000 0.00000000000000 10.86000000000000

ATOMIC_POSITIONS angstrom
Si 0.0000000000 0.0000000000 0.0000000000 
Si 0.0000000000 2.7150000000 2.7150000000 
Si 2.7150000000 0.0000000000 2.7150000000 
Si 2.7150000000 2.7150000000 0.0000000000 
Si 1.3575000000 1.3575000000 1.3575000000 
Si 1.4275470000 4.3757546400 4.1012029800 
Si 3.9022803600 1.6670317200 3.8771829000 
Si 4.3081945800 3.4050335400 2.0288977800 
Si 5.4300000000 0.0000000000 0.0000000000 
Si 6.6409225800 3.2661884400 2.7847429200 
Si 8.1450000000 0.0000000000 2.7150000000 
Si 8.1450000000 2.7150000000 0.0000000000 
Si 6.7875000000 1.3575000000 1.3575000000 
Si 9.5025000000 4.0725000000 1.3575000000 
Si 9.5025000000 1.3575000000 4.0725000000 
Si 0.0000000000 0.0000000000 5.4300000000 
Si 0.0000000000 2.7150000000 8.1450000000 
Si 2.7150000000 0.0000000000 8.1450000000 
Si 2.6276964600 2.9446672800 5.5251444600 
Si 1.3575000000 1.3575000000 6.7875000000 
Si 1.3575000000 4.0725000000 9.5025000000 
Si 4.0725000000 1.3575000000 9.5025000000 
Si 9.3088336200 3.7793886000 6.6951357000 
Si 5.1435349200 0.4535950500 5.2044921000 
Si 5.4271981200 2.3424368400 7.8712737000 
Si 8.1450000000 0.0000000000 8.1450000000 
Si 8.0706524400 2.9075586600 4.8375870000 
Si 6.9992808600 1.3517985000 6.5926716000 
Si 6.8678531400 3.8882926800 9.2504828400 
Si 9.5025000000 1.3575000000 9.5025000000 
Si 0.0000000000 5.4300000000 0.0000000000 
Si 0.0000000000 8.1450000000 2.7150000000 
Si 2.4886558800 4.6022290800 1.9638898200 
Si 2.7150000000 8.1450000000 0.0000000000 
Si 1.3575000000 6.7875000000 1.3575000000 
Si 1.3575000000 9.5025000000 4.0725000000 
Si 4.7441692800 6.7596441000 4.7664974400 
Si 4.0725000000 9.5025000000 1.3575000000 
Si 5.1394298400 4.9147255800 0.1479946500 
Si 5.3814775200 8.1144399600 2.8357957800 
Si 7.7950147800 5.4675321600 2.7802794600 
Si 8.1450000000 8.1450000000 0.0000000000 
Si 6.6579619200 6.6491979000 1.2817949400 
Si 6.5604825600 10.0231175400 4.0022358000 
Si 9.3174456000 6.9945567600 4.2837052800 
Si 9.5025000000 9.5025000000 1.3575000000 
Si 10.5613934400 5.4997429200 5.8281167400 
Si 0.0000000000 8.1450000000 8.1450000000 
Si 3.1379427000 5.3097037800 8.2565322000 
Si 2.7635333400 8.1654276600 5.4292506600 
Si 1.6078881600 6.4881115200 6.8220999600 
Si 1.3575000000 9.5025000000 9.5025000000 
Si 4.3216066800 6.6912043800 9.6983492400 
Si 4.5164350800 9.7394760600 6.7421052000 
Si 6.6095154600 6.4693020000 6.0953922000 
Si 5.5066173000 7.9580016600 7.8616951800 
Si 8.2745272200 5.3132767200 8.0209245000 
Si 7.8583394400 8.5248936600 5.4816067200 
Si 9.5025000000 9.5025000000 6.7875000000 
Si 6.7875000000 9.5025000000 9.5025000000 
Si 9.5025000000 6.7875000000 9.5025000000 

