&CONTROL
  dt          = 30.D0,
  prefix = 'R1-T3000-2-363',
  pseudo_dir = './',
  outdir='./',
  wf_collect=.true.,
  verbosity ="high",
/

&SYSTEM
  ibrav= 0, nat=  61, ntyp= 1,
  ecutwfc     = 42.D0,
  nbnd=244,
  degauss     = 0.05D0,
  occupations = "smearing",
  smearing    = "methfessel-paxton",
/
&ELECTRONS
  electron_maxstep=200,
  conv_thr    = 1.D-8,
  mixing_beta = 0.3D0,
  scf_must_converge=.false.,
/
&IONS
/
ATOMIC_SPECIES
Si  28.08  Si.pbe-hgh.UPF

K_POINTS {automatic}
4 4 4 0 0 0

CELL_PARAMETERS angstrom
10.86000000000000 0.00000000000000 0.00000000000000
0.00000000000000 10.86000000000000 0.00000000000000
0.00000000000000 0.00000000000000 10.86000000000000

ATOMIC_POSITIONS angstrom
Si 0.0000000000 0.0000000000 0.0000000000 
Si 0.0000000000 2.7150000000 2.7150000000 
Si 2.7150000000 0.0000000000 2.7150000000 
Si 2.7150000000 2.7150000000 0.0000000000 
Si 1.3575000000 1.3575000000 1.3575000000 
Si 1.4129946000 4.1950225200 3.8572982400 
Si 4.0728040800 1.4668602000 4.0954689000 
Si 4.4470288200 4.1713585800 1.3174700400 
Si 5.4300000000 0.0000000000 0.0000000000 
Si 5.4318896400 2.7786070200 2.9323303200 
Si 8.1450000000 0.0000000000 2.7150000000 
Si 8.1450000000 2.7150000000 0.0000000000 
Si 6.7875000000 1.3575000000 1.3575000000 
Si 9.5025000000 4.0725000000 1.3575000000 
Si 9.5025000000 1.3575000000 4.0725000000 
Si 0.0000000000 0.0000000000 5.4300000000 
Si 0.0000000000 2.7150000000 8.1450000000 
Si 2.7150000000 0.0000000000 8.1450000000 
Si 2.4678264000 2.7895973400 5.4405559200 
Si 1.3575000000 1.3575000000 6.7875000000 
Si 1.3575000000 4.0725000000 9.5025000000 
Si 4.0725000000 1.3575000000 9.5025000000 
Si 9.7380099600 4.1514087600 6.8333509200 
Si 5.2505710800 10.6108390200 5.3396339400 
Si 5.6837439000 2.6011329000 7.6813323000 
Si 8.1450000000 0.0000000000 8.1450000000 
Si 8.5267941600 2.6092887600 5.5843423200 
Si 6.8683418400 1.1705776800 6.3376353600 
Si 6.9944807400 3.9556572600 9.0753762000 
Si 9.5025000000 1.3575000000 9.5025000000 
Si 0.0000000000 5.4300000000 0.0000000000 
Si 0.0000000000 8.1450000000 2.7150000000 
Si 2.9238921000 5.6133168000 2.7594717000 
Si 2.7150000000 8.1450000000 0.0000000000 
Si 1.3575000000 6.7875000000 1.3575000000 
Si 1.3575000000 9.5025000000 4.0725000000 
Si 3.8948847000 6.4095502800 4.8671479200 
Si 4.0725000000 9.5025000000 1.3575000000 
Si 5.8167463200 5.5545424800 10.4089299000 
Si 4.7351120400 7.6862953200 2.7598409400 
Si 7.2917949600 4.0350221400 3.9666150000 
Si 8.1450000000 8.1450000000 0.0000000000 
Si 6.5978301000 6.8682115200 1.5796847400 
Si 6.2724102000 9.4643488200 3.6256870200 
Si 8.1898083600 5.5577353200 2.6595162600 
Si 9.5025000000 9.5025000000 1.3575000000 
Si 10.9576314000 5.5205832600 5.4831488400 
Si 0.0000000000 8.1450000000 8.1450000000 
Si 3.3856158600 4.7588194200 6.5611233000 
Si 2.4186849000 8.0734000200 5.4695521200 
Si 1.5865917000 6.3873415800 7.3586382600 
Si 1.3575000000 9.5025000000 9.5025000000 
Si 4.6097659200 7.7362947600 9.3619390200 
Si 4.2965526600 9.1964543400 7.0596950400 
Si 8.5440072600 7.4339197800 6.2739740400 
Si 6.4666847400 8.5410207600 7.4707134600 
Si 8.0655699600 5.7557565600 7.9724563200 
Si 9.3673364400 6.8278449000 4.0227829200 
Si 9.5025000000 9.5025000000 6.7875000000 
Si 6.7875000000 9.5025000000 9.5025000000 
Si 9.5025000000 6.7875000000 9.5025000000 

