&CONTROL
  dt          = 30.D0,
  prefix = 'R1-T3000-208',
  pseudo_dir = './',
  outdir='./',
  wf_collect=.true.,
  verbosity ="high",
/

&SYSTEM
  ibrav= 0, nat=  61, ntyp= 1,
  ecutwfc     = 42.D0,
  nbnd=244,
  degauss     = 0.05D0,
  occupations = "smearing",
  smearing    = "methfessel-paxton",
/
&ELECTRONS
  electron_maxstep=200,
  conv_thr    = 1.D-8,
  mixing_beta = 0.3D0,
  scf_must_converge=.false.,
/
&IONS
/
ATOMIC_SPECIES
Si  28.08  Si.pbe-hgh.UPF

K_POINTS {automatic}
4 4 4 0 0 0

CELL_PARAMETERS angstrom
10.86000000000000 0.00000000000000 0.00000000000000
0.00000000000000 10.86000000000000 0.00000000000000
0.00000000000000 0.00000000000000 10.86000000000000

ATOMIC_POSITIONS angstrom
Si 0.0000000000 0.0000000000 0.0000000000 
Si 0.0000000000 2.7150000000 2.7150000000 
Si 2.7150000000 0.0000000000 2.7150000000 
Si 2.7150000000 2.7150000000 0.0000000000 
Si 1.3575000000 1.3575000000 1.3575000000 
Si 1.2108574200 4.2849650400 4.1815018200 
Si 3.8079504000 1.5200959200 4.2602042400 
Si 4.0927756200 4.1902224000 1.1395180800 
Si 5.4300000000 0.0000000000 0.0000000000 
Si 5.2093573800 2.6688232800 2.5955617200 
Si 8.1450000000 0.0000000000 2.7150000000 
Si 8.1450000000 2.7150000000 0.0000000000 
Si 6.7875000000 1.3575000000 1.3575000000 
Si 9.5025000000 4.0725000000 1.3575000000 
Si 9.5025000000 1.3575000000 4.0725000000 
Si 0.0000000000 0.0000000000 5.4300000000 
Si 0.0000000000 2.7150000000 8.1450000000 
Si 2.7150000000 0.0000000000 8.1450000000 
Si 2.2654503000 3.0182655000 5.5383393600 
Si 1.3575000000 1.3575000000 6.7875000000 
Si 1.3575000000 4.0725000000 9.5025000000 
Si 4.0725000000 1.3575000000 9.5025000000 
Si 3.7498276800 4.0013235600 7.2073584600 
Si 5.3555004000 0.3758222460 5.4154150200 
Si 5.4483642600 2.5847886000 8.2267106400 
Si 8.1450000000 0.0000000000 8.1450000000 
Si 8.2425771000 2.4636344400 5.5932909600 
Si 6.7401178200 1.4115502200 6.9454261200 
Si 6.9631822200 3.9496082400 9.4688665800 
Si 9.5025000000 1.3575000000 9.5025000000 
Si 9.4852760400 4.1427207600 6.7076898600 
Si 0.0000000000 5.4300000000 0.0000000000 
Si 0.0000000000 8.1450000000 2.7150000000 
Si 2.7079953000 5.5792055400 2.9234251200 
Si 2.7150000000 8.1450000000 0.0000000000 
Si 1.3575000000 6.7875000000 1.3575000000 
Si 1.3575000000 9.5025000000 4.0725000000 
Si 4.1915581800 6.7526285400 4.3324123800 
Si 4.0725000000 9.5025000000 1.3575000000 
Si 5.5926936600 5.3191194000 10.7995749600 
Si 5.6703861000 8.3962895400 2.8117408800 
Si 8.9763981600 6.2502123600 2.6399682600 
Si 8.1450000000 8.1450000000 0.0000000000 
Si 6.9609233400 6.7712100000 1.4188915800 
Si 6.8601859800 9.7265092200 4.5306073800 
Si 8.7144332400 6.2849535000 5.0464356600 
Si 9.5025000000 9.5025000000 1.3575000000 
Si 10.8617376000 5.5999047000 5.4339421800 
Si 0.0000000000 8.1450000000 8.1450000000 
Si 2.8231981800 5.6417048400 8.1546871200 
Si 2.8592208000 8.3685531000 5.3461390800 
Si 1.5560968200 7.1242143000 6.7799088600 
Si 1.3575000000 9.5025000000 9.5025000000 
Si 4.3252013400 6.8273562000 9.5508813000 
Si 4.2602368200 9.6034219800 6.7646505600 
Si 9.5025000000 9.5025000000 6.7875000000 
Si 5.7064195800 8.1415791000 7.6219172400 
Si 8.2733434800 5.3149383000 8.3062492800 
Si 7.5916830000 8.2082160600 6.1590209400 
Si 9.5025000000 6.7875000000 9.5025000000 
Si 6.7875000000 9.5025000000 9.5025000000 

