&CONTROL
  dt          = 30.D0,
  prefix = 'R1-T3000-4-13',
  pseudo_dir = './',
  outdir='./',
  wf_collect=.true.,
  verbosity ="high",
/

&SYSTEM
  ibrav= 0, nat=  61, ntyp= 1,
  ecutwfc     = 42.D0,
  nbnd=244,
  degauss     = 0.05D0,
  occupations = "smearing",
  smearing    = "methfessel-paxton",
/
&ELECTRONS
  electron_maxstep=200,
  conv_thr    = 1.D-8,
  mixing_beta = 0.3D0,
  scf_must_converge=.false.,
/
&IONS
/
ATOMIC_SPECIES
Si  28.08  Si.pbe-hgh.UPF

K_POINTS {automatic}
4 4 4 0 0 0

CELL_PARAMETERS angstrom
10.86000000000000 0.00000000000000 0.00000000000000
0.00000000000000 10.86000000000000 0.00000000000000
0.00000000000000 0.00000000000000 10.86000000000000

ATOMIC_POSITIONS angstrom
Si 0.0000000000 0.0000000000 0.0000000000 
Si 0.0000000000 2.7150000000 2.7150000000 
Si 2.7150000000 0.0000000000 2.7150000000 
Si 2.7150000000 2.7150000000 0.0000000000 
Si 1.3575000000 1.3575000000 1.3575000000 
Si 1.2154403400 3.8280414000 4.1599447200 
Si 4.1530920600 1.3603561800 4.0263341400 
Si 3.8985879600 4.0505953800 1.3865613600 
Si 5.4300000000 0.0000000000 0.0000000000 
Si 5.4564223800 2.8534541400 2.7079518600 
Si 8.1450000000 0.0000000000 2.7150000000 
Si 8.1450000000 2.7150000000 0.0000000000 
Si 6.7875000000 1.3575000000 1.3575000000 
Si 7.1176331400 3.9248040000 4.3479421800 
Si 9.5025000000 1.3575000000 4.0725000000 
Si 9.5025000000 4.0725000000 1.3575000000 
Si 0.0000000000 0.0000000000 5.4300000000 
Si 0.0000000000 2.7150000000 8.1450000000 
Si 2.7150000000 0.0000000000 8.1450000000 
Si 9.5773145400 4.0387905600 6.5777934000 
Si 1.3575000000 1.3575000000 6.7875000000 
Si 1.3575000000 4.0725000000 9.5025000000 
Si 4.0725000000 1.3575000000 9.5025000000 
Si 4.0002592800 4.2675347400 6.7225897800 
Si 5.4169245600 0.1318002180 5.3678699400 
Si 5.3169365400 2.9262921600 8.1703146600 
Si 8.1450000000 0.0000000000 8.1450000000 
Si 8.2980717000 2.5268287800 5.4249283800 
Si 6.7325266800 1.5957466800 6.6378057600 
Si 6.9025182600 4.0334040000 9.6654760200 
Si 9.5025000000 1.3575000000 9.5025000000 
Si 0.0000000000 5.4300000000 0.0000000000 
Si 0.0000000000 8.1450000000 2.7150000000 
Si 2.6334739800 5.3362130400 2.9851425000 
Si 2.7150000000 8.1450000000 0.0000000000 
Si 1.3575000000 6.7875000000 1.3575000000 
Si 1.3575000000 9.5025000000 4.0725000000 
Si 4.0322419800 6.7225354800 4.2160149000 
Si 4.0725000000 9.5025000000 1.3575000000 
Si 5.3855174400 5.2449890400 -0.0943059594 
Si 5.3895356400 7.8730004400 2.6840924400 
Si 8.2650030000 5.2766459400 2.8631847000 
Si 8.1450000000 8.1450000000 0.0000000000 
Si 6.6625774200 6.6695495400 1.3627453800 
Si 6.9343380600 9.4279569600 4.1364654000 
Si 9.4548463200 6.8148020400 4.0618897800 
Si 9.5025000000 9.5025000000 1.3575000000 
Si -0.0233419410 5.4585835200 5.3728981200 
Si 0.0000000000 8.1450000000 8.1450000000 
Si 2.9612505000 5.5233417000 8.1423610200 
Si 2.7725037000 8.2340194200 5.3287413600 
Si 1.2290044800 6.7752607800 6.7463297400 
Si 1.3575000000 9.5025000000 9.5025000000 
Si 4.1133879000 6.7333737600 9.6080266200 
Si 4.1381052600 9.5743932000 7.0313395800 
Si 9.5025000000 6.7875000000 9.5025000000 
Si 5.4055432800 7.9385079600 8.0990730600 
Si 8.3327151000 5.3239303800 8.0326207200 
Si 7.9914939000 8.2273079400 5.6308774200 
Si 9.5025000000 9.5025000000 6.7875000000 
Si 6.7875000000 9.5025000000 9.5025000000 

