&CONTROL
  dt          = 30.D0,
  prefix = 'R1-T3000-195',
  pseudo_dir = './',
  outdir='./',
  wf_collect=.true.,
  verbosity ="high",
/

&SYSTEM
  ibrav= 0, nat=  61, ntyp= 1,
  ecutwfc     = 42.D0,
  nbnd=244,
  degauss     = 0.05D0,
  occupations = "smearing",
  smearing    = "methfessel-paxton",
/
&ELECTRONS
  electron_maxstep=200,
  conv_thr    = 1.D-8,
  mixing_beta = 0.3D0,
  scf_must_converge=.false.,
/
&IONS
/
ATOMIC_SPECIES
Si  28.08  Si.pbe-hgh.UPF

K_POINTS {automatic}
4 4 4 0 0 0

CELL_PARAMETERS angstrom
10.86000000000000 0.00000000000000 0.00000000000000
0.00000000000000 10.86000000000000 0.00000000000000
0.00000000000000 0.00000000000000 10.86000000000000

ATOMIC_POSITIONS angstrom
Si 0.0000000000 0.0000000000 0.0000000000 
Si 0.0000000000 2.7150000000 2.7150000000 
Si 2.7150000000 0.0000000000 2.7150000000 
Si 2.7150000000 2.7150000000 0.0000000000 
Si 1.3575000000 1.3575000000 1.3575000000 
Si 1.2866493600 3.8657907600 4.3569994200 
Si 4.4475175200 1.7129478000 3.8626630800 
Si 4.5393388200 4.2852908400 0.9911628780 
Si 5.4300000000 0.0000000000 0.0000000000 
Si 6.0531468000 3.0188628000 2.6184980400 
Si 8.1450000000 0.0000000000 2.7150000000 
Si 8.1450000000 2.7150000000 0.0000000000 
Si 6.7875000000 1.3575000000 1.3575000000 
Si 9.5025000000 4.0725000000 1.3575000000 
Si 9.5025000000 1.3575000000 4.0725000000 
Si 0.0000000000 0.0000000000 5.4300000000 
Si 0.0000000000 2.7150000000 8.1450000000 
Si 2.7150000000 0.0000000000 8.1450000000 
Si 2.7580381800 2.7270546000 5.3746900200 
Si 1.3575000000 1.3575000000 6.7875000000 
Si 1.3575000000 4.0725000000 9.5025000000 
Si 4.0725000000 1.3575000000 9.5025000000 
Si 4.3565758800 4.2598675800 6.5930299800 
Si 5.6328539400 0.0672734646 5.3281657800 
Si 5.5847658600 2.9442328800 8.2584109800 
Si 8.1450000000 0.0000000000 8.1450000000 
Si 7.9664507400 2.8987512000 5.3605720200 
Si 6.8405511000 1.4288284800 6.9810360600 
Si 7.1073487200 4.2665247600 9.5141527800 
Si 9.5025000000 1.3575000000 9.5025000000 
Si 9.2677285200 3.8661057000 6.9006612000 
Si 0.0000000000 5.4300000000 0.0000000000 
Si 0.0000000000 8.1450000000 2.7150000000 
Si 2.6516427600 5.3268625800 2.8042909200 
Si 2.7150000000 8.1450000000 0.0000000000 
Si 1.3575000000 6.7875000000 1.3575000000 
Si 1.3575000000 9.5025000000 4.0725000000 
Si 3.7212767400 6.8802987000 3.9328186800 
Si 4.0725000000 9.5025000000 1.3575000000 
Si 5.9501831400 5.8419306600 10.7641387800 
Si 5.4498412200 7.9950234000 2.6897287800 
Si 9.2335086600 6.0492046200 2.8169102400 
Si 8.1450000000 8.1450000000 0.0000000000 
Si 7.3026332400 6.7795396200 1.7414010000 
Si 6.8855332200 9.4563450000 3.8320487400 
Si 8.8358589000 6.4827141000 5.0957292000 
Si 9.5025000000 9.5025000000 1.3575000000 
Si 10.6908337800 5.2592373600 5.4839524800 
Si 0.0000000000 8.1450000000 8.1450000000 
Si 2.9857941000 5.3973548400 7.9773107400 
Si 2.8633150200 8.0128338000 5.5470708000 
Si 1.4248428600 6.8540175000 6.7606975200 
Si 1.3575000000 9.5025000000 9.5025000000 
Si 4.4574761400 7.0006709400 9.2858321400 
Si 4.2363556800 9.3588004800 6.7156719600 
Si 9.5025000000 9.5025000000 6.7875000000 
Si 6.0694042200 8.3945953800 7.5001657800 
Si 8.2976916000 5.4622976400 8.0798074200 
Si 7.5828321000 8.3187382800 5.8365223800 
Si 9.5025000000 6.7875000000 9.5025000000 
Si 6.7875000000 9.5025000000 9.5025000000 

