&CONTROL
  dt          = 30.D0,
  prefix = 'R1-T3000-3-327',
  pseudo_dir = './',
  outdir='./',
  wf_collect=.true.,
  verbosity ="high",
/

&SYSTEM
  ibrav= 0, nat=  61, ntyp= 1,
  ecutwfc     = 42.D0,
  nbnd=244,
  degauss     = 0.05D0,
  occupations = "smearing",
  smearing    = "methfessel-paxton",
/
&ELECTRONS
  electron_maxstep=200,
  conv_thr    = 1.D-8,
  mixing_beta = 0.3D0,
  scf_must_converge=.false.,
/
&IONS
/
ATOMIC_SPECIES
Si  28.08  Si.pbe-hgh.UPF

K_POINTS {automatic}
4 4 4 0 0 0

CELL_PARAMETERS angstrom
10.86000000000000 0.00000000000000 0.00000000000000
0.00000000000000 10.86000000000000 0.00000000000000
0.00000000000000 0.00000000000000 10.86000000000000

ATOMIC_POSITIONS angstrom
Si 0.0000000000 0.0000000000 0.0000000000 
Si 0.0000000000 2.7150000000 2.7150000000 
Si 2.7150000000 0.0000000000 2.7150000000 
Si 2.7150000000 2.7150000000 0.0000000000 
Si 1.3575000000 1.3575000000 1.3575000000 
Si 2.9816347200 3.0535279200 5.5880021400 
Si 4.0538751000 1.2813171000 4.3425013200 
Si 3.9657136200 3.9451773600 1.4404812600 
Si 5.4300000000 0.0000000000 0.0000000000 
Si 5.2551431400 2.7040314000 2.8690491000 
Si 8.1450000000 0.0000000000 2.7150000000 
Si 8.1450000000 2.7150000000 0.0000000000 
Si 6.7875000000 1.3575000000 1.3575000000 
Si 9.5025000000 4.0725000000 1.3575000000 
Si 9.5025000000 1.3575000000 4.0725000000 
Si 0.0000000000 0.0000000000 5.4300000000 
Si 0.0000000000 2.7150000000 8.1450000000 
Si 2.7150000000 0.0000000000 8.1450000000 
Si 8.7673974600 3.8026833000 6.8319174000 
Si 1.3575000000 1.3575000000 6.7875000000 
Si 1.3575000000 4.0725000000 9.5025000000 
Si 4.0725000000 1.3575000000 9.5025000000 
Si 4.2948042000 4.6831578000 6.5338755600 
Si 5.5997961000 10.6599913800 5.4316724400 
Si 5.5007420400 2.9136945600 8.0876700600 
Si 8.1450000000 0.0000000000 8.1450000000 
Si 7.8074820600 3.1991279400 4.6702778400 
Si 6.7352634000 1.5352130400 6.6306924600 
Si 7.3138516200 4.1641909800 9.0946527000 
Si 9.5025000000 1.3575000000 9.5025000000 
Si 0.0000000000 5.4300000000 0.0000000000 
Si 0.0000000000 8.1450000000 2.7150000000 
Si 1.4914472400 3.9828832800 3.8550393600 
Si 2.7150000000 8.1450000000 0.0000000000 
Si 1.3575000000 6.7875000000 1.3575000000 
Si 1.3575000000 9.5025000000 4.0725000000 
Si 4.0233802200 6.4920754200 4.7165523000 
Si 4.0725000000 9.5025000000 1.3575000000 
Si 4.9450249800 5.3849744400 10.8581538000 
Si 5.3995702800 7.8510849600 2.7560725200 
Si 8.1703906800 5.3680437000 2.9100130200 
Si 8.1450000000 8.1450000000 0.0000000000 
Si 6.6742084800 6.3690859200 1.5004501800 
Si 6.8516065800 9.2479633200 4.0170597000 
Si 9.6715467600 6.7827759000 4.1276253600 
Si 9.5025000000 9.5025000000 1.3575000000 
Si 0.0483324300 5.1877242600 5.4074003400 
Si 0.0000000000 8.1450000000 8.1450000000 
Si 2.7548670600 5.2573803000 8.1081303000 
Si 2.7163140600 8.4436391400 5.8384120200 
Si 1.5136233600 6.4367328600 6.8345238000 
Si 1.3575000000 9.5025000000 9.5025000000 
Si 3.9171802800 6.7983600000 9.6181047000 
Si 4.3821729000 9.4294990800 7.1444899200 
Si 2.8564080600 5.4391332600 2.7962979600 
Si 5.5090499400 7.7759989200 8.2169909400 
Si 7.6655310000 6.5148705600 7.7303000400 
Si 8.2052187000 8.0504745600 5.6312683800 
Si 9.5025000000 9.5025000000 6.7875000000 
Si 6.7875000000 9.5025000000 9.5025000000 
Si 9.5025000000 6.7875000000 9.5025000000 

