&CONTROL
  dt          = 30.D0,
  prefix = 'R1-T3000-4-16',
  pseudo_dir = './',
  outdir='./',
  wf_collect=.true.,
  verbosity ="high",
/

&SYSTEM
  ibrav= 0, nat=  61, ntyp= 1,
  ecutwfc     = 42.D0,
  nbnd=244,
  degauss     = 0.05D0,
  occupations = "smearing",
  smearing    = "methfessel-paxton",
/
&ELECTRONS
  electron_maxstep=200,
  conv_thr    = 1.D-8,
  mixing_beta = 0.3D0,
  scf_must_converge=.false.,
/
&IONS
/
ATOMIC_SPECIES
Si  28.08  Si.pbe-hgh.UPF

K_POINTS {automatic}
4 4 4 0 0 0

CELL_PARAMETERS angstrom
10.86000000000000 0.00000000000000 0.00000000000000
0.00000000000000 10.86000000000000 0.00000000000000
0.00000000000000 0.00000000000000 10.86000000000000

ATOMIC_POSITIONS angstrom
Si 0.0000000000 0.0000000000 0.0000000000 
Si 0.0000000000 2.7150000000 2.7150000000 
Si 2.7150000000 0.0000000000 2.7150000000 
Si 2.7150000000 2.7150000000 0.0000000000 
Si 1.3575000000 1.3575000000 1.3575000000 
Si 1.3349112000 4.1014527600 4.2863008200 
Si 4.1685458400 1.3689247200 3.9829593000 
Si 3.9485874000 4.1888757600 1.4240175000 
Si 5.4300000000 0.0000000000 0.0000000000 
Si 5.4909028800 2.8148685600 2.7456252000 
Si 8.1450000000 0.0000000000 2.7150000000 
Si 8.1450000000 2.7150000000 0.0000000000 
Si 6.7875000000 1.3575000000 1.3575000000 
Si 7.0528749600 3.8344162200 4.1707178400 
Si 9.5025000000 1.3575000000 4.0725000000 
Si 9.5025000000 4.0725000000 1.3575000000 
Si 0.0000000000 0.0000000000 5.4300000000 
Si 0.0000000000 2.7150000000 8.1450000000 
Si 2.7150000000 0.0000000000 8.1450000000 
Si 9.6739142400 4.0614662400 6.7376743200 
Si 1.3575000000 1.3575000000 6.7875000000 
Si 1.3575000000 4.0725000000 9.5025000000 
Si 4.0725000000 1.3575000000 9.5025000000 
Si 3.9752161200 4.3887540600 6.6002844600 
Si 5.5279572000 -0.0766959264 5.5057810800 
Si 5.2793500800 2.8957755600 7.8843165600 
Si 8.1450000000 0.0000000000 8.1450000000 
Si 8.3421958800 2.3836179600 5.7812992800 
Si 6.6032818200 1.3115622000 6.9897240600 
Si 6.6682029000 4.0882252800 9.2443578000 
Si 9.5025000000 1.3575000000 9.5025000000 
Si 0.0000000000 5.4300000000 0.0000000000 
Si 0.0000000000 8.1450000000 2.7150000000 
Si 2.5880466000 5.4164467200 2.8594923000 
Si 2.7150000000 8.1450000000 0.0000000000 
Si 1.3575000000 6.7875000000 1.3575000000 
Si 1.3575000000 9.5025000000 4.0725000000 
Si 4.1644733400 6.5983405200 4.3771230000 
Si 4.0725000000 9.5025000000 1.3575000000 
Si 5.2549585200 5.4206929800 0.0384794778 
Si 5.3784258600 7.8556461600 2.8634127600 
Si 8.0852917200 5.4817044600 2.7024784200 
Si 8.1450000000 8.1450000000 0.0000000000 
Si 6.8106318000 6.6676381800 1.2060573000 
Si 6.6812131800 9.4695073200 4.0259757600 
Si 9.2743531200 7.1633428800 4.0243033200 
Si 9.5025000000 9.5025000000 1.3575000000 
Si -0.0737249562 5.6394676800 5.1804046200 
Si 0.0000000000 8.1450000000 8.1450000000 
Si 2.4023949000 5.5445730000 8.1926645400 
Si 2.8306372800 8.2978110600 5.5923461400 
Si 1.5298482000 6.9082197600 6.6228624000 
Si 1.3575000000 9.5025000000 9.5025000000 
Si 4.0692854400 6.8881070400 9.4730476800 
Si 4.2356715000 9.5604272400 6.7705692600 
Si 9.5025000000 6.7875000000 9.5025000000 
Si 5.5082897400 8.2965838800 8.3862766200 
Si 8.2086396000 5.2852253400 8.1872019600 
Si 8.0841405600 8.1661770000 5.5145342400 
Si 9.5025000000 9.5025000000 6.7875000000 
Si 6.7875000000 9.5025000000 9.5025000000 

