&CONTROL
  dt          = 30.D0,
  prefix = 'R1-T3000-253',
  pseudo_dir = './',
  outdir='./',
  wf_collect=.true.,
  verbosity ="high",
/

&SYSTEM
  ibrav= 0, nat=  61, ntyp= 1,
  ecutwfc     = 42.D0,
  nbnd=244,
  degauss     = 0.05D0,
  occupations = "smearing",
  smearing    = "methfessel-paxton",
/
&ELECTRONS
  electron_maxstep=200,
  conv_thr    = 1.D-8,
  mixing_beta = 0.3D0,
  scf_must_converge=.false.,
/
&IONS
/
ATOMIC_SPECIES
Si  28.08  Si.pbe-hgh.UPF

K_POINTS {automatic}
4 4 4 0 0 0

CELL_PARAMETERS angstrom
10.86000000000000 0.00000000000000 0.00000000000000
0.00000000000000 10.86000000000000 0.00000000000000
0.00000000000000 0.00000000000000 10.86000000000000

ATOMIC_POSITIONS angstrom
Si 0.0000000000 0.0000000000 0.0000000000 
Si 0.0000000000 2.7150000000 2.7150000000 
Si 2.7150000000 0.0000000000 2.7150000000 
Si 2.7150000000 2.7150000000 0.0000000000 
Si 1.3575000000 1.3575000000 1.3575000000 
Si 1.3842590400 4.2534276000 3.7410202200 
Si 4.1110855800 1.4728766400 4.2941634600 
Si 4.6164122400 3.7858611600 1.2996922200 
Si 5.4300000000 0.0000000000 0.0000000000 
Si 5.5906519800 2.8257285600 3.1506380400 
Si 8.1450000000 0.0000000000 2.7150000000 
Si 8.1450000000 2.7150000000 0.0000000000 
Si 6.7875000000 1.3575000000 1.3575000000 
Si 9.5025000000 4.0725000000 1.3575000000 
Si 9.5025000000 1.3575000000 4.0725000000 
Si 0.0000000000 0.0000000000 5.4300000000 
Si 0.0000000000 2.7150000000 8.1450000000 
Si 2.7150000000 0.0000000000 8.1450000000 
Si 2.5476691200 2.8631738400 5.3530786200 
Si 1.3575000000 1.3575000000 6.7875000000 
Si 1.3575000000 4.0725000000 9.5025000000 
Si 4.0725000000 1.3575000000 9.5025000000 
Si 4.6546394400 4.1132793000 6.3264495600 
Si 5.7535628400 -0.1860774120 5.2143855600 
Si 5.2372893000 2.9320696800 7.9644633600 
Si 8.1450000000 0.0000000000 8.1450000000 
Si 7.0695993600 3.5144046000 5.1893749800 
Si 6.9652456200 1.3806969600 6.8047022400 
Si 6.6585809400 4.2444463800 9.3809005800 
Si 9.5025000000 1.3575000000 9.5025000000 
Si 9.2415993600 3.9560590800 6.1933602600 
Si 0.0000000000 5.4300000000 0.0000000000 
Si 0.0000000000 8.1450000000 2.7150000000 
Si 3.2664056400 5.3394819000 2.6324640000 
Si 2.7150000000 8.1450000000 0.0000000000 
Si 1.3575000000 6.7875000000 1.3575000000 
Si 1.3575000000 9.5025000000 4.0725000000 
Si 4.6796283000 6.9652239000 4.1374645200 
Si 4.0725000000 9.5025000000 1.3575000000 
Si 5.5596358200 5.3118214800 10.8990960000 
Si 5.7395751600 8.3452909800 2.5351366800 
Si 9.1757877600 6.0223478400 2.3864198400 
Si 8.1450000000 8.1450000000 0.0000000000 
Si 7.0738890600 6.5226137400 1.3471504200 
Si 7.3430976000 9.3339528000 4.4572046400 
Si 8.5680404400 5.7853500600 4.8154326000 
Si 9.5025000000 9.5025000000 1.3575000000 
Si 0.0504637050 5.5099078800 5.5886646000 
Si 0.0000000000 8.1450000000 8.1450000000 
Si 3.1107384000 5.4577147200 7.9913527200 
Si 2.8756737000 8.2892425200 5.2681099800 
Si 1.3945977600 7.0726944600 6.7065930000 
Si 1.3575000000 9.5025000000 9.5025000000 
Si 4.2628540800 6.9390730200 9.4574310000 
Si 4.4463555000 9.3891216000 6.7923652800 
Si 9.5025000000 9.5025000000 6.7875000000 
Si 5.8356753000 8.0819468400 8.0005185600 
Si 8.7372392400 4.5443018400 8.2817382600 
Si 7.6568212800 7.8050385600 6.0339246000 
Si 9.5025000000 6.7875000000 9.5025000000 
Si 6.7875000000 9.5025000000 9.5025000000 

