&CONTROL
  dt          = 30.D0,
  prefix = 'R1-T1200-90',
  pseudo_dir = './',
  outdir='./',
  wf_collect=.true.,
  verbosity ="high",
/

&SYSTEM
  ibrav= 0, nat=  61, ntyp= 1,
  ecutwfc     = 42.D0,
  nbnd=244,
  degauss     = 0.05D0,
  occupations = "smearing",
  smearing    = "methfessel-paxton",
/
&ELECTRONS
  electron_maxstep=200,
  conv_thr    = 1.D-8,
  mixing_beta = 0.3D0,
  scf_must_converge=.false.,
/
&IONS
/
ATOMIC_SPECIES
Si  28.08  Si.pbe-hgh.UPF

K_POINTS {automatic}
4 4 4 0 0 0

CELL_PARAMETERS angstrom
10.86000000000000 0.00000000000000 0.00000000000000
0.00000000000000 10.86000000000000 0.00000000000000
0.00000000000000 0.00000000000000 10.86000000000000

ATOMIC_POSITIONS angstrom
Si 0.0000000000 0.0000000000 0.0000000000 
Si 0.0000000000 2.7150000000 2.7150000000 
Si 2.7150000000 0.0000000000 2.7150000000 
Si 2.7150000000 2.7150000000 0.0000000000 
Si 1.3575000000 1.3575000000 1.3575000000 
Si 1.4560979400 3.9423103200 4.1882024400 
Si 4.1296127400 1.3595091000 4.0725434400 
Si 4.2672306600 3.8932014000 1.3553605800 
Si 5.4300000000 0.0000000000 0.0000000000 
Si 5.6847213000 2.7242527200 2.7520869000 
Si 8.1450000000 0.0000000000 2.7150000000 
Si 8.1450000000 2.7150000000 0.0000000000 
Si 6.7875000000 1.3575000000 1.3575000000 
Si 9.5025000000 4.0725000000 1.3575000000 
Si 9.5025000000 1.3575000000 4.0725000000 
Si 0.0000000000 0.0000000000 5.4300000000 
Si 0.0000000000 2.7150000000 8.1450000000 
Si 2.7150000000 0.0000000000 8.1450000000 
Si 2.8573203000 2.7122741400 5.5375248600 
Si 1.3575000000 1.3575000000 6.7875000000 
Si 1.3575000000 4.0725000000 9.5025000000 
Si 4.0725000000 1.3575000000 9.5025000000 
Si 4.2624957000 4.2145596600 6.8021827200 
Si 5.4006671400 0.0194474364 5.4384816600 
Si 5.4978424200 2.7285424200 8.0457504600 
Si 8.1450000000 0.0000000000 8.1450000000 
Si 8.2229639400 2.6121449400 5.5073666400 
Si 6.7901824200 1.3205325600 6.8650729800 
Si 6.6826684200 4.1585980800 9.4617750000 
Si 9.5025000000 1.3575000000 9.5025000000 
Si 9.5321695200 4.1451208200 6.9608581800 
Si 0.0000000000 5.4300000000 0.0000000000 
Si 0.0000000000 8.1450000000 2.7150000000 
Si 2.8053660600 5.2015056000 2.6107440000 
Si 2.7150000000 8.1450000000 0.0000000000 
Si 1.3575000000 6.7875000000 1.3575000000 
Si 1.3575000000 9.5025000000 4.0725000000 
Si 3.7867191000 6.6784873200 3.9381726600 
Si 4.0725000000 9.5025000000 1.3575000000 
Si 5.3978978400 5.3556850200 0.0459016362 
Si 5.3102576400 8.0248884000 2.8361650200 
Si 8.2729199400 5.4549888600 2.7147936600 
Si 8.1450000000 8.1450000000 0.0000000000 
Si 6.8520192600 6.8314178400 1.4373644400 
Si 6.9552761400 9.3469848000 4.1666670600 
Si 9.7509442200 6.6885111000 4.0312754400 
Si 9.5025000000 9.5025000000 1.3575000000 
Si 0.1461625680 5.3720076000 5.6193332400 
Si 0.0000000000 8.1450000000 8.1450000000 
Si 2.8219167000 5.3397859800 8.2117238400 
Si 2.7662809200 8.1626475000 5.3806087200 
Si 1.5588987000 6.8387592000 6.8917451400 
Si 1.3575000000 9.5025000000 9.5025000000 
Si 4.0346094600 6.9050377800 9.6342861000 
Si 4.0446441000 9.5152930800 6.8714912400 
Si 9.5025000000 9.5025000000 6.7875000000 
Si 5.3908171200 8.1260058600 8.1830208600 
Si 8.2639061400 5.5339302000 8.2368538800 
Si 8.1625823400 7.9338273000 5.5535868000 
Si 9.5025000000 6.7875000000 9.5025000000 
Si 6.7875000000 9.5025000000 9.5025000000 

