&CONTROL
  dt          = 30.D0,
  prefix = 'R1-T3000-2-430',
  pseudo_dir = './',
  outdir='./',
 wf_collect=.true.,
 verbosity ="high",
/

&SYSTEM
    ibrav= 0, nat=  61, ntyp= 1,
  ecutwfc     = 42.D0,
  nbnd=244,
  degauss     = 0.05D0,
  occupations = "smearing",
  smearing    = "methfessel-paxton",
/
&ELECTRONS
  electron_maxstep=200,
  conv_thr    = 1.D-8,
  mixing_beta = 0.3D0,
  scf_must_converge=.false.,
/
&IONS
/
ATOMIC_SPECIES
Si  28.08  Si.pbe-hgh.UPF

K_POINTS {automatic}
4 4 4 0 0 0
CELL_PARAMETERS angstrom
10.86000000000000 0.00000000000000 0.00000000000000
0.00000000000000 10.86000000000000 0.00000000000000
0.00000000000000 0.00000000000000 10.86000000000000

ATOMIC_POSITIONS angstrom
Si 0.0000000000 0.0000000000 0.0000000000 
Si 0.0000000000 2.7150000000 2.7150000000 
Si 2.7150000000 0.0000000000 2.7150000000 
Si 2.7150000000 2.7150000000 0.0000000000 
Si 1.3575000000 1.3575000000 1.3575000000 
Si 1.6859824200 4.3516020000 3.7428555600 
Si 3.9346648800 1.3881577800 4.1282878200 
Si 4.2185344200 4.1930785800 0.9178024920 
Si 5.4300000000 0.0000000000 0.0000000000 
Si 5.1438933000 2.7448867200 2.5057929600 
Si 8.1450000000 0.0000000000 2.7150000000 
Si 8.1450000000 2.7150000000 0.0000000000 
Si 6.7875000000 1.3575000000 1.3575000000 
Si 9.5025000000 4.0725000000 1.3575000000 
Si 9.5025000000 1.3575000000 4.0725000000 
Si 0.0000000000 0.0000000000 5.4300000000 
Si 0.0000000000 2.7150000000 8.1450000000 
Si 2.7150000000 0.0000000000 8.1450000000 
Si 2.5813134000 3.0723157200 5.2283189400 
Si 1.3575000000 1.3575000000 6.7875000000 
Si 1.3575000000 4.0725000000 9.5025000000 
Si 4.0725000000 1.3575000000 9.5025000000 
Si 9.4521856200 4.0165384200 6.7630650000 
Si 5.1605634000 10.5073975200 5.8324064400 
Si 5.4304126800 2.6378071200 8.1343354800 
Si 8.1450000000 0.0000000000 8.1450000000 
Si 8.0279400600 2.5487225400 5.2988220600 
Si 6.6771189600 1.2687846600 6.6918016800 
Si 6.8685481800 4.2037213800 9.3464092200 
Si 9.5025000000 1.3575000000 9.5025000000 
Si 0.0000000000 5.4300000000 0.0000000000 
Si 0.0000000000 8.1450000000 2.7150000000 
Si 3.1407120000 5.9106310200 2.3883094800 
Si 2.7150000000 8.1450000000 0.0000000000 
Si 1.3575000000 6.7875000000 1.3575000000 
Si 1.3575000000 9.5025000000 4.0725000000 
Si 4.1398320000 6.4762198200 4.7784000000 
Si 4.0725000000 9.5025000000 1.3575000000 
Si 5.4302497800 5.7363931800 10.4263493400 
Si 5.1997028400 7.8228381000 2.9032255200 
Si 6.8921469600 3.9318955800 3.7066157400 
Si 8.1450000000 8.1450000000 0.0000000000 
Si 6.6983176800 6.8404533600 1.3978449000 
Si 6.4452796800 9.4350376800 3.9880309200 
Si 8.4260676600 5.3979087000 2.7562680000 
Si 9.5025000000 9.5025000000 1.3575000000 
Si 10.5970902600 5.1662431800 5.2113664800 
Si 0.0000000000 8.1450000000 8.1450000000 
Si 2.9680271400 5.1674269200 6.5819853600 
Si 2.6471575800 8.0815124400 5.5991336400 
Si 1.2143434800 6.6995883000 6.8238049800 
Si 1.3575000000 9.5025000000 9.5025000000 
Si 4.8098722800 8.0595535200 9.6594161400 
Si 3.9781266000 9.0226834800 7.2303708000 
Si 8.0022453000 8.2902850800 5.2723453800 
Si 5.9030290200 7.7218292400 6.3019819800 
Si 8.1637552200 5.6027391600 7.9974560400 
Si 9.5678337600 6.9590337000 4.1201645400 
Si 9.5025000000 9.5025000000 6.7875000000 
Si 6.7875000000 9.5025000000 9.5025000000 
Si 9.5025000000 6.7875000000 9.5025000000 

