&CONTROL
  dt          = 30.D0,
  prefix = 'R1-T3000-2-237',
  pseudo_dir = './',
  outdir='./',
  wf_collect=.true.,
  verbosity ="high",
/

&SYSTEM
  ibrav= 0, nat=  61, ntyp= 1,
  ecutwfc     = 42.D0,
  nbnd=244,
  degauss     = 0.05D0,
  occupations = "smearing",
  smearing    = "methfessel-paxton",
/
&ELECTRONS
  electron_maxstep=200,
  conv_thr    = 1.D-8,
  mixing_beta = 0.3D0,
  scf_must_converge=.false.,
/
&IONS
/
ATOMIC_SPECIES
Si  28.08  Si.pbe-hgh.UPF

K_POINTS {automatic}
4 4 4 0 0 0

CELL_PARAMETERS angstrom
10.86000000000000 0.00000000000000 0.00000000000000
0.00000000000000 10.86000000000000 0.00000000000000
0.00000000000000 0.00000000000000 10.86000000000000

ATOMIC_POSITIONS angstrom
Si 0.0000000000 0.0000000000 0.0000000000 
Si 0.0000000000 2.7150000000 2.7150000000 
Si 2.7150000000 0.0000000000 2.7150000000 
Si 2.7150000000 2.7150000000 0.0000000000 
Si 1.3575000000 1.3575000000 1.3575000000 
Si 1.4765147400 3.7196260200 4.4322809400 
Si 4.1978678400 1.6665756000 4.2470853600 
Si 4.1137897200 3.7682571000 1.6874159400 
Si 5.4300000000 0.0000000000 0.0000000000 
Si 6.4023935400 2.2406134800 3.5665217400 
Si 8.1450000000 0.0000000000 2.7150000000 
Si 8.1450000000 2.7150000000 0.0000000000 
Si 6.7875000000 1.3575000000 1.3575000000 
Si 9.5025000000 4.0725000000 1.3575000000 
Si 9.5025000000 1.3575000000 4.0725000000 
Si 0.0000000000 0.0000000000 5.4300000000 
Si 0.0000000000 2.7150000000 8.1450000000 
Si 2.7150000000 0.0000000000 8.1450000000 
Si 2.9794953000 3.3430772400 6.1861383600 
Si 1.3575000000 1.3575000000 6.7875000000 
Si 1.3575000000 4.0725000000 9.5025000000 
Si 4.0725000000 1.3575000000 9.5025000000 
Si 9.2576070000 3.9587958000 6.4090290000 
Si 5.5422489600 0.2951867460 5.5041412200 
Si 4.7373709200 3.1700122800 7.8281160600 
Si 8.1450000000 0.0000000000 8.1450000000 
Si 7.9171572000 2.4880911600 5.2814134800 
Si 6.6312137400 1.8004468200 7.1030916000 
Si 6.3166538400 3.8286169800 9.4677262800 
Si 9.5025000000 1.3575000000 9.5025000000 
Si 0.0000000000 5.4300000000 0.0000000000 
Si 0.0000000000 8.1450000000 2.7150000000 
Si 2.3562181800 5.0332950600 2.8244362200 
Si 2.7150000000 8.1450000000 0.0000000000 
Si 1.3575000000 6.7875000000 1.3575000000 
Si 1.3575000000 9.5025000000 4.0725000000 
Si 3.6843093000 6.5661514800 3.8663880600 
Si 4.0725000000 9.5025000000 1.3575000000 
Si 5.5192149000 5.3925112800 0.1620637800 
Si 5.4222025200 8.0322297600 2.7581033400 
Si 8.7986959800 5.5755891600 2.8684843800 
Si 8.1450000000 8.1450000000 0.0000000000 
Si 7.0784068200 6.6424755600 1.4703788400 
Si 6.6381098400 9.6014671800 3.9989669400 
Si 9.5150867400 7.3161648000 4.3099321800 
Si 9.5025000000 9.5025000000 1.3575000000 
Si 0.1554837060 5.4203671800 5.3537845200 
Si 0.0000000000 8.1450000000 8.1450000000 
Si 2.5242984000 5.2397871000 7.5926604000 
Si 2.9897362800 8.3057388600 5.2887874200 
Si 1.5491681400 6.8715889800 6.6009034800 
Si 1.3575000000 9.5025000000 9.5025000000 
Si 3.8324179800 6.4357989000 9.5679097800 
Si 4.4171529600 9.5236878600 6.7593943200 
Si 6.6363070800 6.3361692600 6.8671363800 
Si 5.4360055800 7.8221973600 8.3494829400 
Si 8.1566419200 5.0173308600 8.1554147400 
Si 7.9056890400 7.9232931000 5.6592111600 
Si 9.5025000000 9.5025000000 6.7875000000 
Si 6.7875000000 9.5025000000 9.5025000000 
Si 9.5025000000 6.7875000000 9.5025000000 

