&CONTROL
  dt          = 30.D0,
  prefix = 'R1-T3000-51',
  pseudo_dir = './',
  outdir='./',
  wf_collect=.true.,
  verbosity ="high",
/

&SYSTEM
  ibrav= 0, nat=  61, ntyp= 1,
  ecutwfc     = 42.D0,
  nbnd=244,
  degauss     = 0.05D0,
  occupations = "smearing",
  smearing    = "methfessel-paxton",
/
&ELECTRONS
  electron_maxstep=200,
  conv_thr    = 1.D-8,
  mixing_beta = 0.3D0,
  scf_must_converge=.false.,
/
&IONS
/
ATOMIC_SPECIES
Si  28.08  Si.pbe-hgh.UPF

K_POINTS {automatic}
4 4 4 0 0 0

CELL_PARAMETERS angstrom
10.86000000000000 0.00000000000000 0.00000000000000
0.00000000000000 10.86000000000000 0.00000000000000
0.00000000000000 0.00000000000000 10.86000000000000

ATOMIC_POSITIONS angstrom
Si 0.0000000000 0.0000000000 0.0000000000 
Si 0.0000000000 2.7150000000 2.7150000000 
Si 2.7150000000 0.0000000000 2.7150000000 
Si 2.7150000000 2.7150000000 0.0000000000 
Si 1.3575000000 1.3575000000 1.3575000000 
Si 1.5046204200 3.7581247200 3.9991732800 
Si 3.9565477800 1.4075103000 4.3274493600 
Si 4.1698164600 4.3899052200 1.1754864000 
Si 5.4300000000 0.0000000000 0.0000000000 
Si 5.1164826600 3.0218167200 2.7869366400 
Si 8.1450000000 0.0000000000 2.7150000000 
Si 8.1450000000 2.7150000000 0.0000000000 
Si 6.7875000000 1.3575000000 1.3575000000 
Si 9.5025000000 4.0725000000 1.3575000000 
Si 9.5025000000 1.3575000000 4.0725000000 
Si 0.0000000000 0.0000000000 5.4300000000 
Si 0.0000000000 2.7150000000 8.1450000000 
Si 2.7150000000 0.0000000000 8.1450000000 
Si 2.6998394400 2.8774004400 5.6620130400 
Si 1.3575000000 1.3575000000 6.7875000000 
Si 1.3575000000 4.0725000000 9.5025000000 
Si 4.0725000000 1.3575000000 9.5025000000 
Si 4.4587793400 4.1773967400 6.9215558400 
Si 5.4218007000 0.2138279700 5.8404754200 
Si 5.7020104200 2.6245470600 8.1337816200 
Si 8.1450000000 0.0000000000 8.1450000000 
Si 7.2643300200 2.2413954000 4.1739975600 
Si 7.4560090200 1.6655439000 6.4881006600 
Si 6.8195152800 4.2106935000 9.5470911600 
Si 9.5025000000 1.3575000000 9.5025000000 
Si 8.8915598400 3.5478534000 6.5917267800 
Si 0.0000000000 5.4300000000 0.0000000000 
Si 0.0000000000 8.1450000000 2.7150000000 
Si 2.9063749200 5.4711268200 2.6546292600 
Si 2.7150000000 8.1450000000 0.0000000000 
Si 1.3575000000 6.7875000000 1.3575000000 
Si 1.3575000000 9.5025000000 4.0725000000 
Si 4.1522449800 6.9114126000 4.1630289600 
Si 4.0725000000 9.5025000000 1.3575000000 
Si 5.5610802000 5.8219374000 0.0100330870 
Si 5.3431851600 8.4558349200 3.0533324400 
Si 7.8677550600 5.0387033400 2.9206449600 
Si 8.1450000000 8.1450000000 0.0000000000 
Si 6.6247411800 6.8737175400 1.7089513200 
Si 6.5749480800 9.5318328600 4.2756145800 
Si 9.1611159000 6.8674187400 4.0297224600 
Si 9.5025000000 9.5025000000 1.3575000000 
Si -0.3209911920 5.1092607600 5.4674344200 
Si 0.0000000000 8.1450000000 8.1450000000 
Si 3.0488472600 5.5019800800 8.1997452600 
Si 2.5330515600 8.0202403200 5.4345503400 
Si 1.2447406200 6.4991452800 6.9597178800 
Si 1.3575000000 9.5025000000 9.5025000000 
Si 4.0023987000 7.0277883600 9.4956473400 
Si 3.6603195600 9.4459954200 6.8924727600 
Si 9.5025000000 9.5025000000 6.7875000000 
Si 5.3963340000 8.4324099000 7.8845011800 
Si 8.4280984800 5.1528962400 8.3922930600 
Si 8.2567494000 8.2503202800 5.3402855400 
Si 9.5025000000 6.7875000000 9.5025000000 
Si 6.7875000000 9.5025000000 9.5025000000 

