&CONTROL
  dt          = 30.D0,
  prefix = 'R0.8-T1200-4',
  pseudo_dir = './',
  outdir='./',
 wf_collect=.true.,
 verbosity ="high",
/

&SYSTEM
    ibrav= 0, nat=  63, ntyp= 1,
  ecutwfc     = 42.D0,
  nbnd=252,
  degauss     = 0.05D0,
  occupations = "smearing",
  smearing    = "methfessel-paxton",
/
&ELECTRONS
  electron_maxstep=200,
  conv_thr    = 1.D-8,
  mixing_beta = 0.3D0,
  scf_must_converge=.false.,
/
&IONS
/
ATOMIC_SPECIES
Si  28.08  Si.pbe-hgh.UPF

K_POINTS {automatic}
4 4 4 0 0 0
CELL_PARAMETERS angstrom
10.86000000000000 0.00000000000000 0.00000000000000
0.00000000000000 10.86000000000000 0.00000000000000
0.00000000000000 0.00000000000000 10.86000000000000

ATOMIC_POSITIONS angstrom
Si 0.0000000000 0.0000000000 0.0000000000 
Si 0.0000000000 2.7150000000 2.7150000000 
Si 2.7150000000 0.0000000000 2.7150000000 
Si 2.7150000000 2.7150000000 0.0000000000 
Si 1.3575000000 1.3575000000 1.3575000000 
Si 1.3575000000 4.0725000000 4.0725000000 
Si 4.0725000000 1.3575000000 4.0725000000 
Si 4.0725000000 4.0725000000 1.3575000000 
Si 5.4300000000 0.0000000000 0.0000000000 
Si 5.4455406600 2.7709398600 2.7476343000 
Si 8.1450000000 0.0000000000 2.7150000000 
Si 8.1450000000 2.7150000000 0.0000000000 
Si 6.7875000000 1.3575000000 1.3575000000 
Si 6.7216884000 4.0880515200 4.0630518000 
Si 9.5025000000 1.3575000000 4.0725000000 
Si 9.5025000000 4.0725000000 1.3575000000 
Si 0.0000000000 0.0000000000 5.4300000000 
Si 0.0000000000 2.7150000000 8.1450000000 
Si 2.7150000000 0.0000000000 8.1450000000 
Si 2.7026630400 2.6875567800 5.4454863600 
Si 1.3575000000 1.3575000000 6.7875000000 
Si 1.3575000000 4.0725000000 9.5025000000 
Si 4.0725000000 1.3575000000 9.5025000000 
Si 4.0708601400 3.9484027800 6.8845992600 
Si 5.4300000000 0.0000000000 5.4300000000 
Si 5.4849190200 2.6440190400 8.1863766000 
Si 8.1450000000 0.0000000000 8.1450000000 
Si 8.0886691800 2.7267613800 5.4126674400 
Si 6.7875000000 1.3575000000 6.7875000000 
Si 6.7875000000 4.0725000000 9.5025000000 
Si 9.5025000000 1.3575000000 9.5025000000 
Si 9.5025000000 4.0725000000 6.7875000000 
Si 0.0000000000 5.4300000000 0.0000000000 
Si 0.0000000000 8.1450000000 2.7150000000 
Si 2.8108612200 5.4785333400 2.7652818000 
Si 2.7150000000 8.1450000000 0.0000000000 
Si 1.3575000000 6.7875000000 1.3575000000 
Si 1.3575000000 9.5025000000 4.0725000000 
Si 4.2329999400 6.6350690400 4.1442303000 
Si 4.0725000000 9.5025000000 1.3575000000 
Si 5.4300000000 5.4300000000 0.0000000000 
Si 5.5372425000 8.1229433400 2.7488289000 
Si 8.1487575600 5.4519806400 2.7091030200 
Si 8.1450000000 8.1450000000 0.0000000000 
Si 6.7875000000 6.7875000000 1.3575000000 
Si 6.7875000000 9.5025000000 4.0725000000 
Si 9.5025000000 6.7875000000 4.0725000000 
Si 9.5025000000 9.5025000000 1.3575000000 
Si 0.0000000000 5.4300000000 5.4300000000 
Si 0.0000000000 8.1450000000 8.1450000000 
Si 2.7645650400 5.3710953600 8.1071094600 
Si 2.7798667800 8.0969445000 5.3948461800 
Si 1.3575000000 6.7875000000 6.7875000000 
Si 1.3575000000 9.5025000000 9.5025000000 
Si 4.0725000000 6.7875000000 9.5025000000 
Si 4.0725000000 9.5025000000 6.7875000000 
Si 9.5025000000 9.5025000000 6.7875000000 
Si 5.3986906200 8.1858770400 8.1659598000 
Si 8.0783739000 5.4782075400 8.0869424400 
Si 8.1460099800 8.1709336800 5.4304344000 
Si 6.7363602600 6.9982165800 6.7445378400 
Si 6.7875000000 9.5025000000 9.5025000000 
Si 9.5025000000 6.7875000000 9.5025000000 

