&CONTROL
  dt          = 30.D0,
  prefix = 'R0.8-T1200-75',
  pseudo_dir = './',
  outdir='./',
 wf_collect=.true.,
 verbosity ="high",
/

&SYSTEM
    ibrav= 0, nat=  63, ntyp= 1,
  ecutwfc     = 42.D0,
  nbnd=252,
  degauss     = 0.05D0,
  occupations = "smearing",
  smearing    = "methfessel-paxton",
/
&ELECTRONS
  electron_maxstep=200,
  conv_thr    = 1.D-8,
  mixing_beta = 0.3D0,
  scf_must_converge=.false.,
/
&IONS
/
ATOMIC_SPECIES
Si  28.08  Si.pbe-hgh.UPF

K_POINTS {automatic}
4 4 4 0 0 0
CELL_PARAMETERS angstrom
10.86000000000000 0.00000000000000 0.00000000000000
0.00000000000000 10.86000000000000 0.00000000000000
0.00000000000000 0.00000000000000 10.86000000000000

ATOMIC_POSITIONS angstrom
Si 0.0000000000 0.0000000000 0.0000000000 
Si 0.0000000000 2.7150000000 2.7150000000 
Si 2.7150000000 0.0000000000 2.7150000000 
Si 2.7150000000 2.7150000000 0.0000000000 
Si 1.3575000000 1.3575000000 1.3575000000 
Si 1.3575000000 4.0725000000 4.0725000000 
Si 4.0725000000 1.3575000000 4.0725000000 
Si 4.0725000000 4.0725000000 1.3575000000 
Si 5.4300000000 0.0000000000 0.0000000000 
Si 5.4531969600 2.7052151400 2.7034232400 
Si 8.1450000000 0.0000000000 2.7150000000 
Si 8.1450000000 2.7150000000 0.0000000000 
Si 6.7875000000 1.3575000000 1.3575000000 
Si 6.6895210800 4.1531137800 4.0207738200 
Si 9.5025000000 1.3575000000 4.0725000000 
Si 9.5025000000 4.0725000000 1.3575000000 
Si 0.0000000000 0.0000000000 5.4300000000 
Si 0.0000000000 2.7150000000 8.1450000000 
Si 2.7150000000 0.0000000000 8.1450000000 
Si 2.6299227600 2.7874362000 5.4265465200 
Si 1.3575000000 1.3575000000 6.7875000000 
Si 1.3575000000 4.0725000000 9.5025000000 
Si 4.0725000000 1.3575000000 9.5025000000 
Si 4.0020620400 4.0538859600 6.9055590600 
Si 5.4300000000 0.0000000000 5.4300000000 
Si 5.3814232200 2.5986242400 8.1624628800 
Si 8.1450000000 0.0000000000 8.1450000000 
Si 8.0063612400 2.8104594000 5.4927056400 
Si 6.7875000000 1.3575000000 6.7875000000 
Si 6.7875000000 4.0725000000 9.5025000000 
Si 9.5025000000 1.3575000000 9.5025000000 
Si 9.5025000000 4.0725000000 6.7875000000 
Si 0.0000000000 5.4300000000 0.0000000000 
Si 0.0000000000 8.1450000000 2.7150000000 
Si 2.6434977600 5.4168051000 2.6530980000 
Si 2.7150000000 8.1450000000 0.0000000000 
Si 1.3575000000 6.7875000000 1.3575000000 
Si 1.3575000000 9.5025000000 4.0725000000 
Si 3.9172128600 6.9726521400 3.8133478200 
Si 4.0725000000 9.5025000000 1.3575000000 
Si 5.4300000000 5.4300000000 0.0000000000 
Si 5.4130475400 8.1838570800 2.7368503200 
Si 8.1116163600 5.4164467200 2.6967877800 
Si 8.1450000000 8.1450000000 0.0000000000 
Si 6.7875000000 6.7875000000 1.3575000000 
Si 6.7875000000 9.5025000000 4.0725000000 
Si 9.5025000000 6.7875000000 4.0725000000 
Si 9.5025000000 9.5025000000 1.3575000000 
Si 0.0000000000 5.4300000000 5.4300000000 
Si 0.0000000000 8.1450000000 8.1450000000 
Si 2.7521194800 5.3651115000 8.1629515800 
Si 2.6593968000 8.1937505400 5.4796627800 
Si 1.3575000000 6.7875000000 6.7875000000 
Si 1.3575000000 9.5025000000 9.5025000000 
Si 4.0725000000 6.7875000000 9.5025000000 
Si 4.0725000000 9.5025000000 6.7875000000 
Si 9.5025000000 9.5025000000 6.7875000000 
Si 5.4642524400 8.0691429000 8.1890373000 
Si 8.2783173600 5.3486477400 8.2387652400 
Si 8.0901461400 8.1284059200 5.3613865200 
Si 6.9116949600 6.7603717200 6.8088616200 
Si 6.7875000000 9.5025000000 9.5025000000 
Si 9.5025000000 6.7875000000 9.5025000000 

