&CONTROL
  dt          = 30.D0,
  prefix = 'R1-T1200-17',
  pseudo_dir = './',
  outdir='./',
 wf_collect=.true.,
 verbosity ="high",
/

&SYSTEM
    ibrav= 0, nat=  63, ntyp= 1,
  ecutwfc     = 42.D0,
  nbnd=252,
  degauss     = 0.05D0,
  occupations = "smearing",
  smearing    = "methfessel-paxton",
/
&ELECTRONS
  electron_maxstep=200,
  conv_thr    = 1.D-8,
  mixing_beta = 0.3D0,
  scf_must_converge=.false.,
/
&IONS
/
ATOMIC_SPECIES
Si  28.08  Si.pbe-hgh.UPF

K_POINTS {automatic}
4 4 4 0 0 0
CELL_PARAMETERS angstrom
10.86000000000000 0.00000000000000 0.00000000000000
0.00000000000000 10.86000000000000 0.00000000000000
0.00000000000000 0.00000000000000 10.86000000000000

ATOMIC_POSITIONS angstrom
Si 0.0000000000 0.0000000000 0.0000000000 
Si 0.0000000000 2.7150000000 2.7150000000 
Si 2.7150000000 0.0000000000 2.7150000000 
Si 2.7150000000 2.7150000000 0.0000000000 
Si 1.3575000000 1.3575000000 1.3575000000 
Si 1.2866167800 4.0409734200 4.0497157200 
Si 4.1177101800 1.3303717200 4.0962725400 
Si 4.1081533800 4.0032023400 1.3844219400 
Si 5.4300000000 0.0000000000 0.0000000000 
Si 5.6558771400 2.6577569400 2.7728838000 
Si 8.1450000000 0.0000000000 2.7150000000 
Si 8.1450000000 2.7150000000 0.0000000000 
Si 6.7875000000 1.3575000000 1.3575000000 
Si 6.8693626800 4.1386699800 4.0064277600 
Si 9.5025000000 1.3575000000 4.0725000000 
Si 9.5025000000 4.0725000000 1.3575000000 
Si 0.0000000000 0.0000000000 5.4300000000 
Si 0.0000000000 2.7150000000 8.1450000000 
Si 2.7150000000 0.0000000000 8.1450000000 
Si 2.7381209400 2.6990466600 5.3648725800 
Si 1.3575000000 1.3575000000 6.7875000000 
Si 1.3575000000 4.0725000000 9.5025000000 
Si 4.0725000000 1.3575000000 9.5025000000 
Si 4.0638663000 4.1212288200 6.7375331400 
Si 5.7727850400 0.0014729418 5.4214097400 
Si 5.3899591800 2.6930845200 7.9557645000 
Si 8.1450000000 0.0000000000 8.1450000000 
Si 8.1681535200 2.7464614200 5.3955303600 
Si 7.0049280600 1.3497568200 6.8247498000 
Si 6.6629140800 4.0121727000 9.4661081400 
Si 9.5025000000 1.3575000000 9.5025000000 
Si 9.4814967600 4.0208607000 6.7761187200 
Si 0.0000000000 5.4300000000 0.0000000000 
Si 0.0000000000 8.1450000000 2.7150000000 
Si 2.6744704800 5.4697801800 2.7691045200 
Si 2.7150000000 8.1450000000 0.0000000000 
Si 1.3575000000 6.7875000000 1.3575000000 
Si 1.3575000000 9.5025000000 4.0725000000 
Si 4.0248463200 6.8742171000 3.9089049600 
Si 4.0725000000 9.5025000000 1.3575000000 
Si 5.3970724800 5.4801623400 0.0932701326 
Si 5.5067259000 8.0814690000 2.6106679800 
Si 8.2997984400 5.4426953400 2.7971016000 
Si 8.1450000000 8.1450000000 0.0000000000 
Si 6.8804181600 6.7714706400 1.4771554800 
Si 6.7704280800 9.3298260000 4.0351416000 
Si 9.6858385200 6.6851662200 3.9694603200 
Si 9.5025000000 9.5025000000 1.3575000000 
Si -0.1131818340 5.3345080200 5.3686627200 
Si 0.0000000000 8.1450000000 8.1450000000 
Si 2.6052705600 5.3480938800 8.0081965800 
Si 2.8493382000 8.1562183800 5.5571597400 
Si 1.2038527200 6.7232088000 6.8015745600 
Si 1.3575000000 9.5025000000 9.5025000000 
Si 4.0771372200 6.8205361200 9.4675959600 
Si 4.2865831800 9.5264028600 6.8105666400 
Si 9.5025000000 9.5025000000 6.7875000000 
Si 5.5992856800 8.1488987400 8.2276120200 
Si 8.1707925000 5.3456829600 8.3242334400 
Si 8.2443147000 7.8560588400 5.4269809200 
Si 6.7676153400 6.7373268000 6.8711654400 
Si 6.7875000000 9.5025000000 9.5025000000 
Si 9.5025000000 6.7875000000 9.5025000000 

