&CONTROL
  dt          = 30.D0,
  prefix = 'R1-T3000-152',
  pseudo_dir = './',
  outdir='./',
 wf_collect=.true.,
 verbosity ="high",
/

&SYSTEM
    ibrav= 0, nat=  63, ntyp= 1,
  ecutwfc     = 42.D0,
  nbnd=252,
  degauss     = 0.05D0,
  occupations = "smearing",
  smearing    = "methfessel-paxton",
/
&ELECTRONS
  electron_maxstep=200,
  conv_thr    = 1.D-8,
  mixing_beta = 0.3D0,
  scf_must_converge=.false.,
/
&IONS
/
ATOMIC_SPECIES
Si  28.08  Si.pbe-hgh.UPF

K_POINTS {automatic}
4 4 4 0 0 0
CELL_PARAMETERS angstrom
10.86000000000000 0.00000000000000 0.00000000000000
0.00000000000000 10.86000000000000 0.00000000000000
0.00000000000000 0.00000000000000 10.86000000000000

ATOMIC_POSITIONS angstrom
Si 0.0000000000 0.0000000000 0.0000000000 
Si 0.0000000000 2.7150000000 2.7150000000 
Si 2.7150000000 0.0000000000 2.7150000000 
Si 2.7150000000 2.7150000000 0.0000000000 
Si 1.3575000000 1.3575000000 1.3575000000 
Si 1.3048724400 4.3955089800 3.7637176200 
Si 3.8831884800 1.3620503400 4.1390826600 
Si 4.0789182600 4.1753116200 1.6032835200 
Si 5.4300000000 0.0000000000 0.0000000000 
Si 5.5659129000 2.7190399200 2.7612093000 
Si 8.1450000000 0.0000000000 2.7150000000 
Si 8.1450000000 2.7150000000 0.0000000000 
Si 6.7875000000 1.3575000000 1.3575000000 
Si 6.7523570400 4.4496026400 4.2070771200 
Si 9.5025000000 1.3575000000 4.0725000000 
Si 9.5025000000 4.0725000000 1.3575000000 
Si 0.0000000000 0.0000000000 5.4300000000 
Si 0.0000000000 2.7150000000 8.1450000000 
Si 2.7150000000 0.0000000000 8.1450000000 
Si 2.4814339800 3.1210988400 5.3483436600 
Si 1.3575000000 1.3575000000 6.7875000000 
Si 1.3575000000 4.0725000000 9.5025000000 
Si 4.0725000000 1.3575000000 9.5025000000 
Si 3.9965560200 4.2971934000 6.5558344800 
Si 4.9259874000 10.7692321200 5.5801503600 
Si 5.4520458000 2.9626188600 8.0601725400 
Si 8.1450000000 0.0000000000 8.1450000000 
Si 7.4237222400 2.5443459600 5.4190639800 
Si 6.2828358000 1.1402131200 6.9358910400 
Si 7.0714672800 3.9312222600 9.4416731400 
Si 9.5025000000 1.3575000000 9.5025000000 
Si 9.1698039000 3.7043351400 6.9463818000 
Si 0.0000000000 5.4300000000 0.0000000000 
Si 0.0000000000 8.1450000000 2.7150000000 
Si 3.3058817400 6.0092398200 2.9723059800 
Si 2.7150000000 8.1450000000 0.0000000000 
Si 1.3575000000 6.7875000000 1.3575000000 
Si 1.3575000000 9.5025000000 4.0725000000 
Si 5.1456852000 5.8127715600 5.1620946600 
Si 4.0725000000 9.5025000000 1.3575000000 
Si 5.6626646400 5.5791403800 11.0091078000 
Si 4.6326696600 7.7624022000 3.0673527000 
Si 8.3501019600 5.6487964200 2.9352625200 
Si 8.1450000000 8.1450000000 0.0000000000 
Si 6.7009892400 7.0459788600 1.8321580200 
Si 6.1030593600 9.7584050400 3.6077028600 
Si 9.5521627800 7.1598785400 4.3531875600 
Si 9.5025000000 9.5025000000 1.3575000000 
Si 10.6834815600 5.2206192000 5.4195635400 
Si 0.0000000000 8.1450000000 8.1450000000 
Si 2.6822896800 5.5597552800 8.2783716600 
Si 3.1251713400 7.9847389800 5.1591516000 
Si 1.3464119400 6.8059294200 6.6774773400 
Si 1.3575000000 9.5025000000 9.5025000000 
Si 4.2219336000 7.0983783600 9.3870364800 
Si 3.5230926000 9.5803010400 6.8014008000 
Si 9.5025000000 9.5025000000 6.7875000000 
Si 5.4340290600 8.1930337800 7.7371852800 
Si 7.8604788600 5.3397642600 7.9158540000 
Si 7.6756308000 8.6250337200 5.2789699800 
Si 6.8253145200 6.8068851000 6.4205949000 
Si 6.7875000000 9.5025000000 9.5025000000 
Si 9.5025000000 6.7875000000 9.5025000000 

