&CONTROL
  dt          = 30.D0,
  prefix = 'R1-T3000-21',
  pseudo_dir = './',
  outdir='./',
 wf_collect=.true.,
 verbosity ="high",
/

&SYSTEM
    ibrav= 0, nat=  63, ntyp= 1,
  ecutwfc     = 42.D0,
  nbnd=252,
  degauss     = 0.05D0,
  occupations = "smearing",
  smearing    = "methfessel-paxton",
/
&ELECTRONS
  electron_maxstep=200,
  conv_thr    = 1.D-8,
  mixing_beta = 0.3D0,
  scf_must_converge=.false.,
/
&IONS
/
ATOMIC_SPECIES
Si  28.08  Si.pbe-hgh.UPF

K_POINTS {automatic}
4 4 4 0 0 0
CELL_PARAMETERS angstrom
10.86000000000000 0.00000000000000 0.00000000000000
0.00000000000000 10.86000000000000 0.00000000000000
0.00000000000000 0.00000000000000 10.86000000000000

ATOMIC_POSITIONS angstrom
Si 0.0000000000 0.0000000000 0.0000000000 
Si 0.0000000000 2.7150000000 2.7150000000 
Si 2.7150000000 0.0000000000 2.7150000000 
Si 2.7150000000 2.7150000000 0.0000000000 
Si 1.3575000000 1.3575000000 1.3575000000 
Si 1.5509709000 4.0909728600 3.8673763200 
Si 4.4904796800 1.2897987600 4.0692528600 
Si 4.3774162200 4.0722610800 1.5947801400 
Si 5.4300000000 0.0000000000 0.0000000000 
Si 5.7358827600 2.7585268800 2.9065269600 
Si 8.1450000000 0.0000000000 2.7150000000 
Si 8.1450000000 2.7150000000 0.0000000000 
Si 6.7875000000 1.3575000000 1.3575000000 
Si 6.5986446000 4.6352977800 4.6391205000 
Si 9.5025000000 1.3575000000 4.0725000000 
Si 9.5025000000 4.0725000000 1.3575000000 
Si 0.0000000000 0.0000000000 5.4300000000 
Si 0.0000000000 2.7150000000 8.1450000000 
Si 2.7150000000 0.0000000000 8.1450000000 
Si 2.7434206200 2.7120786600 5.2743110400 
Si 1.3575000000 1.3575000000 6.7875000000 
Si 1.3575000000 4.0725000000 9.5025000000 
Si 4.0725000000 1.3575000000 9.5025000000 
Si 4.1508874800 4.3337590200 6.2582270400 
Si 5.9980648800 10.7389435800 5.1382678200 
Si 5.1316323600 2.5585182600 7.8032792400 
Si 8.1450000000 0.0000000000 8.1450000000 
Si 8.0535696600 2.9052780600 5.4791632200 
Si 6.8828182200 1.5909248400 6.7194838200 
Si 6.6317133000 3.8647373400 9.4316928000 
Si 9.5025000000 1.3575000000 9.5025000000 
Si 9.3560746200 4.1142892800 7.0508658600 
Si 0.0000000000 5.4300000000 0.0000000000 
Si 0.0000000000 8.1450000000 2.7150000000 
Si 3.0591751200 5.4743522400 2.7520434600 
Si 2.7150000000 8.1450000000 0.0000000000 
Si 1.3575000000 6.7875000000 1.3575000000 
Si 1.3575000000 9.5025000000 4.0725000000 
Si 4.7303662200 6.2978334600 4.1779831800 
Si 4.0725000000 9.5025000000 1.3575000000 
Si 5.5258177800 5.3579547600 10.7386503600 
Si 5.2009951800 8.2165674000 2.7397716600 
Si 8.1963026400 5.3150794800 2.8496422800 
Si 8.1450000000 8.1450000000 0.0000000000 
Si 6.9358476000 6.6602968200 1.4461393200 
Si 7.1893851600 8.9667762000 4.0536144600 
Si 9.7522474200 6.6413352600 3.8436580800 
Si 9.5025000000 9.5025000000 1.3575000000 
Si 0.0795765414 5.2570219200 5.3378854800 
Si 0.0000000000 8.1450000000 8.1450000000 
Si 2.6675961000 5.6061057600 7.8756394200 
Si 2.8960579200 8.0690560200 5.4096483600 
Si 1.2942296400 6.9590119800 6.5263061400 
Si 1.3575000000 9.5025000000 9.5025000000 
Si 4.0390186200 6.8648775000 9.2174684400 
Si 4.3498752600 9.6644117400 6.7072011600 
Si 9.5025000000 9.5025000000 6.7875000000 
Si 5.7096667200 7.9080999600 7.6496319600 
Si 8.0223471600 5.3096603400 8.4722009400 
Si 8.3924885400 7.6783783800 5.5900438200 
Si 6.8443738200 5.8692870000 6.7218404400 
Si 6.7875000000 9.5025000000 9.5025000000 
Si 9.5025000000 6.7875000000 9.5025000000 

