&CONTROL
  dt          = 30.D0,
  prefix = 'R1-T3000-360',
  pseudo_dir = './',
  outdir='./',
 wf_collect=.true.,
 verbosity ="high",
/

&SYSTEM
    ibrav= 0, nat=  63, ntyp= 1,
  ecutwfc     = 42.D0,
  nbnd=252,
  degauss     = 0.05D0,
  occupations = "smearing",
  smearing    = "methfessel-paxton",
/
&ELECTRONS
  electron_maxstep=200,
  conv_thr    = 1.D-8,
  mixing_beta = 0.3D0,
  scf_must_converge=.false.,
/
&IONS
/
ATOMIC_SPECIES
Si  28.08  Si.pbe-hgh.UPF

K_POINTS {automatic}
4 4 4 0 0 0
CELL_PARAMETERS angstrom
10.86000000000000 0.00000000000000 0.00000000000000
0.00000000000000 10.86000000000000 0.00000000000000
0.00000000000000 0.00000000000000 10.86000000000000

ATOMIC_POSITIONS angstrom
Si 0.0000000000 0.0000000000 0.0000000000 
Si 0.0000000000 2.7150000000 2.7150000000 
Si 2.7150000000 0.0000000000 2.7150000000 
Si 2.7150000000 2.7150000000 0.0000000000 
Si 1.3575000000 1.3575000000 1.3575000000 
Si 1.2586522800 4.0015081800 4.1995728600 
Si 4.3159051800 1.5060756600 3.9305380800 
Si 4.2202937400 4.1826855600 1.2916558200 
Si 5.4300000000 0.0000000000 0.0000000000 
Si 5.6355472200 2.9662569600 2.8135436400 
Si 8.1450000000 0.0000000000 2.7150000000 
Si 8.1450000000 2.7150000000 0.0000000000 
Si 6.7875000000 1.3575000000 1.3575000000 
Si 5.8695150600 4.3300666200 4.7962321200 
Si 9.5025000000 1.3575000000 4.0725000000 
Si 9.5025000000 4.0725000000 1.3575000000 
Si 0.0000000000 0.0000000000 5.4300000000 
Si 0.0000000000 2.7150000000 8.1450000000 
Si 2.7150000000 0.0000000000 8.1450000000 
Si 2.6923677600 2.3176760400 5.2512335400 
Si 1.3575000000 1.3575000000 6.7875000000 
Si 1.3575000000 4.0725000000 9.5025000000 
Si 4.0725000000 1.3575000000 9.5025000000 
Si 4.3462480200 3.9212093400 6.5742204600 
Si 5.4971148000 0.1874566320 5.3550768600 
Si 5.7129030000 2.4145472400 8.2941946800 
Si 8.1450000000 0.0000000000 8.1450000000 
Si 8.2702049400 2.9917562400 5.4701711400 
Si 6.9074269800 1.4682394200 6.6226343400 
Si 7.1005395000 4.0087843800 9.3796082400 
Si 9.5025000000 1.3575000000 9.5025000000 
Si 9.8249334000 4.5439217400 6.9511059000 
Si 0.0000000000 5.4300000000 0.0000000000 
Si 0.0000000000 8.1450000000 2.7150000000 
Si 2.3859528600 5.5787820000 2.8179853800 
Si 2.7150000000 8.1450000000 0.0000000000 
Si 1.3575000000 6.7875000000 1.3575000000 
Si 1.3575000000 9.5025000000 4.0725000000 
Si 4.5188568600 6.4046958600 4.2757231800 
Si 4.0725000000 9.5025000000 1.3575000000 
Si 5.2288402200 5.2805338200 10.4403804600 
Si 5.4219961800 8.1268529400 2.8064412000 
Si 8.0438065200 5.4352019400 2.7949296000 
Si 8.1450000000 8.1450000000 0.0000000000 
Si 6.3706063200 6.7429957200 1.0817439660 
Si 6.8013899400 9.5477970600 3.8301156600 
Si 9.2363105400 7.0325450400 4.0390620600 
Si 9.5025000000 9.5025000000 1.3575000000 
Si 0.4208087100 6.0799275600 5.4688027800 
Si 0.0000000000 8.1450000000 8.1450000000 
Si 2.9309076600 5.0465116800 7.9357169400 
Si 2.9518674600 7.8942860400 5.1135613200 
Si 1.9440811800 7.1499090600 7.1048509200 
Si 1.3575000000 9.5025000000 9.5025000000 
Si 3.9970447200 6.7580368200 9.0879955200 
Si 4.0808079000 9.7958068800 6.5607106200 
Si 9.5025000000 9.5025000000 6.7875000000 
Si 5.3548488000 8.2040132400 8.0189697000 
Si 7.9625520000 5.7149555400 8.0474446200 
Si 7.8314175000 8.2592797800 5.4340507800 
Si 6.4488960600 6.5616011400 6.3766227600 
Si 6.7875000000 9.5025000000 9.5025000000 
Si 9.5025000000 6.7875000000 9.5025000000 

