&CONTROL
  dt          = 30.D0,
  prefix = 'R1-T3000-244',
  pseudo_dir = './',
  outdir='./',
 wf_collect=.true.,
 verbosity ="high",
/

&SYSTEM
    ibrav= 0, nat=  63, ntyp= 1,
  ecutwfc     = 42.D0,
  nbnd=252,
  degauss     = 0.05D0,
  occupations = "smearing",
  smearing    = "methfessel-paxton",
/
&ELECTRONS
  electron_maxstep=200,
  conv_thr    = 1.D-8,
  mixing_beta = 0.3D0,
  scf_must_converge=.false.,
/
&IONS
/
ATOMIC_SPECIES
Si  28.08  Si.pbe-hgh.UPF

K_POINTS {automatic}
4 4 4 0 0 0
CELL_PARAMETERS angstrom
10.86000000000000 0.00000000000000 0.00000000000000
0.00000000000000 10.86000000000000 0.00000000000000
0.00000000000000 0.00000000000000 10.86000000000000

ATOMIC_POSITIONS angstrom
Si 0.0000000000 0.0000000000 0.0000000000 
Si 0.0000000000 2.7150000000 2.7150000000 
Si 2.7150000000 0.0000000000 2.7150000000 
Si 2.7150000000 2.7150000000 0.0000000000 
Si 1.3575000000 1.3575000000 1.3575000000 
Si 1.2298841400 4.2937833600 3.9862498800 
Si 3.8579281200 1.4230726800 4.2967155600 
Si 4.0798305000 3.8253915600 1.5956923800 
Si 5.4300000000 0.0000000000 0.0000000000 
Si 5.4321502800 2.4813579600 2.9812980600 
Si 8.1450000000 0.0000000000 2.7150000000 
Si 8.1450000000 2.7150000000 0.0000000000 
Si 6.7875000000 1.3575000000 1.3575000000 
Si 6.7231219200 4.0311342600 4.0487274600 
Si 9.5025000000 1.3575000000 4.0725000000 
Si 9.5025000000 4.0725000000 1.3575000000 
Si 0.0000000000 0.0000000000 5.4300000000 
Si 0.0000000000 2.7150000000 8.1450000000 
Si 2.7150000000 0.0000000000 8.1450000000 
Si 2.7937458600 2.9207427000 5.3597140800 
Si 1.3575000000 1.3575000000 6.7875000000 
Si 1.3575000000 4.0725000000 9.5025000000 
Si 4.0725000000 1.3575000000 9.5025000000 
Si 4.0888334400 4.1265610800 6.6510332400 
Si 5.3488758000 10.8615204000 5.1183288600 
Si 5.1287218800 2.6474942400 7.9538314200 
Si 8.1450000000 0.0000000000 8.1450000000 
Si 8.3856033000 3.1206861600 5.4173046600 
Si 6.6662046600 1.4423817600 6.5722765200 
Si 6.7107198000 3.7396410000 9.4781736000 
Si 9.5025000000 1.3575000000 9.5025000000 
Si 9.4694747400 4.1707721400 6.9722394600 
Si 0.0000000000 5.4300000000 0.0000000000 
Si 0.0000000000 8.1450000000 2.7150000000 
Si 2.6816380800 5.6778795000 2.9208187200 
Si 2.7150000000 8.1450000000 0.0000000000 
Si 1.3575000000 6.7875000000 1.3575000000 
Si 1.3575000000 9.5025000000 4.0725000000 
Si 5.4385251000 5.3343559800 5.3074014600 
Si 4.0725000000 9.5025000000 1.3575000000 
Si 5.3057181600 5.0016924600 -0.0587320746 
Si 5.5551723600 7.9663747200 2.3610834600 
Si 8.4232657800 5.3794467000 2.6457566400 
Si 8.1450000000 8.1450000000 0.0000000000 
Si 6.9562209600 6.4215071400 0.9894567720 
Si 6.6804638400 9.3480599400 3.5645669400 
Si 9.0666013200 6.9811772400 3.9407682000 
Si 9.5025000000 9.5025000000 1.3575000000 
Si 10.4842548600 5.5908909000 5.4925427400 
Si 0.0000000000 8.1450000000 8.1450000000 
Si 2.5749928800 5.5376986200 8.1301109400 
Si 2.9075803800 8.0983780200 5.3175012600 
Si 1.1679495600 6.7725349200 6.8120653200 
Si 1.3575000000 9.5025000000 9.5025000000 
Si 3.9790605600 6.4106905800 9.6452004000 
Si 4.4221485600 9.3261444600 6.9363580200 
Si 9.5025000000 9.5025000000 6.7875000000 
Si 5.4234731400 7.5030979800 8.2204878600 
Si 8.0239544400 5.3052837600 8.4080183400 
Si 8.0642993400 8.4874701000 5.5640667000 
Si 6.9280827000 6.4725925800 6.5206372200 
Si 6.7875000000 9.5025000000 9.5025000000 
Si 9.5025000000 6.7875000000 9.5025000000 

