&CONTROL
  dt          = 30.D0,
  prefix = 'R1-T3000-354',
  pseudo_dir = './',
  outdir='./',
 wf_collect=.true.,
 verbosity ="high",
/

&SYSTEM
    ibrav= 0, nat=  63, ntyp= 1,
  ecutwfc     = 42.D0,
  nbnd=252,
  degauss     = 0.05D0,
  occupations = "smearing",
  smearing    = "methfessel-paxton",
/
&ELECTRONS
  electron_maxstep=200,
  conv_thr    = 1.D-8,
  mixing_beta = 0.3D0,
  scf_must_converge=.false.,
/
&IONS
/
ATOMIC_SPECIES
Si  28.08  Si.pbe-hgh.UPF

K_POINTS {automatic}
4 4 4 0 0 0
CELL_PARAMETERS angstrom
10.86000000000000 0.00000000000000 0.00000000000000
0.00000000000000 10.86000000000000 0.00000000000000
0.00000000000000 0.00000000000000 10.86000000000000

ATOMIC_POSITIONS angstrom
Si 0.0000000000 0.0000000000 0.0000000000 
Si 0.0000000000 2.7150000000 2.7150000000 
Si 2.7150000000 0.0000000000 2.7150000000 
Si 2.7150000000 2.7150000000 0.0000000000 
Si 1.3575000000 1.3575000000 1.3575000000 
Si 1.2734001600 4.0903429800 4.1826421200 
Si 3.9879331800 1.5841482000 4.0534732800 
Si 4.2260604000 3.8822328000 0.9139526220 
Si 5.4300000000 0.0000000000 0.0000000000 
Si 5.5019583600 2.9442546000 2.9484248400 
Si 8.1450000000 0.0000000000 2.7150000000 
Si 8.1450000000 2.7150000000 0.0000000000 
Si 6.7875000000 1.3575000000 1.3575000000 
Si 5.7554959200 4.1441542800 4.9391497200 
Si 9.5025000000 1.3575000000 4.0725000000 
Si 9.5025000000 4.0725000000 1.3575000000 
Si 0.0000000000 0.0000000000 5.4300000000 
Si 0.0000000000 2.7150000000 8.1450000000 
Si 2.7150000000 0.0000000000 8.1450000000 
Si 2.7455057400 2.7934960800 5.5084743600 
Si 1.3575000000 1.3575000000 6.7875000000 
Si 1.3575000000 4.0725000000 9.5025000000 
Si 4.0725000000 1.3575000000 9.5025000000 
Si 4.4241142200 4.2144293400 6.8351862600 
Si 5.3272861200 11.2000266000 5.5616123400 
Si 5.7268581000 2.0241302400 8.0757132000 
Si 8.1450000000 0.0000000000 8.1450000000 
Si 8.1414487800 3.0921460800 5.2732467600 
Si 7.2261897000 1.4988320400 6.4833874200 
Si 7.1493117600 4.0845871800 9.2196621600 
Si 9.5025000000 1.3575000000 9.5025000000 
Si 9.1468675800 4.2985291800 6.9466858800 
Si 0.0000000000 5.4300000000 0.0000000000 
Si 0.0000000000 8.1450000000 2.7150000000 
Si 2.5096048200 5.1499531800 2.6066823600 
Si 2.7150000000 8.1450000000 0.0000000000 
Si 1.3575000000 6.7875000000 1.3575000000 
Si 1.3575000000 9.5025000000 4.0725000000 
Si 4.3310005800 6.2764609800 4.1645602200 
Si 4.0725000000 9.5025000000 1.3575000000 
Si 5.3545230000 5.7058440000 10.4637729000 
Si 5.2937721600 7.9122593400 2.5432165200 
Si 8.5356667800 5.9472618000 2.2642991400 
Si 8.1450000000 8.1450000000 0.0000000000 
Si 6.6395542200 6.9514208400 0.9841310280 
Si 6.5359281000 9.2634496800 4.1377360200 
Si 9.4005571800 6.6704074800 4.1326861200 
Si 9.5025000000 9.5025000000 1.3575000000 
Si 10.6930383600 5.3308156200 5.6944084200 
Si 0.0000000000 8.1450000000 8.1450000000 
Si 2.8466340600 5.3903935800 7.9488249600 
Si 3.1406685600 8.2439997600 5.0334036600 
Si 1.5434449200 6.9502045200 6.7169968800 
Si 1.3575000000 9.5025000000 9.5025000000 
Si 3.9420496800 7.1282868000 9.1145482200 
Si 4.2912855600 9.5336030400 6.6865671600 
Si 9.5025000000 9.5025000000 6.7875000000 
Si 5.6387726400 8.0623662600 7.9937419200 
Si 7.7516942400 6.0532336800 7.4573013600 
Si 8.2147537800 8.1007346400 5.2078695600 
Si 6.2915563800 6.6367849200 5.7102205800 
Si 6.7875000000 9.5025000000 9.5025000000 
Si 9.5025000000 6.7875000000 9.5025000000 

