&CONTROL
  dt          = 30.D0,
  prefix = 'R1-T3000-172',
  pseudo_dir = './',
  outdir='./',
 wf_collect=.true.,
 verbosity ="high",
/

&SYSTEM
    ibrav= 0, nat=  63, ntyp= 1,
  ecutwfc     = 42.D0,
  nbnd=252,
  degauss     = 0.05D0,
  occupations = "smearing",
  smearing    = "methfessel-paxton",
/
&ELECTRONS
  electron_maxstep=200,
  conv_thr    = 1.D-8,
  mixing_beta = 0.3D0,
  scf_must_converge=.false.,
/
&IONS
/
ATOMIC_SPECIES
Si  28.08  Si.pbe-hgh.UPF

K_POINTS {automatic}
4 4 4 0 0 0
CELL_PARAMETERS angstrom
10.86000000000000 0.00000000000000 0.00000000000000
0.00000000000000 10.86000000000000 0.00000000000000
0.00000000000000 0.00000000000000 10.86000000000000

ATOMIC_POSITIONS angstrom
Si 0.0000000000 0.0000000000 0.0000000000 
Si 0.0000000000 2.7150000000 2.7150000000 
Si 2.7150000000 0.0000000000 2.7150000000 
Si 2.7150000000 2.7150000000 0.0000000000 
Si 1.3575000000 1.3575000000 1.3575000000 
Si 1.2952396200 4.1799271200 4.0991395800 
Si 4.4742005400 1.3930882200 4.0996391400 
Si 4.0043100600 4.3095412200 1.3974756600 
Si 5.4300000000 0.0000000000 0.0000000000 
Si 5.6058125400 2.9739024000 2.6137739400 
Si 8.1450000000 0.0000000000 2.7150000000 
Si 8.1450000000 2.7150000000 0.0000000000 
Si 6.7875000000 1.3575000000 1.3575000000 
Si 7.0403316600 4.2388317600 4.0069273200 
Si 9.5025000000 1.3575000000 4.0725000000 
Si 9.5025000000 4.0725000000 1.3575000000 
Si 0.0000000000 0.0000000000 5.4300000000 
Si 0.0000000000 2.7150000000 8.1450000000 
Si 2.7150000000 0.0000000000 8.1450000000 
Si 2.8518251400 2.5934983200 5.0514421200 
Si 1.3575000000 1.3575000000 6.7875000000 
Si 1.3575000000 4.0725000000 9.5025000000 
Si 4.0725000000 1.3575000000 9.5025000000 
Si 3.6453001800 3.8161605600 6.6195392400 
Si 6.0525386400 0.0622920912 5.4285664800 
Si 5.3227575000 2.8027053600 8.1149503800 
Si 8.1450000000 0.0000000000 8.1450000000 
Si 8.0771684400 2.7612093000 5.2305561000 
Si 6.8859567600 1.5578018400 6.9397572000 
Si 6.7126963200 3.9980438400 9.5068005600 
Si 9.5025000000 1.3575000000 9.5025000000 
Si 9.6431152800 3.9689716200 6.8101431000 
Si 0.0000000000 5.4300000000 0.0000000000 
Si 0.0000000000 8.1450000000 2.7150000000 
Si 2.6368514400 5.6654013600 2.6904238200 
Si 2.7150000000 8.1450000000 0.0000000000 
Si 1.3575000000 6.7875000000 1.3575000000 
Si 1.3575000000 9.5025000000 4.0725000000 
Si 5.2738983600 4.7382397200 5.4902078400 
Si 4.0725000000 9.5025000000 1.3575000000 
Si 4.9802982600 5.5567362000 10.5990342000 
Si 5.3072602800 8.0020389600 3.2778412200 
Si 8.2900570200 5.6954401200 2.7605685600 
Si 8.1450000000 8.1450000000 0.0000000000 
Si 6.4143829800 6.7677456600 1.3891243200 
Si 7.3618745400 9.3296522400 4.3277425800 
Si 9.5490351000 7.1535906000 4.3865060400 
Si 9.5025000000 9.5025000000 1.3575000000 
Si 0.0247669902 5.4665439000 5.7542796000 
Si 0.0000000000 8.1450000000 8.1450000000 
Si 2.4063153600 5.6743717200 7.7454063000 
Si 3.2124205800 7.8944815200 5.0082301800 
Si 1.4475076800 7.1935228200 6.3457369200 
Si 1.3575000000 9.5025000000 9.5025000000 
Si 3.7006318800 6.8761610400 9.0270383400 
Si 4.0091970600 9.6605998800 6.4664784000 
Si 9.5025000000 9.5025000000 6.7875000000 
Si 5.2920671400 8.1015491400 7.8431245800 
Si 8.3122657200 5.2245396600 8.1406777200 
Si 8.2596598800 7.8302337600 5.8952749800 
Si 6.6539545800 6.2589438000 6.7356760800 
Si 6.7875000000 9.5025000000 9.5025000000 
Si 9.5025000000 6.7875000000 9.5025000000 

