&CONTROL
  dt          = 30.D0,
  prefix = 'R1-T3000-283',
  pseudo_dir = './',
  outdir='./',
 wf_collect=.true.,
 verbosity ="high",
/

&SYSTEM
    ibrav= 0, nat=  63, ntyp= 1,
  ecutwfc     = 42.D0,
  nbnd=252,
  degauss     = 0.05D0,
  occupations = "smearing",
  smearing    = "methfessel-paxton",
/
&ELECTRONS
  electron_maxstep=200,
  conv_thr    = 1.D-8,
  mixing_beta = 0.3D0,
  scf_must_converge=.false.,
/
&IONS
/
ATOMIC_SPECIES
Si  28.08  Si.pbe-hgh.UPF

K_POINTS {automatic}
4 4 4 0 0 0
CELL_PARAMETERS angstrom
10.86000000000000 0.00000000000000 0.00000000000000
0.00000000000000 10.86000000000000 0.00000000000000
0.00000000000000 0.00000000000000 10.86000000000000

ATOMIC_POSITIONS angstrom
Si 0.0000000000 0.0000000000 0.0000000000 
Si 0.0000000000 2.7150000000 2.7150000000 
Si 2.7150000000 0.0000000000 2.7150000000 
Si 2.7150000000 2.7150000000 0.0000000000 
Si 1.3575000000 1.3575000000 1.3575000000 
Si 1.4644275600 4.0420702800 4.0676564400 
Si 3.8579932800 1.1889528000 4.2304152600 
Si 4.2095640600 3.9396822000 1.2863887200 
Si 5.4300000000 0.0000000000 0.0000000000 
Si 5.4306190200 2.6001663600 3.2157980400 
Si 8.1450000000 0.0000000000 2.7150000000 
Si 8.1450000000 2.7150000000 0.0000000000 
Si 6.7875000000 1.3575000000 1.3575000000 
Si 6.7734254400 4.0239449400 4.3681309200 
Si 9.5025000000 1.3575000000 4.0725000000 
Si 9.5025000000 4.0725000000 1.3575000000 
Si 0.0000000000 0.0000000000 5.4300000000 
Si 0.0000000000 2.7150000000 8.1450000000 
Si 2.7150000000 0.0000000000 8.1450000000 
Si 2.7155321400 2.7923014800 5.4711051000 
Si 1.3575000000 1.3575000000 6.7875000000 
Si 1.3575000000 4.0725000000 9.5025000000 
Si 4.0725000000 1.3575000000 9.5025000000 
Si 4.2960856800 4.0002049800 6.4955071800 
Si 5.3524921800 10.8252697200 5.5070951400 
Si 5.2218029400 2.8947438600 7.9298308200 
Si 8.1450000000 0.0000000000 8.1450000000 
Si 8.2474858200 2.6203876800 5.6877621000 
Si 6.7263907800 1.2746707800 6.9755409000 
Si 6.6859372800 4.0401806400 9.5317134000 
Si 9.5025000000 1.3575000000 9.5025000000 
Si 9.4219948200 4.3900138200 6.7213083000 
Si 0.0000000000 5.4300000000 0.0000000000 
Si 0.0000000000 8.1450000000 2.7150000000 
Si 2.9203626000 5.0836746000 2.7270980400 
Si 2.7150000000 8.1450000000 0.0000000000 
Si 1.3575000000 6.7875000000 1.3575000000 
Si 1.3575000000 9.5025000000 4.0725000000 
Si 5.3088675600 5.5400009400 5.4501453000 
Si 4.0725000000 9.5025000000 1.3575000000 
Si 5.2127457000 5.6156082600 -0.0706246434 
Si 5.2879077600 7.9477172400 2.6633498400 
Si 7.9063189200 5.1817186800 2.7216354600 
Si 8.1450000000 8.1450000000 0.0000000000 
Si 6.6191591400 7.0504857600 1.3132889400 
Si 6.6766737000 9.4464406800 3.8880537600 
Si 9.4742097000 6.5921394600 3.7533789000 
Si 9.5025000000 9.5025000000 1.3575000000 
Si 0.1973316300 5.3734411200 5.3812603200 
Si 0.0000000000 8.1450000000 8.1450000000 
Si 2.8778131200 5.4334643400 8.0882130600 
Si 2.9061034200 8.2762213800 5.2236817200 
Si 1.4764061400 6.7911489600 6.8723166000 
Si 1.3575000000 9.5025000000 9.5025000000 
Si 3.9958501200 6.8254122600 9.4274356800 
Si 4.0418639400 9.5769887400 6.7286605200 
Si 9.5025000000 9.5025000000 6.7875000000 
Si 5.3338129800 8.1826081800 7.7993696400 
Si 7.9885182600 5.7329071200 8.2184896200 
Si 8.4614061000 8.3136992400 5.2950102000 
Si 7.0181881200 6.8504228400 6.5281414800 
Si 6.7875000000 9.5025000000 9.5025000000 
Si 9.5025000000 6.7875000000 9.5025000000 

