&CONTROL
  dt          = 30.D0,
  prefix = 'R1-T3000-157',
  pseudo_dir = './',
  outdir='./',
 wf_collect=.true.,
 verbosity ="high",
/

&SYSTEM
    ibrav= 0, nat=  63, ntyp= 1,
  ecutwfc     = 42.D0,
  nbnd=252,
  degauss     = 0.05D0,
  occupations = "smearing",
  smearing    = "methfessel-paxton",
/
&ELECTRONS
  electron_maxstep=200,
  conv_thr    = 1.D-8,
  mixing_beta = 0.3D0,
  scf_must_converge=.false.,
/
&IONS
/
ATOMIC_SPECIES
Si  28.08  Si.pbe-hgh.UPF

K_POINTS {automatic}
4 4 4 0 0 0
CELL_PARAMETERS angstrom
10.86000000000000 0.00000000000000 0.00000000000000
0.00000000000000 10.86000000000000 0.00000000000000
0.00000000000000 0.00000000000000 10.86000000000000

ATOMIC_POSITIONS angstrom
Si 0.0000000000 0.0000000000 0.0000000000 
Si 0.0000000000 2.7150000000 2.7150000000 
Si 2.7150000000 0.0000000000 2.7150000000 
Si 2.7150000000 2.7150000000 0.0000000000 
Si 1.3575000000 1.3575000000 1.3575000000 
Si 1.1975539200 4.3310983200 4.1566541400 
Si 3.8543226000 1.7262838800 4.4675325000 
Si 4.4204218200 3.8882383800 1.1837400000 
Si 5.4300000000 0.0000000000 0.0000000000 
Si 5.2835203200 2.6861449800 2.9921906400 
Si 8.1450000000 0.0000000000 2.7150000000 
Si 8.1450000000 2.7150000000 0.0000000000 
Si 6.7875000000 1.3575000000 1.3575000000 
Si 6.6111770400 4.3675770600 4.3235397600 
Si 9.5025000000 1.3575000000 4.0725000000 
Si 9.5025000000 4.0725000000 1.3575000000 
Si 0.0000000000 0.0000000000 5.4300000000 
Si 0.0000000000 2.7150000000 8.1450000000 
Si 2.7150000000 0.0000000000 8.1450000000 
Si 2.5262423400 3.1748992800 5.5868618400 
Si 1.3575000000 1.3575000000 6.7875000000 
Si 1.3575000000 4.0725000000 9.5025000000 
Si 4.0725000000 1.3575000000 9.5025000000 
Si 4.2002353200 4.4739073200 6.9247486800 
Si 5.4917499600 0.3322247760 5.4919888800 
Si 5.4108755400 2.8177138800 8.3643285600 
Si 8.1450000000 0.0000000000 8.1450000000 
Si 8.2428051600 2.6104073400 5.3356157400 
Si 6.9393662400 1.7204194800 6.8852182800 
Si 6.9491836800 4.6697022600 9.5343523800 
Si 9.5025000000 1.3575000000 9.5025000000 
Si 9.4400767200 4.0108912200 6.5690293800 
Si 0.0000000000 5.4300000000 0.0000000000 
Si 0.0000000000 8.1450000000 2.7150000000 
Si 2.7521412000 5.5345709400 2.5680316200 
Si 2.7150000000 8.1450000000 0.0000000000 
Si 1.3575000000 6.7875000000 1.3575000000 
Si 1.3575000000 9.5025000000 4.0725000000 
Si 5.1636259200 6.1810776000 5.1870400800 
Si 4.0725000000 9.5025000000 1.3575000000 
Si 5.7053878800 5.7222751800 0.4493618220 
Si 4.5973746600 7.7448307200 3.3980940000 
Si 8.2711280400 5.4592459800 3.0794073000 
Si 8.1450000000 8.1450000000 0.0000000000 
Si 6.7374897000 7.1729648400 1.7988721200 
Si 6.5262952800 9.3965281200 4.1882350200 
Si 9.6479914200 6.8796036600 4.1908740000 
Si 9.5025000000 9.5025000000 1.3575000000 
Si 10.7739670800 5.5632630600 5.6301715200 
Si 0.0000000000 8.1450000000 8.1450000000 
Si 2.7080930400 5.3085634800 8.2073907000 
Si 2.6902283400 7.9787768400 5.1691210800 
Si 1.4092913400 6.6958741800 6.6920840400 
Si 1.3575000000 9.5025000000 9.5025000000 
Si 4.3940971800 6.6362419200 9.7067114400 
Si 4.3978981800 9.2845615200 6.6651078000 
Si 9.5025000000 9.5025000000 6.7875000000 
Si 5.7790078200 7.8992164800 8.4136981200 
Si 8.4993943800 5.6941803600 7.8881610000 
Si 8.3205519000 8.5320395400 5.1539388000 
Si 7.0862368800 7.1610514200 6.5294012400 
Si 6.7875000000 9.5025000000 9.5025000000 
Si 9.5025000000 6.7875000000 9.5025000000 

