&CONTROL
  dt          = 30.D0,
  prefix = 'R1-T3000-204',
  pseudo_dir = './',
  outdir='./',
 wf_collect=.true.,
 verbosity ="high",
/

&SYSTEM
    ibrav= 0, nat=  63, ntyp= 1,
  ecutwfc     = 42.D0,
  nbnd=252,
  degauss     = 0.05D0,
  occupations = "smearing",
  smearing    = "methfessel-paxton",
/
&ELECTRONS
  electron_maxstep=200,
  conv_thr    = 1.D-8,
  mixing_beta = 0.3D0,
  scf_must_converge=.false.,
/
&IONS
/
ATOMIC_SPECIES
Si  28.08  Si.pbe-hgh.UPF

K_POINTS {automatic}
4 4 4 0 0 0
CELL_PARAMETERS angstrom
10.86000000000000 0.00000000000000 0.00000000000000
0.00000000000000 10.86000000000000 0.00000000000000
0.00000000000000 0.00000000000000 10.86000000000000

ATOMIC_POSITIONS angstrom
Si 0.0000000000 0.0000000000 0.0000000000 
Si 0.0000000000 2.7150000000 2.7150000000 
Si 2.7150000000 0.0000000000 2.7150000000 
Si 2.7150000000 2.7150000000 0.0000000000 
Si 1.3575000000 1.3575000000 1.3575000000 
Si 1.4969532600 4.2207824400 4.2966721200 
Si 4.0970979000 1.5139274400 3.7699512600 
Si 4.4362014000 4.4093011800 1.2562413600 
Si 5.4300000000 0.0000000000 0.0000000000 
Si 5.4900123600 2.7692891400 2.5649582400 
Si 8.1450000000 0.0000000000 2.7150000000 
Si 8.1450000000 2.7150000000 0.0000000000 
Si 6.7875000000 1.3575000000 1.3575000000 
Si 6.6054103800 4.0773652800 4.0439816400 
Si 9.5025000000 1.3575000000 4.0725000000 
Si 9.5025000000 4.0725000000 1.3575000000 
Si 0.0000000000 0.0000000000 5.4300000000 
Si 0.0000000000 2.7150000000 8.1450000000 
Si 2.7150000000 0.0000000000 8.1450000000 
Si 2.3121700200 2.2941098400 4.8026612400 
Si 1.3575000000 1.3575000000 6.7875000000 
Si 1.3575000000 4.0725000000 9.5025000000 
Si 4.0725000000 1.3575000000 9.5025000000 
Si 3.6609711600 3.7646733000 6.6559202400 
Si 5.6311706400 10.8660816000 5.3078250000 
Si 5.1802634400 2.7718955400 8.0968576200 
Si 8.1450000000 0.0000000000 8.1450000000 
Si 8.3709966000 2.8536713400 5.5248621000 
Si 6.8815258800 1.7001221400 6.9355761000 
Si 6.6174975600 4.1191219800 9.4984166400 
Si 9.5025000000 1.3575000000 9.5025000000 
Si 9.6004354800 4.1428510800 7.1047097400 
Si 0.0000000000 5.4300000000 0.0000000000 
Si 0.0000000000 8.1450000000 2.7150000000 
Si 2.8951565400 5.2727906400 2.8689405000 
Si 2.7150000000 8.1450000000 0.0000000000 
Si 1.3575000000 6.7875000000 1.3575000000 
Si 1.3575000000 9.5025000000 4.0725000000 
Si 5.1723465000 5.0291248200 5.5736995200 
Si 4.0725000000 9.5025000000 1.3575000000 
Si 5.3591059200 5.7191800800 10.6197442200 
Si 5.5443123600 8.5215487800 2.7533901000 
Si 8.2065544800 5.4251238600 2.8471662000 
Si 8.1450000000 8.1450000000 0.0000000000 
Si 6.8733374400 6.8199605400 1.5393941400 
Si 7.2094761600 9.4668900600 4.6255020600 
Si 9.7970992200 6.7440274200 4.3828679400 
Si 9.5025000000 9.5025000000 1.3575000000 
Si 0.1089801000 5.3568470400 5.7514234200 
Si 0.0000000000 8.1450000000 8.1450000000 
Si 2.0441886600 5.4020029200 7.4369605800 
Si 3.4315319400 8.0392670400 4.5031641600 
Si 1.3018099200 7.6887714000 6.2317503600 
Si 1.3575000000 9.5025000000 9.5025000000 
Si 3.6137953200 6.7699502400 9.1209013200 
Si 3.7961130000 9.5579728800 6.6252516000 
Si 9.5025000000 9.5025000000 6.7875000000 
Si 5.2222807800 7.8888343200 8.0206095600 
Si 8.0294278800 5.5173578400 8.2820966400 
Si 8.3577365400 7.7339924400 5.8851534600 
Si 6.5708973000 6.3873307200 6.8028234600 
Si 6.7875000000 9.5025000000 9.5025000000 
Si 9.5025000000 6.7875000000 9.5025000000 

