&CONTROL
  dt          = 30.D0,
  prefix = 'R1-T3000-282',
  pseudo_dir = './',
  outdir='./',
 wf_collect=.true.,
 verbosity ="high",
/

&SYSTEM
    ibrav= 0, nat=  63, ntyp= 1,
  ecutwfc     = 42.D0,
  nbnd=252,
  degauss     = 0.05D0,
  occupations = "smearing",
  smearing    = "methfessel-paxton",
/
&ELECTRONS
  electron_maxstep=200,
  conv_thr    = 1.D-8,
  mixing_beta = 0.3D0,
  scf_must_converge=.false.,
/
&IONS
/
ATOMIC_SPECIES
Si  28.08  Si.pbe-hgh.UPF

K_POINTS {automatic}
4 4 4 0 0 0
CELL_PARAMETERS angstrom
10.86000000000000 0.00000000000000 0.00000000000000
0.00000000000000 10.86000000000000 0.00000000000000
0.00000000000000 0.00000000000000 10.86000000000000

ATOMIC_POSITIONS angstrom
Si 0.0000000000 0.0000000000 0.0000000000 
Si 0.0000000000 2.7150000000 2.7150000000 
Si 2.7150000000 0.0000000000 2.7150000000 
Si 2.7150000000 2.7150000000 0.0000000000 
Si 1.3575000000 1.3575000000 1.3575000000 
Si 1.3350306600 4.0171574400 4.0785164400 
Si 3.7393912200 1.2033640200 4.3483874400 
Si 4.2845632200 3.7637067600 1.4546427000 
Si 5.4300000000 0.0000000000 0.0000000000 
Si 5.4040337400 2.3904706200 3.1242373800 
Si 8.1450000000 0.0000000000 2.7150000000 
Si 8.1450000000 2.7150000000 0.0000000000 
Si 6.7875000000 1.3575000000 1.3575000000 
Si 6.7656714000 3.8334822600 4.2558711000 
Si 9.5025000000 1.3575000000 4.0725000000 
Si 9.5025000000 4.0725000000 1.3575000000 
Si 0.0000000000 0.0000000000 5.4300000000 
Si 0.0000000000 2.7150000000 8.1450000000 
Si 2.7150000000 0.0000000000 8.1450000000 
Si 2.9034535800 2.7388811400 5.5645228200 
Si 1.3575000000 1.3575000000 6.7875000000 
Si 1.3575000000 4.0725000000 9.5025000000 
Si 4.0725000000 1.3575000000 9.5025000000 
Si 4.1604660000 4.0603150800 6.4869929400 
Si 5.3987992200 10.8267575400 5.4701385600 
Si 5.1673726200 2.8432240200 8.0418191400 
Si 8.1450000000 0.0000000000 8.1450000000 
Si 8.3731794600 2.7372738600 5.7255766200 
Si 6.7299202800 1.1678844000 6.9296682600 
Si 6.7495225800 4.1486937600 9.4872091200 
Si 9.5025000000 1.3575000000 9.5025000000 
Si 9.4586690400 4.3191631800 6.6478512600 
Si 0.0000000000 5.4300000000 0.0000000000 
Si 0.0000000000 8.1450000000 2.7150000000 
Si 2.7454405800 5.1317409600 2.7470913000 
Si 2.7150000000 8.1450000000 0.0000000000 
Si 1.3575000000 6.7875000000 1.3575000000 
Si 1.3575000000 9.5025000000 4.0725000000 
Si 5.4044247000 5.6565721800 5.4910657800 
Si 4.0725000000 9.5025000000 1.3575000000 
Si 5.2723562400 5.3848441200 -0.0405921822 
Si 5.1242801400 8.0423838600 2.4040021800 
Si 7.9123136400 5.2027327800 2.5058146800 
Si 8.1450000000 8.1450000000 0.0000000000 
Si 6.6490675800 7.0551447000 1.1522568600 
Si 6.6518043000 9.4295751000 3.6824413800 
Si 9.4652393400 6.6357423600 3.6427806600 
Si 9.5025000000 9.5025000000 1.3575000000 
Si 0.2374039440 5.4641004000 5.3623856400 
Si 0.0000000000 8.1450000000 8.1450000000 
Si 2.9903335800 5.4318787800 8.1339988200 
Si 2.9613156600 8.4481786200 5.4546847800 
Si 1.3689138600 6.7754236800 6.8394108000 
Si 1.3575000000 9.5025000000 9.5025000000 
Si 4.0385842200 6.8348496000 9.4663579200 
Si 4.0133998800 9.7187334600 6.9136497600 
Si 9.5025000000 9.5025000000 6.7875000000 
Si 5.3127445800 8.1619741800 7.8721859400 
Si 8.0038417200 5.6418025800 8.2900678800 
Si 8.4515560800 8.2794793800 5.2521349200 
Si 6.8864780400 6.9244011600 6.5185846800 
Si 6.7875000000 9.5025000000 9.5025000000 
Si 9.5025000000 6.7875000000 9.5025000000 

