&CONTROL
  dt          = 30.D0,
  prefix = 'R1-T3000-90',
  pseudo_dir = './',
  outdir='./',
 wf_collect=.true.,
 verbosity ="high",
/

&SYSTEM
    ibrav= 0, nat=  63, ntyp= 1,
  ecutwfc     = 42.D0,
  nbnd=252,
  degauss     = 0.05D0,
  occupations = "smearing",
  smearing    = "methfessel-paxton",
/
&ELECTRONS
  electron_maxstep=200,
  conv_thr    = 1.D-8,
  mixing_beta = 0.3D0,
  scf_must_converge=.false.,
/
&IONS
/
ATOMIC_SPECIES
Si  28.08  Si.pbe-hgh.UPF

K_POINTS {automatic}
4 4 4 0 0 0
CELL_PARAMETERS angstrom
10.86000000000000 0.00000000000000 0.00000000000000
0.00000000000000 10.86000000000000 0.00000000000000
0.00000000000000 0.00000000000000 10.86000000000000

ATOMIC_POSITIONS angstrom
Si 0.0000000000 0.0000000000 0.0000000000 
Si 0.0000000000 2.7150000000 2.7150000000 
Si 2.7150000000 0.0000000000 2.7150000000 
Si 2.7150000000 2.7150000000 0.0000000000 
Si 1.3575000000 1.3575000000 1.3575000000 
Si 1.4944011600 4.2238775400 4.1298299400 
Si 3.8115993600 1.2282334200 4.3525685400 
Si 4.3792298400 3.8203416600 1.2570993000 
Si 5.4300000000 0.0000000000 0.0000000000 
Si 5.2930011000 2.1481297200 2.7665415600 
Si 8.1450000000 0.0000000000 2.7150000000 
Si 8.1450000000 2.7150000000 0.0000000000 
Si 6.7875000000 1.3575000000 1.3575000000 
Si 6.3097577400 3.9976637400 4.2292098000 
Si 9.5025000000 1.3575000000 4.0725000000 
Si 9.5025000000 4.0725000000 1.3575000000 
Si 0.0000000000 0.0000000000 5.4300000000 
Si 0.0000000000 2.7150000000 8.1450000000 
Si 2.7150000000 0.0000000000 8.1450000000 
Si 2.6801937000 3.0348378600 5.7967856400 
Si 1.3575000000 1.3575000000 6.7875000000 
Si 1.3575000000 4.0725000000 9.5025000000 
Si 4.0725000000 1.3575000000 9.5025000000 
Si 4.7552247600 3.6856016400 6.2812719600 
Si 5.3782521000 10.3891321200 5.1935452200 
Si 5.5732651200 2.5193679600 8.1968673600 
Si 8.1450000000 0.0000000000 8.1450000000 
Si 7.9291357800 2.6461801800 5.5762407600 
Si 6.8692323600 1.0663195080 6.5399028600 
Si 6.7545399000 3.8925172200 9.4540426800 
Si 9.5025000000 1.3575000000 9.5025000000 
Si 9.5856658800 4.0223811000 6.8222520000 
Si 0.0000000000 5.4300000000 0.0000000000 
Si 0.0000000000 8.1450000000 2.7150000000 
Si 2.8506196800 5.4267745800 2.4627004800 
Si 2.7150000000 8.1450000000 0.0000000000 
Si 1.3575000000 6.7875000000 1.3575000000 
Si 1.3575000000 9.5025000000 4.0725000000 
Si 4.4855166600 6.3352135800 4.4797717200 
Si 4.0725000000 9.5025000000 1.3575000000 
Si 5.6449085400 5.3714103000 0.0706778574 
Si 5.3059788000 7.8742167600 2.9032038000 
Si 8.4099297000 5.0714136600 3.1773862200 
Si 8.1450000000 8.1450000000 0.0000000000 
Si 7.0761805200 6.6106666200 1.7078870400 
Si 6.9371073600 9.4041627000 3.9333182400 
Si 9.6235347000 7.0394302800 4.3384288200 
Si 9.5025000000 9.5025000000 1.3575000000 
Si 0.0675448560 5.4119941200 5.5730479200 
Si 0.0000000000 8.1450000000 8.1450000000 
Si 3.1303407000 4.8749888400 7.9126503000 
Si 2.6766207600 7.4927158200 5.5682803800 
Si 1.2687195000 6.3470944200 7.1472700800 
Si 1.3575000000 9.5025000000 9.5025000000 
Si 4.1327730000 6.9212952000 9.3832246200 
Si 3.7108837200 9.4583649600 6.6197998800 
Si 9.5025000000 9.5025000000 6.7875000000 
Si 5.2784052600 8.4881542800 8.1303281400 
Si 7.7267814000 5.7454178400 8.0410263600 
Si 8.0314478400 7.9812203400 5.7123491400 
Si 5.9566231200 6.7683103800 6.3461821800 
Si 6.7875000000 9.5025000000 9.5025000000 
Si 9.5025000000 6.7875000000 9.5025000000 

