&CONTROL
  dt          = 30.D0,
  prefix = 'R1-T3000-183',
  pseudo_dir = './',
  outdir='./',
 wf_collect=.true.,
 verbosity ="high",
/

&SYSTEM
    ibrav= 0, nat=  63, ntyp= 1,
  ecutwfc     = 42.D0,
  nbnd=252,
  degauss     = 0.05D0,
  occupations = "smearing",
  smearing    = "methfessel-paxton",
/
&ELECTRONS
  electron_maxstep=200,
  conv_thr    = 1.D-8,
  mixing_beta = 0.3D0,
  scf_must_converge=.false.,
/
&IONS
/
ATOMIC_SPECIES
Si  28.08  Si.pbe-hgh.UPF

K_POINTS {automatic}
4 4 4 0 0 0
CELL_PARAMETERS angstrom
10.86000000000000 0.00000000000000 0.00000000000000
0.00000000000000 10.86000000000000 0.00000000000000
0.00000000000000 0.00000000000000 10.86000000000000

ATOMIC_POSITIONS angstrom
Si 0.0000000000 0.0000000000 0.0000000000 
Si 0.0000000000 2.7150000000 2.7150000000 
Si 2.7150000000 0.0000000000 2.7150000000 
Si 2.7150000000 2.7150000000 0.0000000000 
Si 1.3575000000 1.3575000000 1.3575000000 
Si 1.4863647600 4.7673553800 3.8282260200 
Si 3.9103167600 1.5478866600 4.1243347800 
Si 4.2846392400 3.9395301600 1.3307518200 
Si 5.4300000000 0.0000000000 0.0000000000 
Si 5.3290237200 2.6462779200 2.7215920200 
Si 8.1450000000 0.0000000000 2.7150000000 
Si 8.1450000000 2.7150000000 0.0000000000 
Si 6.7875000000 1.3575000000 1.3575000000 
Si 6.4658050800 3.9493910400 4.4334321000 
Si 9.5025000000 1.3575000000 4.0725000000 
Si 9.5025000000 4.0725000000 1.3575000000 
Si 0.0000000000 0.0000000000 5.4300000000 
Si 0.0000000000 2.7150000000 8.1450000000 
Si 2.7150000000 0.0000000000 8.1450000000 
Si 2.4605284800 3.1483683000 5.6891956200 
Si 1.3575000000 1.3575000000 6.7875000000 
Si 1.3575000000 4.0725000000 9.5025000000 
Si 4.0725000000 1.3575000000 9.5025000000 
Si 4.1229990000 3.9905504400 6.7655193600 
Si 4.9905935400 10.7337090600 5.3820748200 
Si 5.5012416000 2.5349086200 7.8306898800 
Si 8.1450000000 0.0000000000 8.1450000000 
Si 7.9373350800 2.4067932000 5.6736658200 
Si 6.6012510000 1.0189796820 6.6177364800 
Si 6.6421606200 4.0705886400 9.3280884000 
Si 9.5025000000 1.3575000000 9.5025000000 
Si 9.3945190200 4.2921326400 6.6031515000 
Si 0.0000000000 5.4300000000 0.0000000000 
Si 0.0000000000 8.1450000000 2.7150000000 
Si 2.9882267400 5.5531089600 2.2686865800 
Si 2.7150000000 8.1450000000 0.0000000000 
Si 1.3575000000 6.7875000000 1.3575000000 
Si 1.3575000000 9.5025000000 4.0725000000 
Si 5.3225728800 5.6780641200 5.4835723800 
Si 4.0725000000 9.5025000000 1.3575000000 
Si 5.9439603600 5.7302029800 0.3638013120 
Si 4.3131467400 7.4869057200 3.0137260200 
Si 7.5726128400 5.4194658000 2.8028791200 
Si 8.1450000000 8.1450000000 0.0000000000 
Si 6.3925326600 7.6301708400 2.0671032600 
Si 6.3717466200 9.6937446000 3.6082675800 
Si 9.2664687600 6.8278231800 3.9157576200 
Si 9.5025000000 9.5025000000 1.3575000000 
Si 10.7368258800 5.3755045200 5.2375825200 
Si 0.0000000000 8.1450000000 8.1450000000 
Si 2.6876762400 5.6358838800 8.3284145400 
Si 3.0642576000 7.8281595000 5.0597608800 
Si 1.6548033600 6.8817105000 6.6593628600 
Si 1.3575000000 9.5025000000 9.5025000000 
Si 4.1572840200 6.7506628800 9.9063399600 
Si 3.8501740800 9.4074641400 6.8252928000 
Si 9.5025000000 9.5025000000 6.7875000000 
Si 5.3297404800 8.1147331800 8.1891676200 
Si 7.9929600000 5.5544230200 8.0466735600 
Si 8.1714115200 8.6049970200 5.1409719600 
Si 6.6632507400 7.1979862800 6.7127940600 
Si 6.7875000000 9.5025000000 9.5025000000 
Si 9.5025000000 6.7875000000 9.5025000000 

