&CONTROL
  dt          = 30.D0,
  prefix = 'R1-T1200-3',
  pseudo_dir = './',
  outdir='./',
 wf_collect=.true.,
 verbosity ="high",
/

&SYSTEM
    ibrav= 0, nat=  63, ntyp= 1,
  ecutwfc     = 42.D0,
  nbnd=252,
  degauss     = 0.05D0,
  occupations = "smearing",
  smearing    = "methfessel-paxton",
/
&ELECTRONS
  electron_maxstep=200,
  conv_thr    = 1.D-8,
  mixing_beta = 0.3D0,
  scf_must_converge=.false.,
/
&IONS
/
ATOMIC_SPECIES
Si  28.08  Si.pbe-hgh.UPF

K_POINTS {automatic}
4 4 4 0 0 0
CELL_PARAMETERS angstrom
10.86000000000000 0.00000000000000 0.00000000000000
0.00000000000000 10.86000000000000 0.00000000000000
0.00000000000000 0.00000000000000 10.86000000000000

ATOMIC_POSITIONS angstrom
Si 0.0000000000 0.0000000000 0.0000000000 
Si 0.0000000000 2.7150000000 2.7150000000 
Si 2.7150000000 0.0000000000 2.7150000000 
Si 2.7150000000 2.7150000000 0.0000000000 
Si 1.3575000000 1.3575000000 1.3575000000 
Si 1.3163514600 4.1093914200 3.9938518800 
Si 3.9438850200 1.3560447600 4.2198159000 
Si 4.1012572800 4.1156467800 1.2653963400 
Si 5.4300000000 0.0000000000 0.0000000000 
Si 5.3186415600 2.7447781200 2.7963305400 
Si 8.1450000000 0.0000000000 2.7150000000 
Si 8.1450000000 2.7150000000 0.0000000000 
Si 6.7875000000 1.3575000000 1.3575000000 
Si 6.7540837800 4.1704897800 4.0282672200 
Si 9.5025000000 1.3575000000 4.0725000000 
Si 9.5025000000 4.0725000000 1.3575000000 
Si 0.0000000000 0.0000000000 5.4300000000 
Si 0.0000000000 2.7150000000 8.1450000000 
Si 2.7150000000 0.0000000000 8.1450000000 
Si 2.6016759000 2.7866434200 5.4949102200 
Si 1.3575000000 1.3575000000 6.7875000000 
Si 1.3575000000 4.0725000000 9.5025000000 
Si 4.0725000000 1.3575000000 9.5025000000 
Si 4.1902441200 3.9337526400 6.8282358600 
Si 5.3852025000 -0.0016680634 5.5126554600 
Si 5.5526311200 2.6961036000 8.2319668800 
Si 8.1450000000 0.0000000000 8.1450000000 
Si 8.1004631400 2.7084405600 5.1733999200 
Si 6.8417457000 1.3841504400 6.7486972200 
Si 6.8498798400 4.1295584400 9.5449517400 
Si 9.5025000000 1.3575000000 9.5025000000 
Si 9.3734180400 3.8747285400 6.7673221200 
Si 0.0000000000 5.4300000000 0.0000000000 
Si 0.0000000000 8.1450000000 2.7150000000 
Si 2.8105680000 5.4901969800 2.6694531600 
Si 2.7150000000 8.1450000000 0.0000000000 
Si 1.3575000000 6.7875000000 1.3575000000 
Si 1.3575000000 9.5025000000 4.0725000000 
Si 4.2448807800 6.7274767800 4.1445886800 
Si 4.0725000000 9.5025000000 1.3575000000 
Si 5.5681609200 5.4790111800 0.0631341756 
Si 5.6118181200 8.0373339600 2.7707443800 
Si 8.1829991400 5.3291431800 2.7109383600 
Si 8.1450000000 8.1450000000 0.0000000000 
Si 6.9305913600 6.7431912000 1.3988657400 
Si 6.7009132200 9.6518575800 4.0275613200 
Si 9.2998958400 6.8554184400 4.0426350000 
Si 9.5025000000 9.5025000000 1.3575000000 
Si -0.1921372920 5.3512541400 5.4013621800 
Si 0.0000000000 8.1450000000 8.1450000000 
Si 2.7991107000 5.3678156400 8.2022213400 
Si 2.7731770200 8.0913624600 5.3723551200 
Si 1.3340206800 6.7458193200 6.7655410800 
Si 1.3575000000 9.5025000000 9.5025000000 
Si 4.0804712400 6.7394662200 9.6352092000 
Si 4.0217295000 9.4738078800 6.8152581600 
Si 9.5025000000 9.5025000000 6.7875000000 
Si 5.3254833600 8.1098570400 8.2204661400 
Si 8.1090208200 5.4939111000 7.9993131000 
Si 8.1052306800 8.4245146800 5.3626680000 
Si 6.7552132200 7.0002582600 6.6938433600 
Si 6.7875000000 9.5025000000 9.5025000000 
Si 9.5025000000 6.7875000000 9.5025000000 

