&CONTROL
  dt          = 30.D0,
  prefix = 'R1-T1200-43',
  pseudo_dir = './',
  outdir='./',
 wf_collect=.true.,
 verbosity ="high",
/

&SYSTEM
    ibrav= 0, nat=  63, ntyp= 1,
  ecutwfc     = 42.D0,
  nbnd=252,
  degauss     = 0.05D0,
  occupations = "smearing",
  smearing    = "methfessel-paxton",
/
&ELECTRONS
  electron_maxstep=200,
  conv_thr    = 1.D-8,
  mixing_beta = 0.3D0,
  scf_must_converge=.false.,
/
&IONS
/
ATOMIC_SPECIES
Si  28.08  Si.pbe-hgh.UPF

K_POINTS {automatic}
4 4 4 0 0 0
CELL_PARAMETERS angstrom
10.86000000000000 0.00000000000000 0.00000000000000
0.00000000000000 10.86000000000000 0.00000000000000
0.00000000000000 0.00000000000000 10.86000000000000

ATOMIC_POSITIONS angstrom
Si 0.0000000000 0.0000000000 0.0000000000 
Si 0.0000000000 2.7150000000 2.7150000000 
Si 2.7150000000 0.0000000000 2.7150000000 
Si 2.7150000000 2.7150000000 0.0000000000 
Si 1.3575000000 1.3575000000 1.3575000000 
Si 1.5452259600 3.9524970000 4.0510297800 
Si 3.9874553400 1.3154935200 4.2279717600 
Si 4.0424395200 4.2077504400 1.3508428200 
Si 5.4300000000 0.0000000000 0.0000000000 
Si 5.2867891800 2.7951793800 2.6946049200 
Si 8.1450000000 0.0000000000 2.7150000000 
Si 8.1450000000 2.7150000000 0.0000000000 
Si 6.7875000000 1.3575000000 1.3575000000 
Si 6.5410214400 4.0866397200 4.0648762800 
Si 9.5025000000 1.3575000000 4.0725000000 
Si 9.5025000000 4.0725000000 1.3575000000 
Si 0.0000000000 0.0000000000 5.4300000000 
Si 0.0000000000 2.7150000000 8.1450000000 
Si 2.7150000000 0.0000000000 8.1450000000 
Si 2.7713091000 2.6322359400 5.5283590200 
Si 1.3575000000 1.3575000000 6.7875000000 
Si 1.3575000000 4.0725000000 9.5025000000 
Si 4.0725000000 1.3575000000 9.5025000000 
Si 4.1793732600 3.9338829600 6.9627912600 
Si 5.2951622400 -0.1515078600 5.4895345200 
Si 5.6146851600 2.4924460200 8.2364194800 
Si 8.1450000000 0.0000000000 8.1450000000 
Si 8.1020487000 2.6391754800 5.2083691200 
Si 6.8259444000 1.2430247400 6.6383487600 
Si 6.8548754400 4.0714574400 9.4877304000 
Si 9.5025000000 1.3575000000 9.5025000000 
Si 9.5097219000 3.8836663200 6.5465057400 
Si 0.0000000000 5.4300000000 0.0000000000 
Si 0.0000000000 8.1450000000 2.7150000000 
Si 2.7845257200 5.4504602400 2.7563548800 
Si 2.7150000000 8.1450000000 0.0000000000 
Si 1.3575000000 6.7875000000 1.3575000000 
Si 1.3575000000 9.5025000000 4.0725000000 
Si 4.1070673800 6.7870764600 4.1072302800 
Si 4.0725000000 9.5025000000 1.3575000000 
Si 5.3859409800 5.4196504200 0.0129479436 
Si 5.7190389000 8.0006488800 2.6437366800 
Si 8.0629418400 5.2136905200 2.7219612600 
Si 8.1450000000 8.1450000000 0.0000000000 
Si 6.9877909800 6.6455706600 1.2287438400 
Si 6.9314601600 9.5639458800 4.2091622400 
Si 9.5097653400 6.7132176000 3.9672557400 
Si 9.5025000000 9.5025000000 1.3575000000 
Si 0.1133881740 5.4092465400 5.4712788600 
Si 0.0000000000 8.1450000000 8.1450000000 
Si 2.8744899600 5.2416333000 8.3479082400 
Si 2.7212770800 8.1659380800 5.3745488400 
Si 1.6096149000 6.7326787200 6.9854343600 
Si 1.3575000000 9.5025000000 9.5025000000 
Si 4.0649740200 6.7422898200 9.6458954400 
Si 3.8950258800 9.3374171400 6.9741725400 
Si 9.5025000000 9.5025000000 6.7875000000 
Si 5.3468992800 8.1066642000 8.1555124800 
Si 8.0077513200 5.3246580000 7.8397362600 
Si 8.0728461600 8.0579462400 5.4023830200 
Si 6.5699742000 6.9855972600 6.7323529200 
Si 6.7875000000 9.5025000000 9.5025000000 
Si 9.5025000000 6.7875000000 9.5025000000 

