&CONTROL
  dt          = 30.D0,
  prefix = 'R1-T3000-272',
  pseudo_dir = './',
  outdir='./',
 wf_collect=.true.,
 verbosity ="high",
/

&SYSTEM
    ibrav= 0, nat=  63, ntyp= 1,
  ecutwfc     = 42.D0,
  nbnd=252,
  degauss     = 0.05D0,
  occupations = "smearing",
  smearing    = "methfessel-paxton",
/
&ELECTRONS
  electron_maxstep=200,
  conv_thr    = 1.D-8,
  mixing_beta = 0.3D0,
  scf_must_converge=.false.,
/
&IONS
/
ATOMIC_SPECIES
Si  28.08  Si.pbe-hgh.UPF

K_POINTS {automatic}
4 4 4 0 0 0
CELL_PARAMETERS angstrom
10.86000000000000 0.00000000000000 0.00000000000000
0.00000000000000 10.86000000000000 0.00000000000000
0.00000000000000 0.00000000000000 10.86000000000000

ATOMIC_POSITIONS angstrom
Si 0.0000000000 0.0000000000 0.0000000000 
Si 0.0000000000 2.7150000000 2.7150000000 
Si 2.7150000000 0.0000000000 2.7150000000 
Si 2.7150000000 2.7150000000 0.0000000000 
Si 1.3575000000 1.3575000000 1.3575000000 
Si 1.2289936200 4.0052548800 4.2865614600 
Si 3.9941885400 1.1260516800 4.5897726600 
Si 3.8573199600 4.0046575800 1.5317378400 
Si 5.4300000000 0.0000000000 0.0000000000 
Si 4.9934823000 2.2298295000 2.9705358000 
Si 8.1450000000 0.0000000000 2.7150000000 
Si 8.1450000000 2.7150000000 0.0000000000 
Si 6.7875000000 1.3575000000 1.3575000000 
Si 6.5051400000 4.0379760600 3.6804865800 
Si 9.5025000000 1.3575000000 4.0725000000 
Si 9.5025000000 4.0725000000 1.3575000000 
Si 0.0000000000 0.0000000000 5.4300000000 
Si 0.0000000000 2.7150000000 8.1450000000 
Si 2.7150000000 0.0000000000 8.1450000000 
Si 2.7318004200 2.9886285600 5.5389258000 
Si 1.3575000000 1.3575000000 6.7875000000 
Si 1.3575000000 4.0725000000 9.5025000000 
Si 4.0725000000 1.3575000000 9.5025000000 
Si 4.1415696000 4.3323146400 6.8213289000 
Si 5.6709616800 10.6513685400 5.4559879800 
Si 5.3766774000 2.6217994800 7.9204695000 
Si 8.1450000000 0.0000000000 8.1450000000 
Si 8.2304030400 2.6670748200 5.0833379400 
Si 7.2802399200 1.4485828200 6.6204732000 
Si 6.7731539400 3.9623578800 9.1357686600 
Si 9.5025000000 1.3575000000 9.5025000000 
Si 9.5658138000 4.0518551400 6.7272704400 
Si 0.0000000000 5.4300000000 0.0000000000 
Si 0.0000000000 8.1450000000 2.7150000000 
Si 2.7176389800 5.4578341800 2.7219612600 
Si 2.7150000000 8.1450000000 0.0000000000 
Si 1.3575000000 6.7875000000 1.3575000000 
Si 1.3575000000 9.5025000000 4.0725000000 
Si 5.5979716200 4.8898561800 5.3596163400 
Si 4.0725000000 9.5025000000 1.3575000000 
Si 5.5069865400 4.7270213400 10.7984455200 
Si 5.2765373400 7.8854460000 2.3058712200 
Si 8.1415682400 5.4627972000 2.8135327800 
Si 8.1450000000 8.1450000000 0.0000000000 
Si 6.5570942400 6.3998414400 1.1835445200 
Si 6.8908980600 9.1647974400 3.7993492800 
Si 9.3283164600 7.1263102800 4.1644950600 
Si 9.5025000000 9.5025000000 1.3575000000 
Si -0.1857364080 5.8303864800 5.4209536200 
Si 0.0000000000 8.1450000000 8.1450000000 
Si 2.5895778600 5.5766208600 8.2321623600 
Si 2.0752156800 9.2099750400 6.3173163000 
Si 1.6306072800 7.0514740200 6.7809840000 
Si 1.3575000000 9.5025000000 9.5025000000 
Si 4.0185040800 6.4760243400 10.0383758400 
Si 4.3733111400 9.3035991000 7.0280272800 
Si 9.5025000000 9.5025000000 6.7875000000 
Si 5.4598650000 7.5347114400 8.3787397800 
Si 8.4024580200 5.3851807800 8.0423078400 
Si 7.7837638200 8.2476813000 5.5488518400 
Si 6.9699154200 6.5089192800 6.7810383000 
Si 6.7875000000 9.5025000000 9.5025000000 
Si 9.5025000000 6.7875000000 9.5025000000 

