&CONTROL
  dt          = 30.D0,
  prefix = 'R1-T3000-356',
  pseudo_dir = './',
  outdir='./',
 wf_collect=.true.,
 verbosity ="high",
/

&SYSTEM
    ibrav= 0, nat=  63, ntyp= 1,
  ecutwfc     = 42.D0,
  nbnd=252,
  degauss     = 0.05D0,
  occupations = "smearing",
  smearing    = "methfessel-paxton",
/
&ELECTRONS
  electron_maxstep=200,
  conv_thr    = 1.D-8,
  mixing_beta = 0.3D0,
  scf_must_converge=.false.,
/
&IONS
/
ATOMIC_SPECIES
Si  28.08  Si.pbe-hgh.UPF

K_POINTS {automatic}
4 4 4 0 0 0
CELL_PARAMETERS angstrom
10.86000000000000 0.00000000000000 0.00000000000000
0.00000000000000 10.86000000000000 0.00000000000000
0.00000000000000 0.00000000000000 10.86000000000000

ATOMIC_POSITIONS angstrom
Si 0.0000000000 0.0000000000 0.0000000000 
Si 0.0000000000 2.7150000000 2.7150000000 
Si 2.7150000000 0.0000000000 2.7150000000 
Si 2.7150000000 2.7150000000 0.0000000000 
Si 1.3575000000 1.3575000000 1.3575000000 
Si 1.3827712200 4.2010715400 4.4991351000 
Si 4.0273658400 1.4252229600 3.9168327600 
Si 4.2542421000 4.2286668000 0.9868720920 
Si 5.4300000000 0.0000000000 0.0000000000 
Si 5.5320731400 2.9671692000 2.7511312200 
Si 8.1450000000 0.0000000000 2.7150000000 
Si 8.1450000000 2.7150000000 0.0000000000 
Si 6.7875000000 1.3575000000 1.3575000000 
Si 6.0143983200 4.1724663000 4.9404637800 
Si 9.5025000000 1.3575000000 4.0725000000 
Si 9.5025000000 4.0725000000 1.3575000000 
Si 0.0000000000 0.0000000000 5.4300000000 
Si 0.0000000000 2.7150000000 8.1450000000 
Si 2.7150000000 0.0000000000 8.1450000000 
Si 2.7774993000 2.7842759400 5.5409674800 
Si 1.3575000000 1.3575000000 6.7875000000 
Si 1.3575000000 4.0725000000 9.5025000000 
Si 4.0725000000 1.3575000000 9.5025000000 
Si 4.5124277400 3.6351352200 6.9503782800 
Si 5.6231776800 11.1557178000 5.4269483400 
Si 5.5502962200 2.2656349200 8.1216184200 
Si 8.1450000000 0.0000000000 8.1450000000 
Si 8.1345526800 3.1718150400 5.3203900200 
Si 7.1984098200 1.4245496400 6.6889237800 
Si 6.7358281200 4.1141806800 8.9994756600 
Si 9.5025000000 1.3575000000 9.5025000000 
Si 9.2435215800 4.4954535600 6.7938531000 
Si 0.0000000000 5.4300000000 0.0000000000 
Si 0.0000000000 8.1450000000 2.7150000000 
Si 2.8706889600 4.9556895000 2.7556164000 
Si 2.7150000000 8.1450000000 0.0000000000 
Si 1.3575000000 6.7875000000 1.3575000000 
Si 1.3575000000 9.5025000000 4.0725000000 
Si 4.3211288400 6.1317297600 4.0521375000 
Si 4.0725000000 9.5025000000 1.3575000000 
Si 5.2183711800 5.4393504600 10.2918916800 
Si 5.3669577000 7.8845989200 2.7167267400 
Si 8.2995160800 5.7541384200 2.2939686600 
Si 8.1450000000 8.1450000000 0.0000000000 
Si 6.3850935600 6.7068210600 1.0629854880 
Si 6.5370684000 9.5955919200 4.1852702400 
Si 9.5087879400 6.7097424000 4.1030709000 
Si 9.5025000000 9.5025000000 1.3575000000 
Si 10.8596850600 5.7237738600 5.6587116000 
Si 0.0000000000 8.1450000000 8.1450000000 
Si 2.7048567600 5.3234742600 8.0891035800 
Si 3.0941551800 8.3148829800 4.9892360400 
Si 1.8375880200 7.0513002600 6.7698525000 
Si 1.3575000000 9.5025000000 9.5025000000 
Si 3.8246965200 6.9767355000 9.3022524600 
Si 4.2056544600 9.4400875800 6.5691922800 
Si 9.5025000000 9.5025000000 6.7875000000 
Si 5.4982333800 7.9809597000 7.7310276600 
Si 7.8160723200 6.1680238800 7.7032477800 
Si 8.0346081000 8.2859628000 5.3506677000 
Si 6.1520053800 6.6690174000 5.7397815000 
Si 6.7875000000 9.5025000000 9.5025000000 
Si 9.5025000000 6.7875000000 9.5025000000 

