&CONTROL
  dt          = 30.D0,
  prefix = 'x.33_y.66_z3.16_struc14-scf',
  pseudo_dir = './',
  outdir='./',
  wf_collect= .true.,
  verbosity= 'high',
/

&SYSTEM
ibrav= 6, celldm(1) =30.783621515, celldm(3) =2.1114449815674807, nat=  432, ntyp= 1,
  ecutwfc     = 12.D0, nbnd= 1728,
  degauss     = 0.05D0,
  occupations = "smearing",
  smearing    = "methfessel-paxton",
/
&ELECTRONS
  electron_maxstep=200,
  conv_thr    = 1.D-8,
  mixing_beta = 0.3D0,
  scf_must_converge=.false.,
/
ATOMIC_SPECIES
Si  28.08  Si.pbe-hgh.UPF
K_POINTS {automatic}
1 1 1 0 0 0
ATOMIC_POSITIONS (angstrom)
Si 1.481772609 1.431747648 1.2996763672290839 
Si 4.07142486 1.3558786019999998 4.071800830071041 
Si -0.00013950511649999997 -3.91574133e-05 5.431899664551784 
Si 0.00048818197799999996 2.71480995 8.144977477692072 
Si 2.71494027 0.0001481137299 8.144805500498324 
Si 2.71404432 2.71432125 5.430386265246795 
Si 1.357895304 1.357418007 6.787664673750058 
Si -0.001295224416 -0.000498661335 10.862767465941074 
Si 2.71414206 2.7140606099999998 10.860153412596095 
Si 1.358758674 1.371989412 12.241233464714174 
Si 4.01020704 1.4719725449999999 15.088487884417177 
Si 0.0346344948 2.70692559 13.825452978088183 
Si 2.71860552 0.0460444995 13.652959852758267 
Si 1.3298553269999998 4.03684119 15.427936469438304 
Si 2.74370841 2.59571376 16.74999394866184 
Si 3.57128928 2.02206141 20.44912019987951 
Si 1.69756461 0.803398365 19.63487697835705 
Si 1.97030808 0.34677011699999993 17.29653747039512 
Si 3.65343975 3.78560052 18.695778314173054 
Si 1.504682865 0.738885078 23.513341047215835 
Si 3.2409280799999998 2.02023693 24.49801366774323 
Si 3.5781962399999996 3.21870852 22.488632135983753 
Si 2.0622977099999997 3.38188545 26.03339165809262 
Si 0.0717861204 3.3301809899999997 30.047064196676608 
Si 2.3602581 2.77192269 29.94810851939362 
Si -2.03203089e-05 2.11641309 26.2945906199581 
Si 3.4848056699999996 3.62463903 27.978832069216335 
Si 3.24052083 2.3084070299999997 34.18720876354337 
Si 2.49142518 0.39678693299999995 30.16689790528068 
Si 3.26658483 3.79346859 32.02108721740136 
Si 1.360478898 4.07360772 4.072763902356034 
Si 2.71487511 5.40753066 2.7056312006509713 
Si 1.256117013 6.599974949999999 1.3314336758267131 
Si 3.05246907 7.3937703599999995 0.015972485055724097 
Si 2.71497285 5.4297990899999995 8.14521824576332 
Si 1.357383798 6.787554299999999 6.787630278311308 
Si 1.358286264 4.07171808 9.502427863389086 
Si 1.3595601419999999 6.777030959999999 12.239823251725435 
Si 2.6934048899999996 5.42582433 13.786895691249732 
Si 0.5708928240000001 5.337499949999999 20.76989206165953 
Si 2.5401811499999996 5.97000807 19.681070052597946 
Si 2.08233441 7.846844129999999 18.242584013206557 
Si 1.6320625199999999 5.35328496 24.782291969009783 
Si 1.416848814 4.22903061 22.651597724779997 
Si 3.21408216 7.17268248 24.929401260542395 
Si 3.26741562 7.12852029 29.28056184413878 
Si 1.338446673 8.03606877 28.274323283515304 
Si 0.1484434395 4.90498416 34.03583443760579 
Si 1.9846269899999998 5.95821411 31.043328080062658 
Si 1.482407919 7.71629607 32.6109689919593 
Si 4.032068219999999 9.359435790000001 1.2136740121792482 
Si 1.358159202 9.50229909 4.068705240583565 
Si 2.72080467 10.85819724 2.6818742711065298 
Si -0.0001308596877 8.14491855 8.144805500498324 
Si 2.7150543000000003 8.14438098 5.429870333665549 
Si -0.0024786375299999997 10.85844159 5.429835938226799 
Si 2.7152009099999996 10.85982624 8.144805500498324 
Si 4.07280951 9.51073731 12.22613386710304 
Si 1.357545069 9.50283666 9.502599840582832 
Si 2.7156081599999995 8.14384341 10.862354720676077 
Si -0.000825378462 10.861927649999998 10.86465921507231 
Si 4.0721253299999995 12.21745113 9.502462258827833 
Si 1.3328152199999999 12.245518800000001 12.231121205721752 
Si 3.20101758 8.517552299999998 16.22560108948339 
Si 1.445269977 9.52106517 14.955274350139456 
Si 2.72403009 10.95256521 13.53367647117419 
Si 0.576335313 11.23402383 18.681538602530665 
Si 2.3543122499999996 9.84929238 19.400059318012616 
Si 3.66077025 8.26241832 22.8643335134471 
Si 2.1292333199999995 11.5175187 23.034728517013285 
Si 2.00176407 9.548285759999999 21.76151256081437 
Si 2.51010981 10.93427154 25.290553367414606 
Si 0.545174172 9.697192649999998 29.791884436592326 
Si 1.9284264899999999 8.82085581 26.08814919658219 
Si 3.74254605 11.111881409999999 28.45861404433638 
Si 1.4322558959999998 11.53760427 28.616661085391407 
Si 0.012035605859999998 10.995847739999999 34.15628726410736 
Si 1.4970982409999998 10.08284211 32.1582562271353 
Si 3.95154675 10.64629692 31.947584164793174 
Si 0.337664007 15.911371529999998 0.1632235545868639 
Si 2.72274318 16.289006309999998 2.7101370031271865 
Si 4.02662736 14.952851639999999 1.2384662444300567 
Si -0.00726024123 13.56280965 2.715836327328017 
Si 2.0517255 14.157313199999999 0.0160560315764472 
Si 1.3628898179999998 12.29834727 1.2803461306517332 
Si 1.3563070289999999 14.93636616 4.069909080939806 
Si -0.00022551550199999997 13.57545069 8.14525264120207 
Si 2.7137348099999996 13.574668769999999 5.4303174743692955 
Si 1.356997725 12.21771177 6.787389510240061 
Si 1.3585583069999998 14.93367831 9.502049513562836 
Si 2.71243161 13.57654212 10.86207955716608 
Si 4.0113473399999995 12.271387319999999 14.913793451007276 
Si 1.0206304019999999 15.49372851 15.008208930375297 
Si 3.48218298 13.60460979 19.333125794205632 
Si 3.82106385 14.666408279999999 21.468532213544133 
Si 0.980322426 13.48549731 19.396379006066393 
Si 0.093937914 14.12942472 21.586164614068228 
Si 1.76995737 15.711069689999999 21.607868135919308 
Si 0.48067880399999996 16.18719381 25.404436665114975 
Si 0.536783193 13.2815628 29.832092704490766 
Si 1.124370009 12.410406179999999 26.458072140335585 
Si 1.91174553 14.69566512 26.56971973451722 
Si 1.200612096 15.268405229999999 28.7402438968192 
Si 1.7771086799999998 13.535849699999998 31.926878110665832 
Si 4.05736659 13.077791190000001 31.733162999627332 
Si 1.514359125 15.799605839999998 32.024733133908825 
Si 4.0962834 4.01569677 1.2583880825539027 
Si 5.44806018 2.71176372 2.68894941285735 
Si 6.799217939999999 1.274827707 1.1583351907748007 
Si 5.42919636 0.0018156345299999998 5.430111101736798 
Si 5.42991312 2.7146307599999995 8.144805500498324 
Si 6.78757059 1.3575597299999997 6.787664673750058 
Si 4.06121103 4.082453189999999 12.239788856286685 
Si 4.07280951 1.3578366599999998 9.501430395665343 
Si 6.779686229999999 1.351376046 12.19528115854453 
Si 7.073753309999999 3.7685286 14.951697224509482 
Si 8.136089369999999 0.16496720099999998 13.632494566702174 
Si 5.384545469999999 0.13222495259999997 16.573407766120706 
Si 6.45075855 2.21998491 17.067807802709385 
Si 5.45270283 2.6984222099999995 13.555345597586522 
Si 5.21232759 0.23501257199999998 20.836619212834016 
Si 7.12759176 0.9858561389999999 22.13545977090148 
Si 6.879381029999999 1.239758595 24.578670971611356 
Si 7.61510259 3.45030345 25.063818635176357 
Si 4.91728311 0.985416309 25.79186688719198 
Si 6.08721462 1.89141561 29.929053446326268 
Si 7.40807298 3.8316686399999997 27.417842463208167 
Si 5.49440523 2.42198091 27.686952375986092 
Si 5.61387609 3.5322421499999996 31.618729374906962 
Si 5.0242106699999995 0.33819343199999996 34.12608806888509 
Si 6.788531699999999 4.0725814499999995 4.073486206569778 
Si 4.073461109999999 6.787619459999999 4.069840290062307 
Si 6.694636139999999 6.7260595499999996 1.261463034778129 
Si 5.43146067 8.14690593 2.698562937987901 
Si 4.07241855 4.07222307 6.7876990691888075 
Si 5.4295873199999996 5.428479599999999 5.430833405950541 
Si 6.78757059 6.787407689999999 6.78749269655631 
Si 6.78730995 4.07271177 9.501464791104091 
Si 4.0735588499999995 6.7874728499999994 9.502634236021583 
Si 5.431590989999999 5.42802348 10.862354720676077 
Si 6.79740975 6.7848501599999995 12.229263852029266 
Si 4.431678209999999 6.73089768 15.09299368689339 
Si 6.3681193799999996 5.62218399 16.241801341134515 
Si 4.14355698 6.63869628 21.265117588778203 
Si 7.01191647 4.68528093 20.292345790058224 
Si 5.82119892 6.85364283 19.694793832659087 
Si 5.91265098 4.34900646 18.24726179287652 
Si 5.326210979999999 4.791866399999999 22.1135498764179 
Si 6.58200708 5.2898517 24.036805229548044 
Si 5.32642275 6.403582709999999 25.823407504525488 
Si 6.98826339 5.679215279999999 28.99920715516595 
Si 7.074795869999999 7.9738409699999995 26.310515708099224 
Si 4.725044819999999 5.68366245 28.078957191416812 
Si 7.817636159999999 7.893661589999999 28.513749932652203 
Si 4.9631883299999995 5.719956569999999 34.29765251736877 
Si 6.948401759999999 5.40401202 31.35918139410147 
Si 8.131756229999999 10.84975902 2.6887567984003518 
Si 6.78828735 9.50345568 4.071904016387291 
Si 6.7751738999999995 12.081217859999999 1.0948721667376662 
Si 4.0726629 9.502315379999999 6.787595882872559 
Si 5.43001086 8.145 8.14525264120207 
Si 5.43032037 10.85886513 5.4296983564718 
Si 8.14576563 8.14387599 10.86204516172733 
Si 6.78831993 9.50282037 9.501567977420342 
Si 5.43237291 10.857236129999999 10.863902515419815 
Si 6.80076549 12.21504021 12.255576362672814 
Si 4.41691947 10.67275188 16.539562654390966 
Si 6.71216418 10.9333593 16.183501072453716 
Si 5.48347464 8.16879969 13.60336163008115 
Si 7.29291897 9.015439859999999 15.00525092264282 
Si 6.188864219999999 10.76949819 19.638832453813272 
Si 7.23707685 8.664732449999999 19.831171747301784 
Si 4.09159188 11.340755909999999 18.722606756397848 
Si 7.81302609 11.76292755 18.11277562736506 
Si 7.81084323 12.197886839999999 22.26485541147798 
Si 7.57239021 8.46441432 22.14722301095389 
Si 5.7008972700000005 9.442726559999999 23.184658234523376 
Si 5.691090689999999 11.38359861 21.86641864900106 
Si 6.2746799399999995 9.97674534 25.4398639670272 
Si 8.11113309 11.40730056 25.723419964080012 
Si 4.28106087 9.23980203 29.800724064351012 
Si 6.6035913299999995 9.299586329999999 29.919525909792593 
Si 6.9866832599999995 11.614134689999998 29.534503368428066 
Si 4.579330769999999 11.353820489999999 26.22982400879235 
Si 5.41994364 10.504150379999999 33.984103697726184 
Si 7.564554719999999 9.30038454 32.233238283609715 
Si 7.957469519999999 11.8123677 31.63458567217059 
Si 4.07399868 12.216848399999998 4.068395681634818 
Si 5.43504447 13.56250014 2.6727594798378504 
Si 6.788531699999999 14.93068095 4.066469537064832 
Si 4.072548869999999 14.93296155 6.78749269655631 
Si 5.429733929999999 13.575304079999999 8.145011873130821 
Si 6.787521719999999 12.21719049 6.787389510240061 
Si 6.78687012 14.93263575 9.50315016760283 
Si 4.0771915199999995 14.9299479 12.247871784392874 
Si 5.42771397 16.2909774 10.859568690137348 
Si 5.51748816 13.642875 13.724811924306461 
Si 6.8823783899999995 15.17309244 15.137845339023045 
Si 7.6932783 14.061397679999999 18.742315342801447 
Si 5.45969124 15.10609167 18.8844029002766 
Si 7.502001119999999 13.18116753 24.360431912744293 
Si 4.117932809999999 12.849437969999999 22.890267674264397 
Si 5.1798290399999996 13.32126153 24.99241370433191 
Si 4.92360363 12.73614102 29.586062131113916 
Si 4.25822229 15.050803409999999 26.318323472695415 
Si 7.68472605 14.71527828 27.86412328098597 
Si 5.351281289999999 14.706253619999998 28.378954208191995 
Si 4.82219838 16.22335761 30.11908824541855 
Si 7.7519222999999995 14.23988721 32.03381352973876 
Si 5.508333179999999 15.1156539 32.19024398517255 
Si 12.190963589999999 1.253166894 1.3454326193978552 
Si 8.154741419999999 -0.008834474249999998 2.679002251970927 
Si 9.50047461 1.3617430019999999 4.0686708451448155 
Si 10.85231655 2.7193059899999996 2.688739600680977 
Si 8.144397269999999 0.00030398117399999994 8.144908686814572 
Si 8.14377825 2.71492398 5.431486919286786 
Si 10.86046155 -0.00045674716499999996 5.429182424890554 
Si 10.85943528 2.7156244499999995 8.144943082253322 
Si 12.217662899999999 1.362270798 12.259119092864035 
Si 9.50205474 1.357781274 9.502290281634085 
Si 8.145667889999999 2.7151683299999996 10.860462971544843 
Si 8.93029203 2.1360751199999997 14.896079800051163 
Si 10.861732169999998 2.90528892 13.696126128389183 
Si 8.685860579999998 1.351535688 17.114379226776524 
Si 10.889718389999999 0.375087024 21.446278364673056 
Si 8.40060639 2.89952226 21.282005749204323 
Si 12.04379973 4.0632147 17.533694020574536 
Si 11.44159101 1.545686424 19.465238674443363 
Si 9.34985727 2.4601483799999997 19.087507966093778 
Si 11.7933084 3.97842525 22.3980001548782 
Si 10.964196269999999 1.98920448 23.15683232457484 
Si 9.86577786 2.88683235 25.00775407001429 
Si 9.987822539999998 1.234055466 26.690069374702542 
Si 11.285353619999999 3.96532809 28.22813020927441 
Si 9.27741564 2.72935692 28.31642330054498 
Si 8.19585738 2.6391917699999996 34.18744953161462 
Si 9.412345709999999 2.32108065 32.23839759942218 
Si 11.654778239999999 1.3960106460000001 32.333432196687696 
Si 8.42906502 1.603677195 30.178214004629343 
Si 10.865332259999999 8.155360439999999 2.684629345750383 
Si 12.2184774 4.072923540000001 4.066091187238586 
Si 12.170242709999998 6.8448625199999995 1.1374227640149623 
Si 9.47032182 4.087926629999999 1.1579877968434285 
Si 8.13703419 5.41761417 2.6883509322231047 
Si 9.50264118 6.787358819999999 4.067673377421073 
Si 9.502185059999999 4.0725 6.78749269655631 
Si 8.145228059999999 5.43012489 8.14504626856957 
Si 10.859484149999998 5.4288542699999995 5.42966396103305 
Si 10.85629131 5.43048327 10.85936231750485 
Si 12.235207229999999 6.799120199999999 12.24587684894539 
Si 9.50355342 6.78797784 9.500914464084097 
Si 9.508635899999998 4.07339595 12.195246763105779 
Si 8.287195409999999 5.43523995 13.59957813181868 
Si 9.999209249999998 6.42474342 14.992971751009165 
Si 8.219705939999999 7.25076045 16.328684219416346 
Si 11.79192375 4.6824790499999995 15.140424996929275 
Si 9.69326676 4.4631342 17.856357631485793 
Si 9.160404569999999 5.80218849 19.771805220019743 
Si 9.00387396 7.8078132899999995 18.513344907044466 
Si 10.230413219999999 5.75017452 21.92960306998432 
Si 8.43639552 6.59414313 23.282066117062623 
Si 11.77377669 7.559569979999999 22.140791063907688 
Si 9.173550599999999 7.82260461 25.160538608940612 
Si 11.59704648 5.842701719999999 29.574539659132757 
Si 11.138662169999998 6.82366923 25.938150688194604 
Si 11.40617655 4.47742053 25.89918065609115 
Si 11.71239597 7.648040969999999 28.09357525288545 
Si 10.64981556 6.35464755 31.737840779297294 
Si 9.06237135 4.68629091 32.09802981388451 
Si 8.36439372 7.84909215 34.2415879522067 
Si 10.134237059999998 6.03637353 34.18793106775711 
Si 9.420930539999999 9.45254943 1.2452077504250045 
Si 10.258089929999999 11.280108239999999 -0.0007117241767850012 
Si 12.11428656 12.107493629999999 1.3234883294755249 
Si 9.5030973 12.220383329999999 4.069840290062307 
Si 12.21663663 9.50156604 4.071388084806045 
Si 8.14382712 8.14599369 5.430558242440544 
Si 9.50236425 9.50262489 6.78752709199506 
Si 10.85984253 8.14526064 8.144736709620824 
Si 8.14557015 10.85971221 8.145355827518319 
Si 10.860168329999999 10.86052671 5.430627033318043 
Si 9.51246405 9.49534326 12.239444901899189 
Si 10.85963076 10.8590769 10.862595488747326 
Si 12.0493872 9.90063846 15.028227075727642 
Si 10.993958099999999 8.215177319999999 13.722369848155232 
Si 8.28506142 10.82762091 13.841274879913062 
Si 10.269085679999998 11.48919039 15.27969212842695 
Si 10.14047613 11.29664259 17.722972120014322 
Si 10.93260996 9.59743269 21.34869850494006 
Si 10.922428709999998 9.25197066 18.997460707446972 
Si 9.80933301 10.13549139 24.772695641598606 
Si 9.04119435 10.2200202 22.557147849973223 
Si 11.62840473 11.66761476 24.405421146628946 
Si 10.43656317 11.321957249999999 28.730441196775526 
Si 9.95967342 8.94886263 28.99432300286349 
Si 10.20987153 11.885265449999999 30.993489089314295 
Si 9.84230397 8.52854805 31.363102474118936 
Si 11.085947729999999 10.26201582 32.37862780320484 
Si 9.606701699999999 14.957868959999999 1.158056587720928 
Si 10.85857191 13.57703082 2.6978578314935318 
Si 8.144201789999999 13.57351218 5.431177360338038 
Si 9.50269005 14.9323914 6.787423905678811 
Si 10.86064074 13.574457 8.14514945488582 
Si 12.227094809999999 12.20953419 12.20683802596444 
Si 9.50383035 12.21811902 9.502255886195336 
Si 8.147117699999999 13.571329319999998 10.865759869112301 
Si 9.51047667 14.9325543 12.26118281918902 
Si 10.85930496 16.28778456 10.8658286599898 
Si 11.13413355 14.905903859999999 16.93631404036915 
Si 8.675923679999999 15.266401559999998 16.86112561126223 
Si 10.99410471 13.37852088 13.779294299286041 
Si 11.249857709999999 13.145296949999999 20.796754899323073 
Si 8.86513203 13.721832629999998 20.835965699497773 
Si 11.574224189999999 13.02116715 18.453703216252425 
Si 8.89403049 15.680753999999999 22.097659183715525 
Si 9.14118237 14.84292672 24.3143076293809 
Si 11.1330747 13.90136472 25.155929620148143 
Si 8.66566098 15.58263933 29.853177108444356 
Si 10.95592095 15.17408613 29.578323157395225 
Si 8.27582499 16.149857129999997 25.992151527031684 
Si 11.75354451 14.16477402 27.525740954566086 
Si 8.444980349999998 12.38126337 27.833752108569954 
Si 8.50204422 13.221566730000001 34.25531173226784 
Si 11.338735949999998 13.882093649999998 31.520667979031472 
Si 11.465651339999999 15.87618513 34.09612964173407 
Si 14.941464929999999 4.04640342 1.323202847333902 
Si 16.297167599999998 2.7119103300000003 2.7043413716978564 
Si 13.593842099999998 -0.009119630699999999 2.7140030504426567 
Si 13.268742569999999 2.9620432799999996 0.13648247677649553 
Si 14.934997799999998 1.353485601 4.072282366213537 
Si 13.57551585 -0.000615880917 8.144736709620824 
Si 13.575304079999999 2.7152171999999997 5.4297671473493 
Si 12.21738597 1.35720135 6.787286323923811 
Si 14.9335317 1.357813854 9.502359072511585 
Si 13.57435926 2.7140769 10.866482173326045 
Si 15.5136186 0.767993679 15.112977436806986 
Si 12.29388381 0.59502483 17.47735429190247 
Si 14.783354189999999 1.56638124 21.13778567452669 
Si 12.932223749999999 3.0089910599999996 20.61222337043075 
Si 15.885568169999999 1.8377400599999998 19.105393594243644 
Si 14.735868839999998 0.45879970499999995 17.40636210632302 
Si 16.244567189999998 2.36659491 22.819653838511194 
Si 12.79753803 1.119315222 24.40191281187647 
Si 14.71604391 2.4833453399999996 24.556554704495277 
Si 12.322130669999998 0.9704311379999999 26.677790203068888 
Si 12.88714932 2.2912047899999997 28.525616359020862 
Si 15.227012339999998 2.1520719 28.38834416297067 
Si 15.619536179999999 2.86824546 32.37542902740112 
Si 13.272701039999998 3.30629985 32.23526761449595 
Si 15.80190273 0.488918286 32.41023721141585 
Si 12.374714789999999 0.6588343889999999 30.197372264012944 
Si 16.28307675 8.15003361 2.6869544774098655 
Si 13.566067649999999 5.43916584 2.6846190271187584 
Si 14.92921485 6.78919959 4.071560061999793 
Si 16.2909774 5.430141180000001 5.429285611206803 
Si 14.93263575 4.07269548 6.787595882872559 
Si 13.575043439999998 5.430222629999999 8.144736709620824 
Si 12.21725565 6.78773349 6.787423905678811 
Si 13.575157469999999 8.14491855 5.4304894515630435 
Si 14.933792339999998 4.06963296 12.264519176747745 
Si 13.57147593 8.14407147 10.86049736698359 
Si 16.2927693 5.42865879 10.864005701736065 
Si 12.21813531 4.07394981 9.502290281634085 
Si 14.9325543 6.78889008 9.502187095317835 
Si 13.627138859999999 5.543226359999999 13.77798727261355 
Si 16.14444885 5.34357612 16.80285973802018 
Si 16.292280599999998 8.094158909999999 13.659770149630715 
Si 14.953226309999998 6.991684289999999 15.278625869825708 
Si 16.155086219999998 7.56901818 17.603551156675245 
Si 13.447720799999999 7.01330112 20.48330926599675 
Si 13.577959349999999 4.8780893700000005 19.333985680174376 
Si 15.80533992 4.226147279999999 18.91539319059011 
Si 15.332962499999999 6.797116529999999 21.852970032449914 
Si 14.368399019999998 6.13294065 23.962786245358615 
Si 12.7037565 7.727861969999999 24.389771221997815 
Si 13.167711989999999 4.22604954 24.311280830770922 
Si 15.96662721 6.33511584 25.60699140391216 
Si 15.664692059999998 5.560591499999999 29.98835118273081 
Si 15.634148309999999 6.80964354 27.954480098581524 
Si 13.479030179999999 5.32516842 30.88655367024137 
Si 15.42070044 6.7231273499999995 32.678177679276274 
Si 13.81414806 8.0756046 34.006598314668516 
Si 14.97617892 9.49803111 1.1482917226598783 
Si 13.586479019999999 10.83830715 2.6902186045472156 
Si 14.932163339999999 9.50262489 6.787595882872559 
Si 13.57450587 10.860217200000001 8.144908686814572 
Si 12.218672879999998 9.503292779999999 9.501224023032844 
Si 14.93387379 9.49998591 12.241302255591675 
Si 14.235000209999999 8.935227900000001 16.59958269500925 
Si 13.59001395 10.933652519999999 13.62829832317471 
Si 15.96486789 10.57346433 16.321805131666398 
Si 14.691527459999998 10.78459902 19.54496730146525 
Si 13.345663949999999 8.850422159999999 18.907379053361424 
Si 12.30007401 11.347907219999998 22.111348568337917 
Si 16.09461774 8.92499778 22.545625377992064 
Si 14.705243639999999 10.83890988 21.907246034796994 
Si 16.19483382 8.60458977 24.92365722227119 
Si 14.07301245 9.19438551 25.74295657328986 
Si 14.470602479999998 9.99013572 29.88471772577786 
Si 13.466112209999999 11.414468159999998 25.823923436106735 
Si 13.92042402 8.49836268 28.01928110518602 
Si 12.625303859999999 12.06064359 27.943817512569108 
Si 13.414326299999999 9.84854304 32.23237839764097 
Si 14.318942579999998 11.9654937 33.07778388667069 
Si 12.216913559999998 14.931055619999999 4.073073461304781 
Si 14.93424846 12.2189661 4.071319293928545 
Si 14.854932449999998 14.8103793 1.324076491478145 
Si 13.574277809999998 13.575010859999999 5.4304894515630435 
Si 12.21746742 12.217793219999999 6.787630278311308 
Si 14.93257059 14.932179629999998 6.787664673750058 
Si 12.21872175 14.932538009999998 9.502049513562836 
Si 14.93116965 12.21732081 9.501567977420342 
Si 13.574668769999999 13.57561359 10.8595342946986 
Si 14.93138142 14.9271786 12.232428232394241 
Si 12.658372559999998 14.37757029 15.04415216386877 
Si 14.71110804 12.43410813 15.253964340242147 
Si 13.631325389999999 16.2266319 13.727907513793937 
Si 16.25636115 13.6679616 13.7977302544559 
Si 13.88672001 12.653664749999999 18.318047605823477 
Si 14.553990989999999 15.469212059999998 20.930553156059542 
Si 15.174183869999998 14.620600799999998 18.76904059870999 
Si 12.43373346 14.94198621 21.72044440694719 
Si 16.17398262 12.33196983 23.03885596966325 
Si 12.83264298 15.089980859999999 24.012934795055724 
Si 14.818361399999999 14.85537228 25.215777683572686 
Si 15.405306389999998 12.63111939 25.26403448413856 
Si 14.46685578 12.34702179 29.47059664323106 
Si 13.70169819 15.39843201 27.184606993046224 
Si 15.315255269999998 16.128403199999997 28.728411865889292 
Si 13.16002311 13.73905116 34.37985761598063 
Si 14.343915149999999 15.770169809999999 30.802766381447018 
Si 13.68884538 13.51657863 31.334829423466655 
