&CONTROL
  dt          = 30.D0,
  prefix = 'x.33_y.66_z3.18_struc12-scf',
  pseudo_dir = './',
  outdir='./',
  wf_collect= .true.,
  verbosity= 'high',
/

&SYSTEM
ibrav= 6, celldm(1) =30.783621515, celldm(3) =2.126240308478207, nat=  432, ntyp= 1,
  ecutwfc     = 12.D0, nbnd= 1728,
  degauss     = 0.05D0,
  occupations = "smearing",
  smearing    = "methfessel-paxton",
/
&ELECTRONS
  electron_maxstep=200,
  conv_thr    = 1.D-8,
  mixing_beta = 0.3D0,
  scf_must_converge=.false.,
/
ATOMIC_SPECIES
Si  28.08  Si.pbe-hgh.UPF
K_POINTS {automatic}
1 1 1 0 0 0
ATOMIC_POSITIONS (angstrom)
Si 0.00360522135 2.7350421299999996 2.6958626364816487 
Si 2.7058178699999997 0.00379840446 2.7118542875820615 
Si 1.4192271539999999 1.405691793 1.297668627111596 
Si 1.3576085999999998 4.06704285 4.071030330816928 
Si 4.06683108 1.359599238 4.069159962267172 
Si -0.00028049913899999996 -0.000234870849 5.429956991578493 
Si -7.94994354e-05 2.7146959199999996 8.14493548736774 
Si 2.7147936599999998 -0.000201484494 8.145385761277867 
Si 2.71541268 2.7163575 5.430372629033995 
Si 1.357872498 1.3573153799999997 6.787359648336554 
Si -0.000972566757 0.00327785751 10.864520631622126 
Si 2.71311579 2.71969695 10.864797723259127 
Si 1.3499669609999998 1.3543685189999999 12.244367710977258 
Si 4.06409436 4.0839681599999995 12.242150977881252 
Si 3.83249943 1.4620274999999998 15.090306641704045 
Si 2.1137903999999996 2.73219138 16.468317988964046 
Si 1.3644618029999998 2.14405722 20.84317929975244 
Si 2.0568079800000003 1.3551618419999998 18.558420206861683 
Si 1.68816528 0.389546028 22.443487412796397 
Si 0.7240090499999999 0.6369487739999999 24.601373172395373 
Si 3.12435684 3.5516598299999997 21.64816514169462 
Si 2.82447423 2.58952356 25.60357898697293 
Si 3.74046093 3.12069159 29.34261890020818 
Si 3.40301358 0.893433195 30.141751181318718 
Si 2.19579426 3.64397526 27.60712470476242 
Si 0.396956349 2.4662082599999997 28.371274166701593 
Si 1.5958726559999998 0.389484126 28.62623310919703 
Si 2.3958354600000002 0.172783143 26.353631411879686 
Si 3.222162 2.01505671 34.268061293717324 
Si 3.13266474 0.41378554799999995 32.57039010672218 
Si 4.0653324 6.79538979 4.075775525100568 
Si 2.72997594 5.431216319999999 2.685482091030503 
Si 1.3002596549999998 6.7328361899999996 1.2665131361763093 
Si 0.00785088405 8.12717874 2.7200908364919125 
Si 0.00046022019299999994 5.43080907 5.430199446760869 
Si 2.7152009099999996 5.42992941 8.145316488368616 
Si 1.357453845 6.7888575 6.788398741975307 
Si 1.3564210589999999 4.07272806 9.501714687942549 
Si 1.354332681 6.790062959999999 12.244817984887385 
Si 2.7293895 5.56249743 13.767055529206344 
Si 4.009604309999999 7.1384246099999995 15.257427535270201 
Si 1.024693128 4.39266366 15.118569988678136 
Si 0.204245649 6.410782889999999 17.517421563104 
Si 3.06160776 5.8201563599999995 20.637785123825537 
Si 1.3353711209999999 7.02094113 19.401506148891485 
Si 0.504004455 4.1576967 17.617278461788196 
Si 2.9833343099999996 7.28718489 22.54614986430522 
Si 0.7690215779999999 8.144120339999999 22.681890129981028 
Si 3.78087642 5.96284047 24.324627899940747 
Si 2.38488858 4.0889529 23.81176591630674 
Si 0.0440357796 4.496268059999999 23.668821268068914 
Si 3.57852204 6.872930189999999 26.492973868836504 
Si 0.5886684719999999 6.742593899999999 28.98974270048756 
Si 1.5915264839999999 5.851368 27.105727387609328 
Si 3.73308156 4.885647929999999 30.917538492011932 
Si 1.60612884 6.01724907 31.01268483286711 
Si 4.0382095499999995 9.51067215 1.2683454046259777 
Si 2.12268474 8.619755759999999 0.038902626741284786 
Si 1.358519211 9.500784119999999 4.071064967271553 
Si 0.246268962 10.53032841 0.18773235498446617 
Si 2.71448415 10.87403112 2.7028661276068457 
Si 0.0001158878745 8.14526064 8.14500476027699 
Si 2.7151683299999996 8.14454388 5.432485452766127 
Si -9.72485307e-05 10.85863707 5.430718993580245 
Si 2.7151031699999995 10.859809949999999 8.14493548736774 
Si 4.0691931299999995 9.50415615 12.222131107107938 
Si 1.3580875259999998 9.503993249999999 9.502026416034175 
Si 2.71019988 8.148241709999999 10.860468166430989 
Si -0.000928360584 10.859484149999998 10.862130716252993 
Si 1.359747477 12.230515709999999 12.243328617338504 
Si 2.95458246 9.15608772 16.406145552911973 
Si 1.002794481 9.96017841 14.910543442199724 
Si 2.74968684 10.876393169999998 13.637515188908433 
Si 3.73625811 10.122557129999999 20.033690718708993 
Si 2.53273662 11.590302419999999 21.411632793059745 
Si 1.9270907099999999 9.23553405 18.65145372398473 
Si 3.73472685 11.18391579 23.38649952641964 
Si 0.640074825 10.44425205 22.132105685716656 
Si 0.730477809 10.028661569999999 25.732114870086715 
Si 2.9594042999999997 10.68268878 25.584598209838372 
Si 2.8308599099999996 11.71516527 30.159138681540522 
Si 3.3395314499999995 9.54748755 29.249031199811135 
Si 0.935028081 9.03774087 29.280377191246856 
Si 0.0609434964 10.699418609999999 27.86381546998911 
Si 1.75800051 8.31112542 32.291982284445545 
Si 2.13469047 11.078095949999998 32.273694236403486 
Si 4.0314492 15.04032894 1.2491394905363542 
Si -0.00802925955 13.574799089999999 2.7256638420410932 
Si 1.3229695439999998 12.28275774 1.3097117223847468 
Si 1.3581119609999999 14.9359752 4.07186160572793 
Si 0.00029390743800000003 13.574913119999998 8.145177942550117 
Si 2.7157547699999998 13.57457103 5.431134631035747 
Si 1.357463619 12.21725565 6.787498194155054 
Si 1.358410068 14.93200044 9.503204055491429 
Si 2.71246419 13.57344702 10.861715078797491 
Si 2.61689076 16.25800644 13.708000374070531 
Si 3.9802334399999997 12.34101078 15.185418346104598 
Si 1.87797636 13.059367199999999 16.186654339952653 
Si 1.205906346 15.11936802 15.290262894254806 
Si 0.953165367 13.73194872 18.424515673281007 
Si 2.1391050599999994 13.671952649999998 20.483445082016047 
Si 0.607178799 16.07319639 17.492275497046172 
Si 4.04923788 16.181052479999998 22.377331784462438 
Si 0.7764042059999999 13.631113619999999 24.145349610801173 
Si 0.633770595 14.64874992 21.98524711810619 
Si 2.7183285899999996 14.283495539999999 25.30629429692561 
Si 0.418250637 14.674178609999998 29.096942527552276 
Si 3.2036402699999997 12.65788386 26.91578107044522 
Si 1.435671909 12.57682482 28.53946879036113 
Si 2.6438832899999998 13.747375349999999 34.527834703405645 
Si 4.01753754 12.391770419999999 33.10708197113826 
Si 1.304615601 15.31722636 33.24469260536382 
Si 5.43313854 2.73991284 2.701207041430303 
Si 6.7183218 1.294134615 1.3706718825249402 
Si 5.43193308 -0.000300749238 5.429541354122993 
Si 5.430304079999999 2.7152660699999998 8.145177942550117 
Si 6.78828735 1.357779645 6.787948468065181 
Si 4.073216759999999 1.358152686 9.502823054490552 
Si 5.42940813 -0.00170095293 10.86528263362388 
Si 6.78134781 1.377993906 12.244055982885632 
Si 6.85198125 2.55702501 16.897948572133913 
Si 5.24867058 0.6366425219999999 16.846340254742497 
Si 5.32531503 2.73668742 13.704744547335771 
Si 5.86091394 1.596576384 20.01339375629868 
Si 4.15235358 0.34890573599999997 18.97443866336388 
Si 7.9407233999999995 0.371504853 19.521902465168367 
Si 6.117986429999999 3.69879111 19.003013738429594 
Si 5.15249442 2.36276676 25.864010489299133 
Si 6.3898828199999995 3.0322694699999997 23.994126849907943 
Si 5.075361269999999 2.0658815099999996 22.15908748386962 
Si 4.83767388 0.0539014923 26.14352667812377 
Si 5.4884268 3.52199574 27.878743781932528 
Si 7.616584979999999 3.65073561 28.7816468810999 
Si 7.19371287 2.86650243 33.00043632734754 
Si 4.5247104 3.9282031799999997 33.49598008366899 
Si 5.07557304 0.314941086 34.432965454187475 
Si 4.56405075 4.567211009999999 1.2994489408793266 
Si 6.79335354 4.0648437 4.079065988289953 
Si 6.356178809999999 6.26914134 1.4229694653633937 
Si 8.13454182 5.41859157 2.720357537192526 
Si 4.07246742 4.07196243 6.787428921245804 
Si 5.43045069 5.42802348 5.426493346115983 
Si 6.7875054299999995 6.787586879999999 6.787567467064305 
Si 6.78898782 4.074471089999999 9.502753781581303 
Si 4.0728583800000004 6.7870167299999995 9.502338144125801 
Si 5.42877282 5.431444379999999 10.862269262071495 
Si 6.78410082 6.78519225 12.240834792605495 
Si 8.03628054 5.34320145 13.721370045555824 
Si 5.40156852 5.85371376 16.809729522203757 
Si 7.7437773 6.54854742 16.97833978331879 
Si 6.43489209 4.18903866 15.237338391587636 
Si 6.88071681 7.08986412 20.35480528953839 
Si 5.08202388 5.88715713 19.36032340434223 
Si 6.09765651 5.40037935 24.146942887713934 
Si 7.22041218 6.81083271 22.669213187588237 
Si 7.14987648 6.118800929999999 26.228697720046917 
Si 5.45827401 6.3066083399999995 30.035971448893633 
Si 5.319108539999999 5.86539369 27.69347338614282 
Si 7.03785015 6.93256788 33.89457640349476 
Si 8.06082957 5.01005466 32.64825285671943 
Si 7.667670419999999 5.46003333 30.382924814873356 
Si 5.42476548 8.12519136 2.6912040333345715 
Si 6.79133358 9.50189184 4.071064967271553 
Si 4.07131083 9.502543439999998 6.788087013883681 
Si 5.42968506 8.145032579999999 8.145247215459367 
Si 5.4293103899999995 10.86011946 5.430095537396993 
Si 8.144462429999999 8.145179189999999 10.86400108480275 
Si 6.786006749999999 9.501842969999998 9.502442053489675 
Si 5.430711329999999 10.86215571 10.859082708245985 
Si 8.076353939999999 10.9918404 13.742671465150265 
Si 5.02596999 10.658335229999999 16.579258553128273 
Si 5.41640871 8.187565769999999 13.634397907992174 
Si 6.6696472799999995 9.637164 15.084799445418653 
Si 5.78725056 10.94738499 19.05767006382802 
Si 7.464599279999999 9.4120362 20.01197366165905 
Si 4.30611489 9.17674344 22.19826131405062 
Si 6.31973808 8.88585291 23.356504356714293 
Si 7.77036258 10.32370605 22.193550756221605 
Si 6.18818004 9.486562949999998 25.693633768998218 
Si 6.519877019999999 11.824080209999998 25.606834813707692 
Si 6.302210039999999 12.169672559999999 29.65981955166494 
Si 6.8925433499999995 9.92914596 30.129039602471302 
Si 8.07378012 8.285794469999999 26.441573370172843 
Si 4.116808799999999 9.13188078 26.89208973548165 
Si 6.089658119999999 9.052613639999999 32.94311299494299 
Si 5.3896279499999995 10.866456269999999 34.39386089691572 
Si 5.023037789999999 8.54954586 30.665315829431883 
Si 4.07144115 12.21463296 4.071445968272429 
Si 5.42092104 13.597751699999998 2.685523654776053 
Si 6.77898576 12.29000679 1.1697839093447648 
Si 6.790486499999999 14.930925299999998 4.0720001515464315 
Si 4.072027589999999 14.932863809999999 6.787151829608803 
Si 5.42991312 13.574782799999998 8.14500476027699 
Si 6.78805929 12.2175 6.787290375427303 
Si 4.07272806 12.21735339 9.50213032539805 
Si 6.7878801 14.93110449 9.501818597306425 
Si 4.06673334 14.93652906 12.24654980761864 
Si 6.77398473 12.218607719999998 12.224832750568696 
Si 6.12233586 14.759831429999998 16.711223445249942 
Si 5.43708072 13.58778222 13.651335134303851 
Si 7.31666979 14.59913058 14.70729672645958 
Si 7.708753799999999 14.46351633 18.420705663272248 
Si 4.279692509999999 14.730965549999999 20.395052849812767 
Si 6.23722923 13.22909271 19.920983695358885 
Si 5.4828882 12.72481947 23.700305805323136 
Si 4.74995223 14.930355149999999 24.22203472134117 
Si 7.736593409999999 15.929241659999999 23.45909753531387 
Si 7.13629062 12.59016633 22.03865653113811 
Si 5.92263675 15.195377159999998 27.86648247699524 
Si 5.0982650099999995 15.488906669999999 30.090419955564304 
Si 5.560901009999999 12.86703117 27.503319250250964 
Si 8.13867948 16.041056219999998 27.698876673064337 
Si 8.07848793 13.516953299999999 30.480183979460666 
Si 6.97024665 15.35464449 31.635725378663587 
Si 4.53834513 13.2164028 30.82620216116552 
Si 12.16020807 1.4111228789999999 1.2796645979974637 
Si 8.45868024 2.31630768 0.24866792324187592 
Si 9.50182668 1.356603507 4.067289593717416 
Si 10.870919729999999 2.73080673 2.726803381398259 
Si 8.14535838 -0.000275701734 8.144554486366863 
Si 8.14302891 2.71725345 5.432866453767002 
Si 10.86181362 -0.0024473444399999997 5.430753630034871 
Si 10.860347519999998 2.7147936599999998 8.144589122821488 
Si 12.21683211 1.3622919749999998 12.217178094096546 
Si 9.50282037 1.35534429 9.501922506670299 
Si 8.14438098 2.71446786 10.861922897525243 
Si 8.33652153 0.16600487399999997 13.578182942135617 
Si 10.190339819999998 0.981073395 14.982102357455203 
Si 10.98294606 2.77690743 13.668029905433155 
Si 11.11820193 1.71418041 17.218543596143927 
Si 9.640796669999999 3.00086235 21.397327937299575 
Si 9.04204143 0.67192992 21.631435734110692 
Si 11.897417789999999 3.3525145800000002 20.611253599582703 
Si 8.430775469999999 3.81849003 19.533852042014033 
Si 8.87930433 2.02121433 18.037938203210157 
Si 9.872538209999998 4.04018064 23.522205155640822 
Si 8.826492149999998 0.384375582 25.46319743637736 
Si 8.55984114 2.7580436099999996 25.020855274360084 
Si 8.6428224 1.607813226 29.17858065110366 
Si 10.83560301 2.3411987999999995 28.614976261443868 
Si 11.77771887 0.298944306 27.93620566015559 
Si 10.36936692 0.634350519 34.53282235287166 
Si 11.875116779999999 2.61874782 30.698566825871985 
Si 10.52213454 1.166974875 32.177127800908686 
Si 8.22548889 1.1516704199999999 31.54452759363567 
Si 9.519289559999999 4.0823228700000005 1.3957175028643571 
Si 9.49931802 6.7923272699999995 4.068986779994046 
Si 10.517768819999999 5.83913421 0.22930268146097693 
Si 9.502168769999999 4.07149002 6.78780992224668 
Si 8.14457646 5.43012489 8.14486621445849 
Si 10.86117831 5.42769768 5.429922355123868 
Si 9.50075154 4.07140857 12.24810844807677 
Si 10.86134121 5.432503229999999 10.858597797881233 
Si 9.50304843 6.78638142 9.501887870215675 
Si 9.365186159999999 6.76813662 15.08396817050765 
Si 10.816950959999998 8.10956925 13.68590231601971 
Si 8.57867238 6.0754695299999995 19.06975818649218 
Si 10.592930879999999 7.232678549999999 19.35800276188235 
Si 9.483044309999999 6.43417533 23.248750346375576 
Si 12.18270456 4.171168529999999 23.930153318215368 
Si 11.19869082 6.9494769 21.651386331974756 
Si 12.03723486 7.89310773 25.707245895665885 
Si 8.60520879 4.354284419999999 26.787072005058317 
Si 11.194488 6.02438409 29.308571265311695 
Si 9.28192797 7.18279857 30.013665572115062 
Si 10.836108 4.51304676 27.501033244245708 
Si 12.10790088 4.92135561 31.204016608216214 
Si 10.34981892 5.70615894 32.59283452931925 
Si 9.12979566 7.78899834 34.4901156043189 
Si 9.55804347 9.550240559999999 1.3372026764206963 
Si 10.881426779999998 8.15729895 2.71375582894098 
Si 8.122943339999999 10.86551145 2.685741864440191 
Si 10.516661099999999 11.30687271 0.009715040611978601 
Si 8.14363164 8.14480452 5.429333535395242 
Si 9.50249457 9.50308101 6.787463557700429 
Si 10.86008688 8.14480452 8.144693032185364 
Si 8.14482081 10.86008688 8.145143306095491 
Si 10.860445259999999 10.85984253 5.430684357125621 
Si 9.493779420000001 9.5184099 12.25462010154629 
Si 10.85964705 10.8579366 10.864728450349876 
Si 8.43906708 8.67201408 16.42367159895228 
Si 10.60182522 11.33267607 18.475188806397544 
Si 11.535388829999999 12.177100799999998 20.545513608704244 
Si 9.424302569999998 9.27394587 18.658138559727373 
Si 9.85108428 8.23021299 24.82124538635557 
Si 11.6206344 10.827181079999999 22.467178747759974 
Si 9.637880759999998 10.328788529999999 23.674051372717305 
Si 8.78685858 12.124044269999999 25.097644294263947 
Si 8.581539419999999 8.99748828 28.677183333950566 
Si 10.462643459999999 10.460476889999999 28.50916189256416 
Si 9.909272159999999 8.224022790000001 32.21024025153029 
Si 11.87656659 9.59510322 32.16715250197665 
Si 11.14509672 11.328066 30.669506840441517 
Si 8.17292106 9.91210662 32.11544027522136 
Si 9.18635454 12.09121992 32.081808277780375 
Si 9.503243909999998 12.216685499999999 4.066458318806413 
Si 9.47452464 14.96607912 1.0981972849255874 
Si 10.862318609999999 13.59187101 2.6830229027521204 
Si 8.14096008 16.26489711 2.696240173837062 
Si 8.143973729999999 13.574815379999999 5.430615084216371 
Si 9.50220135 14.932782360000001 6.787567467064305 
Si 10.8597285 13.5755973 8.144693032185364 
Si 9.50295069 12.21914529 9.503169419036801 
Si 8.14167684 13.578057089999998 10.86164580588824 
Si 9.50102847 14.94208395 12.200414050057994 
Si 10.86104799 16.28887599 10.857662613606355 
Si 11.66083812 15.388462529999998 14.826307584551458 
Si 11.940618869999998 14.346049139999998 16.95243171525921 
Si 9.031404059999998 12.86054775 15.004200415506022 
Si 10.78081974 13.591023929999999 13.592106796894912 
Si 9.70941015 13.26817242 17.338905275966184 
Si 11.17032993 15.97713426 21.9006995323663 
Si 8.74777887 13.74789663 23.302021213588997 
Si 10.85593293 13.71277539 22.235045228862486 
Si 11.013815609999998 15.80402043 25.85552455791598 
Si 11.65700997 13.4886087 26.10805894858766 
Si 11.49007005 14.916443489999999 29.675198137518485 
Si 9.40726323 14.221169999999999 28.675278328946185 
Si 9.90809928 12.404085659999998 27.180126492144066 
Si 8.70677694 13.03325433 34.416374592422045 
Si 12.13818399 15.823438109999998 31.804716640779496 
Si 15.96744171 0.23323044599999998 0.10841279570568677 
Si 14.17899519 2.0037188699999997 0.1445853770934204 
Si 14.93346654 1.3578578369999998 4.069021416448671 
Si 12.219487379999999 4.07057778 4.078684987289077 
Si 13.57502715 0.000241608393 8.144381304093738 
Si 13.574457 2.7162108899999997 5.429541354122993 
Si 12.21727194 1.3574750219999998 6.787636739973554 
Si 14.931088199999998 1.35796698 9.502545962853551 
Si 13.57346331 2.7151031699999995 10.860225711248614 
Si 14.950342979999999 4.0651695 12.231448313402092 
Si 16.24391559 2.66449014 13.758777416550942 
Si 14.748070049999999 0.8839752209999999 17.188340607710835 
Si 14.360205149999999 1.7743068 14.985912367463964 
Si 12.764648519999998 3.62467161 15.014279623801928 
Si 14.76911673 3.0288485699999996 18.170907552515953 
Si 13.63235166 1.949913 21.35344354928956 
Si 15.483889349999998 3.04860834 20.429481485710124 
Si 12.4299216 3.63568365 18.313540472662154 
Si 13.40132688 2.13488595 23.68561994856209 
Si 15.550108199999999 2.4407632799999996 24.562511070306 
Si 12.236543009999998 0.1357872498 23.967907053756736 
Si 14.94408762 2.6073122399999997 26.795696482259967 
Si 15.3298674 3.62138103 29.939335740489575 
Si 13.988760569999998 1.70087148 30.215457556760953 
Si 14.01288606 0.76804092 27.96949129305032 
Si 14.37880833 0.26274792599999997 32.11817655513674 
Si 15.900522389999999 5.68100718 -0.023459409263405496 
Si 14.846086979999999 4.0549067999999995 1.290381117058473 
Si 13.56067566 5.42142603 2.72143819457683 
Si 12.272625360000001 6.7833840599999995 1.3626812524429273 
Si 14.93591004 6.78911814 4.07328170036756 
Si 14.156140319999999 7.41421431 0.07733523679330682 
Si 14.932538009999998 4.07191356 6.787706012882805 
Si 13.57496199 5.42988054 8.145039396731615 
Si 12.217662899999999 6.7882059 6.787290375427303 
Si 13.5757602 8.146368359999999 10.861957533979869 
Si 16.290325799999998 5.426101259999999 10.862477080799245 
Si 12.216555179999999 4.07075697 9.50199177957955 
Si 14.93265204 6.78791268 9.502026416034175 
Si 12.19581801 6.78296052 12.22885057930521 
Si 14.26733586 6.916619969999999 17.1391914785978 
Si 13.565285729999998 5.42800719 13.58130022305188 
Si 14.259826169999998 7.36426917 14.838430343670245 
Si 12.221246699999998 5.99669109 18.00368274958592 
Si 15.12718722 5.07233133 21.634102741116823 
Si 15.85952046 7.17879123 20.914668942098665 
Si 15.964656119999999 8.110742129999998 24.76974097832803 
Si 12.733078499999998 5.157625769999999 21.878913202407105 
Si 12.32284743 5.4610596 25.91284789032054 
Si 16.12897335 5.9024534399999995 25.529734065712198 
Si 13.010627519999998 7.494067889999999 29.05995079401266 
Si 14.40514926 4.92484167 26.780040804769417 
Si 14.714268299999999 5.768859149999999 28.908450941482425 
Si 13.94992521 6.15439458 32.24879062552804 
Si 15.97477221 4.94424306 32.024415672466574 
Si 12.254966999999999 12.22693191 1.2767759176817295 
Si 12.214893599999998 9.50301585 4.0768838916485715 
Si 14.87811312 9.36973107 1.3508771487066897 
Si 13.57131303 10.846908269999998 2.701234750594003 
Si 13.5752715 10.85979366 8.144589122821488 
Si 13.574945699999999 8.14485339 5.430788266489496 
Si 14.932928969999999 9.50198958 6.788121650338306 
Si 12.21826563 9.502022160000001 9.502857690945177 
Si 14.932603169999998 9.507511889999998 12.21367981217941 
Si 12.435297299999998 10.59004755 17.028458733161326 
Si 12.5675721 9.187885799999998 14.894818491799924 
Si 13.6495539 10.87750089 13.621824874963258 
Si 15.335829539999999 11.82487842 14.988925739016349 
Si 16.218649799999998 8.16769197 13.65756969613637 
Si 16.02033534 10.29184281 18.45773203326649 
Si 15.182866439999998 10.679284169999999 20.675746678094658 
Si 14.108573519999998 8.65629423 20.346215448791362 
Si 14.043999959999999 9.0862362 18.023633347449984 
Si 12.63339999 8.722431629999999 22.158256208958615 
Si 13.716065969999999 8.754995339999999 24.257848815423532 
Si 16.1821602 11.466026009999998 24.096339027506644 
Si 13.97967075 11.049360389999999 24.754570211202235 
Si 12.41032473 9.27977769 27.629880855451113 
Si 14.094368639999999 10.93769244 27.118542875820616 
Si 16.04193588 9.22292559 31.320325822847337 
Si 16.0612884 11.19028518 32.635437368508136 
Si 13.73923035 8.24357079 31.155525571741062 
Si 12.21380217 14.935030379999999 4.075671615736693 
Si 14.93478603 12.21706017 4.06846723317467 
Si 14.850713339999999 14.8050036 1.3184123997865742 
Si 13.557010409999998 16.28188758 2.6941827684323303 
Si 13.573218959999998 13.576134869999999 5.4303379925793696 
Si 12.21745113 12.21740226 6.787844558701305 
Si 14.932782360000001 14.93208189 6.787636739973554 
Si 12.2170113 14.934932639999998 9.501402959850923 
Si 14.93305929 12.21593616 9.502580599308176 
Si 13.573968299999999 13.57663986 10.863862538984248 
Si 12.21922674 12.21883578 12.240488428059246 
Si 14.931251099999999 14.92308981 12.243744254794006 
Si 13.6350558 12.58348743 16.613895007753385 
Si 13.5161388 16.28053551 13.622101966600258 
Si 16.267194 13.60646685 13.779455379962133 
Si 12.717244619999999 16.27155972 18.108977571646257 
Si 14.578654049999999 14.59233765 21.535284936071385 
Si 13.08393252 16.14324339 20.522515002833174 
Si 13.888495619999999 12.612271859999998 20.50072867287398 
Si 15.163204409999999 12.55654377 18.46528278037476 
Si 13.773227579999999 14.67637776 23.74377455587765 
Si 12.412084049999999 12.709620899999999 23.980029812875525 
Si 15.58459413 15.080825879999999 25.19296381739225 
Si 12.820506929999999 12.931392959999998 29.999533898628016 
Si 13.43548701 13.12179048 27.68245899357203 
Si 14.999669099999998 14.92898679 27.497431052964696 
Si 13.445537939999998 13.60860084 34.365943914487886 
Si 15.94580859 14.798259539999998 31.54937669728319 
Si 14.449344029999999 12.9640707 32.13476741690217 
