&CONTROL
  dt          = 30.D0,
  prefix = 'x.33_y2.00_z3.19_struc37-scf',
  pseudo_dir = './',
  outdir='./',
  wf_collect= .true.,
  verbosity= 'high',
/

&SYSTEM
ibrav= 6, celldm(1) =30.783621515, celldm(3) =2.1313050152026944, nat=  432, ntyp= 1,
  ecutwfc     = 12.D0, nbnd= 1728,
  degauss     = 0.05D0,
  occupations = "smearing",
  smearing    = "methfessel-paxton",
/
&ELECTRONS
  electron_maxstep=200,
  conv_thr    = 1.D-8,
  mixing_beta = 0.3D0,
  scf_must_converge=.false.,
/
&IONS
/
ATOMIC_SPECIES
Si  28.08  Si.pbe-hgh.UPF
K_POINTS {automatic}
1 1 1 0 0 0
ATOMIC_POSITIONS (angstrom)
Si -0.0183668121 2.6939587499999997 2.700603786609243 
Si 2.3028032699999996 3.16985481 0.20694721397157176 
Si 1.406190267 1.308587103 1.3724751562768769 
Si -0.00047139187499999996 -0.0011927570579999998 5.431364460743267 
Si 0.00029292840899999996 2.7151846199999996 8.144269174419088 
Si 2.71529865 -0.000389425482 8.144824677758251 
Si 2.71446786 2.7138162599999998 5.42969795072578 
Si 1.357470135 1.3575124889999999 6.787625863308341 
Si 2.71580364 2.71394658 10.860541627088582 
Si 1.363059234 1.361886354 12.247668183935868 
Si 4.073021279999999 4.0534732799999995 12.24364078472694 
Si 2.8854151199999998 0.10714845239999998 13.718641026037982 
Si 0.9225694889999999 1.3225851 19.17045495345417 
Si 3.29685165 1.342276452 19.710716669748326 
Si 1.746288 2.7621649799999997 22.794037953769394 
Si 0.288619704 1.86786027 24.456451134130365 
Si 2.98683666 0.879029577 21.963491023804167 
Si 3.69981738 1.286522298 26.315929124059206 
Si 1.5578876339999999 2.6377745399999997 29.59950936184833 
Si 3.86921709 1.67154948 29.56183929166138 
Si 1.4858825759999998 2.24666793 26.455950684486833 
Si 0.22711843799999998 1.97126919 31.539847806584003 
Si 1.470656313 0.22400216099999998 32.64234834002794 
Si 3.3454121399999996 1.4473958219999998 33.620485563416885 
Si 1.359292986 4.07121309 4.06746488726471 
Si 2.7244699199999998 5.437487969999999 2.7000517551659504 
Si 1.2707291429999998 6.64508196 1.2020502037177132 
Si 2.7147936599999998 5.42991312 8.144824677758251 
Si 1.3574571029999998 6.78791268 6.787973052895317 
Si 4.07142486 6.78613707 9.501259675116813 
Si 1.358017479 4.07243484 9.50306506096909 
Si 1.3547057219999998 6.78892266 12.25856993696693 
Si 4.07746845 6.704654489999999 15.154756033607656 
Si 2.02755114 6.9283813499999995 16.409499200940797 
Si 1.15634565 4.17543651 15.119828761157818 
Si 2.7146307599999995 5.35786245 13.707218488626456 
Si 0.7886933819999999 4.29370191 21.301782389985622 
Si 1.3981739579999999 7.9387360199999994 20.19834444465685 
Si 2.19496347 5.72977944 20.079675043828274 
Si 2.2116281399999997 5.042764979999999 17.825928558928897 
Si 3.1515122699999996 4.215803129999999 24.03968475392375 
Si 2.2544545499999997 4.51402416 26.269058529817375 
Si 3.5090288999999997 5.33223828 29.9001408252113 
Si 1.250096229 4.97051883 29.541598138740646 
Si 0.711405477 5.94456309 27.4294008484516 
Si 0.328561155 4.71764916 34.634904098644874 
Si 3.95587989 7.522217009999999 30.597991895034102 
Si 0.6498797759999999 7.903891709999999 32.169580279442016 
Si 2.47759497 8.091438479999999 34.310663743367506 
Si 3.94235919 9.49928544 1.2351200118772265 
Si 1.3569863219999998 9.5063553 4.069756338538755 
Si 2.7067626899999997 10.853261369999998 2.7085023497129592 
Si -0.00037143643499999994 8.14535838 8.145102429427832 
Si 2.7159828299999997 8.14324068 5.430635362610616 
Si 2.7147773699999997 10.860510419999999 8.145206586303924 
Si 1.356958629 9.50404212 9.502092930125555 
Si 2.71388142 8.14527693 10.866409131108483 
Si 0.9191127509999999 9.957311370000001 15.108232628952802 
Si 2.63720439 10.89480087 13.737840610197784 
Si 2.06532765 10.94319846 18.193185704032658 
Si 0.713259279 11.69322264 21.524816980659338 
Si 3.3782202 8.99139582 20.837694069074107 
Si 2.7435780899999997 11.16756063 20.4903656062628 
Si 1.1745334349999998 8.70702129 17.813013106293376 
Si 3.60382041 8.33104809 23.047312757468767 
Si 0.615784806 11.10657087 23.850223396310664 
Si 1.557990261 8.87192496 24.212585168238057 
Si 3.47692131 11.193559469999999 26.224097478303918 
Si 1.9099047599999999 8.713846799999999 30.141645901912163 
Si 1.8887766299999997 11.154219119999999 29.929894972815184 
Si 2.5124067 8.98746993 26.37616651739963 
Si 0.935544474 8.2732023 27.98014769027245 
Si 3.72215097 11.85755616 28.486940330382076 
Si 0.69989985 15.75855504 0.034200465768461155 
Si 2.72269431 16.3044981 2.7590774568478285 
Si 4.07191356 12.21868917 4.070728469382289 
Si 3.9990809699999996 14.90461695 1.4868984284567284 
Si -0.021081866399999996 13.59936441 2.7342672889624864 
Si 2.2964990399999996 13.97533761 0.28691400278152546 
Si 1.2956561009999998 12.23486514 1.4245570662192246 
Si 1.353327588 14.936024069999998 4.075380809847775 
Si 0.000648939843 13.57442442 8.144546926088669 
Si 2.71459818 13.57567875 5.430114578230151 
Si 1.357400088 12.217597739999999 6.7874869874735495 
Si 4.07276064 12.21991092 9.501190237199417 
Si 4.0703823 14.94327312 12.224649514319324 
Si 1.358076123 14.930990459999999 9.501329113034208 
Si 2.7142072199999996 13.574342969999998 10.859534777286349 
Si 1.354404357 12.22111638 12.23194049564583 
Si 3.6578869199999997 12.6975663 15.063514610150225 
Si 0.11002021649999999 13.64131116 13.707565678213433 
Si 1.9396828799999999 14.66277561 15.132640056917252 
Si 0.806675913 16.01575785 17.215187356478506 
Si 1.2432609449999998 14.06178864 18.464410209378716 
Si 0.497468907 13.90167423 20.709685268355866 
Si 3.6093427199999994 13.896933839999999 18.88801622444877 
Si 1.524587616 15.332196869999999 22.323839096127095 
Si 3.17022948 13.819751819999999 23.077796003205307 
Si 0.36282717 15.800355179999999 24.333858490968954 
Si 2.15933724 12.553839629999999 24.801627021502423 
Si 1.4256193499999998 14.432027759999999 26.03487915340171 
Si 3.81386367 15.546703589999998 30.013289911606947 
Si 3.6913139999999998 15.20230041 26.36904913086661 
Si 3.70876059 13.04250705 33.37016187120681 
Si 1.7262675899999997 14.78348451 30.914142732934916 
Si 1.86105105 12.50676153 31.888773341495405 
Si 8.137066769999999 -0.0257279373 2.723504411766214 
Si 4.069160549999999 1.35904212 4.075207215054286 
Si 4.95782892 0.19189457099999999 0.09031373288102791 
Si 5.435533169999999 2.7144027 2.707019850176569 
Si 6.631333199999999 1.1699168489999998 1.4219809194838586 
Si 5.430369239999999 -0.000966505248 5.430704800528011 
Si 5.42991312 2.7147284999999997 8.14513714838653 
Si 6.78770091 1.357194834 6.787764739143132 
Si 6.78825477 4.07131083 9.502127649084255 
Si 4.07274435 1.3569960959999998 9.501988773249463 
Si 6.79071456 1.3657992119999998 12.242495059089919 
Si 4.7139187499999995 0.863853813 15.197252039053582 
Si 5.41631097 2.66476707 13.784711204439613 
Si 4.12650135 3.68945694 17.4518664979204 
Si 7.080138989999999 2.3597531099999998 20.167340414539847 
Si 4.8132063 3.1958210699999996 19.71130689204619 
Si 7.4619928799999995 1.263173841 18.064031177677396 
Si 5.099258699999999 0.673581726 23.082621938464282 
Si 4.7363175 2.48433903 24.502731506074333 
Si 7.273191779999999 0.8386955369999999 22.081257731706604 
Si 6.61647672 3.79552113 25.081427109646796 
Si 6.06520683 3.96992187 27.315522663923304 
Si 7.48387035 0.11760190829999999 27.745100339889348 
Si 5.49769581 1.7000081099999997 27.806136269279822 
Si 4.9615104599999995 3.1244871599999997 33.046372862392516 
Si 6.98568957 1.7864265599999998 33.06852355804161 
Si 4.74465798 3.5298149399999996 30.788251788697234 
Si 4.167796500000001 4.14819963 1.2932777395916633 
Si 6.790519079999999 4.07284209 4.0720477898128 
Si 4.06715688 6.791007779999999 4.073019920656334 
Si 6.59650518 6.7214494799999995 1.2276693233407105 
Si 4.07238597 4.07245113 6.787139797886573 
Si 5.4286425 5.42966877 5.428274473419175 
Si 6.7873262400000005 6.787652039999999 6.787243954762666 
Si 8.14390857 8.14218183 5.430947833238895 
Si 5.43054843 5.432324039999999 10.86675632069546 
Si 6.78274875 6.79949487 12.252146929607864 
Si 8.086763249999999 5.31959724 13.634516989113571 
Si 5.51799315 5.61513042 16.803003878819982 
Si 6.55766982 4.21238223 15.132153991495484 
Si 4.4268075 5.35238901 20.654551561943993 
Si 8.12136321 6.03419067 19.772863605817125 
Si 5.87695959 6.52797315 19.174065725158723 
Si 4.33186938 5.99612094 22.93975342342344 
Si 6.39123489 5.900466059999999 24.07520224867145 
Si 6.05676861 7.766501849999999 25.404348144493657 
Si 4.33858086 7.55160417 26.981456843334495 
Si 4.07564397 5.2482633299999994 27.591191195982656 
Si 7.89235839 4.96445895 28.398511142579153 
Si 7.63129485 7.31012121 28.655361999024382 
Si 5.61622185 5.49890127 34.05617377611372 
Si 7.46526717 5.672129129999999 32.50996495051379 
Si 4.42332144 7.464420089999999 32.98967680283925 
Si 7.017569099999999 4.33230921 30.549871418279157 
Si 7.745894999999999 8.51220918 0.04730631717348558 
Si 8.13421602 10.88567847 2.692621898004653 
Si 5.40896418 8.1516789 2.698607446484128 
Si 6.79027473 9.50110992 4.0672912924712215 
Si 4.07241855 9.502250219999999 6.787139797886573 
Si 5.43005973 8.1445113 8.145484337973505 
Si 5.42878911 10.85992398 5.429732669684477 
Si 8.143419869999999 8.143696799999999 10.8647079021323 
Si 6.787684619999999 9.50246199 9.502683152423415 
Si 4.07688201 9.50752818 12.264854068491205 
Si 5.430173759999999 10.8595656 10.864881496925788 
Si 5.49425862 8.22949623 13.833907968914186 
Si 7.08590565 9.38093859 15.394421005497547 
Si 4.31970075 11.95656678 17.2699391543447 
Si 7.939322459999999 11.55239559 18.399971822035877 
Si 6.905510189999999 9.340392779999998 21.58241573313874 
Si 7.7172246 11.396923829999999 20.784331029555815 
Si 5.46847155 8.80109604 19.728735809312408 
Si 6.123296969999999 10.26239049 17.62469747431731 
Si 5.644012589999999 9.36450198 23.715513836563776 
Si 5.6633814000000005 11.22832233 25.216379702104568 
Si 7.85254563 8.499014279999999 26.673152490099348 
Si 7.1088745499999995 10.733774219999999 27.08144744438373 
Si 5.44449267 8.26593696 28.972866876314413 
Si 5.69263824 10.61182728 29.05216497797985 
Si 5.011504469999999 11.1579984 34.57546524135449 
Si 5.947039169999999 9.411221699999999 33.23573006312951 
Si 6.84292401 10.68967719 31.31629243152982 
Si 5.43398562 13.570775459999998 2.711033361802018 
Si 6.673051889999999 12.261238650000001 1.1842463216975572 
Si 6.7899978 14.93491635 4.077533385287029 
Si 4.0723370999999995 14.932782360000001 6.7877300201844335 
Si 5.42989683 13.57548327 8.144720520882156 
Si 6.7882059 12.21736968 6.787174516845271 
Si 8.14407147 13.577242589999999 10.859569496245047 
Si 6.788401379999999 14.93364573 9.501641583662487 
Si 6.797768129999999 12.20826357 12.259437910934372 
Si 5.4291312000000005 16.28768682 10.861687352725605 
Si 7.67436561 13.87554507 17.0866230524211 
Si 5.36209785 13.561962569999999 13.638474950405104 
Si 6.53598783 15.19843968 15.059730243652183 
Si 8.12167272 16.22837493 13.624240177339068 
Si 4.11741153 13.01658966 21.058263613680293 
Si 7.61257764 15.04824588 20.96275175830305 
Si 4.549471199999999 16.014373199999998 18.45743169868049 
Si 6.88272048 15.438147029999998 18.723552517097993 
Si 6.421827509999999 13.11271695 21.7072303896568 
Si 6.407166509999999 13.24087038 24.10297741562957 
Si 4.80406761 14.939982539999999 24.30452097086944 
Si 4.636655279999999 14.10308379 28.309526451437073 
Si 7.10677314 14.10663501 28.454443385041074 
Si 7.75949715 13.81470192 34.38006694180411 
Si 7.141470839999999 12.92091849 32.095733054292104 
Si 6.520854419999999 15.78251763 33.19986537879483 
Si 5.14052127 14.41702467 31.889398282751962 
Si 12.09628611 1.328760639 1.2533335776100145 
Si 8.47607796 2.0094855299999996 0.1392820466073701 
Si 9.50340681 1.361801646 4.072464417317172 
Si 10.849970789999999 2.7151194599999995 2.7090856282190794 
Si 9.35319672 3.9448678499999996 1.3138660820993708 
Si 8.14488597 -0.000177290586 8.144546926088669 
Si 8.14372938 2.71350675 5.42983682656057 
Si 10.8597285 2.7152660699999998 8.144894115675646 
Si 9.50102847 1.3577584679999999 9.501016642405927 
Si 8.14731318 2.71225242 10.856930855384027 
Si 10.85560713 0.00356834079 10.862277575023464 
Si 9.54155799 0.735646626 17.056070368767166 
Si 9.92600199 0.960484464 14.779652403838226 
Si 10.935509579999998 2.82944268 13.652397252842864 
Si 12.21002289 2.5858746 21.497041813701216 
Si 8.725314959999999 3.9398505299999997 20.7978714234479 
Si 10.690687169999999 3.0107503799999997 19.79911113859255 
Si 11.24013258 1.027076355 18.62231203353564 
Si 8.92305927 3.33708795 24.95900806127888 
Si 11.33191044 1.0246703219999997 23.08762146851674 
Si 9.04839453 1.213168428 23.885602015223572 
Si 11.20994721 1.147470858 28.72184880493039 
Si 8.926300979999999 0.9269433539999999 29.483791072509057 
Si 11.81515329 3.3552838799999996 28.115412753358502 
Si 10.21521465 0.335174895 34.74326196874025 
Si 8.21419992 2.4197980500000003 31.187658689555022 
Si 10.37247831 2.67423156 32.349736956124126 
Si 10.84581684 8.13827223 2.696406264502697 
Si 12.15318708 6.7166928 1.3011415837366813 
Si 8.1200763 5.43739023 2.688028579768954 
Si 9.50376519 6.790698269999999 4.071110377927964 
Si 11.006892359999998 4.99519818 0.022538784169424262 
Si 9.50290182 4.07197872 6.787799458101828 
Si 8.14493484 5.43012489 8.145171867345228 
Si 10.85945157 5.4288542699999995 5.429524355932291 
Si 10.860868799999999 5.43193308 10.863319143784393 
Si 9.504058409999999 6.78867831 9.501849897414672 
Si 9.50062122 4.0600055699999995 12.222601095756163 
Si 9.8582193 6.523851779999999 14.83798025445028 
Si 9.02961216 8.11849617 16.501053095026503 
Si 11.681363519999998 4.84420617 14.908876368110885 
Si 9.50625756 6.135351569999999 17.80593043871905 
Si 8.64357174 7.725108959999999 21.349625115070985 
Si 10.98775161 8.08720308 21.183078270198347 
Si 12.17983752 6.1379253899999995 20.84123540286127 
Si 11.48259294 5.0502258 18.85513737056209 
Si 11.899796129999999 4.60544364 22.58739071160097 
Si 9.57571812 4.51446399 23.0261341926632 
Si 8.53874559 6.56923572 23.35835990844103 
Si 9.4745898 7.7790614399999995 25.163815198636325 
Si 12.10337226 4.75681032 30.0627297087924 
Si 9.59101443 7.98913728 29.79567147849006 
Si 11.010296969999999 6.50596536 26.470706241933335 
Si 9.93194784 4.39408089 27.000205081031226 
Si 10.571493239999999 6.23257029 31.153634110031323 
Si 11.574256769999998 7.84475901 32.63415466577529 
Si 9.64630269 4.8901113899999995 32.82431040256233 
Si 8.52773355 7.90034049 32.66571419923145 
Si 9.52588701 9.6114258 1.2846847973139943 
Si 9.50288553 9.50233167 6.7874869874735495 
Si 10.86049413 8.14496742 8.144651082964762 
Si 8.14508145 10.86008688 8.145484337973505 
Si 10.859109479999999 10.85824611 5.430322891982337 
Si 9.49319298 9.52251498 12.244578196611776 
Si 10.85860449 10.85788773 10.86293723523872 
Si 11.610485729999999 11.111816249999999 16.331069073242798 
Si 10.93386429 8.19391887 13.537789970181915 
Si 8.28338355 10.96044957 13.907164971766232 
Si 11.812693499999998 11.023182359999998 21.69320393034295 
Si 9.74334222 12.072339809999999 21.692474832210298 
Si 11.640671099999999 9.81780381 19.654853865203805 
Si 10.00064277 10.173756599999999 17.857071464880693 
Si 12.00781512 9.082098539999999 23.087864501227624 
Si 9.740475179999999 11.87739738 24.002361873323775 
Si 10.55873817 9.80056899 24.7531593551605 
Si 11.61468855 10.13819553 26.820846940399157 
Si 10.80730728 12.204207359999998 27.66910053930019 
Si 11.34709272 8.19852894 28.177733284220785 
Si 11.264258069999999 10.525522859999999 34.61011476213476 
Si 11.25682983 10.8944262 31.998763002649564 
Si 9.12489237 9.80496729 31.266436006839992 
Si 12.21666921 14.93245656 4.065312311825456 
Si 9.5008167 12.21820047 4.070936783134475 
Si 9.29973294 14.81805189 1.2577428853646164 
Si 10.86134121 13.5694071 2.6745194329396975 
Si 8.14410405 13.57569504 5.430496486775826 
Si 9.502347959999998 14.932505429999999 6.787868896019224 
Si 10.85945157 13.575173759999998 8.144859396716948 
Si 10.85832756 16.29 5.429802107601873 
Si 12.21811902 14.93229366 9.503967753895228 
Si 12.239377469999999 12.216555179999999 12.235412391515595 
Si 9.502168769999999 12.21818418 9.502474838671231 
Si 9.48700278 14.927129729999999 12.213088101073007 
Si 11.641176089999998 15.512543459999998 14.79954636717198 
Si 9.97083207 14.518886039999998 16.946080707613007 
Si 9.976468409999999 12.44399616 15.214056015063244 
Si 10.92840714 13.67600886 13.532200217831592 
Si 9.89562114 14.29742349 20.9383790492973 
Si 11.160702539999999 14.92745553 19.012726724090736 
Si 11.360548259999998 15.04822959 22.578467939215678 
Si 11.006517689999999 13.724878859999999 24.478046326440307 
Si 8.52344928 13.73582574 25.10836902159617 
Si 9.011579130000001 16.03252026 25.793478233576938 
Si 8.59910004 13.336508969999999 30.27941073002445 
Si 10.86327972 12.498812009999998 30.016518774765828 
Si 12.027363119999999 13.911676289999999 26.57930714473959 
Si 11.321061299999998 16.190223749999998 26.66582678981414 
Si 8.48809998 12.62305584 27.152308839085638 
Si 8.95106178 15.478220429999999 31.030590120406846 
Si 10.61497125 16.24782519 32.48802256861688 
Si 14.93346654 1.360571751 4.073193515449822 
Si 12.21670179 4.070496329999999 4.072013070854102 
Si 14.81709078 4.01698368 1.2946456665643507 
Si 13.574913119999998 0.000507404178 8.144789958799553 
Si 13.574342969999998 2.71410948 5.429454918014896 
Si 12.21694614 1.3581054449999999 6.7877300201844335 
Si 16.2919548 -0.0019179845999999997 10.865714751934533 
Si 14.933238479999998 1.3598077499999999 9.502092930125555 
Si 13.57269768 2.71611315 10.859812528955931 
Si 12.215659229999998 1.387085355 12.214754611090495 
Si 14.919831809999998 4.08678633 12.24155764720508 
Si 16.26418035 2.7345697199999996 13.64607840235989 
Si 14.268199229999999 2.9607075 16.62645797384242 
Si 13.504914989999998 0.0840001995 13.630038243441575 
Si 14.84082531 1.427609988 14.987514809561066 
Si 13.52633634 1.281462624 18.128504283978934 
Si 15.793806599999998 0.653986485 21.04704939002095 
Si 14.14918449 2.1224566799999995 20.197441751730707 
Si 15.99607953 3.36315195 19.461365108381795 
Si 12.81834036 0.7663027769999999 24.9275874036575 
Si 14.34111327 2.60193654 25.052714530803836 
Si 16.08394779 1.99203894 28.133466611881282 
Si 15.207953039999998 0.713896218 29.943956151087733 
Si 14.21414901 3.30292782 27.31451581412107 
Si 12.811189049999998 3.29810598 34.71368141592985 
Si 12.901696289999999 0.952214031 30.44439522175569 
Si 12.69849483 3.12683292 31.789407681702723 
Si 15.3284013 3.96099495 32.56739010819971 
Si 13.580044469999999 5.439801149999999 2.711269450721162 
Si 14.93183754 6.789818609999999 4.0718047571019165 
Si 13.57470135 5.4305973 8.14541490005611 
Si 13.57538553 8.145439829999999 5.430496486775826 
Si 16.28926695 5.43032037 5.429906264477966 
Si 14.932309949999999 4.07248371 6.787556425390945 
Si 12.21741855 6.78809187 6.787695301225736 
Si 13.575499559999999 8.143077779999999 10.85686141746663 
Si 16.28701893 5.43188421 10.866443850067183 
Si 12.21811902 4.07155518 9.502162368042951 
Si 14.93221221 6.78858057 9.502648433464719 
Si 12.22802334 6.7892158799999995 12.206630374755242 
Si 12.878238689999998 4.80336714 17.011282912047196 
Si 16.191543239999998 4.385268 17.335662143159357 
Si 13.56303771 5.60991762 13.722876738999096 
Si 14.343573059999999 7.655029379999999 15.095629646945554 
Si 14.456560499999998 6.587741159999999 20.56646956372805 
Si 14.64220134 6.132794039999999 18.164334249354912 
Si 15.46030143 5.52055068 22.505419250115818 
Si 15.924810779999998 7.65134784 23.52681629604204 
Si 13.75864803 4.63342986 23.985210707727134 
Si 13.23896445 6.254366309999999 25.614224249820964 
Si 14.03916183 6.06111804 29.609612578829346 
Si 14.68447389 5.5921940999999995 27.385863274244745 
Si 15.899968529999999 5.715753749999999 31.070690517702634 
Si 12.330177929999998 12.20337657 1.2142504458040682 
Si 14.932733489999999 12.21714162 4.0723949793997765 
Si 16.2828324 8.1350631 2.6766685364830822 
Si 15.634066859999999 11.50196175 0.28660917032416006 
Si 12.217662899999999 9.50370003 4.071978351895405 
Si 14.794757189999999 9.456703379999999 1.2288636555199095 
Si 13.57199721 10.853880389999999 2.7127380626740725 
Si 14.93214705 9.50272263 6.787591144349643 
Si 13.57556472 10.85958189 8.144616364006064 
Si 16.288370999999998 10.86059187 5.4306006436519185 
Si 12.21930819 9.502608599999999 9.502127649084255 
Si 14.943436019999998 9.49855239 12.207012283300918 
Si 16.28938098 10.859484149999998 10.858527927484118 
Si 12.50451351 9.323320859999999 14.91561184609823 
Si 13.713915689999999 10.871897129999999 13.625802530480462 
Si 13.77024651 12.14085555 17.229213815792356 
Si 15.532286939999999 11.86636905 15.167289577697508 
Si 16.211889449999997 8.249565509999998 13.746381474037406 
Si 15.643547639999998 8.48834433 21.359207547671538 
Si 14.997209309999999 10.717630830000001 20.933657270914416 
Si 13.886736299999999 10.277523899999998 18.880239177700496 
Si 15.113259269999999 8.33709168 17.502486739701574 
Si 16.15818132 11.901946409999999 17.921509852223533 
Si 13.72714317 11.98067598 22.547845817644347 
Si 13.82696829 8.231597639999999 24.485233150890718 
Si 14.689833299999998 11.613385349999998 24.710316160127597 
Si 13.890157199999999 9.91973034 26.121815425980635 
Si 13.418740889999999 8.31049011 29.365642456060947 
Si 15.13836216 9.46931184 28.100761352788094 
Si 16.01302113 11.58041439 28.938217355534153 
Si 12.942486449999999 9.277448219999998 31.41829673218352 
Si 15.05021697 9.43774182 32.58836035925309 
Si 15.97126986 11.61543789 32.57301457950873 
Si 12.89438208 8.53978815 34.61997494640489 
Si 15.00988293 14.96754522 1.2290893287514444 
Si 13.577682419999999 16.292606399999997 2.6809493840905025 
Si 13.575499559999999 13.57246962 5.430531205734523 
Si 12.21740226 12.21699501 6.787973052895317 
Si 14.932847519999997 14.932163339999999 6.788042490812712 
Si 14.93276607 12.216538889999999 9.501884616373369 
Si 13.57621632 13.57193205 10.861236006262535 
Si 14.925174929999999 14.93623584 12.254334224005817 
Si 14.74722297 15.85800549 17.13363252249772 
Si 14.726746439999998 14.915123999999999 20.499392535524187 
Si 13.45412277 14.286004199999999 18.58932902277287 
Si 14.36778 15.300626849999999 24.405553140679604 
Si 13.58470341 14.32508391 22.405914714488347 
Si 14.324986169999999 13.594738049999998 26.02446346579242 
Si 15.94949013 14.74935696 29.7640772260752 
Si 16.09196247 13.65854598 27.63236788099807 
Si 14.024223899999999 13.2530553 34.70777919295125 
Si 12.76683138 13.57015644 30.891332377070565 
Si 14.93540505 12.76210728 30.727458892017644 
Si 12.822901559999998 15.57201825 32.1239595677133 
