&CONTROL
  dt          = 30.D0,
  prefix = 'x.33_y.66_z3.15_struc27-scf',
  pseudo_dir = './',
  outdir='./',
  wf_collect= .true.,
  verbosity= 'high',
/

&SYSTEM
ibrav= 6, celldm(1) =30.783621515, celldm(3) =2.1056208385809962, nat=  432, ntyp= 1,
  ecutwfc     = 12.D0, nbnd= 1728,
  degauss     = 0.05D0,
  occupations = "smearing",
  smearing    = "methfessel-paxton",
/
&ELECTRONS
  electron_maxstep=200,
  conv_thr    = 1.D-8,
  mixing_beta = 0.3D0,
  scf_must_converge=.false.,
/
ATOMIC_SPECIES
Si  28.08  Si.pbe-hgh.UPF
K_POINTS {automatic}
1 1 1 0 0 0
ATOMIC_POSITIONS (angstrom)
Si 1.227383082 1.320767136 1.2655398692126492 
Si 3.9226319999999997 3.8880972 1.1714534236405403 
Si 4.074373349999999 1.3561701929999999 4.068355531484597 
Si -0.000226010718 2.7146959199999996 8.144771695382408 
Si 2.7150380100000002 0.00017932032 8.144771695382408 
Si 2.71445157 2.7173837699999996 5.429093184525475 
Si 1.3573789109999999 1.3575923099999998 6.787601300941422 
Si 2.71756296 2.71287144 10.861513523706618 
Si 1.3455083879999998 1.358853156 12.214053342080438 
Si 2.2250348099999995 2.17184796 16.62613482000255 
Si 0.317975913 0.48579223499999996 16.63951203975214 
Si 3.8811902399999996 1.251849033 14.968114183449655 
Si 1.265614083 3.96827658 15.197687854690678 
Si 1.464881508 2.9710353599999997 20.934971601908604 
Si 2.49829956 3.7608885899999995 18.93171579412593 
Si 2.4133635 1.2704571 22.36846075004917 
Si 3.7781396999999997 3.99070791 24.258421796721862 
Si 2.4154160399999998 2.08516887 24.541813052032385 
Si 0.347802903 2.7648691199999997 25.329010983450498 
Si 1.437401907 2.97139374 29.002738532322226 
Si 3.06380691 0.7738955459999999 26.401177996098323 
Si 1.266187491 0.8313406019999999 27.90920226863852 
Si 2.3410359 2.4681956400000002 33.778886190813914 
Si 3.51841194 3.0511821599999998 30.136509356945076 
Si 2.51494794 1.169025786 31.704834020048807 
Si 4.07069181 6.78605562 4.067600919088466 
Si 1.356095259 4.07432448 4.075044141359392 
Si 2.7152497799999997 5.40966465 2.6949129497379563 
Si 1.5612580349999998 6.9150398399999995 1.2697176778421362 
Si 0.00080563824 5.42878911 5.430945414952341 
Si 2.71500543 5.42991312 8.145286203834315 
Si 1.357439184 6.7870167299999995 6.787669902068342 
Si 4.07310273 6.78726108 9.501770587006094 
Si 1.3559470200000001 4.07192985 9.502868205036828 
Si 1.3359510449999998 6.78491532 12.213161527430467 
Si 3.4077213899999994 7.38968157 14.863291661514415 
Si 2.54982483 5.3973657 13.636497708786727 
Si 1.2932549549999999 7.336299239999999 19.466633081292187 
Si 3.09073428 6.00249033 18.678509034660635 
Si 3.0473702999999994 5.61962646 22.66649834595732 
Si 2.5448075099999996 7.748892359999999 23.3801215687527 
Si 0.8828756459999999 4.91381334 22.089357065171207 
Si 0.8973949229999999 7.501887089999999 25.095492747411523 
Si 1.9489844699999999 7.39890171 28.797964168463135 
Si 3.85571268 4.92824628 26.428138238978264 
Si 1.82426823 6.1011425699999995 26.82266331990076 
Si 0.5907144959999999 4.15419435 27.169785022120855 
Si 1.483178436 4.38627798 32.56035867388021 
Si 0.22290910199999997 5.72990976 34.02043075870265 
Si 0.00763339626 6.63278301 30.055525726614874 
Si 3.8150854199999995 7.10053407 30.204355871469915 
Si 0.0991176453 4.220038529999999 30.515118976421903 
Si 3.5022196799999996 5.02600257 31.40185714300235 
Si 3.47845257 7.82763822 34.264822273358604 
Si 1.3570889489999998 9.500360579999999 4.068184028667295 
Si 2.72790711 10.85853933 2.6708030836815815 
Si 1.323065655 12.15867681 1.1367789840383369 
Si -0.00025972775999999996 8.14506516 8.144771695382408 
Si 2.71451673 8.14519548 5.430705311008118 
Si 0.001062821502 10.86072219 5.430019299738908 
Si 2.7155267100000002 10.8595656 8.144394389184342 
Si 4.0890343499999995 9.50659965 12.211103493622838 
Si 1.356955371 9.50339052 9.50156478362533 
Si 2.71899648 8.144120339999999 10.863845962021928 
Si 0.00182695608 10.857724829999999 10.861719327087378 
Si 1.68189363 9.21872277 14.950620896084807 
Si 2.7991107 10.85195817 13.607925339424146 
Si 1.011582936 10.398721499999999 16.945267262438897 
Si 2.07964656 8.83282896 21.236576456416643 
Si 2.61819396 11.994522479999999 17.82349888928114 
Si 0.0566852904 8.55790263 17.921289795706983 
Si 3.6537655499999997 10.8537012 25.0059339762162 
Si 0.07114005899999999 9.64389177 25.775398516325247 
Si 1.8970845299999999 10.96452207 26.532892159786584 
Si 2.5788699 9.69323418 28.38769512891228 
Si 3.44308698 8.78221593 31.99168963226884 
Si 0.931362831 9.437008769999998 32.31366902147241 
Si 1.238458653 10.69239762 30.0829318768198 
Si 2.71292031 16.28418447 2.6766410395825564 
Si 3.98546253 14.928775019999998 1.0789345138185757 
Si 0.0071497787399999995 13.57370766 2.6822697620464218 
Si 1.3577242589999998 14.93213076 4.068458433174978 
Si 4.02968988e-05 13.57489683 8.145183302143934 
Si 2.7162108899999997 13.5762489 5.428955982271633 
Si 1.357385427 12.217614029999998 6.787155393616435 
Si 4.07284209 14.92944291 12.22125646040714 
Si 1.3583530529999999 14.93421588 9.502765303346449 
Si 2.71601541 13.57204608 10.860621709056645 
Si 1.346389677 12.226410629999998 12.256688942461821 
Si 2.57600286 16.169486579999997 13.53688887249748 
Si 3.14952489 13.828581 16.291361320628223 
Si 1.3643917559999998 15.05485962 15.23685909816255 
Si 3.50441883 12.333273029999999 21.195004173502536 
Si 1.71916515 12.97363293 19.808643999556676 
Si 1.592179713 15.324117029999998 19.488551141343436 
Si 3.6556551899999996 16.16184657 18.676725405360692 
Si 0.7505063639999999 16.149466169999997 21.546276243901357 
Si 2.88432369 12.41408772 23.403960460357734 
Si 4.00836627 14.39838891 23.954758908406195 
Si 0.671372802 12.792765059999999 24.036531451695986 
Si 3.0559714199999997 14.73443532 26.081016536758163 
Si 3.02594895 14.251094729999998 29.68686327054159 
Si 0.9558515879999999 15.10420203 29.071545462623956 
Si 1.165266054 13.21909065 26.30105465135717 
Si 2.4074013599999997 13.56318432 33.73710810451905 
Si 0.31992256799999996 16.245707489999997 31.060120629245542 
Si 2.6708432399999995 12.33726408 30.93399745740134 
Si 3.91666986 15.57257211 31.496389495899443 
Si 0.24063588 14.751800459999998 32.914203286538566 
Si 6.78683754 4.07587203 4.070482166419147 
Si 5.43084165 2.7151031699999995 2.685250481011138 
Si 6.922989359999999 1.405087434 1.2897183363959448 
Si 5.43120003 0.000505573182 5.43012220142929 
Si 5.42984796 2.71492398 8.14494319819971 
Si 6.78714705 1.3575190050000001 6.787807104322185 
Si 6.78589272 4.07263032 9.501736286442632 
Si 4.07207646 1.356753375 9.501221777990725 
Si 6.777177569999999 1.371492567 12.239744464112341 
Si 7.96729239 2.84291451 17.08902092390179 
Si 5.45607486 2.7576037799999997 13.768863583180737 
Si 5.15861946 3.9654909899999997 20.67991261201644 
Si 7.27858377 0.694991673 19.96598068414992 
Si 6.70673961 2.8787850899999996 19.11354308102996 
Si 5.702444819999999 3.4453349999999996 22.98017699880345 
Si 6.18096357 1.220858937 23.359369727859104 
Si 6.82933815 1.0744541909999998 25.567194096120105 
Si 8.11222452 0.710131599 22.13408499992368 
Si 5.197063859999999 1.3740142589999997 27.23197194367472 
Si 4.828225679999999 3.52015497 28.19595497916817 
Si 5.986819349999999 2.08567386 32.54996560315168 
Si 5.00537943 5.8569066 0.14935562948725656 
Si 6.799185359999999 6.84038277 1.3604220878570412 
Si 4.07196243 4.0728909600000005 6.787258295306816 
Si 5.43214485 5.431379219999999 5.430568108754276 
Si 6.787456559999999 6.78810816 6.787772803758724 
Si 4.0735262699999994 4.078527299999999 12.24965732695242 
Si 5.43154212 5.430678749999999 10.86024440285858 
Si 6.7818528 6.769798199999999 12.235662697060544 
Si 7.027994699999999 4.08763341 15.260835192021428 
Si 4.358601269999999 6.895703609999999 16.91779251110705 
Si 5.33606643 8.08933707 13.613653533522045 
Si 6.37401636 5.62351977 17.049163669160706 
Si 6.54028839 7.45568865 21.128015173064213 
Si 4.5035985599999995 6.2308435499999995 20.840988058026877 
Si 8.04636405 4.79641131 19.739837069254946 
Si 7.250923349999999 6.9039626400000005 18.892475949527135 
Si 4.7325382199999995 4.09379103 18.037054197386116 
Si 7.562811689999999 4.74368058 23.661591992509432 
Si 7.21306539 6.11076996 25.516909470087036 
Si 6.638777729999999 4.89055122 28.887797344166138 
Si 5.0995845 6.885945899999999 26.3003343395245 
Si 5.6318765399999995 7.0123237199999995 28.61798911198597 
Si 7.3443464999999994 4.9842513 31.18960525630887 
Si 5.501247029999999 4.5774085499999995 32.57617123363549 
Si 4.44433554 9.68432355 1.1684624145067863 
Si 5.4371133 8.17086852 2.7205972116571666 
Si 6.785518049999999 9.50124024 4.075318545867075 
Si 4.07264661 12.21557778 4.068801438809584 
Si 4.0728583800000004 9.502152480000001 6.787223994743355 
Si 5.42991312 8.145374669999999 8.145251903270855 
Si 5.43062988 10.85915835 5.430671010444657 
Si 8.14392486 8.14651497 10.863400054696942 
Si 6.78791268 9.503732609999998 9.502593800529144 
Si 5.428104929999999 10.860298649999999 10.85828927074133 
Si 8.03103516 10.75517928 13.726296583926276 
Si 7.1060238 8.75923074 15.097495908822602 
Si 4.41014283 12.198245219999999 15.01664948074624 
Si 5.835468959999999 8.82693198 17.27352365475573 
Si 4.09149414 10.11685563 20.73280408087251 
Si 4.491153 10.61480835 18.42235242673774 
Si 6.43181328 9.46765026 24.270838600694557 
Si 4.29236613 8.56215432 24.75872981535649 
Si 7.990896599999999 11.16379764 21.536020375426673 
Si 6.21013896 9.6519879 21.88897317343506 
Si 5.88008727 11.55925368 25.335116483746468 
Si 4.92122529 10.307448629999998 28.73128387309595 
Si 6.89016501 8.94490416 28.867594312287917 
Si 5.736637529999999 12.14113248 27.586571168729204 
Si 5.97367332 11.09653623 34.05905319315916 
Si 4.62140784 11.08244538 30.91118758270012 
Si 6.94266768 9.251221319999999 32.877535984199305 
Si 5.42590578 13.588303499999999 2.6775534345706054 
Si 7.10380836 12.46224096 1.3111664787277855 
Si 6.78615336 14.93131626 4.070173461348003 
Si 8.14519548 13.57409862 5.430293704246592 
Si 4.07277693 14.9323914 6.787464098687579 
Si 5.42984796 13.574782799999998 8.145114701017013 
Si 6.7874728499999994 12.217581449999999 6.78749839925104 
Si 4.07269548 12.21608277 9.501290379117647 
Si 6.78716334 14.93050176 9.504171626448327 
Si 6.79273452 12.210364979999998 12.234222073395204 
Si 5.42670399 16.292606399999997 10.86099901525471 
Si 6.89663214 13.156976879999998 16.20176824886944 
Si 5.59950831 13.71305232 13.590191948115073 
Si 6.8625371699999995 15.433243739999998 15.722246371691865 
Si 4.65068097 15.785270639999998 16.557602294208504 
Si 8.108070569999999 16.23511899 13.565564143550446 
Si 5.478147809999999 13.51561752 20.587369691800056 
Si 5.251342139999999 15.79662477 20.309946734531657 
Si 6.1004420999999995 12.37039794 18.610696820699257 
Si 7.19439705 13.280145569999998 22.180493662285713 
Si 4.37650398 16.280975339999998 22.461140872519398 
Si 6.19709067 13.63920975 24.31416021234515 
Si 7.5256379099999995 15.09426513 25.67163931185728 
Si 7.924808069999999 14.93986851 27.983943196418917 
Si 4.48631487 14.12250147 27.857134013305505 
Si 7.90425009 12.63659283 28.340223149082966 
Si 5.89297266 15.87071169 28.59723727109238 
Si 6.42731724 12.26640258 31.9693256648926 
Si 6.79125213 14.684669369999998 32.52523489689668 
Si 6.02886384 16.26633063 30.906797110577177 
Si 5.682636179999999 16.16730372 34.196358348691476 
Si 8.16199047 -0.00565795683 2.6986071204226505 
Si 9.50383035 1.352560329 4.070516466982608 
Si 10.87082199 2.70814734 2.7050556263532215 
Si 9.56188791 4.05922365 1.3045087393601056 
Si 8.1453258 -0.000362949345 8.145149001580474 
Si 8.145537569999998 2.71495656 5.428578676073568 
Si 10.8611946 -9.7595019e-05 5.431014016079263 
Si 10.860152040000001 2.7152009099999996 8.144977498763172 
Si 9.50370003 1.358444277 9.502113592640699 
Si 12.218607719999998 4.0728258 9.501976390386856 
Si 8.145798209999999 2.71559187 10.862714043427733 
Si 10.8563076 0.0005214266099999999 10.86453197329114 
Si 8.52687018 0.580147173 16.774621959222987 
Si 9.967899869999998 0.7589201489999999 14.885244022129124 
Si 10.98281574 2.6463919499999995 13.795823826060678 
Si 11.02310091 2.74173732 20.431370729181772 
Si 11.14348401 0.48851755199999997 19.750538845054617 
Si 9.91196001 3.93105393 18.66242207039767 
Si 11.54214918 0.5809730759999999 23.390377437227382 
Si 9.52132581 3.55799664 24.243775456124233 
Si 9.97277058 2.10908259 22.484225151728307 
Si 8.66105091 2.47586823 26.134388213502675 
Si 11.10170016 3.58202439 29.05195984088802 
Si 9.62139528 0.00551178666 28.953380021502586 
Si 10.292673599999999 0.952445349 26.944018713423947 
Si 12.18415437 2.06912322 27.553917032314825 
Si 8.21410218 2.9610984599999997 31.93581401439171 
Si 8.70759144 2.3531556599999996 34.15190481844669 
Si 9.699180029999999 2.0690906399999998 30.290244482374966 
Si 10.970256149999999 1.80876015 32.35527560494997 
Si 8.1407646 5.4238206600000005 2.6987957735216828 
Si 9.501842969999998 6.786642059999999 4.068492733738439 
Si 10.86158556 5.43129777 5.429710594667763 
Si 9.50236425 4.07271177 6.787635601504882 
Si 8.14514661 5.43004344 8.145046099890093 
Si 9.501973289999999 6.786365129999999 9.502319396021463 
Si 9.521407259999998 4.05985896 12.248971315683212 
Si 10.86124347 5.42898459 10.860724610747027 
Si 12.210332399999999 6.78256956 12.236383008893215 
Si 8.27080767 5.48872002 13.69899333541173 
Si 9.14755176 7.2732243599999995 15.159202622488014 
Si 12.13021818 4.1611338899999994 15.283370662214967 
Si 11.165524379999999 5.31449847 17.195798577954275 
Si 11.05121745 7.679024549999999 19.9320574268875 
Si 9.38836683 7.68791889 18.08130192425014 
Si 11.65731948 4.56325254 24.638129034229422 
Si 10.32479748 6.8748686999999995 22.040375860549634 
Si 8.199196829999998 5.92819164 21.81351193382199 
Si 10.271284829999999 5.432470649999999 27.792648953999795 
Si 10.20327408 7.36886295 29.061598299220417 
Si 11.789056709999999 6.286881149999999 26.200897006052557 
Si 8.17845966 4.648156019999999 27.127835433008684 
Si 8.885494529999999 6.825005009999999 31.05298611204576 
Si 10.22182839 7.11050355 32.924630657830555 
Si 8.39409039 8.033820749999999 34.231310622857706 
Si 11.05317225 5.33065815 34.220505945367655 
Si 9.555502229999998 9.53082288 1.3162361020072453 
Si 10.86743367 8.14897476 2.704798372127268 
Si 8.15316129 10.86264441 2.7072851629781534 
Si 12.2181516 9.502103609999999 4.070585068109529 
Si 8.145798209999999 8.147883329999999 5.430911114388881 
Si 9.502168769999999 9.50275521 6.787944306576025 
Si 10.85964705 8.14478823 8.145011799326632 
Si 8.14519548 10.85985882 8.14494319819971 
Si 10.8610317 10.861699589999999 5.430430906500433 
Si 9.49897593 9.51339258 12.237171921852806 
Si 10.85757822 10.85798547 10.862816945118116 
Si 11.29773402 10.695704489999999 16.886647599484927 
Si 10.84917258 8.17034724 13.669426249708794 
Si 8.257677929999998 11.70014589 19.243885222179802 
Si 9.064228409999998 10.012876559999999 17.712124959724946 
Si 9.83168289 10.67851854 22.943200991393045 
Si 10.088038619999999 8.51023809 23.766757520079278 
Si 11.805118649999999 11.106326519999998 21.73520374744171 
Si 10.05495363 12.06504189 24.87456281816254 
Si 12.03710454 8.40174669 25.094155025436564 
Si 8.25860646 8.181652499999998 25.218906174742347 
Si 9.3204864 11.28295899 27.011350719496882 
Si 8.80288794 8.94987261 27.428960079628276 
Si 11.238845669999998 11.19276126 28.311204872395397 
Si 10.62371898 11.114324909999999 34.172485156522974 
Si 8.16057324 9.07765137 30.867454364288 
Si 11.75667219 10.66452543 31.999990368626275 
Si 10.10234124 10.45197351 30.31528389370112 
Si 12.20994144 8.26934157 32.15080994616203 
Si 9.502380539999999 12.217679189999998 4.0722314951556315 
Si 9.76978089 15.067484369999999 1.2302445894118106 
Si 10.86883461 13.572160109999999 2.702778068939445 
Si 9.50233167 14.932538009999998 6.78749839925104 
Si 10.8598914 13.57486425 8.144462990311263 
Si 12.21881949 14.933042999999998 9.502079292077237 
Si 9.50308101 12.22009011 9.501153176863804 
Si 8.14975668 13.571329319999998 10.857294554400976 
Si 9.49439844 14.91859377 12.211034892495917 
Si 11.79009927 15.42954591 14.689216301952456 
Si 10.671057719999999 13.02895377 16.942900523560123 
Si 9.15817284 12.56185431 15.095746580086116 
Si 10.82604078 13.59167553 13.600825122787825 
Si 11.331193679999998 13.079338739999999 20.452877182471497 
Si 9.606506219999998 13.622740559999999 18.92955485862792 
Si 9.11567223 15.974250929999998 18.85790098155897 
Si 8.99607105 14.81603193 22.330798731369555 
Si 9.41289957 14.314348799999998 24.575976413239026 
Si 11.26736946 15.32196675 21.628734798460364 
Si 11.05893891 15.715256219999999 25.34890531025758 
Si 11.75543415 15.85246689 34.22204947072338 
Si 9.044436059999999 13.152953249999998 34.1486805654814 
Si 8.524035719999999 12.239735849999999 30.576757088960395 
Si 9.16918488 14.11262973 31.906384130942612 
Si 11.070732869999999 14.920564859999999 30.200445607235423 
Si 16.28778456 2.7377462699999997 2.6947826075968067 
Si 13.56543234 0.015499462589999999 2.722723846591717 
Si 12.37916196 1.466041356 1.2705306011961497 
Si 14.930273699999999 1.355899779 4.070756570926831 
Si 16.2901629 0.0012061474379999998 5.43015650199275 
Si 13.57476651 0.00045460502999999995 8.144497290874725 
Si 13.57502715 2.7147773699999997 5.431528524531169 
Si 12.21746742 1.357158996 6.7873954975606585 
Si 16.289983709999998 0.00207467811 10.859661293279752 
Si 14.93180496 1.3570873199999998 9.501907789259937 
Si 13.57287687 2.71639008 10.858495074122095 
Si 12.22126299 1.380808818 12.218032207441855 
Si 16.27095699 2.7224173799999996 13.592558686993849 
Si 13.60412109 0.1562759973 13.624252407631335 
Si 14.97220416 1.4517778319999999 15.139719902442458 
Si 13.9416336 3.05818686 16.633543741710014 
Si 12.934406609999998 3.98275839 21.0975562727113 
Si 15.76353978 1.6738137899999999 20.71174353490777 
Si 14.842454309999999 1.305861786 18.525425619936495 
Si 14.477721209999999 2.77231365 22.358033378757185 
Si 13.61927079 1.367263683 23.993827250187685 
Si 13.16986227 3.02427108 25.654283226746273 
Si 14.34282372 3.38048451 29.774261106238903 
Si 15.694567919999999 0.85776624 26.462301600184908 
Si 14.559089759999999 3.93098877 27.43256163879163 
Si 13.941519569999999 0.538899264 28.121659958712762 
Si 15.622891919999999 0.49286046599999994 34.24194379753046 
Si 12.405209669999998 0.06993329579999999 31.570341510720247 
Si 14.001173549999999 2.5487659799999998 34.225479527069425 
Si 14.446802789999998 1.0266772499999999 30.38090087160103 
Si 12.2950404 3.71273535 32.86011129796138 
Si 16.2935838 8.15726637 2.676260303328145 
Si 12.221556210000001 4.06798767 4.0697961551499375 
Si 15.09569865 4.247177669999999 1.1452958139455751 
Si 13.58779851 5.43090681 2.693242512297431 
Si 12.28083552 6.8158989 1.3097807359639821 
Si 14.933482829999999 6.783840179999999 4.068698537119202 
Si 13.575792779999999 8.14609143 5.429367589033159 
Si 14.9325543 4.0726629 6.787567000377961 
Si 13.574913119999998 5.4297990899999995 8.14490889763625 
Si 12.21763032 6.787407689999999 6.78749839925104 
Si 13.57256736 8.14633578 10.864703476108442 
Si 16.28791488 5.4335295 10.859078183700921 
Si 14.933205899999999 6.785697239999999 9.502010690950316 
Si 14.915531249999999 4.0860207 12.23473658184711 
Si 15.62440689 4.87163853 16.467254610053587 
Si 16.285096709999998 8.12913354 13.628299874119673 
Si 13.48652358 5.44836969 13.742006241991179 
Si 14.88324447 6.852274469999999 15.221218041224569 
Si 14.07109023 7.97779944 17.19387774640049 
Si 15.82612596 6.24617244 20.607366920297515 
Si 14.261080499999998 4.911842249999999 19.369871191770162 
Si 12.675607379999999 6.460483679999999 18.64691821571353 
Si 15.16315554 6.313466429999999 24.79436810079193 
Si 12.23685252 5.6454298199999995 22.64756443492713 
Si 13.60967598 7.452463229999999 23.454313687517722 
Si 15.70364145 4.23026865 23.77193690516181 
Si 14.46822414 7.52332473 28.745690109749358 
Si 14.020949609999999 6.118735769999999 26.90042269726567 
Si 15.763262849999998 7.432084439999999 32.398391413219805 
Si 12.53754963 4.62158703 30.602070904794232 
Si 12.476364389999999 7.03617228 30.035700000934714 
Si 13.773097259999998 7.854239789999999 33.94102495429163 
Si 13.58177121 10.84519782 2.694264669088553 
Si 12.22632918 12.15927954 1.2888505321403945 
Si 14.85527454 9.495392129999999 1.1139416688863462 
Si 14.932668329999998 9.502315379999999 6.7873954975606585 
Si 13.574913119999998 10.860152040000001 8.145526307778539 
Si 12.21738597 9.50255973 9.502044991513777 
Si 14.933140739999999 9.521472419999998 12.243003017641088 
Si 12.22127928 12.220236719999999 12.235079587481716 
Si 12.41309403 9.497216609999999 15.031433023597708 
Si 13.70946852 11.05915068 13.716315119959276 
Si 15.106042799999999 11.459542589999998 17.772768355923088 
Si 14.58709227 8.262385740000001 21.419329858534105 
Si 12.64695327 9.3542067 20.372853967918186 
Si 15.88685508 11.99491344 20.23788125070118 
Si 13.239469439999999 10.02831948 18.172301319110808 
Si 16.27820604 9.9849555 21.57049244170446 
Si 13.561262099999999 11.74813623 23.186529188581726 
Si 15.700464899999998 10.799976779999998 23.73506379944179 
Si 12.43583487 12.17684016 25.19239183918739 
Si 15.43756059 11.41205724 29.219277989448262 
Si 12.691962539999999 10.23025032 26.63047726283166 
Si 14.785308989999999 9.68816799 27.649615604369576 
Si 13.72313583 11.970934559999998 30.90079451197159 
Si 16.12524294 10.949095439999999 33.94887978332408 
Si 13.34416527 13.79565891 0.06044102287371961 
Si 12.215773259999999 14.93302671 4.0748726385420895 
Si 14.933205899999999 12.219063839999999 4.0684241326115185 
Si 14.85690354 14.966763299999998 1.3501867997204327 
Si 13.574717639999998 13.57685163 5.430705311008118 
Si 12.21738597 12.217679189999998 6.787807104322185 
Si 14.93245656 14.93268462 6.787601300941422 
Si 14.93325477 12.2173371 9.503211210671434 
Si 13.571671409999999 13.57628148 10.863434355260404 
Si 14.929736129999998 14.94050382 12.25027473709471 
Si 12.67130682 14.267515049999998 16.564874013662127 
Si 14.50345941 12.68764569 15.647882750109535 
Si 16.16696163 13.66574616 13.899240024894038 
Si 13.16168469 14.42746656 20.3300468647195 
Si 13.06935297 15.99863706 18.583908080636622 
Si 14.78459223 15.75006795 24.759004219864174 
Si 15.999467849999998 14.683317299999999 23.04599978008412 
Si 14.59743642 13.34913372 21.754343461852656 
Si 13.013282789999998 14.430545369999999 25.70196100995635 
Si 15.85660455 13.488119999999999 28.03608005287885 
Si 12.34532763 13.137608069999999 29.28503216960201 
Si 13.716864179999998 14.47540803 27.899186504108062 
Si 14.941904759999998 12.84380163 32.83050991169499 
