&CONTROL
  dt          = 30.D0,
  prefix = 'x.33_y.66_z3.17_struc9-scf',
  pseudo_dir = './',
  outdir='./',
  wf_collect= .true.,
  verbosity= 'high',
/

&SYSTEM
ibrav= 6, celldm(1) =30.783621515, celldm(3) =2.1156629530688646, nat=  432, ntyp= 1,
  ecutwfc     = 12.D0, nbnd= 1728,
  degauss     = 0.05D0,
  occupations = "smearing",
  smearing    = "methfessel-paxton",
/
&ELECTRONS
  electron_maxstep=200,
  conv_thr    = 1.D-8,
  mixing_beta = 0.3D0,
  scf_must_converge=.false.,
/
ATOMIC_SPECIES
Si  28.08  Si.pbe-hgh.UPF
K_POINTS {automatic}
1 1 1 0 0 0
ATOMIC_POSITIONS (angstrom)
Si 1.2595004459999999 1.306358631 1.3460869657256966 
Si 1.3549272659999998 4.0725 4.069699094355999 
Si 0.000267198354 0.001133756307 5.430447109281333 
Si 0.000262687653 2.71495656 8.144981380931888 
Si 2.71404432 0.000352566099 8.145257094127933 
Si 2.71546155 2.71637379 5.4297578262912225 
Si 1.357523892 1.357668873 6.7875419243590835 
Si 2.7146307599999995 2.71243161 10.860377256320081 
Si 1.366862949 1.3453992449999999 12.216196897866132 
Si 2.63397897 0.16310199599999997 13.86037807832463 
Si 3.4345184399999997 1.9633848299999999 15.260208438789189 
Si 1.5267607019999998 3.52474875 15.077513982260577 
Si 0.57765969 0.9899644769999999 19.565711244061763 
Si 2.5387964999999997 2.65989636 19.553476470987313 
Si 3.8490663599999997 0.06100083719999999 22.860931970730352 
Si 3.3333575399999997 2.9245111199999996 25.30857586861038 
Si 3.31812639 0.7284790259999999 26.093324552850426 
Si 1.263947616 3.4530727499999996 26.47701392929507 
Si 3.5027083799999996 1.2292792379999997 28.416139301221566 
Si 1.9498152599999998 2.9877163199999996 28.691818033115993 
Si 2.6188455599999996 2.6802751499999995 34.450674023035155 
Si 3.85654347 1.381872555 32.95003602526703 
Si 1.6171816049999999 3.92613435 32.6655689352487 
Si 0.298170531 3.4000650899999996 30.374495668572123 
Si 2.71958292 5.435468009999999 2.691353684693163 
Si 1.370811645 6.84499284 1.245775612175012 
Si -0.017743393799999996 8.140992659999998 2.6879107161575644 
Si 5.87995695e-05 5.4307764899999995 5.43168781866353 
Si 2.71480995 5.429522159999999 8.145188165828921 
Si 1.3571980919999997 6.78753801 6.787576388508589 
Si 1.3573577339999998 4.07438964 9.502455301654201 
Si 0.0021699909 5.42839815 10.857895837555688 
Si 1.346699187 6.7712968799999995 12.214473690390856 
Si 2.71388142 8.14392486 10.863789207121126 
Si 3.4610385599999995 7.24118193 14.882963858302075 
Si 0.0375642513 8.09469648 13.640669125227118 
Si 2.64091851 6.08690511 16.89970249491494 
Si 2.6581370399999997 5.36960754 13.57542849021322 
Si 0.451283499 5.144952149999999 16.48075629352618 
Si 1.364810409 4.62267846 20.281876270785883 
Si 2.60307684 6.718207769999999 20.165559766204847 
Si 2.51915076 8.067752819999999 18.186249195954947 
Si 2.78418906 4.32396873 23.488213955879807 
Si 3.24258966 8.13038787 23.78474349822506 
Si 0.5918759729999999 4.300234199999999 22.492820389862192 
Si 2.77827579 6.17995359 24.926540771342 
Si 0.911324502 5.76736047 26.230250618835747 
Si 1.561675059 6.479037989999999 28.35010599076904 
Si 3.26322909 4.91409027 28.589252724187652 
Si 0.22563441899999997 5.520941639999999 33.949324040178766 
Si 3.7450058399999997 5.17635927 32.41315350427048 
Si 4.04897724 9.51298533 1.355113126481185 
Si 1.356851115 9.504123569999999 4.06869963402034 
Si 2.7120895199999997 10.87271163 2.7111671242438695 
Si 1.428794271 12.10814523 1.147869856259811 
Si 5.38029378e-05 8.14488597 8.145153701679416 
Si 2.71487511 8.144201789999999 5.429447648945674 
Si -0.001048271274 10.86008688 5.429895682889245 
Si 2.7152660699999998 10.85994027 8.145257094127933 
Si 4.097114189999999 9.50446566 12.233670221665415 
Si 1.358084268 9.50301585 9.503144584644309 
Si 0.000725662485 10.85717097 10.86482313160629 
Si 1.37920914 12.22559613 12.257622805571732 
Si 0.5630084639999999 10.434559499999999 16.02055650517935 
Si 1.88714763 9.01493487 14.723360381942141 
Si 2.99354814 10.89199899 13.758191875040843 
Si 4.06248165 11.28807405 15.997568917459185 
Si 0.596152098 9.363035879999998 18.211580345841487 
Si 3.73718664 10.19589471 21.152337294846088 
Si 2.7975468599999997 12.194970929999998 20.477977281472132 
Si 1.2755460959999998 11.48464548 18.883217691404507 
Si 2.11230801 9.946641419999999 24.766902830832567 
Si 2.1995246699999997 8.38184031 21.72871573117593 
Si 3.0334586399999997 11.97129294 23.941693235073068 
Si 2.98625022 8.36095653 28.425203372541507 
Si 2.59245576 10.20426777 27.044948648996066 
Si 0.291131622 10.48069278 27.451935790506422 
Si 2.29306185 8.60343318 34.46173701502642 
Si 0.504237402 10.24497648 34.15366198259683 
Si 0.621654093 9.264171869999998 31.548103351682638 
Si 2.80319949 8.88086817 30.738299230752098 
Si 2.7141909299999996 16.27649559 2.6892203538387727 
Si 4.05254475 14.9340204 1.126067835282637 
Si 0.0036076485599999997 13.562092889999999 2.675420908376774 
Si 1.3588433819999999 14.9320656 4.069388917010451 
Si -0.0001157054265 13.57558101 8.144946916782384 
Si 2.7150380100000002 13.57374024 5.4302403243843 
Si 1.357611858 12.217304519999999 6.7875419243590835 
Si 4.05378279 14.948648819999999 12.242768757134865 
Si 1.357188318 14.9305995 9.501972803561124 
Si 2.71300176 13.576933079999998 10.86337563732706 
Si 2.1386978099999996 12.328874729999999 16.85648445143505 
Si 0.0657736443 13.6638891 13.709321711042056 
Si 0.6941266739999999 15.650356859999999 15.232395870138255 
Si 0.857152107 15.371243999999999 17.845398757345635 
Si 3.04210863 14.48990613 17.733700448798334 
Si 1.66765617 15.536212829999998 23.01198833801292 
Si 1.77526791 13.23316521 22.365406429140393 
Si 1.4361394319999998 15.727050179999999 25.414346343442734 
Si 3.88720125 13.38161598 25.567642880443163 
Si 0.6514061489999999 12.856263479999999 30.046603750176875 
Si 2.1522347999999996 16.052231159999998 29.57930434703191 
Si 1.80936288 13.74081048 26.555798975064622 
Si 2.42782902 13.805416619999999 28.886954047616086 
Si 2.40036408 16.0552611 31.896501439033656 
Si 3.00431583 13.29293322 34.02404231630668 
Si 1.422934758 13.629891869999998 32.27388387611879 
Si 0.29365657199999995 15.668243279999999 32.642236706033486 
Si 4.08952305 4.023125009999999 1.30713558395459 
Si 8.14183974 -0.009240583949999999 2.701737732939167 
Si 4.07460141 1.3567582619999998 4.069561237757978 
Si 5.4462519899999995 2.7046449900000002 2.7031576558987935 
Si 6.8496192 1.348448733 1.2578656358215388 
Si 5.429522159999999 -0.001483574283 5.429826754590233 
Si 5.42947329 2.71529865 8.145567271473482 
Si 6.787342529999999 1.357427781 6.787300675312545 
Si 4.07096874 1.356192999 9.501731554514587 
Si 5.42904975 0.0030447313199999998 10.866374018334039 
Si 6.77918124 1.3609056959999999 12.25234979069739 
Si 5.37340311 2.78935299 13.828464275882542 
Si 4.981205070000001 3.19863924 16.503123526555246 
Si 7.81566507 2.4944714099999996 17.298693953740017 
Si 4.09952511 2.02844709 21.43380600385744 
Si 7.80752007 1.347148791 21.21227045083614 
Si 5.742648539999999 0.824003586 20.27432862204418 
Si 5.7818097 1.256682276 17.9468612134898 
Si 6.62105421 3.99947193 23.64247548906639 
Si 7.72235595 1.84494024 23.53222467479832 
Si 5.553114389999999 3.87526068 25.806961934609294 
Si 5.5541895299999995 1.9919086199999998 29.394955611327035 
Si 6.7590468 3.4589208599999997 27.836383378240182 
Si 7.24750245 0.486888552 30.104710306243135 
Si 7.119739979999999 3.7520757 32.83782075447715 
Si 5.49650664 0.11930323589999998 34.15590215231469 
Si 5.111459909999999 2.96751672 31.612447918809387 
Si 6.78830364 4.07186469 4.070043735851055 
Si 4.073461109999999 6.786299969999999 4.071663550877813 
Si 6.76520442 6.71807745 1.1159181432532697 
Si 4.07272806 4.07214162 6.7876453168076 
Si 5.42922894 5.4299457 5.43061943002886 
Si 6.787619459999999 6.787586879999999 6.7875419243590835 
Si 6.78659319 4.07232081 9.501731554514587 
Si 4.07344482 6.78802671 9.502179588458157 
Si 4.085613449999999 4.07473173 12.233084331123822 
Si 5.431688729999999 5.428512179999999 10.860136007273544 
Si 6.791773409999999 6.777112409999999 12.244112858965579 
Si 5.58362556 7.725174119999999 16.113058282452087 
Si 7.000008479999999 4.09353039 15.36653034001363 
Si 6.5120904 5.72355666 17.094838509415034 
Si 5.47906005 8.14065057 13.654006751085742 
Si 6.343847279999999 7.545609449999999 20.135369171238036 
Si 4.73740893 5.78412288 20.317822378720113 
Si 8.058548969999999 6.55190316 18.815702422523252 
Si 4.47975 4.8744567 18.024888047970236 
Si 7.14663477 7.849141019999999 22.294651530205613 
Si 8.11222452 5.72481099 22.74923366218305 
Si 4.73530752 4.18525938 22.146731400528044 
Si 4.34097549 5.64678189 26.619764436546816 
Si 6.9370802099999995 5.2718349600000005 29.453234488140822 
Si 6.97373271 7.6149559799999995 29.068614579659535 
Si 5.130307439999999 7.60031127 27.593307731777944 
Si 5.5304712899999995 5.18522103 34.13667115689062 
Si 4.7475901799999995 5.25261276 30.345442390538995 
Si 5.43739023 8.12976885 2.6878762520080586 
Si 6.79042134 9.500914439999999 4.068182671777758 
Si 4.06984473 12.21764661 4.073145509306549 
Si 6.762712049999999 12.18814542 1.2863123448233718 
Si 4.07207646 9.50298327 6.787610852658094 
Si 5.4310534200000005 8.14513032 8.14467120358634 
Si 5.4293429699999995 10.860363809999999 5.43099853567342 
Si 6.78693528 9.50339052 9.501111199823486 
Si 5.43496302 10.85322879 10.859377795984424 
Si 7.580486339999999 10.69427097 17.110106127645967 
Si 7.3889811 9.1227258 15.264895563121936 
Si 5.4141444 9.64174149 19.593075778769123 
Si 7.23468222 11.1345408 19.471348402715726 
Si 4.39222383 9.30633039 17.396951243980176 
Si 5.49430749 8.81047908 23.74038813781149 
Si 4.94479692 10.99162863 23.020604375389297 
Si 8.14343616 11.705081759999999 25.13160246089968 
Si 7.51210092 11.019028409999999 28.961568931295474 
Si 6.36412833 8.61745887 25.887608044452147 
Si 6.669060839999999 10.779092999999998 26.754863902608342 
Si 4.50599319 11.707655579999999 27.110396068906997 
Si 5.620913369999999 10.648284299999998 34.29920408595852 
Si 6.42203928 9.53036676 30.438667914951353 
Si 4.32901863 10.67680809 30.80112737530061 
Si 7.052462279999999 9.48424977 32.73239492113985 
Si 5.4185427 13.5848826 2.6879830908715254 
Si 6.787358819999999 14.93208189 4.071215516934242 
Si 4.07246742 14.93274978 6.787300675312545 
Si 5.43009231 13.57496199 8.144326562091285 
Si 6.78719592 12.217809509999999 6.787886565854138 
Si 4.07381949 12.218868359999998 9.501559233767058 
Si 6.78753801 14.93069724 9.502179588458157 
Si 6.7867723799999995 12.21401394 12.239322342184316 
Si 4.71390246 15.88981986 16.495575877813543 
Si 6.13518867 12.489070589999999 16.466281350733873 
Si 5.24192652 13.428889559999998 13.564710139717015 
Si 6.3954377099999995 14.62654665 15.199172430014963 
Si 8.01656964 16.10753571 13.657935664129369 
Si 5.182663499999999 15.130933919999999 21.375113557249588 
Si 4.39359219 13.710380759999998 19.685715412639883 
Si 6.47680626 13.23083574 18.7036939366304 
Si 7.12881351 14.609197799999999 22.634020010386195 
Si 6.91956846 12.290625809999998 23.144675313609063 
Si 7.08116526 16.00862283 24.58124445744648 
Si 4.774110299999999 15.5989782 24.95469798148799 
Si 6.75961695 13.173332039999998 29.563692087305924 
Si 4.44221784 12.560306759999998 29.296250287143305 
Si 7.976952359999999 14.994505169999998 28.645773929376656 
Si 4.81053474 12.20582007 32.68259422510442 
Si 6.9629650199999995 13.49633016 32.00592511371359 
Si 7.212560399999999 15.822004589999999 32.44768658207498 
Si 9.50589918 1.357308864 4.071973728223362 
Si 10.8563076 2.70448209 2.7016412333205517 
Si 9.55314018 3.97254456 1.187975787039352 
Si 8.14482081 -7.46834598e-05 8.144877988483373 
Si 8.14374567 2.71344159 5.430136931935784 
Si 10.85782257 -0.001245002346 5.430447109281333 
Si 10.86008688 2.7150868799999994 8.144946916782384 
Si 12.238400069999999 1.343286432 12.209821030207614 
Si 9.50312988 1.3576933079999998 9.502282980906672 
Si 8.14265424 2.7188009999999996 10.866580803231072 
Si 10.8620091 -0.000574675362 10.863203316579533 
Si 9.48895758 0.814412034 17.152565959836732 
Si 9.97140222 0.5740498259999999 14.894922918180482 
Si 10.8695025 2.5787232899999997 13.609513534074152 
Si 11.04074298 0.212019237 20.982497966083024 
Si 8.79396102 2.91709917 19.69822589891038 
Si 11.06003034 2.1432915899999996 19.666656737963347 
Si 11.624902379999998 1.9896117299999998 17.42548755977072 
Si 11.73697758 0.9873743669999999 23.10579975296687 
Si 9.958533119999998 2.04375969 24.376182767888803 
Si 9.992725829999998 0.95962761 26.474635902979188 
Si 9.00296172 2.0980705499999996 30.081791646821983 
Si 9.04544604 2.68387524 27.838347834761993 
Si 8.434049759999999 2.36740941 34.24630161646759 
Si 11.088407519999999 1.319188635 30.786514575910278 
Si 9.656711999999999 0.635336064 32.89578945394539 
Si 10.84956354 8.133597 2.7026475864861124 
Si 8.14708512 5.42676915 2.6748660355697353 
Si 9.50571999 6.7869027 4.071353373532263 
Si 9.502869239999999 4.0720927499999995 6.78726621116304 
Si 8.14491855 5.430206339999999 8.145326022426945 
Si 10.85901174 5.43103713 5.430343716832817 
Si 12.20639022 6.7897045799999995 12.236013783831789 
Si 9.502185059999999 6.78760317 9.502696550700739 
Si 9.5021199 4.08154095 12.252866752939973 
Si 10.86132492 5.427323009999999 10.8623761769914 
Si 8.245411559999999 5.60749041 13.795826726300842 
Si 9.10293345 7.40996262 15.147028171813153 
Si 9.02754333 5.15669724 20.546974508782128 
Si 11.42738613 5.587600319999999 20.46384698017488 
Si 11.81327994 6.34376583 18.10115721082589 
Si 9.84797289 7.585357049999999 17.519712544518736 
Si 11.90360799 7.422848009999999 23.852431087853844 
Si 9.78276402 6.3201616199999995 24.32321137009886 
Si 10.55057688 4.2505497 25.10213561307248 
Si 8.621580239999998 7.90382655 25.728073496391225 
Si 10.593484740000001 4.446176309999999 27.461861465564 
Si 10.52436627 6.5089953 28.669416335937424 
Si 10.276253279999999 5.78891214 30.96386708926554 
Si 9.13487814 7.88717817 31.910804061078434 
Si 8.463876749999999 4.2466075199999995 30.955802478281253 
Si 8.25727068 8.032566419999998 34.190642015016216 
Si 11.45913534 4.86039843 34.45387918893917 
Si 9.44414379 9.4198554 1.2617842096203131 
Si 8.14441356 10.86391503 2.6979225515889094 
Si 12.10612527 12.05842815 1.3295993166022695 
Si 12.2192919 9.50124024 4.067838030282703 
Si 8.14495113 8.14431582 5.430447109281333 
Si 9.50291811 9.502282799999998 6.787886565854138 
Si 10.8597285 8.14542354 8.144740131885351 
Si 8.1453258 10.8592398 8.144498882838812 
Si 10.8580995 10.86046155 5.430757286626882 
Si 8.144739359999999 8.14799736 10.861032075160686 
Si 9.49679307 9.5057037 12.209166211367009 
Si 10.85870223 10.858653359999998 10.860894218562667 
Si 12.03034419 9.81664722 14.857873957462077 
Si 10.79530155 8.16953274 13.644081076028161 
Si 8.23104378 10.84233078 13.667964731635468 
Si 9.77342985 11.4329736 17.211155013996066 
Si 10.18527363 11.49966486 14.905124306434105 
Si 8.37670896 11.45289627 21.53878380325117 
Si 10.89590859 9.28789011 20.822411991630016 
Si 10.897016309999998 9.56928357 18.405062081165315 
Si 11.79728316 9.59591772 24.805537142428218 
Si 9.0147231 9.33685785 22.279108198778637 
Si 9.459586709999998 9.77641092 24.581899276287086 
Si 9.045169109999998 8.18613225 28.023282461008463 
Si 9.72120411 10.31574024 28.91032074098081 
Si 11.25197541 10.31648958 34.38212482966873 
Si 10.69010073 9.62963802 31.00108837073147 
Si 10.88360964 11.52449082 32.36631672509252 
Si 9.50756076 12.216538889999999 4.075144429977867 
Si 9.384945929999999 14.773612769999998 1.2884560149226132 
Si 10.84275432 13.554192239999999 2.7047257747012936 
Si 11.17270827 15.829888949999999 0.05494102393417975 
Si 8.144462429999999 13.572990899999999 5.430068003636772 
Si 9.502413119999998 14.93270091 6.78771424510661 
Si 10.86020091 13.57483167 8.144912452632878 
Si 12.231346499999999 12.2243418 12.214956188483931 
Si 9.50055606 12.21650631 9.502110660159145 
Si 8.14995216 13.5765747 10.858895297891348 
Si 9.49061916 14.90678352 12.233670221665415 
Si 11.83097088 15.172864379999998 14.978464016581793 
Si 10.85741532 13.47279111 13.652697113404534 
Si 8.850161519999999 15.447839579999998 21.014721945870658 
Si 11.48386356 13.15412613 20.320097012587475 
Si 8.28035361 14.837127479999998 18.769796175381938 
Si 10.216729619999999 13.484259269999999 18.344060536540596 
Si 9.863106299999998 13.305232169999998 21.958488215929048 
Si 11.25088398 13.385232359999998 23.954100328895045 
Si 9.78110244 13.259326949999998 25.876338267563852 
Si 11.89360593 15.88688766 29.382410660907038 
Si 10.15624485 14.23547262 29.384512974026872 
Si 8.6086134 15.31848069 26.346911764911834 
Si 10.65875877 12.347477909999999 27.96652000677292 
Si 8.174028779999999 13.41949023 34.211354968869024 
Si 9.83746584 13.570335629999999 31.880062039719533 
Si 15.645192929999999 0.41512784399999997 0.04735753247699134 
Si 16.27988391 2.7349769699999995 2.6952757049068876 
Si 13.578317729999998 -0.00176415813 2.718246060552298 
Si 13.16772828 3.2070122999999997 0.22766569129384315 
Si 12.228365429999998 1.3217657129999998 1.3275211283870882 
Si 14.931739799999999 1.3583400209999998 4.069664630206494 
Si 13.57505973 -1.6286888609999998e-05 8.144809060184361 
Si 13.57492941 2.71401174 5.430964071523915 
Si 12.21725565 1.357284429 6.7873351394620505 
Si 14.93258688 1.358502921 9.502007267710628 
Si 13.57545069 2.7146796299999996 10.861721358150797 
Si 16.23081843 2.57346162 13.593763417750143 
Si 13.75279992 0.8974421639999999 16.994168728709493 
Si 15.109137899999999 0.836107056 14.971502258381683 
Si 12.48978735 3.8431205099999994 14.872555685151417 
Si 12.73508217 3.62502999 20.51161429138949 
Si 14.205547889999998 3.9526055999999996 18.632628860350078 
Si 15.38044785 2.04955893 18.11483947817957 
Si 16.17282603 0.39427501499999995 21.868984819663286 
Si 13.31363781 2.7345534299999996 22.65080405119537 
Si 15.617337029999998 2.3622129 23.107764209488685 
Si 12.789425609999999 3.97044315 24.574696269040437 
Si 15.686129699999999 2.31945165 25.543724760686352 
Si 13.496998049999998 2.63477718 26.415736671474303 
Si 15.760102589999999 0.173581353 26.37417290717068 
Si 12.28699314 0.579933774 27.133555977374687 
Si 12.810227939999999 3.9772035 28.185401820282298 
Si 16.12762128 0.123215931 28.75244047209615 
Si 12.82801662 2.9458835999999997 30.333483330660588 
Si 14.545438739999998 0.1607392944 31.98645286924299 
Si 14.9196852 1.69453467 30.188940687634556 
Si 12.21824934 4.06948635 4.067286603890615 
Si 15.02820918 4.299533729999999 1.1658532494717766 
Si 13.58778222 5.4462357 2.6990977790870465 
Si 12.22973379 6.7783178699999995 1.2892280118715362 
Si 14.929996769999999 6.7899489299999995 4.074144969642208 
Si 14.932603169999998 4.07272806 6.787162818714523 
Si 13.57509231 5.4296199 8.144774596034857 
Si 12.21785838 6.787521719999999 6.787438531910567 
Si 12.217809509999999 4.0720927499999995 9.50221405260766 
Si 14.932163339999999 6.7855832099999995 9.502317445056178 
Si 14.933906369999999 4.0744548 12.233877006562448 
Si 15.093613529999999 6.74484192 15.23932316418886 
Si 12.33405495 4.26775194 17.13378299835624 
Si 13.622903459999998 5.47847361 13.64294375909448 
Si 12.257263889999999 7.52598 21.537267380672926 
Si 16.05039039 5.361022709999999 18.75321891946979 
Si 15.399556019999999 7.58962503 19.004910603308403 
Si 13.794111359999999 7.564554719999999 17.28508061468535 
Si 13.799014649999998 6.07152735 24.381076677118582 
Si 15.29313345 6.054211079999999 22.55054784028389 
Si 15.05823165 6.59687985 26.27984452997415 
Si 16.073505899999997 5.69705283 29.74979849463558 
Si 14.132796749999999 5.94150057 28.330289104803384 
Si 12.58063668 7.713510479999999 28.50740036911211 
Si 12.239947619999999 5.07202182 32.12861748595314 
Si 15.911290079999999 7.04206926 31.92093652103305 
Si 13.540019939999999 7.28676135 32.223910859335824 
Si 14.93415072 9.430199550000001 1.0757949803989761 
Si 13.5995436 10.851371729999999 2.6891686576145144 
Si 13.575874229999998 8.14384341 5.4308951432249035 
Si 14.93252172 9.502217639999998 6.7875419243590835 
Si 13.574847959999998 10.85982624 8.144636739436834 
Si 12.21785838 9.503162459999999 9.502248516757168 
Si 13.57533666 8.14403889 10.863030995832005 
Si 14.94996831 9.4828977 12.217540999696844 
Si 14.07483693 12.07693359 16.885365408720652 
Si 15.2446707 11.885314319999999 14.85845984800367 
Si 13.633785179999999 10.86292134 13.51297945130927 
Si 12.267689489999999 11.152068839999998 21.26882612017465 
Si 14.434324649999999 8.3206062 20.984807064099893 
Si 13.98216312 10.396001069999999 19.869099152158608 
Si 15.548202269999999 12.13632693 19.916280572831624 
Si 12.982331789999998 9.80504874 17.270295494547494 
Si 16.234499969999998 8.21905434 22.46883334180637 
Si 12.698445959999999 11.46521151 23.633239096998913 
Si 15.072746039999998 11.74849461 24.01368884339004 
Si 16.08805287 9.66332574 24.272411213727768 
Si 15.195572639999998 8.9425584 26.314308679479637 
Si 13.77842409 10.96779636 30.09816211783709 
Si 16.08650532 10.67529312 29.75255562659602 
Si 12.94294257 9.49601115 26.879899837014268 
Si 12.89684187 11.62610784 27.962453237131268 
Si 12.86602119 8.82232191 30.559706008014636 
Si 13.065410789999998 8.470653389999999 34.344352121810715 
Si 12.21637599 14.936317289999998 4.070043735851055 
Si 14.933971529999999 12.217109039999999 4.069113203814407 
Si 14.76157446 14.854834709999999 1.2912648431073108 
Si 13.574847959999998 13.574310389999999 5.42993014703875 
Si 12.21707646 12.21736968 6.7878176375551265 
Si 14.93226108 14.932977839999998 6.7876453168076 
Si 16.292606399999997 16.2901629 10.859756901628984 
Si 12.21763032 14.93107191 9.501697090365079 
Si 14.930550629999999 12.218558849999999 9.501283520571013 
Si 13.574750219999999 13.57512489 10.856999769668544 
Si 14.929866449999999 14.915123999999999 12.228155957744537 
Si 12.2243418 13.799503349999998 16.90304551741697 
Si 13.507668 16.19719587 13.594900734683824 
Si 13.64380353 15.154179749999999 18.139171167730446 
Si 12.81133566 15.07649274 20.316305956141868 
Si 15.49426608 13.69163097 18.15261218603759 
Si 15.734885669999999 12.96887625 22.121021144996945 
Si 12.812329349999999 15.24470328 23.82610047763165 
Si 14.4453204 15.00989922 22.05054195925822 
Si 13.68705348 15.319295189999998 26.03180604598312 
Si 15.21785736 14.277077279999999 29.22728752398282 
Si 16.10619993 12.42695682 26.136714917077843 
Si 14.3024571 13.389386309999999 27.253663538401327 
Si 13.004030069999999 13.828939379999998 34.394428531042195 
Si 13.50743994 14.73344163 30.759735931744512 
Si 12.94719426 12.723744329999999 32.03135965604864 
