&CONTROL
  dt          = 30.D0,
  prefix = 'x.33_y2.00_z3.18_struc39-scf',
  pseudo_dir = './',
  outdir='./',
  wf_collect= .true.,
  verbosity= 'high',
/

&SYSTEM
ibrav= 6, celldm(1) =30.783621515, celldm(3) =2.1207375915848425, nat=  432, ntyp= 1,
  ecutwfc     = 12.D0, nbnd= 1728,
  degauss     = 0.05D0,
  occupations = "smearing",
  smearing    = "methfessel-paxton",
/
&ELECTRONS
  electron_maxstep=200,
  conv_thr    = 1.D-8,
  mixing_beta = 0.3D0,
  scf_must_converge=.false.,
/
&IONS
/
ATOMIC_SPECIES
Si  28.08  Si.pbe-hgh.UPF
K_POINTS {automatic}
1 1 1 0 0 0
ATOMIC_POSITIONS (angstrom)
Si 2.69570178 -0.01046740014 2.6959781963296217 
Si 1.3942855349999999 1.392791742 1.203555772478804 
Si 4.03425108 3.9639760199999996 1.3653523275682236 
Si -0.00027499149 2.7147122099999996 8.145379033580975 
Si 2.7146633399999995 0.00018788397299999998 8.144999018611939 
Si 2.7125619299999997 2.71448415 5.429826611664459 
Si 1.3571818019999997 1.357421265 6.787723736476501 
Si 2.71705797 2.71529865 10.864697058372487 
Si 1.352921967 1.346767605 12.25340994249182 
Si 1.355950278 4.07214162 9.502550675270314 
Si 0.308231235 3.84828444 17.290508357065164 
Si 0.761663385 0.01591531371 21.33645863876166 
Si 4.05171396 3.87819288 21.529437149401257 
Si 0.72542628 2.3733063899999998 20.87712418164313 
Si 1.8757609199999998 2.9407359599999996 18.77533048153526 
Si 3.87737838 2.0323404 17.316591202667187 
Si 2.05407126 3.30081012 22.62028739142703 
Si 2.48756445 1.9889112599999998 24.56997146347436 
Si 1.474642476 2.7427798799999996 26.694842436247335 
Si 4.054320359999999 0.9509254919999999 28.61419440440251 
Si 2.72389977 2.89861002 28.729062565497507 
Si 3.3517326599999997 2.09166858 34.50622285886095 
Si 1.6946487 2.33295606 30.829439846175333 
Si 3.6367425 2.10575943 32.17033993782685 
Si 0.282998025 0.317729934 30.578871794319085 
Si 4.07271177 6.78830364 4.069200288438429 
Si 1.357359363 4.0746177 4.074485951189567 
Si 2.70391194 5.4118638 2.7095827322211137 
Si 1.36420605 6.58619361 1.1748577329535062 
Si 0.0189622116 8.12322027 2.7021240747833963 
Si -0.000666515124 5.4293429699999995 5.430863016125466 
Si 2.7152660699999998 5.4302877899999995 8.145240846319508 
Si 1.357672131 6.78714705 6.787585549215033 
Si 1.367986959 6.788531699999999 12.235411051685656 
Si 4.029803909999999 6.85492974 15.239740303254232 
Si 0.625873203 4.4598273299999995 14.948717930603323 
Si 2.65026897 5.42764881 13.763036680395363 
Si 2.2261425299999997 7.957013399999999 16.52695464382556 
Si 0.54898929 6.5723308199999995 21.04453804891121 
Si 2.50797582 6.62957388 19.602415788234623 
Si 3.47258817 4.53052593 19.392129323096196 
Si 0.544268448 7.530182819999999 18.205998964288465 
Si 1.352702052 5.54159736 22.983098046410394 
Si 3.4016778 6.491548709999999 23.754044778138518 
Si 3.2848296299999995 5.34367386 25.83773594699412 
Si 0.9236544029999999 7.993454129999999 29.05145344650158 
Si 1.0109394809999999 5.02997733 26.50749505651254 
Si 0.0617576706 5.32060722 34.159269192131006 
Si 1.370920788 7.946262 31.381152487585002 
Si 0.981804816 4.39184916 32.00506797311152 
Si 2.73740418 6.19432137 32.117345123054 
Si 3.2539763699999997 7.2466065 34.47378339923142 
Si 3.99764745 9.324184229999998 1.1597400465489431 
Si 1.361801646 9.50101218 4.072274955006084 
Si -0.001075011309 10.73905218 0.26246079304631076 
Si 2.7193711499999997 10.82768607 2.7085877839385466 
Si 1.30541544 12.17314233 1.4505413195815045 
Si 0.00031829031 8.14493484 8.144722644089004 
Si 2.71238274 8.145114029999998 5.429377503064688 
Si 3.98233485e-05 10.858913999999999 5.42993025211056 
Si 2.71529865 10.85963076 8.144860831350472 
Si 1.358659305 9.50290182 9.501237896286371 
Si 2.71401174 8.14436469 10.85916956791378 
Si 0.001371264507 10.85847417 10.86276243671194 
Si 1.349372376 12.229619759999999 12.24957524598609 
Si 4.03881228 12.173712479999999 15.19327483658573 
Si 2.69153154 10.85536278 13.63991183042767 
Si 0.834377058 9.957132179999999 14.840275477166571 
Si 3.49356969 10.34727768 20.31356198256261 
Si 0.19854903599999998 8.866142009999999 21.427662231330316 
Si 2.194263 9.94437711 22.218922490494187 
Si 1.4979225149999997 12.125999069999999 22.88429415446101 
Si 3.35823237 8.84439486 23.979497295223016 
Si 2.0599356600000003 9.287759789999999 25.88696515889198 
Si 3.8978549099999995 9.914484960000001 29.44791269965232 
Si 1.94927769 11.55063627 26.607888101968804 
Si 2.9711331 8.35471746 27.916106906283215 
Si 3.8869406099999995 11.70027621 27.97545833508358 
Si 0.89078607 11.85970644 31.231288402523315 
Si 2.4931030499999998 10.10812419 31.36971749169855 
Si 3.8778833699999997 14.71428459 1.3463792165687127 
Si 3.0284739 12.888485099999999 0.07837255987323442 
Si 1.356637716 14.938402409999998 4.074727778897135 
Si 0.0001304827371 13.575434399999999 8.145517220842443 
Si 2.71389771 13.574782799999998 5.429653877587624 
Si 1.357577649 12.21706017 6.787861923737968 
Si 4.071538889999999 12.21673437 9.50237794119348 
Si 4.05666612 14.940715589999998 12.25271900618448 
Si 1.3582308779999999 14.93257059 9.501721551701506 
Si 2.71134018 13.578431759999999 10.862658796265839 
Si 2.568933 16.27074522 13.884157815071772 
Si 1.276495803 14.925191219999999 15.614987811769685 
Si 0.26705826 16.28082873 17.387792189138402 
Si 2.7433011599999997 13.27589388 21.220174058236616 
Si 1.68218685 12.9220425 18.822935993110875 
Si 2.81069289 15.802309979999999 19.21873885676964 
Si 3.03067305 14.32584954 17.283875368514718 
Si 2.97673686 15.561299429999998 21.789229200960474 
Si 3.71319147 16.24042953 23.978633624838842 
Si 2.02841451 13.174977329999999 24.934578552856806 
Si 0.0799536006 14.570150669999999 25.01375985367778 
Si 3.88182555 14.47097715 25.544053469559955 
Si 3.1866335099999996 15.227712809999998 27.798233172251297 
Si 0.923375844 15.15080772 28.759152841682095 
Si 0.339237621 15.164198099999998 32.51394256346621 
Si 2.01663684 13.4824185 32.54196003072878 
Si 4.07491092 1.356098517 4.06930392888453 
Si 4.93279119 0.0711609102 0.05822692996017039 
Si 5.43724362 2.71096551 2.7188792802363513 
Si 6.65187489 1.2569543189999999 1.3009674277689 
Si 8.14361535 2.7152497799999997 5.431415765171336 
Si 5.43069504 -0.000969207759 5.42993025211056 
Si 5.43004344 2.71502172 8.144722644089004 
Si 6.787554299999999 1.3573903139999999 6.787447361953566 
Si 8.14706883 2.7116333999999997 10.86307335805024 
Si 4.07179953 1.355543028 9.501756098516873 
Si 6.7855832099999995 1.361757663 12.246604219864537 
Si 4.08950676 1.5087651389999999 14.977599068250067 
Si 5.51004363 2.8792249199999995 13.655803365496451 
Si 5.1616656899999995 3.92325102 17.85724886315944 
Si 5.2690005 0.298765116 18.15372963263832 
Si 7.56626517 1.2537793979999998 18.101460300988176 
Si 5.587763219999999 2.23567218 21.060429583979992 
Si 4.899445559999999 0.0670227615 20.581161614394752 
Si 6.88485447 3.1972383 19.30887149806193 
Si 6.8422072499999995 2.11030434 23.00475889964545 
Si 6.119941229999999 0.13377918149999998 23.97407344521041 
Si 6.149947409999999 3.96317781 24.26785956309067 
Si 4.3245388799999995 3.1845320999999998 25.469639629259618 
Si 8.00643726 3.17332458 29.756484854509626 
Si 7.004195009999999 0.39978918 26.108997541255153 
Si 5.53799727 1.92217113 27.116693598692756 
Si 6.505069409999999 3.79185588 28.089808293948074 
Si 4.8812007600000005 0.499821183 30.819317629272827 
Si 7.19755731 1.183808961 30.854797208654652 
Si 5.249175569999999 3.87899109 32.815087153019626 
Si 7.401214889999999 2.90077659 32.709857553412 
Si 6.78998151 4.07127825 4.073242265836358 
Si 5.06563614 5.6113674300000005 0.04756163712009576 
Si 6.78911814 6.70895505 1.2649938289273293 
Si 5.44141386 8.15075037 2.683717531555903 
Si 8.134264889999999 5.42235456 2.708660332250817 
Si 4.07238597 4.07238597 6.787343721507465 
Si 5.42950587 5.42773026 5.430344813894962 
Si 6.787684619999999 6.787489139999999 6.787378268322832 
Si 8.14464162 8.145309509999999 5.430310267079595 
Si 6.785599499999999 4.07194614 9.502481581639579 
Si 4.07357514 6.78812445 9.502205207116644 
Si 4.05909333 4.08769857 12.239660309975786 
Si 5.430222629999999 5.43009231 10.85986050422112 
Si 6.77471778 6.79011183 12.229607186704014 
Si 5.7974480999999995 5.7313595699999995 16.507988442189124 
Si 6.99143994 4.24874151 15.028521074100901 
Si 5.28309135 8.11272951 13.631309673401308 
Si 7.2130491 6.280120799999999 21.576420818300264 
Si 6.6960207899999995 8.01161748 20.017599415314233 
Si 7.413627869999999 6.970034879999999 17.89939597790708 
Si 5.283694079999999 5.48720505 22.715602055024355 
Si 7.325938799999999 4.864128839999999 26.106441076918 
Si 6.55472133 7.04246022 26.483381379386433 
Si 4.397094539999999 6.5510560799999995 27.450519475583274 
Si 7.8167890799999995 8.01339309 28.185053863914668 
Si 4.43910645 4.68404289 28.935203412791903 
Si 6.92025264 6.537437639999999 31.93714893410016 
Si 4.850054279999999 5.58841482 31.18002092851881 
Si 8.13866319 10.85860449 2.6672836114858605 
Si 6.787684619999999 9.50348826 4.0688202734693935 
Si 4.07686572 12.213003959999998 4.069131194807695 
Si 4.07274435 9.502282799999998 6.787412815138199 
Si 5.43015747 8.14469049 8.145033565427306 
Si 5.42992941 10.85963076 5.430517547971797 
Si 8.140145579999999 8.14529322 10.863176998496343 
Si 6.7877171999999995 9.503227619999999 9.50158336444004 
Si 4.05782271 9.51122601 12.218172190817564 
Si 5.4351422099999995 10.85899545 10.861484204543363 
Si 6.7995926099999995 12.202643519999999 12.224321523952876 
Si 7.87989654 10.91100942 16.923033882007267 
Si 6.954380189999999 9.33697188 14.805003178676948 
Si 5.506215479999999 10.578481649999999 16.25403480242692 
Si 4.22033175 8.83761822 17.305743502641977 
Si 4.83119046 12.11360238 21.021633510322943 
Si 7.7375871 10.046906369999999 20.789824379210927 
Si 4.32326826 8.26412877 19.63347337524948 
Si 6.359306489999999 11.124457289999999 22.499131709935252 
Si 5.45319153 9.89094591 24.31529234058945 
Si 7.2879993899999995 8.49275892 24.680348538571664 
Si 5.6363074200000005 11.08317843 26.436881365902565 
Si 7.594805249999999 11.74131072 29.458864040123633 
Si 7.690411259999999 10.346039639999999 27.503721571248327 
Si 4.88144511 11.225764799999999 34.471814230755506 
Si 6.06113433 10.221225659999998 30.42068192675397 
Si 7.32465189 8.28009297 30.456956082889235 
Si 4.66157898 11.171128139999999 32.063072076112576 
Si 5.43950793 13.57336557 2.6915803867334134 
Si 6.74016669 12.283767719999998 1.0837266886971155 
Si 6.78993264 14.93229366 4.071791299590948 
Si 4.07290725 14.93252172 6.787654642845768 
Si 5.430206339999999 13.57505973 8.144860831350472 
Si 6.787831229999999 12.21746742 6.7875164555843 
Si 8.1445113 13.577258879999999 10.856854931284197 
Si 6.788385089999999 14.93126739 9.501963379409077 
Si 5.42792574 16.2927693 10.864593417926386 
Si 5.357634389999999 13.44079755 13.605675936399054 
Si 7.036432919999999 14.268508739999998 15.199493263351775 
Si 8.01259488 16.07093208 13.654559680143242 
Si 5.53684068 14.36004225 17.313723816991732 
Si 6.95226249 15.12938637 20.76726530877633 
Si 6.3705302999999995 13.1975064 19.54952461390787 
Si 7.69204026 14.944755509999998 22.9886255368691 
Si 7.517623229999999 12.73817727 23.71701059206518 
Si 6.081350219999999 13.226225669999998 25.581778591940633 
Si 6.85584198 13.988695409999998 29.129287421523244 
Si 4.476703769999999 13.736558789999998 29.07846905611851 
Si 7.467726959999999 14.5132497 26.964065768401717 
Si 7.812472229999999 15.100813709999999 32.501056601334355 
Si 4.09817304 13.464287729999999 31.472114252446094 
Si 5.44072968 15.18089535 32.46768437768991 
Si 12.218868359999998 4.071050189999999 4.070893082391408 
Si 8.14009671 -0.016481244599999997 2.679278265781254 
Si 8.45128458 2.30200506 0.19449649770682115 
Si 9.50125653 1.35726651 4.06660927728591 
Si 10.86096654 2.72113047 2.7042901601069023 
Si 8.145032579999999 -0.000254982483 8.145171752688775 
Si 10.860233489999999 -0.000395009694 5.430068439372026 
Si 10.86068961 2.71492398 8.145033565427306 
Si 9.504123569999999 1.3582390229999999 9.502136113485909 
Si 10.86121089 0.000603050913 10.861346017281894 
Si 9.556593659999999 0.203579388 17.1160814862776 
Si 8.46767232 3.3073912799999996 16.75043799243415 
Si 10.761858179999999 2.37579876 16.94866761900952 
Si 10.01592279 0.459839007 14.804934085046215 
Si 10.802241089999999 2.55218688 13.707070839500956 
Si 10.26846666 1.2891010049999998 20.97382071785513 
Si 11.349976049999999 2.59501329 19.279541251815413 
Si 8.97678369 2.6943659999999996 22.348196673597194 
Si 11.53911924 0.1364170212 22.65124133799579 
Si 10.08704493 2.83727817 24.380102166217785 
Si 9.19873494 0.996172596 25.57514560339018 
Si 10.463132159999999 1.059482052 27.550014303839998 
Si 10.193679269999999 3.0002922 28.88483415598694 
Si 11.69191944 1.69903071 32.92128406345753 
Si 11.72301705 3.5645777999999995 30.61804788294517 
Si 10.87176681 8.14876299 2.68563142512723 
Si 9.507902849999999 4.122086759999999 1.2951912002395516 
Si 9.50422131 6.78814074 4.068923913915493 
Si 9.50242941 4.0728583800000004 6.78717098743063 
Si 8.144332109999999 5.43038553 8.144895378165838 
Si 10.860233489999999 5.42906604 5.428962941280286 
Si 9.50246199 6.78682125 9.502861596608614 
Si 9.526131359999999 4.04824419 12.223285119491868 
Si 10.86259554 5.42807235 10.86117328320506 
Si 11.04507612 6.335604539999999 16.54256980437141 
Si 8.28010926 5.5084634999999995 13.53748052286476 
Si 9.55141344 7.06707441 14.848946727823666 
Si 8.4450618 4.3772533199999994 20.79206992220978 
Si 10.60371486 4.79387007 19.863866086931452 
Si 9.313123319999999 5.3160297299999995 17.84816305071794 
Si 8.643995279999999 7.505145089999999 22.978365132705125 
Si 10.33489728 6.672074489999999 24.362103275411624 
Si 9.60609897 4.776309449999999 25.530407477490026 
Si 10.871946 7.590520979999999 30.092279899876058 
Si 10.751237099999999 4.899510719999999 27.51063093432171 
Si 10.01326752 7.138359449999999 27.986962424600762 
Si 10.79333046 5.4854457299999995 31.702956072727833 
Si 8.418672 4.7456028 31.52514361403431 
Si 8.546238989999999 7.419834359999999 34.30381306762619 
Si 10.48844682 5.80701033 34.295418191492026 
Si 9.59507064 9.4811058 1.1617472165217608 
Si 9.502413119999998 9.50288553 6.787481908768933 
Si 10.86020091 8.14506516 8.144826284535105 
Si 8.14498371 10.86042897 8.144999018611939 
Si 10.85963076 10.85995656 5.431346671540602 
Si 9.523557539999999 9.513099359999998 12.221730512800356 
Si 10.85893029 10.85906061 10.858064069822039 
Si 12.19519899 12.22440696 12.228536235427638 
Si 9.502152480000001 12.2175 9.502723409347146 
Si 12.215626649999999 9.50200587 9.502239753932011 
Si 8.58311955 8.555980409999998 16.507228412251052 
Si 11.020999499999999 8.302361399999999 13.592548146559626 
Si 8.28861264 10.93607973 13.637873568321021 
Si 9.748587599999999 9.01343619 21.483697165855457 
Si 12.09573225 11.72658456 20.76501976577748 
Si 11.456431199999999 8.250722099999999 19.887634295903887 
Si 8.194847399999999 11.71599606 19.143841361054164 
Si 10.83136761 8.45382582 17.575243209319293 
Si 11.08083267 10.58698503 22.594377279901842 
Si 9.676830149999999 11.751263909999999 24.218837632085016 
Si 9.00534006 9.93383748 25.600710246761704 
Si 10.65354597 8.31223314 26.062670261848115 
Si 9.99536481 11.487659129999999 27.92360356521784 
Si 11.236467329999998 10.786635269999998 34.32533573359978 
Si 9.42798411 9.08437914 31.214084088470592 
Si 9.839453220000001 11.30892525 30.39069529101549 
Si 9.57739599 11.449784880000001 32.85201769864686 
Si 12.215724389999998 14.935877459999999 4.06785296263912 
Si 9.50296698 12.219063839999999 4.071514925068013 
Si 9.48597651 14.77081089 1.1338195709791452 
Si 10.847967119999998 13.57017273 2.702725189370781 
Si 8.14356648 13.573723949999998 5.430793922494733 
Si 9.502038449999999 14.93252172 6.78717098743063 
Si 10.8597285 13.575043439999998 8.144619003642903 
Si 12.21688098 14.933238479999998 9.501825192147608 
Si 9.48600909 14.92950807 12.209328206083633 
Si 11.08270602 12.27656754 16.864684310852546 
Si 11.90984706 15.278325839999999 14.720812589627771 
Si 9.09952884 12.556722959999998 15.285963942215167 
Si 10.690540559999999 13.541143949999999 13.634867995384099 
Si 8.7544089 16.25873949 19.772593400732056 
Si 10.459727549999998 12.614894549999999 19.14467048462297 
Si 10.446451199999998 14.96063826 18.692038109685623 
Si 9.807606269999999 15.55144398 24.005234672671367 
Si 10.699418609999999 13.67508033 25.161585676632818 
Si 9.71669178 13.781454029999999 27.302175450397733 
Si 10.441824839999999 15.42537567 28.944047397525836 
Si 8.4142737 13.30645392 33.964736074799895 
Si 8.39646873 15.44270823 30.289093107021383 
Si 11.36432754 15.820978319999998 34.53842049078292 
Si 16.2958644 2.7186381 2.6837969892312468 
Si 13.58952525 -0.0008066579939999999 2.722133590243915 
Si 12.24191871 1.33128396 1.3750254358709602 
Si 14.932049309999998 1.355451804 4.071756752775581 
Si 14.94631935 4.0118686199999996 1.1335777432715768 
Si 13.574847959999998 0.000314007669 8.145068112242674 
Si 13.57584165 2.7157384799999997 5.430759375679365 
Si 12.21785838 1.357587423 6.7872400810613644 
Si 16.28887599 0.0001562567751 10.862589702635105 
Si 14.930273699999999 1.357577649 9.501134255840268 
Si 13.57486425 2.71593396 10.855300324592685 
Si 12.21732081 1.3626796769999998 12.219830437955174 
Si 12.43391265 3.4303156199999996 15.209131824839144 
Si 16.15679667 2.70565497 13.60685052812153 
Si 13.638883949999999 0.1547634708 13.665200099276253 
Si 14.31796518 2.0130856199999996 15.017604280444957 
Si 15.14207628 1.92591783 17.280973436023896 
Si 14.820479099999998 3.3390264599999995 21.136121656448907 
Si 13.715381789999999 2.18833344 19.40656989191957 
Si 14.11272747 3.15444447 23.419458871309924 
Si 12.23983359 1.8632664899999998 24.14083092298652 
Si 15.86660661 1.7884953899999998 24.220426785591897 
Si 12.52525068 1.125653661 26.42468634007804 
Si 13.882614929999999 2.98313883 29.813279818972838 
Si 15.72297768 1.72436166 26.568435638819782 
Si 13.842166859999999 2.79215487 27.453386861258732 
Si 16.0692705 0.08225798399999999 34.43664557271198 
Si 13.34092356 2.7246491099999997 34.47039781132546 
Si 14.163421949999998 0.778790691 30.66769165662743 
Si 14.20473339 1.1012154029999999 33.016944195208524 
Si 13.58502921 5.420872169999999 2.6789880725321717 
Si 12.288671009999998 6.810506909999999 1.1691402350102813 
Si 14.936708249999999 6.78515967 4.069649397038199 
Si 14.932880099999998 4.07240226 6.787723736476501 
Si 13.575157469999999 5.429733929999999 8.145068112242674 
Si 12.21727194 6.7878801 6.787585549215033 
Si 16.28868051 5.43194937 10.861691485435564 
Si 12.21950367 4.07277693 9.502308847562745 
Si 14.932782360000001 6.78809187 9.502239753932011 
Si 14.926315229999998 4.06769445 12.200035112749932 
Si 12.21824934 6.78634884 12.231749089256763 
Si 16.22143539 8.068665059999999 13.622569329113476 
Si 13.29511608 5.40593424 16.39059836357234 
Si 13.453601489999999 5.24067219 13.577796656397952 
Si 15.243465239999999 6.18839181 14.831120571094337 
Si 14.69607237 5.56510383 20.368076857211605 
Si 12.358359629999999 6.27261111 20.851283163748676 
Si 15.153039449999998 5.66189901 18.039932422819696 
Si 12.4014141 6.774131339999999 23.228587716407706 
Si 13.86647154 5.29384275 24.47462225306167 
Si 16.13905686 6.06064563 24.720941046627793 
Si 13.04117127 4.89881025 26.723585386632607 
Si 13.187699819999999 7.533505979999999 29.935886466710027 
Si 14.10858981 6.57754362 27.946508103806107 
Si 16.28235999 5.88007098 28.50627015319626 
Si 15.48327033 4.6858673699999995 30.427694930273454 
Si 13.92822693 6.0196762800000005 31.64025360283688 
Si 15.681731399999999 7.107147809999999 32.7516246531906 
Si 13.88189817 8.0855415 34.13532824908173 
Si 12.21166818 9.50171265 4.073104078574891 
Si 14.8382352 9.392911739999999 1.4211212516150378 
Si 13.57121529 10.86516936 2.7205548007816467 
Si 13.57562988 8.14674303 5.429826611664459 
Si 14.93232624 9.50236425 6.787861923737968 
Si 13.574815379999999 10.85994027 8.144929924981206 
Si 14.928758729999998 9.499725269999999 12.230159935749885 
Si 14.93232624 12.21557778 9.503068877500816 
Si 13.57505973 8.146563839999999 10.861242376835795 
Si 12.63743991 9.35920773 14.948925211495524 
Si 13.6508571 10.98115416 13.585880611193812 
Si 12.29033259 10.24033383 17.141887957356687 
Si 13.131597059999999 9.94131459 19.47718358252955 
Si 15.523294859999998 9.409674149999999 19.329668680912814 
Si 15.15258333 9.5224824 23.230936899852658 
Si 12.820588379999998 9.17439768 23.570290267201884 
Si 15.395369489999998 11.87575209 23.127849202797776 
Si 16.20537345 8.42815278 25.12133863673036 
Si 13.853651309999998 9.7738371 30.15895525353421 
Si 12.463641899999999 11.58347691 29.61498109876673 
Si 12.64498218 9.52152129 25.93733441569694 
Si 14.56117488 8.52022386 26.78307500269444 
Si 16.048109789999998 11.764475099999999 27.411067012434255 
Si 12.29215707 11.50232013 27.235258269032016 
Si 15.583144319999999 9.70872597 28.507721119441673 
Si 13.541453459999998 9.98190927 32.680803681688424 
Si 15.40037052 11.47078269 32.816365385188206 
Si 12.245681699999999 12.24708264 1.325499121360948 
Si 14.93377605 12.21650631 4.071860393221682 
Si 14.91035103 14.905138229999999 1.3594724595927743 
Si 16.284070439999997 13.581950399999998 2.724800604390241 
Si 16.289006309999998 16.28907147 5.431346671540602 
Si 13.57439184 13.574310389999999 5.429308409433954 
Si 12.216913559999998 12.21738597 6.787723736476501 
Si 14.932033019999999 14.933287349999999 6.787689189661134 
Si 13.57178544 13.57660728 10.868082646278443 
Si 14.94464148 14.94397359 12.25620823453654 
Si 14.584681349999999 12.5195166 15.185501803128172 
Si 12.840625079999999 13.8162006 16.25210018076637 
Si 16.22166345 13.661918009999999 13.930657828555644 
Si 13.966459559999999 13.000136759999998 21.49129746523618 
Si 13.89999636 16.197489089999998 19.874471959249092 
Si 16.05521223 15.268828769999999 19.44588416780712 
Si 14.936643089999999 13.16266209 19.288937985595215 
Si 12.919582709999998 14.48743005 18.49180476781897 
Si 13.55326371 15.30456903 22.03565163497269 
Si 15.58316061 15.95831931 23.204163117943295 
Si 14.992729559999999 12.689519039999999 25.339329041695606 
Si 12.858576659999999 15.36702489 29.48929978446189 
Si 16.187552189999998 13.07827989 29.37370614024418 
Si 12.871641239999999 13.43426526 26.021835926084417 
Si 15.816710339999998 15.72856515 26.98196101876178 
Si 13.48834806 15.397454609999999 27.20527163329353 
Si 13.180239 14.08985631 34.49212775819125 
Si 13.91662845 13.388131979999999 30.255720883376945 
Si 14.591865239999999 13.68566883 32.5217846905545 
