&CONTROL
  dt          = 30.D0,
  prefix = 'x.33_y.66_z3.18_struc10-scf',
  pseudo_dir = './',
  outdir='./',
  wf_collect= .true.,
  verbosity= 'high',
/

&SYSTEM
ibrav= 6, celldm(1) =30.783621515, celldm(3) =2.120051451958549, nat=  432, ntyp= 1,
  ecutwfc     = 12.D0, nbnd= 1728,
  degauss     = 0.05D0,
  occupations = "smearing",
  smearing    = "methfessel-paxton",
/
&ELECTRONS
  electron_maxstep=200,
  conv_thr    = 1.D-8,
  mixing_beta = 0.3D0,
  scf_must_converge=.false.,
/
ATOMIC_SPECIES
Si  28.08  Si.pbe-hgh.UPF
K_POINTS {automatic}
1 1 1 0 0 0
ATOMIC_POSITIONS (angstrom)
Si -0.005597292869999999 2.71415835 2.6941942035454 
Si 2.7176607 -0.010831725989999999 2.7433833129658702 
Si 2.9895896699999995 2.1225055499999996 0.09692703132577614 
Si 1.2589661339999998 1.146793194 1.4051964058364903 
Si 4.062726 4.02657849 1.1604665131971046 
Si 0.001528347348 0.0009403793459999999 5.430280136169666 
Si 0.000846767232 2.7144027 8.144746759310529 
Si 2.71536381 0.00038732895899999995 8.145126651330205 
Si 2.71371852 2.71340901 5.430418278722276 
Si 1.3577356619999998 1.3572534779999998 6.787979678855155 
Si 2.713914 2.71119357 10.860802021806402 
Si 1.368601092 1.37121075 12.23918841174518 
Si 2.70141957 0.000812134692 13.757616814391959 
Si 0.0974120823 2.79632511 13.67158853975432 
Si 1.145595879 2.43900396 15.995388024115178 
Si 0.9748424699999999 2.4507164699999997 20.342699619101737 
Si 1.5163351019999998 0.247120929 19.60014886318688 
Si 3.8974313699999996 0.163598841 19.25917850770819 
Si 0.8026213319999999 0.388690803 17.38081968423705 
Si 2.5746344999999997 3.5218491299999997 18.833733981308715 
Si 3.9213287999999995 0.42113885399999995 23.231122251616263 
Si 2.9308805099999997 2.51840142 23.577549237923034 
Si 0.7328871 2.83573062 22.738126016990684 
Si 3.8091558599999997 3.1793193 25.646786533462517 
Si 0.0351616392 3.9369509099999997 29.550522392019587 
Si 3.71071539 2.55204027 29.350561047117164 
Si 0.26607434399999996 3.0049185599999997 27.380337426160626 
Si 2.4858540000000002 2.1998016 27.352329023619024 
Si 3.2515817399999998 0.8214069599999999 30.971007724866148 
Si 1.5821076059999999 1.203383025 32.70790857446504 
Si 1.361842371 4.07365659 4.069472386050462 
Si 2.7083591099999995 5.41637613 2.6817095703533056 
Si 1.186803063 6.6181383 1.2284948132297115 
Si 2.71461447 5.4301086000000005 8.145506543349882 
Si 1.357333299 6.787863809999999 6.787530715559173 
Si 1.356683328 4.07197872 9.503102479120914 
Si 1.3484324429999999 6.77149236 12.246786252138708 
Si 3.62921652 7.15662054 15.09165944494305 
Si 1.7907597 5.60362968 15.879037459179726 
Si 2.6603199 5.3443580399999995 13.71800443743115 
Si 0.5610666959999999 6.9690249 20.42154448100368 
Si 2.03888898 5.98833432 18.835149942472963 
Si 0.6047141220000001 4.410615239999999 17.446264718535854 
Si 3.11542992 7.7182834499999995 22.954008291081365 
Si 0.994900347 6.89829372 22.700240421937494 
Si 3.7776672899999997 6.95776851 26.52402627817175 
Si 3.4744778099999998 4.79678598 30.176170012788553 
Si 1.4576796989999998 5.8717305 29.400568651161848 
Si 1.5699992489999999 6.300287819999999 27.047482945647747 
Si 2.6247425399999997 7.9448121899999995 34.355500263801815 
Si 3.9749066099999997 9.39035421 1.1796476066269501 
Si 1.357849692 9.50145201 4.069990420622748 
Si 2.72404638 10.84824405 2.693444780197493 
Si 1.384035867 12.22285941 1.3048358413656023 
Si 0.000257579109 8.14495113 8.144712223672375 
Si 2.7146796299999996 8.145 5.430556421274886 
Si 0.00071908947 10.85945157 5.430832706380105 
Si 2.71497285 10.85994027 8.145299329520967 
Si 4.0643712899999995 9.51725331 12.228067936260105 
Si 1.356131097 9.5027715 9.50261898018678 
Si 2.71629234 8.14861638 10.862252518608802 
Si 0.00261472419 10.857464189999998 10.861734484036516 
Si 0.380071764 8.21999916 16.01251770063877 
Si 2.35871055 9.452223629999999 15.792801970713171 
Si 2.7580761899999997 10.8287775 13.766008974462993 
Si 2.53270404 10.80668826 17.894951729411897 
Si 1.1021243849999998 11.15674407 19.881856063596047 
Si 3.9303697499999997 9.38918133 19.24598589393397 
Si 2.6844453899999996 11.59268076 21.723987002645316 
Si 3.8374190099999996 9.50672997 21.612333284498593 
Si 3.1324203899999996 8.71158249 25.075808827888807 
Si 2.73989655 9.30312126 29.633028031565683 
Si 0.692518851 8.15793426 29.44339284247083 
Si 2.2046560200000003 11.597975009999999 29.44397994831942 
Si 0.981827622 8.41502304 26.15090324357317 
Si 1.0560855869999999 12.09506436 27.460391035397897 
Si 0.827931105 11.57064039 31.31394661171953 
Si 3.5964084599999997 9.64674252 31.81205412079166 
Si 1.4114356469999998 9.671372999999999 33.06832249422354 
Si 4.07170179 12.21911271 4.069748671155682 
Si 4.06132506 15.05485962 1.290399944617897 
Si 0.006530954219999999 13.58527356 2.692906024242315 
Si 1.35790182 14.93024112 4.074859945602237 
Si -0.000434444526 13.575287789999999 8.14533386515912 
Si 2.7129366 13.57548327 5.430901777656411 
Si 1.357792677 12.21777693 6.787496179921021 
Si 1.357714485 14.932668329999998 9.501721053594816 
Si 2.71583622 13.576167449999998 10.863737551049356 
Si 1.346883264 12.21308541 12.261084006333803 
Si 1.166976504 14.14358073 17.02171811872834 
Si 0.827250183 15.3466461 14.961874516766313 
Si 3.38035419 13.088705489999999 17.243575058219392 
Si 0.0966330945 14.81420745 20.482845238724195 
Si 0.570132081 14.403178169999999 22.792588718357027 
Si 1.331275815 12.30470037 23.61097973565456 
Si 2.7948427199999997 14.97609747 22.30805371507879 
Si 2.58678684 12.55836825 25.645923142508703 
Si 3.49101216 13.50833589 30.014923118254973 
Si 2.15409186 15.420374639999999 29.633442459223513 
Si 3.74205735 14.51150667 26.43095273335102 
Si 0.0243227619 15.701035049999998 26.556351635482404 
Si 2.21662917 16.10118261 27.327187079044073 
Si 0.8543176469999999 15.33560148 33.66699778159548 
Si 2.63886597 13.83495039 34.39639045937426 
Si 6.78931362 4.06986102 4.074894481240389 
Si 4.07381949 1.360713474 4.072822342951246 
Si 5.4302877899999995 2.72130966 2.6931235987626754 
Si 6.70546899 1.2188389769999999 1.325726448883992 
Si 5.42953845 -5.5343483099999995e-05 5.429831172873686 
Si 5.430206339999999 2.7144027 8.14460861675792 
Si 6.787684619999999 1.3577405489999999 6.787634322473631 
Si 8.145 2.71383255 10.858280920221276 
Si 4.073151599999999 1.358387262 9.502170016890798 
Si 5.430141180000001 0.0029962685699999997 10.860111309043353 
Si 6.792555329999999 1.352039049 12.224199944787037 
Si 7.37862066 3.64148289 14.866659762380133 
Si 8.13597534 0.040487166 13.728226986324263 
Si 4.59335646 0.7984168829999999 15.052288817449309 
Si 5.49815193 2.71164969 13.64589402496893 
Si 7.98708474 2.19364398 19.5731419941517 
Si 6.07120155 2.87806833 18.32785595365229 
Si 4.26118707 1.481961573 17.3191044988587 
Si 5.04572976 0.9521553869999999 21.224739817514152 
Si 7.3816180199999994 0.573235326 21.222391394119793 
Si 4.6624260600000005 3.9202536599999998 19.868110879611393 
Si 4.55755104 3.4933090499999997 22.160275719424646 
Si 6.82985943 3.73202271 22.940194035820404 
Si 8.13788127 0.46539552599999995 23.48879264787135 
Si 7.45176276 2.3432676299999997 24.704447110836 
Si 5.58922932 1.6903318499999997 25.995665550078108 
Si 7.63059438 1.109855619 29.09085304821108 
Si 5.88192804 2.3173991099999998 28.213544232225544 
Si 7.27915392 2.03952429 31.32820983027647 
Si 5.486504579999999 0.575204787 32.177061280424425 
Si 4.90773717 0.607154364 34.50569575412663 
Si 4.07593719 6.78814074 4.06843631690589 
Si 6.76530216 6.65910765 1.1991464279277981 
Si 4.07253258 4.072548869999999 6.787634322473631 
Si 5.42898459 5.427567359999999 5.43017652925521 
Si 6.787358819999999 6.7877171999999995 6.787254430453955 
Si 6.788776049999999 4.07091987 9.50175558923297 
Si 4.0720113 6.78724479 9.503447835502437 
Si 4.07539962 4.06788993 12.240742515462037 
Si 5.43212856 5.4307439099999995 10.861941697865431 
Si 6.767990009999999 6.79978809 12.23822141387691 
Si 5.500025279999999 6.972364349999999 16.696012515313015 
Si 6.6902215499999995 4.81667607 16.889481160242784 
Si 5.3906053499999995 6.149458709999999 20.26720471410058 
Si 7.76736522 6.02773983 20.12688641628736 
Si 4.109967 7.15258062 18.581761965348772 
Si 6.27792165 5.75691858 23.97156633360382 
Si 7.03926738 7.94552895 23.98841972502219 
Si 4.5396483299999995 5.94684369 22.451065792667894 
Si 5.16541239 5.155785 25.962718551280716 
Si 5.75108676 5.296367699999999 29.795898101092426 
Si 6.16607451 7.56300717 29.60253306307711 
Si 6.62895486 4.51724958 27.73753953157095 
Si 8.04393684 7.89854859 28.065766236571402 
Si 5.6512290599999995 5.21428239 34.13326343229109 
Si 6.89493798 4.45814946 31.802798569766818 
Si 4.136926949999999 6.60121299 32.967582037732974 
Si 8.15277033 10.85593293 2.7015537480356775 
Si 5.4224523 8.138109329999999 2.680766747431745 
Si 6.7882059 9.50339052 4.070059491899053 
Si 6.74762751 12.18040767 1.307346582259282 
Si 4.072548869999999 9.502673759999999 6.78704721662504 
Si 5.4299457 8.14542354 8.145230258244663 
Si 5.429489579999999 10.85969592 5.429589423406618 
Si 6.787489139999999 9.50285295 9.50320608603537 
Si 5.429701349999999 10.86174846 10.863150445200764 
Si 6.80161257 12.21100029 12.250723314888083 
Si 6.23188611 10.76762484 16.671146855843283 
Si 5.3068421699999995 8.158553280000001 13.65007283718537 
Si 6.9235269299999995 9.034678349999998 15.122568841089453 
Si 4.43904129 12.15580977 15.252112019799124 
Si 7.641899639999999 9.595934009999999 20.52214679494163 
Si 6.15058272 9.5091246 18.729021926430622 
Si 8.06931666 12.162195449999999 17.316997824931402 
Si 6.1123175100000005 9.50997168 22.39815719501841 
Si 6.16337037 11.295013589999998 23.941347650220465 
Si 4.21234965 10.83107439 25.30588524926013 
Si 8.13133269 10.85866965 25.243928314414713 
Si 7.15360689 8.93125314 26.13943741170657 
Si 5.38347033 10.07011962 27.15778977390653 
Si 6.431389739999999 11.841722279999999 28.248874190055453 
Si 4.39401573 8.3364075 28.315942399347424 
Si 5.45692194 8.14596111 31.832913646235713 
Si 5.74501059 10.53198999 34.36789855789853 
Si 5.1911343 11.38565115 32.19021935856049 
Si 7.293717179999999 9.201618269999999 32.885076398186875 
Si 7.1807948999999995 11.69040447 30.479634665233732 
Si 5.41971558 13.58144541 2.6955100113590067 
Si 6.793679339999999 14.926184909999998 4.070370312642425 
Si 4.07253258 14.932016729999999 6.7879106075788505 
Si 5.4297828 13.57533666 8.144815830586833 
Si 6.78794526 12.21735339 6.787599786835479 
Si 4.0716040499999995 12.216685499999999 9.50220455252895 
Si 6.786365129999999 14.93175609 9.502239088167103 
Si 4.04995464 14.93485119 12.232661176134375 
Si 5.47340742 13.667684669999998 13.628867955359794 
Si 6.40814391 15.29844399 15.078743116274051 
Si 4.304567339999999 13.43413494 21.347341332955192 
Si 4.73835375 14.241597659999998 18.99653497955915 
Si 6.892527059999999 14.32469295 17.514852495906528 
Si 6.36870582 13.309500149999998 22.786683124232965 
Si 7.078102739999999 14.89710726 24.463664641637433 
Si 5.07778848 15.873676469999998 25.09773895811559 
Si 5.100056909999999 13.8450339 28.29363237710097 
Si 7.07253156 15.127154639999999 28.602208303992704 
Si 7.79966829 13.825599930000001 34.46456380908711 
Si 4.17454056 13.5433431 32.44129344792847 
Si 6.328583549999999 14.65761168 32.60789336637568 
Si 7.6444083 14.029957979999999 30.646269119319086 
Si 8.15946552 -0.01178654805 2.693061434614001 
Si 8.51149242 2.1562747200000003 0.12020163394582628 
Si 9.5021199 1.3595585129999999 4.0713373105106925 
Si 10.87893441 2.68108965 2.7200234073195833 
Si 9.454520519999999 3.9238537499999997 1.431312255407339 
Si 8.14441356 0.000410055138 8.144643152396071 
Si 8.14457646 2.7156570299999996 5.43103992020902 
Si 10.85860449 0.00011204050229999999 5.4295203521303135 
Si 10.86002172 2.7150380100000002 8.144401402929004 
Si 9.50060493 1.3582048139999998 9.501721053594816 
Si 10.85894658 0.0016597881 10.864428263812401 
Si 9.12779199 1.8377726399999998 15.156793658498485 
Si 10.90806093 2.80637604 13.679877092910896 
Si 9.471657599999999 1.485683838 17.792967989947847 
Si 8.33727087 3.96171171 21.117368518498328 
Si 11.675890079999999 1.9450585799999998 20.840599914344956 
Si 11.58494301 2.35397016 18.549781964419644 
Si 10.55580597 3.71415258 21.916212364601602 
Si 10.48707846 0.297496125 23.53313640725904 
Si 10.97739117 2.53164519 23.8958987504119 
Si 9.495620189999999 2.87702577 25.71879333901028 
Si 12.169444499999999 4.0311885599999995 29.42446731276331 
Si 9.58381425 1.465608042 27.684561862645158 
Si 11.71163034 1.95786252 28.487549985326723 
Si 10.63502424 3.7360626299999997 32.49713757482091 
Si 9.400958999999999 1.72833642 32.438910488895964 
Si 10.87103376 8.13841884 2.7114620226216024 
Si 12.18979071 6.64343667 1.4032278744618034 
Si 8.13591018 5.42569401 2.702765948934827 
Si 9.502413119999998 6.78825477 4.069506921688615 
Si 11.13462225 4.85179731 0.16142268093177353 
Si 9.502380539999999 4.07248371 6.78804875013146 
Si 8.14534209 5.4300760200000004 8.144815830586833 
Si 10.86042897 5.4291312000000005 5.430072922340753 
Si 10.8577737 5.43062988 10.855863425550607 
Si 12.22355988 6.774880679999999 12.18648702792461 
Si 9.50368374 6.785697239999999 9.501686517956664 
Si 9.507055770000001 4.0771915199999995 12.218743313958955 
Si 8.20582686 5.487791489999999 13.600065233140688 
Si 10.105012799999999 6.399216989999999 14.843106457160193 
Si 10.91666205 8.11028601 13.501155165472202 
Si 11.61530757 4.53819852 15.180139749889511 
Si 10.077841079999999 7.56176913 16.973886259887262 
Si 10.887258600000001 4.42216485 17.676479282459784 
Si 9.108146249999999 7.78367151 20.902280564085153 
Si 11.318780699999998 7.301243159999999 20.228075836073906 
Si 11.836590929999998 6.4534952699999995 18.134214630531755 
Si 8.672062949999999 5.48713989 17.955147346711538 
Si 11.750628599999999 5.74101954 22.097524464901728 
Si 10.77115977 6.5970590399999995 24.128047310072365 
Si 10.30497255 5.07879846 25.939268852975232 
Si 10.32642648 5.518954259999999 29.41269066015334 
Si 11.463566219999999 7.579508939999999 29.116236742253097 
Si 8.76944457 5.6682684 27.661043093063373 
Si 9.178258409999998 5.30091261 31.542123572992466 
Si 10.18146177 6.5748394800000005 33.3284794564256 
Si 8.4318669 7.8525944999999995 34.50452154242944 
Si 9.52890066 9.44841177 1.3146370554732547 
Si 12.170373029999999 12.19373289 1.3438852874245264 
Si 9.50093073 12.220872029999999 4.071613595615911 
Si 12.21927561 9.5030973 4.074169232839189 
Si 8.14390857 8.14415292 5.430314671807819 
Si 9.50192442 9.502869239999999 6.787461644282868 
Si 10.85969592 8.14475565 8.144505009843462 
Si 8.145097739999999 10.860103169999999 8.145195722606509 
Si 10.859614469999999 10.85925609 5.430314671807819 
Si 12.21500763 9.500653799999998 9.501824660509273 
Si 8.14620546 8.145374669999999 10.861181913826076 
Si 9.508391549999999 9.493860869999999 12.223302018195072 
Si 10.864566629999999 10.859418989999998 10.860007702128895 
Si 12.20212224 12.21243381 12.232108605923937 
Si 8.18639289 10.665942659999999 13.761312127674268 
Si 11.129474609999999 9.85028607 16.459098037587516 
Si 9.638141399999999 11.733084269999999 15.435427187112088 
Si 10.95587208 11.29942818 20.408386402867613 
Si 8.68620267 11.575641419999998 19.816203815468327 
Si 12.132287009999999 10.32435765 24.821661066725262 
Si 9.96446268 10.39569156 23.883362313762575 
Si 9.25363224 8.16669828 23.228635685669285 
Si 9.790925309999999 9.237765779999998 28.94452554935934 
Si 10.41545133 11.41397946 28.16799172550252 
Si 10.716327629999999 10.93177917 34.451889229885175 
Si 10.9849986 10.35266967 32.15575279168439 
Si 8.915761349999999 10.112571359999999 30.9968749178423 
Si 12.138346890000001 8.469171 31.159917665559803 
Si 9.5990454 15.031809269999998 1.0726527460669852 
Si 10.842623999999999 13.58261829 2.6940284324822685 
Si 8.14403889 13.573479599999999 5.431316205314238 
Si 9.50257602 14.931821249999999 6.78704721662504 
Si 10.86007059 13.574733929999999 8.144712223672375 
Si 9.5030973 12.217581449999999 9.502031874338188 
Si 8.14527693 13.573121219999999 10.86366847977305 
Si 9.501549749999999 14.929084529999999 12.252726381900922 
Si 10.75477203 13.414358879999998 13.74397523732176 
Si 11.60493084 14.66681553 17.411245581449315 
Si 10.94745015 16.03866159 21.33991617075242 
Si 8.888214959999999 15.190522739999999 20.589629431891428 
Si 12.152405159999999 13.03762005 19.33360280792662 
Si 9.214291889999998 15.40118502 18.19793288292294 
Si 8.42543235 13.13604423 21.59244075692281 
Si 10.45782162 12.25657971 22.54134195079828 
Si 11.8040598 16.087401269999997 25.382796115425535 
Si 11.190920489999998 12.93935877 29.854194258293685 
Si 8.2515366 14.48138646 26.59537690659462 
Si 10.27907145 15.56654481 27.05293957647583 
Si 8.457491069999998 12.217972409999998 27.070276466828336 
Si 11.99504376 14.64304842 28.45132210090485 
Si 9.854374859999998 14.143548149999999 31.469736875425024 
Si 10.9600749 16.23940326 31.91096418846015 
Si 9.511714709999998 12.726350729999998 33.35600436003307 
Si 11.51566164 15.758994869999999 34.250615530732965 
Si 13.59508014 0.013678696709999999 2.6854601406566565 
Si 13.13228124 3.1369327199999995 0.03299900946845166 
Si 12.226117409999999 1.315505466 1.1838160581519455 
Si 14.927194889999999 1.359242487 4.071924416359283 
Si 13.57564617 -0.000684820197 8.144677688034223 
Si 13.57548327 2.7150868799999994 5.431281669676086 
Si 12.21736968 1.358255313 6.787772465026241 
Si 14.9327172 1.3572143819999998 9.502273623805255 
Si 13.57737291 2.71174743 10.863979300516421 
Si 12.214404899999998 1.359511272 12.238670377172895 
Si 15.29881866 0.9170097119999999 14.685278590803705 
Si 14.854052789999999 1.163474154 16.95261230678538 
Si 12.961382849999998 0.286503633 18.21941404985374 
Si 13.995732689999999 1.70489511 21.28787096405675 
Si 15.08471919 3.16443024 19.777316686908716 
Si 13.98990087 3.2169491999999997 17.67599578352565 
Si 15.02757387 1.6423578 23.441893251260385 
Si 13.238068499999999 3.0148880399999998 24.468603237893227 
Si 12.97223199 1.65121956 26.49256431181491 
Si 14.90403051 0.5715493110000001 29.874328535336538 
Si 12.513473009999998 0.225737046 29.85643907477359 
Si 15.08206392 1.1701709729999998 27.524489179808764 
Si 16.03274832 2.3060286899999998 31.33352831855194 
Si 14.540160779999999 3.67067457 32.75397911576035 
Si 12.22243587 4.07131083 4.074238304115494 
Si 14.82168456 4.0793580899999995 1.3437713198186234 
Si 13.57962093 5.42028573 2.7491196824629847 
Si 14.932863809999999 6.78830364 4.073513055714294 
Si 16.28843616 5.42991312 5.430280136169666 
Si 14.93193528 4.07284209 6.788290499598527 
Si 13.574799089999999 5.4305973 8.144643152396071 
Si 12.21771177 6.787358819999999 6.787841536302546 
Si 16.2908145 5.43299193 10.860042237767047 
Si 12.21676695 4.07504124 9.502446301996017 
Si 14.93283123 6.78760317 9.502446301996017 
Si 14.92069518 4.08111741 12.24032808780421 
Si 16.03520811 7.95416265 13.645375990396644 
Si 14.815184849999998 5.38469208 16.469078837013562 
Si 13.349703869999999 5.320965599999999 13.611807350112507 
Si 14.10119415 7.207461629999999 14.848632159264579 
Si 14.11948782 6.54654375 18.343535133373482 
Si 15.008042159999999 5.48920872 20.230976829678706 
Si 16.20587844 4.93204185 23.526436493457474 
Si 14.07723156 7.7478335099999995 23.405630831200362 
Si 14.117809949999998 5.607262349999999 22.41766983057452 
Si 12.416922179999998 8.014875479999999 25.060233255082075 
Si 14.28913188 5.038545869999999 29.335607115797174 
Si 16.270484579999998 4.919824349999999 25.96568861616182 
Si 12.65135157 4.40685225 26.27143262072506 
Si 14.361149969999998 5.78220066 27.13427100432474 
Si 13.091572529999999 7.7418225 27.30698373072492 
Si 15.57838764 5.69847006 34.34234218566575 
Si 12.49816041 6.737772059999999 32.600848096192586 
Si 12.656971619999998 4.525068779999999 31.649874764027967 
Si 13.91820858 7.48189926 34.50037726585115 
Si 16.2917919 8.14161168 2.6934689551441995 
Si 14.835188969999999 9.3913479 1.2567069760364111 
Si 13.571036099999999 10.845751680000001 2.6989359466637253 
Si 14.93219592 9.502347959999998 6.787668858111783 
Si 13.575043439999998 10.85982624 8.145161186968357 
Si 13.573984589999998 8.1435339 5.430556421274886 
Si 13.575238919999999 8.14431582 10.860802021806402 
Si 14.934671999999999 9.52000632 12.241571370777695 
Si 12.54582495 9.13649085 14.76305284792292 
Si 13.565367179999999 10.92773925 13.682778086515698 
Si 15.112689119999999 8.752682159999999 17.994552509843434 
Si 12.367677509999998 9.43270821 20.1468825507776 
Si 15.987266639999998 9.195623549999999 20.16428851240641 
Si 13.060214279999999 10.083298229999999 17.925239484071557 
Si 13.779124559999998 11.16257589 23.29542760985604 
Si 16.181769239999998 8.457246719999999 24.05186169230816 
Si 15.869375909999999 10.825649819999999 24.359746906436847 
Si 14.10489198 9.438132779999998 21.70419808198399 
Si 16.022844 10.310625179999999 26.75980107983822 
Si 12.46430979 11.321892089999999 26.95430579391256 
Si 14.00475735 9.81780381 27.98370956032129 
Si 16.05578238 9.35971272 31.3034477777212 
Si 12.91300155 11.904943770000001 31.217557645636166 
Si 13.8192957 9.88749243 30.39743984643101 
Si 16.05211713 11.04546708 34.453201584134966 
Si 13.268661119999999 13.96587312 0.17467573207275888 
Si 12.21474699 14.93037144 4.067918282333604 
Si 14.930648369999998 12.220725419999999 4.066951284465337 
Si 15.21415953 15.11469279 1.128286205566694 
Si 13.574033459999999 13.574815379999999 5.430072922340753 
Si 12.21756516 12.217728059999999 6.78718535917765 
Si 14.932798649999999 14.931951569999999 6.78704721662504 
Si 16.28889228 16.28807778 10.863703015411202 
Si 12.21828192 14.93156061 9.502239088167103 
Si 14.93056692 12.21595245 9.502446301996017 
Si 13.57766613 13.575010859999999 10.857693814372684 
Si 14.935372469999999 14.920157609999999 12.208071801769862 
Si 12.46989726 14.38522659 15.064065470059278 
Si 14.24237958 12.73229658 15.090312555055105 
Si 13.4954505 16.1393175 13.566151236475028 
Si 16.109409059999997 13.55261211 13.713929232129166 
Si 12.72193614 14.52370788 21.059728538421965 
Si 14.343605639999998 15.940286279999999 20.188049031455268 
Si 16.123516199999997 12.98130552 18.9441098808438 
Si 13.919593229999998 12.3321816 17.71163656209893 
Si 13.44687372 14.49709002 24.87045992343461 
Si 12.64393962 13.2245478 23.02145639239301 
Si 15.4859256 15.680819159999999 24.31654282310819 
Si 15.75190872 13.818481199999999 27.862731219873414 
Si 16.15948452 14.830855829999999 30.026768842141248 
Si 13.524658469999999 13.472742239999999 27.038123787708447 
Si 16.227397529999998 13.6611198 32.08927168824101 
Si 14.344224659999998 12.60997497 33.07360644686086 
