&CONTROL
  dt          = 30.D0,
  prefix = 'x.33_y.66_z3.15_struc20-scf',
  pseudo_dir = './',
  outdir='./',
  wf_collect= .true.,
  verbosity= 'high',
/

&SYSTEM
ibrav= 6, celldm(1) =30.783621515, celldm(3) =2.1062332589269452, nat=  432, ntyp= 1,
  ecutwfc     = 12.D0, nbnd= 1728,
  degauss     = 0.05D0,
  occupations = "smearing",
  smearing    = "methfessel-paxton",
/
&ELECTRONS
  electron_maxstep=200,
  conv_thr    = 1.D-8,
  mixing_beta = 0.3D0,
  scf_must_converge=.false.,
/
ATOMIC_SPECIES
Si  28.08  Si.pbe-hgh.UPF
K_POINTS {automatic}
1 1 1 0 0 0
ATOMIC_POSITIONS (angstrom)
Si 2.7319470299999997 -0.0171328446 2.683101366685233 
Si 4.027979429999999 4.05933768 1.3730563365028738 
Si 1.3759804619999998 1.4079658769999999 1.3407323769686745 
Si 4.07561139 1.356087114 4.071151409075428 
Si -0.00269912268 -0.00039405509999999996 5.429299816040451 
Si -0.00012576205799999998 2.7156244499999995 8.144704555936011 
Si 2.71559187 -0.000405782271 8.144773177015587 
Si 2.71386513 2.71498914 5.429951716296421 
Si 1.356926049 1.3578122249999998 6.788031502181868 
Si 0.00330647904 -0.00397094814 10.861996375519904 
Si 2.71577106 2.7126107999999998 10.858084973984083 
Si 1.3706259389999997 1.360402335 12.221208409218354 
Si 1.01472039 0.0986084199 16.1693222226143 
Si 0.12371473079999999 2.82396924 13.54398264966203 
Si 3.5855104499999997 4.0539293999999995 16.947039227987084 
Si 2.92977279 2.11585923 20.738868532649054 
Si 0.824301693 3.0270078000000002 20.63861313538875 
Si 3.1510072799999995 0.492031305 17.43431751405512 
Si 0.46873008899999996 3.8161116899999996 24.669964318310193 
Si 0.430233561 1.5012326429999998 24.703897442160446 
Si 2.6803891799999997 0.0425877615 21.843462050581348 
Si 2.1798300599999996 0.01160111898 24.14611099682823 
Si 4.02112134 0.12214160549999999 25.697564984958394 
Si 0.1090592694 2.8141952399999997 28.417155610708082 
Si 3.08894238 0.841337775 27.7220926956844 
Si 2.3756032799999995 3.0944158199999996 27.911315322614776 
Si 0.1390239099 0.21261219299999998 34.076198801168445 
Si 2.26427742 3.2865563699999996 34.201020544916894 
Si 1.371124413 1.589723181 31.848381142199013 
Si 3.06553365 3.20495976 31.934397665447328 
Si 1.356192999 4.07495979 4.0723522779680055 
Si 2.71176372 5.43416481 2.7168800931064405 
Si 1.4929703549999997 6.66223533 1.1117541275860332 
Si -0.000821589408 5.4307439099999995 5.432765180559031 
Si 2.71441899 5.43004344 8.144361450538131 
Si 1.3578448049999998 6.78577869 6.787757017863565 
Si 1.357207866 4.070072789999999 9.503436242077427 
Si 1.352467476 6.7886945999999995 12.231570192234305 
Si 2.66740605 5.442798509999999 13.650516875703522 
Si 3.9906264599999997 6.71644845 15.103362372483204 
Si 3.25622439 8.07254208 16.872002077470903 
Si 1.5796315259999998 4.07826666 15.282806495574025 
Si 3.32907327 6.29817012 19.371044553463836 
Si 1.5013922849999999 7.415468639999999 20.439783557317753 
Si 0.5698877309999999 4.63082346 18.657831362892345 
Si 1.98404055 6.434273069999999 22.547377084870313 
Si 1.1678333579999998 7.29031257 24.576914134405353 
Si 0.58580469 4.54417695 22.43579920948 
Si 2.3954444999999995 4.30595199 25.89955113268988 
Si 3.63161115 4.182327180000001 29.56487747715379 
Si 0.1366774983 7.013431439999999 28.81368251903707 
Si 2.6925741 6.602141519999999 26.207350985127306 
Si 2.3662528199999997 7.51144932 28.31405243864538 
Si 0.440488116 4.91581701 34.24500665692501 
Si 0.572386617 7.50794697 31.195245706796168 
Si 3.00917025 7.81428042 31.71319761543461 
Si 3.32469126 7.439789609999999 34.09637339856374 
Si 4.03281756 9.2730825 1.2393447318953712 
Si 1.362645468 9.50296698 4.068372255352607 
Si 0.01603747242 10.05407397 0.23327152722630368 
Si 2.7111284099999997 10.845148949999999 2.6878773938237113 
Si 1.199890449 11.993887169999999 1.2685532944168274 
Si -0.00012924893249999998 8.14534209 8.144670245396222 
Si 2.7146959199999996 8.143142939999999 5.430843790330908 
Si -0.000142674336 10.860380099999999 5.428682226324268 
Si 2.7147936599999998 10.860038009999998 8.144841798095163 
Si 1.355241663 9.503162459999999 9.501171746451426 
Si 2.7132949799999997 8.149072499999999 10.865701913817 
Si 1.103802255 9.128916 17.11221016652613 
Si 0.789388965 9.95309226 14.925908260700083 
Si 2.69351892 10.94712435 13.763981830782173 
Si 2.0918314799999997 9.726759 20.436832850895996 
Si 1.310191668 11.06016066 18.682054603982614 
Si 1.87102053 9.445186349999998 24.179975499598907 
Si 0.9377110439999999 10.48313628 22.308884522804483 
Si 1.395282483 10.73455614 26.006737258987343 
Si 1.096856199 10.68278652 29.787244085519298 
Si 2.4364953 9.87164226 27.953414354934555 
Si 2.33921142 11.61372744 31.938411998602515 
Si 4.03065099 14.66282448 1.1625543127960274 
Si 1.360320885 14.928318899999999 4.069641745324759 
Si 0.00037106990999999996 13.57505973 8.145081971873678 
Si 2.71484253 13.574799089999999 5.430191890074936 
Si 1.357817112 12.217614029999998 6.787757017863565 
Si 4.08724245 14.919734069999999 12.206317634950397 
Si 1.359581319 14.932994129999999 9.501789336167606 
Si 2.7140769 13.575776489999999 10.858050663444295 
Si 1.3644015299999999 12.20994144 12.219355640069807 
Si 2.78269038 16.25882094 13.561446714414082 
Si 3.3969211199999996 12.78706356 15.110224480440788 
Si 1.75299948 14.564693519999999 14.816011601759374 
Si 2.61863379 12.882832469999999 17.668452637567885 
Si 2.95756353 14.027090939999999 21.20857982234568 
Si 0.24693359399999998 15.475206779999999 19.4722606458382 
Si 2.52700254 14.932114469999998 19.06461712261792 
Si 1.131257421 12.89188971 22.104119221350174 
Si 0.8082821069999999 14.300648909999998 23.982278169340912 
Si 1.92410964 12.96156204 25.49111846705448 
Si 0.36170316 15.7276692 29.972074963356825 
Si 1.124837532 15.892703189999999 27.830788485732526 
Si 1.80936288 13.659018389999998 27.696599964621974 
Si 2.7265713299999996 13.09010643 34.040344287090065 
Si 2.1767838299999998 15.62880519 31.474807984988143 
Si 1.047670173 14.52233952 33.20591195944785 
Si 6.785355149999999 4.077240389999999 4.0687839818300615 
Si 5.4354843 2.69105913 2.6957448005970814 
Si 6.78770091 1.24936155 1.277563242165135 
Si 5.42916378 -0.00010375931789999999 5.430226200614724 
Si 5.430401819999999 2.71459818 8.144635934856435 
Si 6.787928969999999 1.3570042409999998 6.787619775704413 
Si 4.06609803 4.06412694 12.240936969596408 
Si 4.07316789 1.358069607 9.50223537318485 
Si 6.78993264 1.341336519 12.231878987092397 
Si 7.642486079999999 3.58059087 15.234977603109664 
Si 5.49381879 2.79570609 15.831637890021593 
Si 4.40942607 0.571679631 15.23240431262557 
Si 5.18157207 2.38547502 13.553761153501588 
Si 7.8840342 3.63688911 19.25586407139579 
Si 6.3882864 1.8793935899999998 18.671486957727936 
Si 4.0701705299999995 2.3349271499999995 18.661982938206684 
Si 5.947983989999999 1.599420618 22.85256933628386 
Si 8.050224779999999 0.662138001 22.841521342472152 
Si 4.19763978 3.74492439 24.522909344779166 
Si 4.3664204699999996 3.2515002899999996 22.180803277776178 
Si 5.45532552 1.88040357 25.11517788259824 
Si 4.92977754 0.48236970599999995 29.134829171452 
Si 7.49952504 2.46814677 26.153346195501122 
Si 7.21938591 3.69206334 28.156498439939252 
Si 5.48497332 2.7621161099999996 29.437242269142725 
Si 6.08377743 0.345509271 32.216533234123396 
Si 8.01715608 2.6817901199999996 34.10385309623751 
Si 5.3776548 2.59414992 31.79231772018555 
Si 4.07293983 6.7869027 4.072798314985248 
Si 5.202749069999999 5.65818489 0.05297238548396747 
Si 6.86636532 6.92743653 1.24701656859195 
Si 4.072060169999999 4.07320047 6.787859949482929 
Si 5.42755107 5.4288542699999995 5.431873106524545 
Si 6.78703302 6.787342529999999 6.787619775704413 
Si 6.785355149999999 4.0716040499999995 9.502132441565486 
Si 4.07179953 6.78488274 9.503779347475307 
Si 5.43677121 5.42898459 10.860177916911145 
Si 6.77255121 6.7779432 12.235687457008856 
Si 5.43085794 8.07892776 13.739861521311266 
Si 8.13641517 5.41460052 13.652403955391858 
Si 4.803187949999999 5.073504209999999 20.779423590678377 
Si 7.0449851699999995 5.538795479999999 20.343645424832005 
Si 7.070674499999999 7.402974209999999 18.89875997328312 
Si 4.78336302 7.98249096 18.622354264751635 
Si 4.37927328 6.48066699 22.548372090524165 
Si 7.879391549999999 5.473016459999999 24.225848691295358 
Si 5.53118805 5.66277867 24.444578382443343 
Si 4.878594359999999 7.48748673 25.768176075841936 
Si 4.122119339999999 6.54310656 29.59829594290722 
Si 7.518975299999999 6.04547964 27.958492314823165 
Si 5.666671979999999 7.479162539999999 28.02790253681413 
Si 7.66310922 6.52671882 32.2468980618357 
Si 6.8126409 4.319098019999999 32.78845562184823 
Si 8.13584502 10.868280749999998 2.6915692079048914 
Si 5.43942648 8.13771837 2.715909104830442 
Si 6.78369357 9.50444937 4.071803309331399 
Si 6.6853671299999995 12.129566579999999 1.2400480979610236 
Si 4.07276064 9.502657469999999 6.787310980846321 
Si 5.430304079999999 8.145179189999999 8.144944729714526 
Si 5.429277809999999 10.859663339999999 5.43098103249006 
Si 6.78784752 9.502185059999999 9.502784341821457 
Si 4.0799934 9.50560596 12.260596908894886 
Si 5.42849589 10.85937012 10.865427429498697 
Si 6.764878619999999 12.23268228 12.243098533603046 
Si 7.41745602 9.12406158 14.845690218675927 
Si 7.94378592 10.90234314 18.756885891260072 
Si 4.42871343 9.626526629999999 20.268230858378153 
Si 5.79111129 11.446396559999998 19.640313669719436 
Si 5.13807777 11.13149457 25.10100762966583 
Si 5.20364502 8.64599895 22.24791469360135 
Si 7.1306217 11.681949959999999 23.906554808028975 
Si 4.2141578399999995 9.22691664 24.261360099975857 
Si 7.563446999999999 8.628308009999998 22.25961458766903 
Si 7.65654435 8.800639919999998 25.933072530062677 
Si 4.48238898 10.9556766 27.39363789829464 
Si 8.10100071 10.262292749999999 27.728234282306435 
Si 6.00470577 9.764616959999998 28.67410724317981 
Si 4.1318933399999995 10.018838699999998 32.304471147599834 
Si 7.75571787 8.63218503 33.71116896836477 
Si 5.7549312 10.10414943 34.183693722323994 
Si 8.11251774 10.40520492 31.51738736486495 
Si 5.8663548 10.877908139999999 30.764511190298624 
Si 4.0770123300000005 12.217109039999999 4.071734688251823 
Si 5.42259891 13.55248179 2.7038661053648823 
Si 6.7860719099999995 14.93669196 4.068406565892395 
Si 4.073021279999999 14.93178867 6.787722707323777 
Si 5.43032037 13.57561359 8.144807487555374 
Si 6.78711447 12.21748371 6.787482533545261 
Si 4.07166921 12.21901497 9.502269683724638 
Si 6.7857949799999995 14.93258688 9.501343299150365 
Si 5.43395304 16.287605369999998 10.856060652136597 
Si 5.259487139999999 13.592490029999999 13.784739707353866 
Si 6.249023189999999 15.277136669999999 15.148995390401137 
Si 7.991727389999999 16.23081843 13.770878249279546 
Si 4.995295919999999 12.745980179999998 17.763355590621273 
Si 6.27676506 15.997496759999999 19.690338436730222 
Si 6.42329361 14.644954349999999 17.45524694332575 
Si 6.583619789999999 12.44453373 21.72186549757296 
Si 4.89990168 13.85176167 22.48812278265658 
Si 4.10617143 13.15313244 24.609234662885576 
Si 5.03072667 16.062510149999998 21.777482882569178 
Si 7.34964075 13.60584783 25.2661099471253 
Si 7.5220704 13.826886839999998 28.9854410812154 
Si 5.2572717 14.43981438 26.308155351024215 
Si 6.612615989999999 15.6814056 27.902360271730128 
Si 4.14982863 13.18074399 28.072540549078212 
Si 7.79227263 13.80442293 34.225003612228655 
Si 5.4907074 13.1825196 30.02693751647771 
Si 4.52772405 15.239018069999998 30.907243035816368 
Si 5.9678415 15.575830109999998 34.30755477095839 
Si 9.50506839 1.3548425579999999 4.074342289275704 
Si 10.87328178 2.70189198 2.690025233614435 
Si 9.3387312 3.8640694499999997 1.3499859295494767 
Si 8.1443484 5.59761867e-06 8.145356456191982 
Si 8.14625433 2.71500543 5.429162573881299 
Si 10.858979159999999 0.0009903375179999999 5.431083964109422 
Si 10.860363809999999 2.7151520399999995 8.145425077271558 
Si 9.50153346 1.356443865 9.503607794776368 
Si 8.14298004 2.71989243 10.862270859838208 
Si 10.86446889 -0.0014165246429999998 10.864672597623365 
Si 9.10860237 1.530026847 15.191609080817734 
Si 10.760750459999999 2.58844842 13.667123176960876 
Si 11.13411726 3.90554379 17.089187794328435 
Si 9.932322509999999 0.1470452688 17.30651075334512 
Si 10.086572519999999 0.730077075 19.71528219915604 
Si 12.0361923 0.0878475717 20.849348470766156 
Si 9.79019226 2.98357866 20.450831551129465 
Si 9.036633149999998 3.4812218699999997 24.664062905466672 
Si 9.666942119999998 2.28416751 22.74075128711503 
Si 11.49580413 0.815513238 23.021377192040426 
Si 10.468784789999999 3.1501113299999997 28.440452467224077 
Si 10.854027 3.9588609599999995 26.124593963158844 
Si 8.35773111 0.434143161 26.809466647865516 
Si 10.08759879 0.8264275379999999 28.38054626475437 
Si 9.948074939999998 0.0657542592 30.65434004703961 
Si 9.45241911 1.1914734059999998 32.771300351954274 
Si 10.30365306 3.2664708 32.06227304723691 
Si 8.89986231 3.9023183699999997 30.157832225768622 
Si 10.82638287 8.16366834 2.703354878322042 
Si 8.14757382 5.434392869999999 2.6823945695656017 
Si 9.506811419999998 6.7821623099999995 4.070053471802214 
Si 9.50262489 4.07280951 6.787516844085049 
Si 8.14491855 5.42966877 8.145150592953254 
Si 10.8600543 5.43095568 5.432559317320303 
Si 9.5027715 6.78613707 9.502475546963366 
Si 9.511975349999998 4.07903229 12.236545220503553 
Si 10.86341004 5.4281212199999995 10.855202888641898 
Si 8.143419869999999 8.14379454 10.862167928218843 
Si 12.212629289999999 6.7608387 12.22951155984703 
Si 8.90831682 7.22147103 14.993671576781225 
Si 10.728121589999999 8.01342567 13.56563260026821 
Si 8.668218509999999 6.660785519999999 17.283831486545303 
Si 11.45802762 4.71711159 20.440607010272664 
Si 12.187982519999998 5.48963226 18.360633467249382 
Si 8.77066632 4.33783152 17.164362187003764 
Si 10.829103299999998 7.3352241 18.028541752642106 
Si 8.338671810000001 6.40042245 22.147556364721684 
Si 11.73171591 7.40773089 23.73733522579495 
Si 10.65305727 6.646922729999999 21.695274829237324 
Si 11.013115139999998 6.29504244 25.83981648291911 
Si 10.462301369999999 7.59203595 29.678445363851804 
Si 8.707493699999999 6.736452569999999 26.031852574112097 
Si 11.90044773 6.84443898 27.95221348604198 
Si 8.618501429999998 6.24815982 30.042445880461848 
Si 9.378397349999998 9.49858497 1.189865502467212 
Si 11.15920386 10.66517703 0.06671204114204 
Si 8.14456017 8.14519548 5.4277215312102065 
Si 9.502608599999999 9.503309069999998 6.787928570562505 
Si 10.86033123 8.14529322 8.144979040254313 
Si 8.14513032 10.859598179999999 8.144704555936011 
Si 10.860673319999998 10.85964705 5.433073975417122 
Si 9.498894479999999 9.52080453 12.226320679646754 
Si 10.86313311 10.85604696 10.858874116399205 
Si 9.50295069 12.215919869999999 9.503333310458064 
Si 9.229392719999998 10.38147039 16.581837842484465 
Si 11.597551469999999 9.23095656 16.843352776747988 
Si 8.172139139999999 10.9343367 13.614525119465995 
Si 11.821995089999998 10.45467765 20.439817867857542 
Si 8.295307829999999 9.03853908 20.077910294174565 
Si 10.55329731 8.44366086 20.100177834496925 
Si 8.53394004 9.79960788 24.048531821671386 
Si 10.899557549999999 9.63545355 24.274535347254414 
Si 11.60752095 11.18261259 22.68859926663739 
Si 11.91623274 10.58991723 26.259022658047915 
Si 9.62098803 9.81189054 29.542026657655036 
Si 11.49560865 11.055208499999999 30.419724575969816 
Si 11.04080814 12.137939639999999 32.54042472972136 
Si 9.50409099 12.21463296 4.070979856376488 
Si 9.49221558 14.91478191 1.378913145644672 
Si 10.87139214 13.562858519999999 2.7111502329618578 
Si 8.15254227 16.2913032 2.7210145131508847 
Si 8.14493484 13.57448958 5.429883095216845 
Si 9.50296698 14.93252172 6.787482533545261 
Si 10.86007059 13.57499457 8.145081971873678 
Si 12.20160096 12.220187849999999 12.235721767548645 
Si 8.14236102 13.57854579 10.863128623332907 
Si 9.484510409999999 14.9296221 12.2514703053113 
Si 12.20065614 13.08658779 17.06849853883632 
Si 12.149603280000001 15.645567599999998 16.929197747297362 
Si 10.04974083 12.608052749999999 15.876824870922283 
Si 10.77036156 13.514086260000001 13.711829810304536 
Si 8.338736970000001 15.83221842 20.82519385075546 
Si 8.61167592 13.58115219 21.372378339293206 
Si 12.148234919999998 14.0471928 21.015171309561172 
Si 9.1932615 12.80543868 19.267872760321563 
Si 11.511442529999998 12.52606518 19.319441501622805 
Si 8.82403236 14.24231442 17.387071900767154 
Si 8.56520055 15.58123839 24.741844899165883 
Si 10.58892354 13.35134916 22.631472217890508 
Si 10.80185013 15.123652289999999 24.178294283149302 
Si 12.108324419999999 16.07735034 27.683905064900443 
Si 11.30271876 13.075429139999999 29.310258961387635 
Si 11.869480439999998 14.40119079 26.103870397126943 
Si 10.75063437 12.56700195 27.071015892668832 
Si 8.36559918 12.55450752 27.15507671514923 
Si 9.38085714 14.057080829999999 30.379924349815827 
Si 8.791957349999999 12.631331159999998 32.27084681860767 
Si 10.80178497 16.2377091 34.27379319980707 
Si 11.92045185 14.45128254 33.0123662045042 
Si 16.278678449999997 2.71415835 2.711160526123794 
Si 12.348162089999999 1.3227805799999999 1.210942467058931 
Si 14.930909009999999 1.359732816 4.076160747884464 
Si 14.93061579 4.00755177 1.250646623701512 
Si 13.574652480000001 0.000305821944 8.145150592953254 
Si 13.57665615 2.71389771 5.429368437120027 
Si 12.21728823 1.357528779 6.787688396783989 
Si 14.932782360000001 1.356942339 9.503367620997851 
Si 13.57178544 2.7157384799999997 10.861344475263936 
Si 12.215528909999998 1.3534823429999998 12.23362882462158 
Si 14.93053434 4.0807916099999995 12.224948258055237 
Si 14.252919209999998 2.7323054099999995 16.1466086452747 
Si 13.713198929999999 0.0627564105 13.587042377095871 
Si 15.47854623 1.144001088 14.828569259321753 
Si 12.367938149999999 3.79951218 15.054504163825206 
Si 13.360145759999998 3.6021588299999996 21.31425628489247 
Si 15.869343329999998 0.970276383 20.885271605924107 
Si 13.72326615 1.508383953 20.008774556501905 
Si 13.74643053 0.971778321 17.68852430334382 
Si 15.453622529999999 2.81494458 19.017131335551444 
Si 15.12270747 0.791936721 23.166922501820782 
Si 13.28402259 2.2802416199999995 23.34056814368745 
Si 13.07114487 3.2458965299999996 25.497671780153972 
Si 12.757350599999999 2.94161562 28.967050631889073 
Si 15.85279269 1.0943719739999997 26.85228620152084 
Si 13.53726693 1.5802782389999999 27.13634316042503 
Si 13.848601409999999 2.50466895 34.07561552199205 
Si 15.834222089999999 1.6096311899999998 30.37114085163012 
Si 13.508384759999998 1.79263305 30.889950523763257 
Si 12.646790369999998 3.56811273 32.24682944075613 
Si 12.54890376 7.33921515 1.3599943140056128 
Si 12.213003959999998 4.075220429999999 4.0670341443008775 
Si 13.57786161 5.44571442 2.676204948187861 
Si 14.94332199 6.77634678 4.0740334944176135 
Si 14.93359686 4.0725814499999995 6.7884775391991115 
Si 13.574782799999998 5.429766509999999 8.144979040254313 
Si 12.21725565 6.78766833 6.788100123261444 
Si 13.57476651 8.14799736 10.86192775444033 
Si 16.28742618 5.431590989999999 10.860967059326269 
Si 12.216685499999999 4.07432448 9.500965883212698 
Si 14.931821249999999 6.787586879999999 9.502612789122518 
Si 16.21094463 8.112892409999999 13.641424582659724 
Si 15.88931487 4.39426008 16.561285829151497 
Si 13.577877899999999 5.38997004 13.70318355427798 
Si 14.46982056 7.20273753 15.012027715567761 
Si 15.272624339999998 7.5871163699999995 17.458575065685178 
Si 15.75741474 6.355348019999999 19.712914771910672 
Si 14.115822569999999 7.463573009999999 23.152958112127102 
Si 14.816683529999999 5.51962215 21.759950196737552 
Si 15.205053419999999 7.10631702 25.226584205289615 
Si 13.31313282 5.23003482 29.092387033734344 
Si 14.914993679999998 4.8107139299999995 25.82626381970288 
Si 15.44101407 4.950482129999999 28.13128019319513 
Si 12.276974789999999 7.760344229999999 31.42303338044817 
Si 13.54493952 5.62584924 31.463931543875372 
Si 15.762627539999999 5.77544031 32.27997342219126 
Si 14.51318454 9.11938635 1.5342506834805008 
Si 13.568722919999999 10.87372161 2.7323953191985377 
Si 14.93560053 12.21510537 4.07046519827967 
Si 16.307919000000002 8.11693233 2.7000679286103595 
Si 12.207188429999999 9.511682129999999 4.079866286181559 
Si 13.575434399999999 8.145032579999999 5.427652910130631 
Si 14.931902699999998 9.50306472 6.787379601925897 
Si 13.574978279999998 10.859321249999999 8.145013350794102 
Si 12.21688098 9.502168769999999 9.501343299150365 
Si 14.938663049999999 9.49232961 12.206660740348275 
Si 16.2930951 10.85769225 10.857741868586203 
Si 12.6299628 8.88828012 14.706938395773578 
Si 13.583970359999999 10.81913382 13.556814791542713 
Si 14.303255309999999 11.82554631 17.002896786761816 
Si 15.33811014 11.69553582 14.857870460300637 
Si 13.781144519999998 9.47889036 17.71048304880809 
Si 14.083405469999999 10.04737878 19.964754133954003 
Si 15.40532268 11.830759109999999 19.1373897775081 
Si 13.89838365 11.39255811 23.164109037558177 
Si 14.97326301 9.54452277 22.1006538568316 
Si 13.930703009999998 11.69652951 25.515856366241568 
Si 13.24357452 9.50563854 29.97114857878255 
Si 15.57628623 10.812487499999998 26.91610380552637 
Si 15.1653384 8.463176279999999 27.242946007546095 
Si 12.916797119999998 8.91848178 27.71183384428781 
Si 15.518798819999999 9.50089815 30.754595444299916 
Si 16.238491019999998 11.02547925 32.45471700133113 
Si 12.32864667 8.7027696 33.74321501252668 
Si 12.35330973 12.283702559999998 1.3313038406349542 
Si 12.217174199999999 14.93213076 4.07128865123458 
Si 15.104674439999998 15.11762499 1.3500099469273281 
Si 13.583400209999999 16.289429849999998 2.7138436103352093 
Si 16.2978192 13.56983064 2.701392315446173 
Si 13.57400088 13.573903139999999 5.4295399898189665 
Si 12.216555179999999 12.217581449999999 6.788134433801232 
Si 14.932847519999997 14.932733489999999 6.787791328403353 
Si 12.216457440000001 14.930909009999999 9.50240692588379 
Si 14.933042999999998 12.21561036 9.502338304804214 
Si 13.57532037 13.575792779999999 10.864432423844848 
Si 14.933352509999999 14.92730892 12.217605802540621 
Si 12.46048164 14.774639039999999 14.77470171185472 
Si 16.27221132 13.52544039 13.596820880935427 
Si 15.776962739999998 13.58796141 20.60660140176662 
Si 15.46113222 15.59505231 17.397570925942258 
Si 14.097822119999998 13.52860065 22.18076896723639 
Si 14.79387753 14.866498349999999 23.982552653659216 
Si 14.175167039999998 13.99737798 26.105654545195915 
Si 12.96149688 14.72655096 29.48064510197445 
Si 16.2857646 12.398823989999999 28.649643828311028 
Si 13.820924699999999 13.70443491 34.19330067346461 
Si 15.124043249999998 13.95521946 30.08200593283732 
Si 12.25820871 16.043173919999997 31.29865767371696 
Si 15.347216249999999 13.191902639999999 32.34825139636922 
