&CONTROL
  dt          = 30.D0,
  prefix = 'x.33_y2.00_z3.17_struc6-scf',
  pseudo_dir = './',
  outdir='./',
  wf_collect= .true.,
  verbosity= 'high',
/

&SYSTEM
ibrav= 6, celldm(1) =30.783621515, celldm(3) =2.118483252460307, nat=  432, ntyp= 1,
  ecutwfc     = 12.D0, nbnd= 1728,
  degauss     = 0.05D0,
  occupations = "smearing",
  smearing    = "methfessel-paxton",
/
&ELECTRONS
  electron_maxstep=200,
  conv_thr    = 1.D-8,
  mixing_beta = 0.3D0,
  scf_must_converge=.false.,
/
&IONS
/
ATOMIC_SPECIES
Si  28.08  Si.pbe-hgh.UPF
K_POINTS {automatic}
1 1 1 0 0 0
ATOMIC_POSITIONS (angstrom)
Si 1.0839186809999999 1.27272141 1.1809319034786145 
Si 1.3607216189999998 4.07096874 4.072535978466077 
Si 4.0675152599999995 1.363829751 4.068360257311985 
Si -0.0001005827679 2.71498914 8.145382547761798 
Si 2.71487511 0.00013610897729999998 8.145209997300885 
Si 2.71461447 2.71484253 5.432095570090936 
Si 1.356976548 1.358509437 6.788031602036625 
Si 2.7151194599999995 2.71362078 10.862879756678934 
Si 1.342421433 1.368666252 12.22319857033181 
Si 3.94385787 0.428891265 16.663750171832906 
Si 2.7078866999999995 0.0841386645 13.592628048320886 
Si 2.75972148 3.55555314 16.131501020101 
Si 0.31757355 0.513299529 16.4117919888079 
Si 3.7790682299999996 1.8573695099999998 14.776082639538048 
Si 3.5411039099999995 3.0985860599999997 20.202691104971954 
Si 1.186029288 2.70760977 19.690319766337215 
Si 2.06928612 1.76415813 17.43919194317544 
Si 3.0604023 2.30415534 23.64531437082943 
Si 0.7922625209999999 2.0429614799999998 24.202652359578067 
Si 3.56803128 1.2491856179999998 21.629062235062285 
Si 0.11968637669999999 1.95473484 26.450605254259045 
Si 0.888313248 3.9983804999999997 27.359601082348156 
Si 1.075459284 0.378359685 27.95641861655367 
Si 3.13364214 1.406406924 28.734655705362993 
Si 2.01481236 3.1636157399999996 34.42388597230632 
Si 0.1519439976 1.322562294 31.757843310833408 
Si 2.5274586599999997 1.97780148 32.45515423347459 
Si 3.1432532399999995 3.1218481799999998 30.389380115425446 
Si 3.8991418199999996 4.079244060000001 1.1823433662488823 
Si 2.70549207 5.42789316 2.7038312124128354 
Si 1.3451630399999999 6.706446389999999 1.2135439405911512 
Si 0.00393812379 8.14004784 2.6787561794329737 
Si 3.1806225 7.754479829999999 0.03426648544186158 
Si 0.000304836399 5.42883798 5.4299559443756165 
Si 2.7152009099999996 5.43051585 8.144933916563424 
Si 1.3577340329999998 6.78700044 6.787617480930433 
Si 4.07357514 6.788841209999999 9.501939761366774 
Si 4.078429559999999 4.07847843 12.248114856887632 
Si 1.358436132 4.07357514 9.503009574224432 
Si -0.000424478304 5.42909862 10.86443271082715 
Si 1.365887178 6.79402143 12.220989924432125 
Si 0.90679914 4.57898868 15.05199082653776 
Si 2.70317889 5.52483495 13.683734691682892 
Si 0.028623321900000002 8.021293739999999 21.304529328177317 
Si 3.73943466 5.13081243 21.564355812219947 
Si 0.212685498 4.311897839999999 21.17349450816007 
Si 2.87264376 6.8332640399999995 20.18950824975821 
Si 0.6155013599999999 6.238679039999999 19.78984687219177 
Si 0.665653383 4.27118913 23.52207883164544 
Si 0.29421368999999997 7.63974936 23.645935552488716 
Si 2.91794625 4.79628099 23.864522476373164 
Si 2.55265929 7.2521939699999995 24.07914073965662 
Si 2.5958929499999996 7.76743038 26.35915350997521 
Si 3.89001942 6.713434799999999 29.54567738174577 
Si 1.610611848 6.546836969999999 30.10349851178497 
Si 1.1511849779999999 4.27061898 29.72071256929581 
Si 3.02104566 4.326167879999999 26.342761216188485 
Si 0.379711755 7.75881297 27.09342474134393 
Si 3.9911477399999997 6.218202509999999 27.270012883042185 
Si 0.324770472 4.97648097 34.33906016572155 
Si 4.04218431 9.47713104 1.3567677251672883 
Si 1.357597197 9.50457969 4.070534393119488 
Si 4.0736403 12.21280848 4.069947721552384 
Si 2.70964602 10.844432190000001 2.7151850327409037 
Si 3.16601037e-05 8.14513032 8.145244507393068 
Si 2.7153801 8.14552128 5.430784186587998 
Si -0.000561312675 10.8587511 5.430301045297442 
Si 2.7151357499999995 10.860233489999999 8.144692345918147 
Si 1.35848826 9.50404212 9.50218133201205 
Si 2.7146633399999995 8.14490226 10.862293085111832 
Si -0.004071978719999999 10.862188289999999 10.86015345939651 
Si 3.58415838 8.47990611 16.438675350618126 
Si 0.0863790282 8.229838319999999 13.594767674036207 
Si 2.67594201 10.838844719999999 13.712688659024076 
Si 1.4970738059999997 9.39880872 15.247732069397347 
Si 1.0486997009999999 9.82065456 20.02527472106132 
Si 0.024078249 11.739616559999998 20.850549065515498 
Si 3.2115409199999996 9.15820542 20.570775748191338 
Si 0.48499891199999995 9.971907210000001 17.510075672518457 
Si 3.4475667299999997 9.067079159999999 22.88778333732965 
Si 2.7329733 11.12100381 23.821039760223115 
Si 1.440979191 10.85472747 25.726376459715453 
Si 0.183578526 8.283350969999999 29.382444645722174 
Si 2.6961578999999998 10.428336719999999 29.351489093034402 
Si 3.07263609 9.9344565 27.08807567705563 
Si 1.5068152259999998 10.92490479 32.61738617682489 
Si 3.00934944 8.96332815 32.514994733319185 
Si 0.627166629 10.331997659999999 30.504505782946527 
Si 2.70622512 16.291466099999997 2.6760505882058596 
Si 1.485343377 12.3175206 1.3368933630793414 
Si 1.3559551650000001 14.93338509 4.0709485142256785 
Si -0.00048236319 13.57502715 8.144899406471243 
Si 2.71340901 13.575238919999999 5.429265742531965 
Si 1.3577421779999999 12.21694614 6.787686501114798 
Si -0.005427795419999999 16.2930951 10.859428747460678 
Si 4.08621618 14.937262109999999 12.247493675228345 
Si 1.356833196 14.93302671 9.50283702376352 
Si 2.71536381 13.57395201 10.863777019075682 
Si 1.362337587 12.206781179999998 12.232826886050749 
Si 3.92559678 12.274971119999998 15.042983692478108 
Si 2.1838374000000003 13.31401248 16.370000267174795 
Si 0.0191633931 13.646198159999999 13.57903107200095 
Si 1.32375798 15.0778611 14.998603713931312 
Si 1.6157774069999997 16.16093433 21.5117624317337 
Si 1.23251769 15.17051862 19.41392843804694 
Si 3.0845603699999997 14.83227306 17.937655714660604 
Si 2.6460172799999997 14.41871883 22.685036545757 
Si 1.241861634 12.56077917 22.705293969868173 
Si 3.13911558 15.126584489999999 24.935819267996948 
Si 3.6343478699999996 12.505718969999998 29.79836027670661 
Si 0.549302058 12.932321489999998 26.333029370193 
Si 1.9590842699999997 14.6963493 26.93398811546042 
Si 4.030325189999999 14.06691999 28.01211790533635 
Si 3.19287258 13.284218069999998 34.46781731965474 
Si 0.187014087 14.113672289999998 30.93684821780987 
Si 2.41168563 13.55722218 31.744418884974387 
Si 8.14609143 -0.0248098329 2.691883818499227 
Si 5.4145679399999995 2.71435383 2.6780521735524494 
Si 6.579026009999999 1.1150195489999999 1.2956986660409975 
Si 5.43115116 -0.0017164610099999998 5.430439085666173 
Si 5.429733929999999 2.7152334899999997 8.144795876194694 
Si 6.787358819999999 1.357566246 6.787859051575712 
Si 8.14820913 2.71275741 10.858427954787382 
Si 4.07267919 1.3564422360000001 9.501215049430938 
Si 6.77743821 1.345560516 12.226546049273521 
Si 7.42757211 3.6772231499999997 14.939280865469462 
Si 5.6050632 2.8045841400000002 13.680939374216104 
Si 7.5249048599999995 0.230824413 21.010848443703576 
Si 7.447999769999999 3.66472872 19.813727855982112 
Si 5.39461269 3.1536136799999994 18.69905187848483 
Si 6.076414349999999 1.30730508 17.475393029874965 
Si 6.15869514 0.549743517 24.255073189603408 
Si 4.0972445099999995 0.95553882 25.17476714626912 
Si 8.070408089999999 2.43905283 21.742842008988248 
Si 7.01509302 2.7372087 23.84785410184898 
Si 4.25520864 2.40126003 26.958731851555328 
Si 6.54273189 2.4366093299999996 27.580534692501026 
Si 6.893748809999999 0.400527117 28.737554553106335 
Si 7.05083328 1.8887603399999997 32.47451439518902 
Si 4.73200065 0.895744746 33.02163739665161 
Si 6.7904376300000004 4.07155518 4.069395560077463 
Si 4.07192985 6.7869027 4.070361842658575 
Si 4.910555339999999 5.9585887799999995 0.11902220202941648 
Si 6.761522879999999 6.773821829999999 1.3689463366985202 
Si 8.13130011 5.43041811 2.7167517909259926 
Si 4.07176695 4.0725814499999995 6.787824541483529 
Si 5.42966877 5.43085794 5.430024964559982 
Si 6.78760317 6.787652039999999 6.787375910285155 
Si 6.78763575 4.0728583800000004 9.50297506413225 
Si 5.42517273 5.43160728 10.861671903452544 
Si 6.778057229999999 6.80495202 12.221127964800855 
Si 8.14855122 8.140145579999999 10.862327595204013 
Si 8.105708519999999 5.36227704 13.499588839796656 
Si 4.5185202 4.85342631 17.03549288482364 
Si 4.39561215 6.55788159 15.164183136223324 
Si 7.674202709999999 5.82859458 20.758786730402022 
Si 8.10399807 7.72704747 19.384284268862107 
Si 4.23826704 6.78675609 18.308328614793677 
Si 5.79573765 6.17231358 22.16476239601245 
Si 6.42482487 5.09261238 24.16503635909906 
Si 5.9711646599999995 6.43723785 26.099637616762223 
Si 6.81666453 4.274153909999999 29.046764979062235 
Si 7.642697849999999 5.960348099999999 27.683305747020743 
Si 4.9474684799999995 4.800272039999999 30.42854907005267 
Si 5.800429169999999 5.75126595 32.47234025938152 
Si 7.65864576 4.25268369 32.41122288612617 
Si 6.62149404 8.11906632 32.742036629788366 
Si 8.12393703 10.85650308 2.712151595638055 
Si 5.43805812 8.160964199999999 2.7216798320896647 
Si 6.786414 9.504921779999998 4.075469336301597 
Si 4.85414307 11.371804649999998 0.20773557049856167 
Si 6.856102619999999 12.194140139999998 1.2188792008425777 
Si 4.07269548 9.502478279999998 6.787341400192973 
Si 5.4296199 8.14493484 8.144692345918147 
Si 5.431346639999999 10.85886513 5.430266535205259 
Si 6.7862511 9.503162459999999 9.503320165054076 
Si 4.07228823 9.5030973 12.24380109536481 
Si 5.429294099999999 10.86139008 10.860705620871434 
Si 6.77649339 12.20827986 12.231998643838368 
Si 8.06447853 10.755716849999999 13.610607806348009 
Si 4.95605331 10.566264149999999 16.34356553656294 
Si 5.52387384 8.169272099999999 13.706338802062483 
Si 6.773056199999999 9.526212809999999 15.218156920396877 
Si 6.55389054 10.22687829 21.525739019067643 
Si 5.21073117 10.014831359999999 19.596659376153696 
Si 5.83421463 11.96783946 18.385355140545194 
Si 6.09420303 8.3261448 18.231992290885817 
Si 5.700310829999999 8.491276529999999 22.904624262314748 
Si 4.81307598 11.9472489 24.577190390035593 
Si 6.28938981 8.58188151 25.175146757283127 
Si 6.292615229999999 10.19850111 29.996241145281516 
Si 5.27892111 10.430926829999999 26.310045648799402 
Si 6.708368609999999 11.37442734 27.988961633481843 
Si 4.27588065 8.946272519999999 30.22908073723737 
Si 7.90889274 8.844101639999998 30.971703410914277 
Si 5.23736532 11.7509544 31.373297353642943 
Si 5.06408859 9.980410589999998 32.87562519662713 
Si 4.27451229 15.076883699999998 1.2785229931617281 
Si 5.4554395499999995 13.581103319999999 2.698009359861634 
Si 6.7926041999999995 14.92726005 4.074779134457945 
Si 4.0728909600000005 14.93229366 6.787997091944442 
Si 5.42957103 13.574815379999999 8.144933916563424 
Si 6.78822219 12.21748371 6.788066112128807 
Si 8.14521177 13.57442442 10.864260160366237 
Si 4.07272806 12.21601761 9.501974271458955 
Si 6.78709818 14.93322219 9.502871533855703 
Si 5.4275999399999995 16.2913032 10.859394237368493 
Si 5.513855489999999 13.59273438 13.73684572355188 
Si 7.49289501 14.39566848 14.995946436833254 
Si 8.115124139999999 16.25230494 13.624756944142867 
Si 6.75427383 15.84059148 18.845340159246778 
Si 5.075084339999999 14.141316419999999 19.205729051909447 
Si 5.502077819999999 16.1912826 22.1105815512858 
Si 6.12236844 12.330210509999999 22.644832288364295 
Si 8.02352547 13.45518162 23.51855880224282 
Si 4.76508564 14.024370509999999 21.605940473299956 
Si 7.112865599999999 14.880279689999998 25.26739223368716 
Si 4.98615723 13.92723324 25.799882956064348 
Si 4.668974639999999 15.99642162 29.244438787084043 
Si 6.82775802 13.482581399999999 29.18321788355215 
Si 6.28539876 13.774351589999998 31.496153281812916 
Si 4.43408913 15.27873309 31.486041824803422 
Si 8.446169519999998 2.33414523 0.11164739532999948 
Si 9.503227619999999 1.3585517909999998 4.067773585744882 
Si 10.3661415 0.657599607 0.048926683191850534 
Si 10.85322879 2.74507677 2.7035965437859937 
Si 8.14539096 -3.10559076e-05 8.1445888156416 
Si 8.1445113 2.71415835 5.430473595758355 
Si 10.86109686 -0.0016104733829999998 5.431025757233276 
Si 10.859679629999999 2.71484253 8.144692345918147 
Si 9.50164749 1.356645861 9.501525640260581 
Si 8.62726545 1.1870213490000001 17.084393685446354 
Si 8.9386488 1.8153413099999998 14.843894970676814 
Si 10.81333458 2.6725862699999996 13.670137715362959 
Si 11.299183829999999 2.59703325 19.908630609484202 
Si 9.396495539999998 2.99806047 18.542203509515012 
Si 11.868291269999999 1.9841708699999998 22.92950603877839 
Si 10.26028908 3.34285461 21.870080718865413 
Si 8.201949840000001 2.56867236 25.85534067420175 
Si 9.910656809999999 2.41789212 29.96255929531132 
Si 9.753262829999999 0.783654885 26.357876636564455 
Si 11.228615549999999 4.04731566 26.605210467236994 
Si 10.969001819999999 2.09614833 27.896094975418524 
Si 8.33156937 0.7854712199999999 30.63064016987385 
Si 11.85289722 2.9333077199999997 31.383132729914976 
Si 11.94063516 1.0547188559999998 32.779549099990824 
Si 9.49803111 4.21410897 1.2454968349430007 
Si 9.503227619999999 6.78781494 4.070810473856948 
Si 9.502413119999998 4.07264661 6.787513950653886 
Si 8.145439829999999 5.429701349999999 8.145037446839973 
Si 10.86132492 5.42940813 5.429714373730339 
Si 9.51252921 4.064729669999999 12.209014922444771 
Si 10.857594509999998 5.433382889999999 10.859428747460678 
Si 9.50304843 6.78597417 9.501353089799668 
Si 10.05197256 5.94773964 14.763969597181962 
Si 10.931209019999999 8.11852875 13.843999559778789 
Si 11.937654089999999 4.4051580900000005 15.014305805874386 
Si 9.22460346 4.93217217 16.81000394250267 
Si 10.97946 7.33309011 21.44871249331613 
Si 11.748315419999999 6.65863524 19.3440800114694 
Si 9.81441549 7.1009739 17.8645633394179 
Si 9.55693575 5.61021084 22.17452875210012 
Si 8.642789819999999 5.983300709999999 24.29462175524464 
Si 9.08125146 4.72890555 26.193608597775384 
Si 10.40064372 6.19309962 29.874075418955186 
Si 8.66087172 7.6021357499999995 29.098219526506462 
Si 11.56093155 8.052668279999999 26.982647345437858 
Si 11.765664269999998 5.89398264 27.899615004821147 
Si 8.82077436 4.411560059999999 30.304347248287574 
Si 11.26741833 7.0604118 31.944577419633344 
Si 8.23684302 7.89437835 34.41674238322453 
Si 10.959374429999999 5.64935571 34.23632362129401 
Si 9.437839559999999 9.50067009 1.3233377988700246 
Si 10.856828879999998 8.154741419999999 2.7000143962174423 
Si 10.569847949999998 11.21423148 0.1222947940710904 
Si 8.14392486 8.146238039999998 5.430128494836529 
Si 9.50239683 9.502478279999998 6.787582970838251 
Si 10.860363809999999 8.14429953 8.145382547761798 
Si 8.14501629 10.86020091 8.144795876194694 
Si 10.86251409 10.85979366 5.4295763333616085 
Si 12.217092749999999 9.501777809999998 9.501491130168398 
Si 9.51814926 9.488713229999998 12.248425447717274 
Si 10.865071619999998 10.860217200000001 10.863984079628777 
Si 10.58522571 9.072731789999999 16.579718097368325 
Si 9.69528672 11.359261349999999 16.745124969199424 
Si 10.443437549999999 9.67777497 21.564424832404317 
Si 11.995092629999998 11.48143635 21.196788820383308 
Si 8.51128065 9.92901564 20.257389601081343 
Si 8.29744182 11.783599559999999 18.68835374990823 
Si 9.26935209 11.860162560000001 24.824110099601942 
Si 12.071085479999999 8.68944438 24.743287463710345 
Si 10.075185809999999 9.792945269999999 23.903035739248924 
Si 8.59861134 8.263868129999999 24.98095846857176 
Si 10.368780479999998 12.0868542 28.530321449549948 
Si 11.408033609999999 10.670357249999999 30.134039943366552 
Si 9.34871697 8.77288176 27.15347230174162 
Si 8.856644939999999 11.07799821 27.067335111653904 
Si 12.048719310000001 10.13925438 33.126651607163204 
Si 10.259344259999999 9.17281755 31.5791845636042 
Si 9.4996764 12.21937335 4.069188499524367 
Si 9.659530169999998 14.921591129999998 1.1973000402008118 
Si 10.88121501 13.59087732 2.716316963764492 
Si 8.14200264 13.577421779999998 5.430577126034903 
Si 9.502250219999999 14.9320656 6.787928071760077 
Si 10.860282360000001 13.574978279999998 8.144830386286877 
Si 9.50213619 12.21741855 9.502526432933877 
Si 9.51878457 14.94105768 12.237037117297024 
Si 10.85995656 16.2906516 10.860464050226154 
Si 11.961698129999998 12.221507339999999 17.219914817447336 
Si 8.9884962 12.50296596 14.81507904370436 
Si 10.813578929999998 13.48499232 13.690291609197583 
Si 8.588250899999998 15.108714359999999 17.555042322632353 
Si 11.762080469999999 13.08878694 19.432287807088073 
Si 9.48496653 13.794241679999999 19.565496762912826 
Si 11.113999109999998 16.00751511 22.60473156124814 
Si 12.20524992 12.78988173 23.165900170229047 
Si 9.08615475 14.85674064 21.758337040378226 
Si 11.156304239999999 15.721788509999998 24.94831192136704 
Si 11.02065741 13.35659454 25.120241200620644 
Si 9.110508300000001 13.96698084 28.974880457045924 
Si 12.061555829999998 12.791852819999999 27.12886660601544 
Si 8.31058785 15.437544299999999 27.274464684933736 
Si 8.844297119999998 13.01613354 34.49525284293989 
Si 9.71359668 15.13095021 30.911897421161864 
Si 12.08268396 15.430930559999998 31.446665809623102 
Si 8.34989562 14.06072979 32.48780078067931 
Si 16.27858071 2.7125619299999997 2.7076238715437007 
Si 13.5721764 -0.0270027927 2.722380386960971 
Si 13.76920395 2.1654134099999998 -0.012517880247478847 
Si 12.205331369999998 1.3407842879999998 1.4506006658117188 
Si 14.93579601 1.3618358549999998 4.072156367452069 
Si 12.21593616 4.07121309 4.07270852892699 
Si 14.927569559999998 4.01405148 1.2500142060097004 
Si 13.57533666 -0.000212382504 8.145244507393068 
Si 13.57483167 2.7147122099999996 5.430301045297442 
Si 12.217304519999999 1.358040285 6.78744493046952 
Si 14.933010419999999 1.356763149 9.501663680629314 
Si 13.57553214 2.71801908 10.864260160366237 
Si 12.21531714 1.340352603 12.247666225689258 
Si 16.26297489 2.7198272699999997 13.722800116033572 
Si 14.83880535 1.329889536 15.132364831230987 
Si 13.506267059999999 4.0527891 17.19655148503973 
Si 13.94999037 0.5837602949999999 19.569983074896562 
Si 16.28392383 0.7799700869999999 18.84596134090607 
Si 14.09539491 1.7474283 17.383699714945852 
Si 12.650879159999999 3.25874934 24.847024800811173 
Si 15.916128209999998 0.722435436 22.65960260781844 
Si 13.936860629999998 1.78056216 21.648732987606355 
Si 13.20416901 1.73729592 28.419613073828238 
Si 13.68110763 3.4746732899999997 29.911346318512372 
Si 14.06452536 1.8216292499999998 26.233812855168086 
Si 15.533818199999999 0.4210965 34.053178562081065 
Si 12.67445079 4.058262539999999 33.39493306379057 
Si 15.686536949999999 3.4589534399999997 31.07254190027177 
Si 13.5733167 5.43981744 2.679660343848157 
Si 12.2678361 6.97448205 1.2042986868954384 
Si 14.93221221 6.7851108 4.068118686666708 
Si 12.21712533 6.78760317 6.787479440561703 
Si 14.932863809999999 4.072060169999999 6.787651991022616 
Si 13.57509231 5.43004344 8.14514097711652 
Si 12.21608277 4.073021279999999 9.501629170537129 
Si 14.933075579999999 6.78892266 9.502560943026058 
Si 14.93408556 4.062106979999999 12.233965719092774 
Si 12.199141169999999 6.8068579499999995 12.210671406869535 
Si 15.268421519999999 5.66295786 16.474393296027095 
Si 13.51436319 5.45455989 13.531614205342088 
Si 14.61398706 7.12571841 14.770043373406097 
Si 15.555809699999998 7.48761705 18.019375612948945 
Si 14.18798727 4.09551777 21.32489028256504 
Si 12.67168149 4.4666691300000005 19.530779610177152 
Si 12.71561562 7.25564745 22.959909429991235 
Si 13.500272339999999 5.04009342 23.4217234835785 
Si 15.44192631 5.73710994 24.492640664188276 
Si 15.61082103 5.66233884 26.862621244826844 
Si 14.24741319 7.66701882 29.573596046321477 
Si 13.93513389 5.53280076 28.608176217513847 
Si 13.71614742 7.205067 31.984505596288585 
Si 14.868762659999998 5.0682588299999995 32.60530764456099 
Si 13.59190359 10.83731346 2.705570521058837 
Si 12.23331759 12.198163769999999 1.4149034264580598 
Si 14.93156061 12.21666921 4.069257519708732 
Si 12.21808644 9.502152480000001 4.074088932614293 
Si 15.02503263 9.552553739999999 1.1718315921700688 
Si 13.57344702 8.14493484 5.430128494836529 
Si 14.93242398 9.50246199 6.787582970838251 
Si 13.57520634 10.86024978 8.145244507393068 
Si 13.571769149999998 8.14410405 10.86267269612584 
Si 14.939102879999998 9.52277562 12.237209667757938 
Si 12.220187849999999 12.196730249999998 12.255845117536529 
Si 12.92184702 8.92274976 15.180886020839692 
Si 13.745664899999998 10.82867976 13.885584220858796 
Si 12.64436316 9.825248339999998 17.35685086322781 
Si 14.067506429999998 8.52128271 21.38762963015297 
Si 13.45337343 8.302214789999999 19.07517737318275 
Si 14.254792559999999 10.842233039999998 21.652770668391717 
Si 14.17559058 11.74582305 23.806062380215877 
Si 13.908401999999999 10.01979981 25.254485459210876 
Si 16.07616117 9.199761209999998 25.333133959294972 
Si 15.493875119999998 12.14574255 30.029750444790796 
Si 13.5697329 10.98837063 27.292375422776495 
Si 12.71618577 9.28376874 28.667982207266256 
Si 13.35827241 11.657091419999999 31.116818348542015 
Si 16.15702473 11.282405129999999 34.405216012435545 
Si 13.468262489999999 8.43742179 34.10663469487188 
Si 12.216620339999999 14.932407689999998 4.076746209712352 
Si 14.82720687 14.82554529 1.3418938754365968 
Si 16.3058013 13.58498034 2.705498049865254 
Si 16.290325799999998 16.2896742 5.430715166403633 
Si 13.574799089999999 13.57659099 5.4311983076941885 
Si 12.21776064 12.21763032 6.787651991022616 
Si 14.932375109999999 14.93270091 6.787582970838251 
Si 12.216652919999998 14.933075579999999 9.502146821919867 
Si 14.933287349999999 12.2170113 9.502422902657328 
Si 13.575662459999998 13.576688729999999 10.863466428246038 
Si 14.919734069999999 14.94749223 12.230376669505786 
Si 12.692320919999998 13.964211539999999 15.293250880986168 
Si 14.749764209999999 12.65829111 15.153519517738907 
Si 13.44664566 16.13838897 13.788058700350827 
Si 16.2546507 12.36844314 17.12011163085532 
Si 15.869652839999999 13.44742758 19.299941603567884 
Si 13.69324368 14.48679474 19.890547321180534 
Si 14.76901899 15.27081615 23.72993311686111 
Si 15.886073159999999 13.26403476 24.222150561661227 
Si 13.080462749999999 14.71529457 22.18391549717378 
Si 13.46836023 15.89617296 25.6403082898121 
Si 15.987967109999998 16.15233321 29.866586728951567 
Si 13.59336969 15.971872589999998 29.533046688006944 
Si 13.587749639999998 14.524734149999999 27.636510062021166 
Si 15.102459 12.67963101 27.82124258547451 
Si 14.10515262 12.97737963 34.508953349536384 
Si 12.985931879999999 13.504540319999998 32.501639327644526 
Si 15.17406984 14.597468999999998 32.87621186819423 
