&CONTROL
  dt          = 30.D0,
  prefix = 'x.33_y2.00_z3.16_struc1-scf',
  pseudo_dir = './',
  outdir='./',
  wf_collect= .true.,
  verbosity= 'high',
/

&SYSTEM
ibrav= 6, celldm(1) =30.783621515, celldm(3) =2.107444715732142, nat=  432, ntyp= 1,
  ecutwfc     = 12.D0, nbnd= 1728,
  degauss     = 0.05D0,
  occupations = "smearing",
  smearing    = "methfessel-paxton",
/
&ELECTRONS
  electron_maxstep=200,
  conv_thr    = 1.D-8,
  mixing_beta = 0.3D0,
  scf_must_converge=.false.,
/
&IONS
/
ATOMIC_SPECIES
Si  28.08  Si.pbe-hgh.UPF
K_POINTS {automatic}
1 1 1 0 0 0
ATOMIC_POSITIONS (angstrom)
Si 3.4775566199999997 3.4635797999999998 1.5693569996656003 
Si 1.7247037499999998 1.6209120149999998 1.3719201584528988 
Si 1.3478297129999999 4.0827627 4.073905004786714 
Si -0.001025875782 0.001035920196 5.429916514073721 
Si -0.00019598824799999998 2.7152009099999996 8.14578452338269 
Si 2.71497285 0.00019888298099999998 8.145269569266402 
Si 2.71658556 2.71604799 5.427753706785306 
Si 1.3569113879999999 1.357354476 6.787369894886337 
Si 2.71215468 2.7160317 10.860279321714891 
Si 1.362541212 1.37714031 12.234863509462727 
Si 4.07276064 1.3581820079999998 9.501349739102247 
Si 1.530378711 1.1074968269999999 16.712938834987582 
Si 3.06743958 2.9069016299999997 16.64194382748852 
Si 0.0249391755 2.71816569 13.796547692795619 
Si 2.89005777 0.15614127899999997 13.587888284875255 
Si 2.0542993199999997 1.8830262599999998 20.371584840398732 
Si 3.72223242 3.3033513599999997 19.354859433197433 
Si 0.44591268599999995 1.6740581399999999 18.644463064639343 
Si 1.4766884999999998 1.535677848 24.40491146082186 
Si 1.3184181179999999 2.80178226 22.44547671806723 
Si 2.34020511 3.13949025 25.97033764406645 
Si 0.934145163 3.7230143399999998 29.64494722708256 
Si 3.00503259 2.61003267 29.906784230078383 
Si 0.1508960619 0.0367533351 29.5481358532202 
Si 0.46059812099999997 3.27627738 27.391027390359376 
Si 3.75016977 0.7209905129999999 28.69780928612914 
Si 1.575993969 0.802938987 33.20279954679871 
Si 3.4202646899999998 3.94289676 33.604051794211216 
Si 3.4288821 2.07019836 32.2221895882865 
Si 2.71595025 5.42362518 2.71118192685074 
Si 1.5738045929999998 6.91422534 1.2805535661134362 
Si 0.000543699927 5.43098826 5.43372717453426 
Si 2.7146470499999995 5.430238919999999 8.145509881187337 
Si 1.35669636 6.78678867 6.787816188453787 
Si 4.074063839999999 4.09418199 12.255461674114292 
Si 1.359242487 4.073249339999999 9.501590051023182 
Si 0.0027673777799999996 5.4283329899999995 10.861686862966081 
Si 1.3556261069999997 6.785762399999999 12.239532426783747 
Si 3.62266794 7.47119673 15.190940448883376 
Si 0.254378124 5.14935045 17.097884202050935 
Si 1.4390064719999998 4.13269155 15.263651970103403 
Si 2.7305298 5.60595915 13.826655343461324 
Si 3.3228342 5.1597434699999996 20.925057524586308 
Si 1.133423991 6.05298933 20.664456411469576 
Si 1.523846421 6.89640408 18.498250425887644 
Si 3.62004525 7.823761199999999 17.69176361923 
Si 0.74158596 7.38873675 22.768799242547978 
Si 3.09988926 4.26801258 23.065584464902624 
Si 1.453770099 7.40962053 25.162374635608778 
Si 3.0020841 5.506248059999999 25.31267257701637 
Si 1.7538628499999998 5.89438989 29.53440374345249 
Si 3.51909612 5.935473269999999 27.945770294700463 
Si 1.4571991439999998 5.377068359999999 33.68174120522204 
Si 1.96076214 6.716643929999999 31.74925572788654 
Si 0.01125235008 8.13314088 2.6953350721788016 
Si 1.355811813 9.50158233 4.068755463623823 
Si 2.70738171 10.87763121 2.6920702630815283 
Si 0.000418390731 8.14477194 8.145166578443146 
Si 2.7146796299999996 8.14594482 5.4279253581574025 
Si 0.001135325034 10.86121089 5.430328477366752 
Si 2.7152660699999998 10.85982624 8.144994927071048 
Si 1.358419842 9.503911800000001 9.501864693218538 
Si 2.7171882899999997 8.144120339999999 10.86079427583118 
Si -0.0017488455299999998 10.857154679999999 10.859524055677669 
Si 1.372694769 12.207595679999999 12.248835931151373 
Si 0.0918798354 8.27344665 13.631934026955188 
Si 1.82923668 9.15421437 15.102334010607223 
Si 2.84294709 10.87849458 13.778798940920852 
Si 0.334243107 10.266072029999998 19.49554489776763 
Si 1.521443646 10.47523563 21.451443622257077 
Si 2.31208857 9.995902379999999 17.78318514000853 
Si 2.89370673 8.71917363 22.37509965550771 
Si 0.1242270513 11.57468031 23.106162849266205 
Si 3.88088073 10.171541159999999 24.10640972474625 
Si 0.6504597 11.26197747 25.408900336213602 
Si 2.2644729 9.581843159999998 25.744410108113193 
Si 0.932610645 9.22292559 29.31458699634586 
Si 3.84074217 11.66745186 28.8106528981453 
Si 2.9963337299999995 9.609617609999999 28.00148833008295 
Si 3.8241426599999997 10.92068568 31.137112604716418 
Si 2.92283325 8.433593639999998 34.25948539342404 
Si 0.26727003 11.40863634 33.56869161155936 
Si 0.489714867 8.70332346 31.641149693740235 
Si 2.0271927599999997 10.080023939999998 32.764401942464545 
Si 2.7369643499999996 16.274394179999998 2.705380110473882 
Si 0.005000981129999999 13.566605219999998 2.6780566450635797 
Si 1.501535637 12.320012969999999 1.1023897409597165 
Si 1.355041296 14.93063208 4.0679658673121795 
Si -0.000499860279 13.57514118 8.14492626652221 
Si 2.71682991 13.576493249999999 5.429676202152786 
Si 1.357100352 12.21740226 6.787266904063078 
Si 4.07807118 14.928400349999999 12.230640885709157 
Si 1.357354476 14.932668329999998 9.503203573920887 
Si 2.71497285 13.573968299999999 10.862888422570757 
Si 0.0863457966 13.59949473 13.678142576323534 
Si 1.32181947 15.26566851 14.866244713425857 
Si 2.1198828599999997 15.08152635 17.21330258464854 
Si 2.84918616 12.32353161 20.9633357805638 
Si 2.92280067 16.16697792 21.342136028506097 
Si 1.5351337619999998 14.30889165 21.043702952979327 
Si 0.577542402 14.316271019999999 18.891229077165104 
Si 3.9276493199999996 12.29826582 23.00536916357121 
Si 3.08887722 16.21656468 23.689365551100877 
Si 3.41075133 14.000717429999998 24.552154007806138 
Si -0.0037514240999999998 14.58073917 25.282015641959955 
Si 0.35077745699999996 12.621817799999999 29.754975756596345 
Si 2.3439843899999997 15.32162466 29.59049941185359 
Si 1.75967838 13.280275889999999 26.072126907719607 
Si 2.1793576499999996 13.2577794 28.436349916151926 
Si 3.07714842 13.741429499999999 34.04828554519665 
Si 2.0695630499999997 14.894484569999998 32.21206215733281 
Si 0.254648538 13.35481893 32.14724659922921 
Si 6.7810383 4.07870649 4.066283683865635 
Si 4.08186675 1.3504540319999998 4.078264949637963 
Si 5.42369034 2.69886204 2.7012398793789174 
Si 6.84439011 1.4408390969999998 1.242831460581535 
Si 5.42997828 0.000983453364 5.4325256149295855 
Si 5.42984796 2.7148914 8.14496059679663 
Si 6.786299969999999 1.3572681389999999 6.788056500374721 
Si 5.4301086000000005 -0.001232853264 10.861549541868404 
Si 6.7991039099999995 1.3573740239999998 12.241077289132615 
Si 5.67553374 0.1587633174 16.466962418773466 
Si 4.29774183 1.5099624539999998 15.05976447032732 
Si 5.62058757 2.88666945 13.669560007718713 
Si 7.1481008699999995 1.332210861 18.02957351951568 
Si 5.64080346 1.89053595 19.817837514015796 
Si 5.20672383 3.13048188 23.393747558076488 
Si 4.985554499999999 1.0216925099999998 24.484317385553645 
Si 6.73164702 3.06313902 21.50008962110919 
Si 5.944840019999999 0.469888308 29.487062295028306 
Si 5.82680268 3.1897937699999996 27.20760073413718 
Si 7.40546658 1.71344736 28.000389761301534 
Si 4.12588233 1.7357809499999999 26.578120822385326 
Si 5.60591028 1.063991124 31.908994494759433 
Si 7.880092019999999 3.0583660499999996 34.21162899088357 
Si 7.522673129999999 2.61006525 31.828798973716005 
Si 4.079537279999999 6.77864367 4.069751041581982 
Si 7.1442238499999995 7.037491769999999 1.193948582835927 
Si 4.0725 4.07240226 6.787129582965401 
Si 5.430206339999999 5.4317376 5.431427046148168 
Si 6.78801042 6.78713076 6.787095252690982 
Si 6.78916701 4.07362401 9.502551298706921 
Si 4.0744548 6.78900411 9.501109427181312 
Si 5.42468403 5.43038553 10.862854092296336 
Si 6.77690064 6.8075909999999995 12.24512826151409 
Si 7.74126864 6.026990489999999 16.672532101996097 
Si 7.0469399699999995 4.28075136 15.157090798305969 
Si 4.47808842 7.21050786 21.29424529569121 
Si 8.03062791 4.854224519999999 20.45126540732587 
Si 5.46293295 7.9790049 19.325198076099177 
Si 7.50255498 6.75552816 19.03170856008878 
Si 6.24866481 7.01727588 22.84216303898197 
Si 5.26610088 6.35637429 24.896692641877998 
Si 6.2587809 4.27527792 25.16700922265538 
Si 7.54640766 6.11941995 29.916156394994847 
Si 4.62541518 4.11832377 28.993564600251204 
Si 6.23918403 8.01437049 26.253150444732455 
Si 4.75180929 7.959456899999999 28.1119974834386 
Si 7.13782188 5.30983953 33.915290062096375 
Si 6.154313129999999 4.45696029 30.737611201299295 
Si 4.1252796 7.37396172 32.52608117744593 
Si 5.15391165 5.26914711 32.679915137118705 
Si 4.22277525 9.696687659999998 1.3416442894425387 
Si 5.446431179999999 8.14902363 2.6815446009445787 
Si 6.7894276499999995 9.497216609999999 4.071604876400623 
Si 4.07300499 9.50285295 6.787816188453787 
Si 5.42971764 8.14545612 8.145029257345467 
Si 5.432568389999999 10.861487819999999 5.430431468190009 
Si 6.78892266 9.50417244 9.502413977609244 
Si 4.0760838 9.51068844 12.237987564434881 
Si 5.42686689 10.859875109999999 10.85852847771951 
Si 8.11450512 10.83524463 13.631110100369126 
Si 5.45604228 8.32342437 13.797852243223552 
Si 6.53202936 10.00388448 15.136012009812534 
Si 4.77318177 11.81731986 15.020147333647476 
Si 7.8127002899999995 10.13194017 17.464909165867418 
Si 4.25095695 11.53108827 19.142698337286305 
Si 7.243641719999999 10.71161982 21.436509952884688 
Si 6.21787671 10.19263671 19.38918970761671 
Si 7.2224973 9.147372569999998 23.224773947384804 
Si 6.10819614 10.118859299999999 25.066593169978997 
Si 6.55921737 8.276362559999999 29.57807185251381 
Si 8.0466084 10.03504725 28.834100475573667 
Si 7.30891575 11.42347653 27.116110552809808 
Si 5.646814469999999 11.06705133 34.22240869705122 
Si 5.32749789 9.101337029999998 31.397713717833145 
Si 7.108288109999999 10.0491381 32.52213319588771 
Si 4.068671849999999 12.21846111 4.0713988947541075 
Si 4.2474546 15.042756149999999 1.2346093598581183 
Si 5.4265248 13.59097506 2.709235400291167 
Si 6.883339499999999 12.30958737 1.430947632289403 
Si 6.78514338 14.931218519999998 4.071089922284334 
Si 4.073493689999999 14.932733489999999 6.78812516092356 
Si 5.43012489 13.575043439999998 8.14489193624779 
Si 6.787342529999999 12.21769548 6.787816188453787 
Si 4.074194159999999 12.21741855 9.501761702395278 
Si 6.788710889999999 14.932472849999998 9.501555720748762 
Si 6.79565043 12.223168919999999 12.221818005183403 
Si 5.51778138 13.61612682 13.642645072574002 
Si 6.90032997 14.93586117 15.115104872691193 
Si 7.60293396 13.3568226 16.957233067755155 
Si 6.75707571 14.66220546 21.240587076773878 
Si 4.98877992 15.950223179999998 20.28435161309935 
Si 4.44933657 15.03327537 17.90467998117835 
Si 5.19981687 12.819725009999999 17.283336344463866 
Si 6.772046219999999 15.828927839999999 24.847840661379365 
Si 6.13917972 12.60331236 22.259818594007783 
Si 8.07206967 15.788740409999999 22.84254067200058 
Si 6.89251077 12.39919866 24.442091148017933 
Si 5.52586122 13.90996584 25.574440919463353 
Si 5.59730916 12.904090919999998 27.737419859249876 
Si 6.58464606 14.519700539999999 29.127624321858484 
Si 6.60284199 13.40267895 31.249475592890708 
Si 4.65581232 12.59985888 32.613692037763926 
Si 7.730175149999999 14.62811049 32.94429258042156 
Si 5.961455819999999 16.069905809999998 33.96132696009263 
Si 12.0063816 1.212541263 1.270405536995098 
Si 9.50239683 1.3592050199999999 4.076170802898387 
Si 10.84208643 2.7093853799999996 2.6973948886439585 
Si 8.14490226 -6.54654375e-05 8.144994927071048 
Si 8.14671045 2.71187775 5.427788037059726 
Si 10.85971221 -1.232480223e-05 5.430019504896979 
Si 10.860363809999999 2.71454931 8.14489193624779 
Si 9.50332536 1.357848063 9.502413977609244 
Si 8.142295859999999 2.7133275599999997 10.86134356022189 
Si 10.57144437 0.323232696 16.55697639830081 
Si 8.230408469999999 0.04725728999999999 13.690192502644699 
Si 9.28099944 1.7896031099999998 15.268217896601168 
Si 10.81131462 2.77123851 13.72435112569188 
Si 8.26960221 3.21686775 17.005810406058433 
Si 10.14712245 1.66920372 20.260869705396562 
Si 9.729593459999998 3.7677303899999997 19.120177677267257 
Si 9.16226163 0.0952947081 18.781921483414127 
Si 11.75667219 3.8480238 23.548474104884164 
Si 9.755429399999999 2.6173143 23.826823969875658 
Si 8.59028715 1.67531247 22.052120433771158 
Si 10.29026268 0.9805325669999999 25.4934901323827 
Si 8.29594314 0.182151522 26.482648329225317 
Si 11.281997879999999 2.37490281 27.129671011205424 
Si 9.4047057 2.79397935 28.570443968033626 
Si 11.57845959 2.87684658 31.840677248665074 
Si 9.582608789999998 1.8327064499999999 30.65532153351629 
Si 12.217581449999999 4.07320047 4.066970289354021 
Si 9.515249639999999 4.13862111 1.2692348746374007 
Si 8.157527009999999 5.44978692 2.705630721477143 
Si 9.49993704 6.782830199999999 4.0719138488703965 
Si 11.33720469 5.15369988 0.08848696892117379 
Si 9.50159862 4.07360772 6.787404225160755 
Si 8.14501629 5.42986425 8.144823275698952 
Si 10.860217200000001 5.430401819999999 5.430637449836525 
Si 10.86031494 5.42890314 10.857670220859028 
Si 9.503227619999999 6.7862511 9.503306564744147 
Si 9.510346349999999 4.08400074 12.227379509639325 
Si 9.2072709 7.30738449 15.096463533681527 
Si 10.686337739999999 7.630121969999999 16.987340718420864 
Si 8.32083426 5.6449411199999995 13.586549404172905 
Si 11.890575989999999 4.77477819 18.708557686980136 
Si 12.077047619999998 5.95668285 22.470606478942138 
Si 8.377523459999999 5.91211341 22.5132790100453 
Si 8.46622251 4.47888663 24.468628450144035 
Si 10.21992246 7.43886108 22.383167269996243 
Si 11.582124839999999 4.3503911099999995 25.858798582478222 
Si 10.60925346 7.96815576 29.944581862214005 
Si 10.97612055 5.68942911 29.688031721478755 
Si 8.711468459999999 7.7785727399999995 26.169281584326157 
Si 9.55405242 5.578608239999999 26.216554372201504 
Si 9.08608959 5.069838959999999 28.45907655781749 
Si 10.74017619 5.10390135 32.04816942725518 
Si 8.54581545 5.91323742 32.001480254044964 
Si 9.683948879999999 9.79359687 1.2606557390600235 
Si 10.85539536 8.17202511 2.697995668446296 
Si 8.15055489 10.85423877 2.7192632734490374 
Si 9.50187555 12.21676695 4.074694601098358 
Si 12.21419313 9.501354269999998 4.070609298442464 
Si 8.14594482 8.14752495 5.430637449836525 
Si 9.502673759999999 9.50236425 6.787850518728207 
Si 10.86008688 8.14454388 8.144651624326857 
Si 8.14447872 10.860298649999999 8.144685954601275 
Si 10.860168329999999 10.86174846 5.430706110385364 
Si 8.14185603 8.14605885 10.861652532691663 
Si 9.49998591 9.51067215 12.223362867532268 
Si 10.85860449 10.8616833 10.861549541868404 
Si 10.368813059999999 11.44638027 17.008900130756167 
Si 10.88812197 8.22511422 13.609001403643111 
Si 11.888816669999999 9.64268631 17.058129744273412 
Si 9.578943540000001 11.078682389999999 21.440045971149875 
Si 10.528520219999999 9.10488825 20.58978806460765 
Si 9.22025403 8.46009747 18.694688256114745 
Si 10.250254439999999 10.926468629999999 23.69163134921255 
Si 9.39121758 8.79444972 24.132672384676997 
Si 12.204109619999999 9.00061596 27.171382294624845 
Si 9.875991690000001 8.83509327 27.889846277671463 
Si 8.37714879 8.563913639999999 34.05219919648045 
Si 10.360602899999998 11.6866089 34.28571372308037 
Si 9.075387059999999 8.22534228 31.830584147985803 
Si 8.18007237 11.49801957 30.76919505376503 
Si 10.33916526 12.22035075 31.68797618804813 
Si 8.14356648 16.310199599999997 2.703584637121754 
Si 12.2175 14.92950807 4.072154160791332 
Si 8.59805748 13.28910507 0.2876883862390262 
Si 9.595380149999999 15.002470979999998 1.4105657483666787 
Si 10.885515569999999 13.563233189999998 2.7095169085414046 
Si 8.14718286 13.576102289999998 5.430465798464429 
Si 9.502543439999998 14.932472849999998 6.787987839825884 
Si 10.86020091 13.575010859999999 8.14444564268034 
Si 12.2046309 12.22228926 12.230125931592866 
Si 9.503439389999999 12.21932448 9.501452729925505 
Si 8.14263795 13.575857939999999 10.85990168869628 
Si 9.501614909999999 14.935062959999998 12.224015142746236 
Si 10.86240006 16.28863164 10.862510789552145 
Si 11.869822529999999 15.052725629999998 14.958078197497423 
Si 9.26954757 12.278848140000001 15.116203441472612 
Si 10.71109854 13.49696547 13.633993843420344 
Si 10.166882219999998 13.27206573 20.78299884903934 
Si 8.401453469999998 14.261976449999999 19.563656162215473 
Si 11.525908049999998 13.40891802 17.66742345466673 
Si 9.96451155 14.283300059999998 22.905742707206468 
Si 9.190801709999999 12.805715609999998 24.599117823211706 
Si 12.09558564 15.7597605 25.175248488516008 
Si 12.02969259 12.29289012 29.890580340552486 
Si 9.956350259999999 15.902640089999998 29.839840194960797 
Si 9.28028268 12.823455419999998 26.956783749229945 
Si 11.5215912 12.50788554 27.55512610208352 
Si 8.68014279 14.82013701 28.097029483791797 
Si 9.93243654 14.78571624 32.0175811527476 
Si 11.11339638 15.73752465 34.107299286923386 
Si 16.27673994 2.71370223 2.677098830407282 
Si 13.56926049 0.016383341699999998 2.705201593046902 
Si 12.608557739999998 3.1536299699999994 0.1263851887608458 
Si 14.93120223 1.356393366 4.069682381033143 
Si 14.631124139999999 3.94037181 1.1946077241047772 
Si 13.574913119999998 -0.00030068896499999996 8.144994927071048 
Si 13.576835339999999 2.7152009099999996 5.430122495720236 
Si 12.217092749999999 1.357468506 6.787369894886337 
Si 14.93331993 1.3581803789999998 9.501933353767376 
Si 13.574750219999999 2.7142723799999997 10.863781009705658 
Si 12.20997402 1.36697535 12.244372995476866 
Si 12.53129427 1.70437383 16.613587020818198 
Si 15.889559219999999 0.6989045309999999 15.043938213820033 
Si 12.42659844 3.9936563999999994 15.153108486473334 
Si 12.520445129999999 1.5330893669999999 20.632872559003843 
Si 13.02545142 2.73039948 18.619882588155143 
Si 15.2836038 3.4732560599999998 18.380394593806265 
Si 15.421759289999999 3.64034259 22.287488795189716 
Si 13.43157741 2.39832783 22.717544142839994 
Si 13.94352324 0.5185432799999999 24.084781651862105 
Si 15.88880988 0.562796694 25.429361179767493 
Si 15.523865009999998 1.287025659 27.65983343906231 
Si 13.215034439999998 1.5783332129999998 28.387566596202134 
Si 15.4948851 3.22405164 31.44306401034101 
Si 15.81804612 0.9225760049999999 31.783002387640686 
Si 13.38741522 3.0802109399999997 30.207002479874955 
Si 13.572860579999999 5.45490198 2.6947995198978614 
Si 12.34607697 7.02911871 1.2539990988501255 
Si 14.93490006 6.781527 4.073355720396006 
Si 14.93268462 4.07386836 6.788296812295656 
Si 13.575222629999999 5.42944071 8.14496059679663 
Si 12.2178258 6.786984149999999 6.7875072159840135 
Si 12.21735339 4.07484576 9.502757280353437 
Si 14.93276607 6.7877497799999995 9.502207995962728 
Si 14.94661257 4.0576761 12.232391729704538 
Si 12.20386527 6.77994687 12.223980812471815 
Si 14.68579338 6.64936623 16.92091163741956 
Si 13.59501498 5.42274552 13.572576982484259 
Si 14.435155439999999 7.3813248 14.72899227629759 
Si 12.34729872 5.86793493 16.72636197228552 
Si 14.16112506 8.049328829999999 20.015339582749895 
Si 13.19380857 5.90286069 20.34981944641691 
Si 15.353015489999999 4.82706909 20.30186005305318 
Si 15.5908332 5.43823731 23.760738191618554 
Si 13.78011825 7.00839783 23.702205073733683 
Si 13.57175286 7.482257639999999 25.99241201051805 
Si 13.14736578 5.11667271 29.075510965290018 
Si 16.25613309 7.190650349999999 28.849823741257698 
Si 15.589497419999999 4.81069764 26.033368027900245 
Si 15.87480048 7.09040169 26.574344492199202 
Si 13.441465439999998 5.2805664 26.76776125827741 
Si 14.9983659 7.07515425 32.423879950499746 
Si 14.27642568 6.88311144 30.096905289812337 
Si 15.47118315 4.74747615 33.312725085489234 
Si 14.932179629999998 12.217239359999999 4.070403316795948 
Si 15.01678989 9.4695399 1.234756980038121 
Si 13.589003969999998 10.8512577 2.6781081404752087 
Si 13.57509231 10.86002172 8.14496059679663 
Si 13.57602084 8.14589595 5.42902392693882 
Si 14.93312445 9.50187555 6.787541546258432 
Si 12.21644115 9.502282799999998 9.50313491337205 
Si 13.573984589999998 8.14372938 10.865428862877783 
Si 14.94289845 9.53057853 12.230778206806832 
Si 12.76129278 9.13683294 14.86188476857461 
Si 13.610588219999999 10.97732601 13.650094742122985 
Si 15.94435878 8.32482531 18.46580831656143 
Si 13.797939509999999 11.807562149999999 20.30735289696026 
Si 12.64134951 9.80291475 19.57004159325746 
Si 14.27179932 10.872809369999999 22.5018813589381 
Si 12.488174639999999 11.61011106 23.956798388827043 
Si 14.877331199999999 8.54091216 22.25933797016591 
Si 12.80783331 11.046281579999999 26.237804812067036 
Si 12.804428699999999 8.62643466 29.487439928046918 
Si 15.516518219999998 10.77546033 28.958582050617963 
Si 15.020471429999999 11.50748406 26.801645239129233 
Si 13.60338804 10.6116318 30.328943614612225 
Si 14.641207649999998 10.34465499 32.56154435092104 
Si 13.717890449999999 8.43261624 33.92037094271043 
Si 13.12394076 14.34370338 0.043464187231269324 
Si 12.3434217 12.28481028 1.1356798080640889 
Si 14.9315769 15.00592446 1.3399003115020396 
Si 13.57408233 13.57672131 5.42902392693882 
Si 12.2175 12.217679189999998 6.787884849002626 
Si 14.93281494 14.932049309999998 6.787404225160755 
Si 16.28582976 16.2919548 10.861446551045148 
Si 12.217614029999998 14.932847519999997 9.502448307883665 
Si 14.932375109999999 12.217043879999999 9.501143757455731 
Si 13.57678647 13.576558409999999 10.861309229947471 
Si 14.933303639999998 14.92577766 12.236339711262756 
Si 13.40593695 14.04494478 16.365104494571476 
Si 14.271669 16.25882094 16.65014876307473 
Si 14.73073749 12.580066529999998 15.022962416149856 
Si 13.464369179999998 16.18908345 13.61085523846175 
Si 13.569081299999999 15.70334823 20.33066315329095 
Si 12.352983929999999 13.664671019999998 19.882927714314746 
Si 15.315939449999998 16.07702454 18.73526664047833 
Si 15.688654649999998 12.2329755 18.832386986810462 
Si 16.26207894 13.94329518 22.907768193397207 
Si 12.24069696 14.01922287 23.579062379391743 
Si 14.164676279999998 15.00786297 22.512729725654594 
Si 14.738524109999998 13.85848944 26.94954006132748 
Si 15.229211489999999 14.343849989999999 29.220556374711464 
Si 12.220725419999999 15.87437694 29.16082169722192 
Si 12.48952671 14.62481991 27.16856721212246 
Si 13.253544 14.23651518 30.456789556549616 
Si 14.48374851 14.574793319999998 32.43376706953249 
