&CONTROL
  dt          = 30.D0,
  prefix = 'x.33_y2.00_z3.15_struc33-scf',
  pseudo_dir = './',
  outdir='./',
  wf_collect= .true.,
  verbosity= 'high',
/

&SYSTEM
ibrav= 6, celldm(1) =30.783621515, celldm(3) =2.104478273085783, nat=  432, ntyp= 1,
  ecutwfc     = 12.D0, nbnd= 1728,
  degauss     = 0.05D0,
  occupations = "smearing",
  smearing    = "methfessel-paxton",
/
&ELECTRONS
  electron_maxstep=200,
  conv_thr    = 1.D-8,
  mixing_beta = 0.3D0,
  scf_must_converge=.false.,
/
&IONS
/
ATOMIC_SPECIES
Si  28.08  Si.pbe-hgh.UPF
K_POINTS {automatic}
1 1 1 0 0 0
ATOMIC_POSITIONS (angstrom)
Si 2.7093528 0.00468619317 2.678873933180422 
Si 2.73445569 2.9339593199999996 0.03876980128295357 
Si 1.3637808809999998 1.356235353 1.162473535174266 
Si -0.00024339866399999998 0.00020065859099999999 5.4301924853589405 
Si -0.000303642342 2.7152497799999997 8.145323009989479 
Si 2.71544526 -0.000511836687 8.145357291940549 
Si 2.7146796299999996 2.7146633399999995 5.430329613163214 
Si 1.357196463 1.357672131 6.7872778003592495 
Si 2.7126107999999998 2.7152171999999997 10.865355853622821 
Si 1.341598788 1.3747000679999999 12.236976715876207 
Si 1.35927018 4.07360772 9.501516994262007 
Si 4.07359143 1.3576167449999998 9.502819708402612 
Si 2.81118159 0.1184323725 13.515007851712397 
Si 3.81445011 1.69987779 14.970276674573084 
Si 2.73986397 2.94557409 17.87745468908974 
Si 2.01504042 0.6085715939999999 18.625418297503742 
Si 1.87901892 3.08605905 24.635421421285365 
Si 2.4135264 2.1721411799999997 22.544839481221988 
Si 1.22543154 0.170321724 22.978094778826538 
Si 1.054420749 3.7115461799999996 21.472020104482237 
Si 3.6631648799999996 2.06619102 25.662611521152847 
Si 2.0992923 3.7740183299999996 28.67390382106474 
Si 0.1369658313 2.82791142 27.715037649676912 
Si 0.12324753359999999 0.607672386 28.473834354628583 
Si 2.7979215299999995 3.0131775899999997 30.833049663265253 
Si 2.62021392 0.726564951 31.315293868946792 
Si 0.336494385 0.34810263899999994 30.818959781376073 
Si 1.3556423969999998 4.0723696799999995 4.0661822162427805 
Si 2.722059 5.435744939999999 2.7023365004917497 
Si 1.299098178 6.7365666 1.2744041054131385 
Si -0.000372239532 8.13553551 2.70745136759118 
Si -0.001033115058 5.432389199999999 5.42971253804398 
Si 2.71490769 5.430466979999999 8.145014472429862 
Si 1.357346331 6.7877497799999995 6.787037826701769 
Si 2.7151031699999995 8.14661271 5.430055357554666 
Si 1.3697218439999999 6.802084979999999 12.225012314953274 
Si 3.80804814 6.896045699999999 15.191772360427098 
Si 0.7922283119999999 4.59360081 15.011037914393611 
Si 2.6273815199999997 5.42742075 13.671402112487202 
Si 2.5325248499999997 7.488512999999999 17.481223898639236 
Si 2.52060057 4.46433966 19.81627043177257 
Si 1.398722931 6.490636469999999 19.440471684158933 
Si 1.506082176 5.408540639999999 24.76229892219013 
Si 0.24455036699999996 5.54624001 22.772608764121546 
Si 3.73111047 5.996788829999999 24.32777519239604 
Si 0.643192731 7.46072226 21.475448299589093 
Si 1.71607005 6.099269219999999 28.72518961986332 
Si 0.490245921 6.4302983099999995 26.74972647148819 
Si 3.89658429 6.79558527 28.218468101118823 
Si 1.89675873 4.28681124 32.59702745549839 
Si 2.4437443500000002 6.743750489999999 32.43593656742719 
Si 0.9303935759999999 7.29774081 30.66990185812994 
Si 3.91618116 9.469979729999999 1.3357653696307674 
Si 1.354067154 9.501468299999999 4.076295391808007 
Si 0.324345303 10.436758649999998 0.037348814411161446 
Si 2.70780525 10.85606325 2.740063787642708 
Si 1.446159411 12.158693099999999 1.286334224385 
Si 0.00041570451 8.145 8.14504875438093 
Si 2.71497285 10.859744789999999 8.145117318283068 
Si 1.359338598 9.503993249999999 9.501962659625898 
Si 2.71383255 8.145309509999999 10.860556380473223 
Si -0.0001118973132 10.85751306 10.862441887781996 
Si 0.0360013887 8.1826299 13.63146363949232 
Si 2.72432331 10.918844909999999 13.701056000161515 
Si 0.865934046 9.97158141 15.118786086602118 
Si 1.6904133 11.3855697 19.27468416879134 
Si 1.547154153 9.66428685 17.406557809211893 
Si 1.91197359 8.97359085 22.762666998311662 
Si 3.9209541299999997 8.276802389999999 23.74402212960047 
Si 0.47196528299999996 9.78087438 24.36771366539092 
Si 2.3621314499999997 10.904949539999999 21.51302131796024 
Si 0.8885543399999999 12.065465429999998 24.863190704184927 
Si 0.43983814499999996 8.7834051 26.50296498769664 
Si 2.39624271 11.94827517 26.678797114727324 
Si 2.02079079 9.914647859999999 27.89758903911703 
Si 2.14558848 8.66124639 34.072831167049145 
Si 3.06989937 10.27630215 31.981460742111192 
Si 1.600272585 9.5747733 30.270688537936472 
Si 4.0735262699999994 12.217972409999998 4.070810279637037 
Si 3.31043751 13.051401389999999 0.09134357298317648 
Si 1.3574587319999998 14.931120779999999 4.070056076713528 
Si 6.768446129999999e-05 13.574587320000001 8.14528872803841 
Si 2.71611315 13.573023479999998 5.431358071695271 
Si 1.357352847 12.21694614 6.787723465723142 
Si -0.0013957272 16.291629 10.865630109231372 
Si 1.358983476 14.932440269999999 9.503162527913297 
Si 2.71347417 13.57227414 10.859939305353988 
Si 1.381022217 12.212384939999998 12.219698612537648 
Si 3.97472742 12.580881029999999 14.96126052144205 
Si 0.168124203 13.56903243 16.34947384801262 
Si 2.7708149699999995 15.717015539999998 16.72085022393841 
Si 1.0341853109999999 15.527334779999999 14.975144711624822 
Si 0.14466774329999998 13.62770901 13.595056207457501 
Si 2.53949697 13.368583979999999 16.688899445542507 
Si 3.3427894499999997 15.76902951 20.361867683028816 
Si 3.63280032 12.44599983 18.519624196506143 
Si 2.7089781299999998 14.80202253 22.482240638570783 
Si 1.4168015729999999 12.81563622 22.674116718701555 
Si 0.213312663 16.230785849999997 25.113517510887604 
Si 3.5212952699999995 13.59138231 29.797563331239175 
Si 3.75067476 16.106900399999997 26.254969353666624 
Si 1.544184486 15.6353049 27.05082484772342 
Si 1.71756873 13.556945249999998 28.20112143387813 
Si 3.31758882 12.666533849999999 32.03593476235915 
Si 6.78626739 4.06911168 4.068787644523992 
Si 4.07267919 1.358266716 4.0686162347686485 
Si 5.4361359 2.7193711499999997 2.6802349266378442 
Si 6.87563433 1.3767460919999999 1.1939340816698902 
Si 4.07280951 4.07243484 6.787483492065661 
Si 8.14482081 -5.402822849999999e-05 8.144740216821313 
Si 8.146922219999999 2.71459818 5.431803737059163 
Si 5.43177018 0.00010570857929999999 5.430363895114283 
Si 5.43015747 2.71494027 8.14504875438093 
Si 6.78713076 1.358017479 6.787963439380622 
Si 5.4283329899999995 0.000966726792 10.860247842913607 
Si 6.786414 1.365475041 12.227960562745173 
Si 7.50882663 3.6324256499999996 15.094788720854122 
Si 5.03106876 0.192810069 16.558079520264855 
Si 5.5312695 2.77922061 13.722825039090054 
Si 5.07884733 2.43939492 17.557809777326415 
Si 4.35581568 1.351752345 21.313191825181566 
Si 5.63518341 2.74851396 19.86289388522582 
Si 7.98892551 2.5990694999999997 19.736084948223187 
Si 5.755191839999999 0.489827268 22.94083029801501 
Si 5.52688749 2.40140664 24.3102571154 
Si 7.54305192 2.12090913 25.50991971109345 
Si 4.07046375 3.5457465599999995 27.36035658392151 
Si 7.71307065 3.2564198699999998 27.606466710642756 
Si 5.30584848 0.210893598 28.080551811969976 
Si 5.7453201 2.48929119 28.590015886799957 
Si 5.1089186699999996 3.55978854 30.59225323895964 
Si 4.21762761 4.265096669999999 1.2605062024499412 
Si 4.07155518 6.78996522 4.071084535245586 
Si 6.9507801 6.899890139999999 1.1532894004829968 
Si 8.15571882 5.436543149999999 2.6811091163900924 
Si 5.429180069999999 5.429391839999999 5.429198308777952 
Si 6.787407689999999 6.78726108 6.787449210114593 
Si 5.4297990899999995 8.14493484 8.145014472429862 
Si 6.7886945999999995 4.073493689999999 9.502031223528034 
Si 4.0739661 6.78875976 9.500488535729948 
Si 4.0823554500000006 4.07686572 12.248941116799136 
Si 5.430141180000001 5.43129777 10.861276301445663 
Si 6.777454499999999 6.78253698 12.251615108982483 
Si 5.5827296099999995 6.50560698 16.745670356512054 
Si 6.679225799999999 4.37466321 17.19589521989555 
Si 4.757429339999999 4.74744357 20.765469092959062 
Si 5.707413269999999 6.92430885 20.29604633697717 
Si 8.124279119999999 6.74083458 20.02755009620815 
Si 4.66967511 7.934386589999999 18.43539344273067 
Si 5.197194179999999 4.50105732 23.113302793840973 
Si 7.4381769 5.163701939999999 23.647038490027494 
Si 6.88931793 6.253307459999999 25.690996976637624 
Si 5.19302394 5.821817939999999 29.898523677136108 
Si 7.320921479999999 6.62032116 29.454538128847087 
Si 4.71559662 5.61592863 26.388703244785106 
Si 8.116655399999999 5.58478215 27.52093324272668 
Si 5.6565721799999995 5.62956336 33.902278460483025 
Si 4.77702621 6.923950469999999 31.98848854208025 
Si 6.97734909 4.28379759 32.364801518959915 
Si 8.16966306 10.854776339999999 2.696621699248619 
Si 5.43072762 8.13905415 2.6776774930881286 
Si 6.7855832099999995 9.50334165 4.066456471851329 
Si 5.08277322 11.18723895 0.21959509448677267 
Si 4.07189727 9.50249457 6.787380646212456 
Si 5.42997828 10.86248151 5.430055357554666 
Si 6.78875976 9.50327649 9.503848166934668 
Si 4.07334708 9.51163326 12.241501933417256 
Si 5.42657367 10.86251409 10.867515616540143 
Si 5.40881757 8.194782239999999 13.722207963970819 
Si 7.1338797 9.21696345 15.105964636902474 
Si 6.63729534 10.57559832 17.3724129859476 
Si 4.650322589999999 10.55090268 21.008768099692684 
Si 4.73535639 10.35348417 18.6577461773614 
Si 5.45483682 8.58002445 21.996876775342006 
Si 7.56720999 8.86075002 22.96136518670508 
Si 6.93976806 8.582647139999999 25.193908686143395 
Si 4.85471322 9.54730836 25.558325826002267 
Si 5.55614433 10.073296169999999 29.424987087025983 
Si 7.58208276 8.952202080000001 28.91370606878937 
Si 4.64056488 11.93695362 25.78828915377022 
Si 4.17638133 9.05434038 27.765603527503046 
Si 5.13615555 9.302078700000001 31.614815275432864 
Si 6.7662306899999995 10.33043382 32.977557112359484 
Si 7.63474833 13.947563159999998 0.07115493199889715 
Si 4.12601265 14.96076858 1.2445925207639124 
Si 5.42061153 13.591154249999999 2.723269059814217 
Si 6.79587849 12.262590719999999 1.4365131674310734 
Si 6.783742439999999 14.932309949999999 4.072044429875505 
Si 8.1489096 16.301402999999997 2.7049419287729606 
Si 4.07277693 14.93245656 6.787414928163524 
Si 5.430206339999999 13.574880539999999 8.14484306267452 
Si 6.7872285 12.21805386 6.787586337918867 
Si 8.14379454 13.5716877 10.864258831188629 
Si 4.07329821 12.219552539999999 9.50237404303872 
Si 6.786984149999999 14.93431362 9.5026140166962 
Si 4.07899971 14.935453919999999 12.205677294550604 
Si 6.78390534 12.23800911 12.25675740164277 
Si 7.997705819999999 14.04439092 16.099969808135587 
Si 5.89023594 12.660392519999998 16.443852059304387 
Si 5.5270829699999995 13.891281209999999 13.682612310486624 
Si 6.69657465 15.55014078 14.90459245632571 
Si 7.839383309999999 12.32954262 20.895843352872824 
Si 4.7584556099999995 13.99729653 19.816476123478978 
Si 5.98111785 14.663981069999998 17.88290551930964 
Si 5.59906848 12.60230238 21.554811016312826 
Si 7.923195359999999 16.076698739999998 22.19053551692834 
Si 5.52387384 13.054056659999999 23.906724269371892 
Si 4.47281046 15.14815245 24.091572549533613 
Si 7.82333766 12.61095237 24.336757063576 
Si 6.284372489999999 13.049935289999999 27.298580508095952 
Si 5.58240381 12.45360726 29.39882995836067 
Si 7.26395535 15.232094819999999 27.78137322499459 
Si 4.26038886 15.80450913 30.090982550435044 
Si 7.5319584299999995 12.64187079 32.38406797546045 
Si 5.55881589 13.743872999999999 31.43308665281839 
Si 5.97935853 15.77935737 34.24005852436162 
Si 12.099983939999998 1.195495407 1.3204413375031177 
Si 9.50104476 1.357072659 4.078695128382807 
Si 10.85344056 2.69821044 2.703378671804234 
Si 10.8600543 0.0016255041659999998 5.431426635597409 
Si 10.86031494 2.71485882 8.144603089017039 
Si 12.20945274 1.348978158 12.258300089440853 
Si 9.5030973 1.3571459639999999 9.50305968206009 
Si 8.13884238 2.71772586 10.862030504369173 
Si 12.21764661 4.073086439999999 9.50233976108765 
Si 10.86383358 -0.00177204249 10.862133350222377 
Si 8.34492717 0.215436879 13.552135204719656 
Si 9.19034559 1.8088415999999998 15.221289120297135 
Si 10.82784897 2.75395482 13.694748121164897 
Si 10.67431572 1.64673981 17.756919349132655 
Si 12.05891685 3.66259473 20.47883770007477 
Si 10.86033123 3.8906710199999996 18.472623641591138 
Si 8.437959359999999 1.1825041319999998 17.785750469981323 
Si 11.40757749 1.8075383999999999 21.756388888596 
Si 9.03225114 1.88502993 21.847784570144803 
Si 8.84765286 3.1975478099999997 23.911009513255465 
Si 10.920473909999998 3.1988673 25.220442916270468 
Si 9.54142767 2.8141952399999997 29.0128151893286 
Si 10.65354597 0.0626873409 26.396142428166986 
Si 11.07944802 2.12916816 27.379314502862428 
Si 8.1827928 2.83271697 34.00361590784171 
Si 9.4050315 1.162043892 30.641619248498376 
Si 11.93460786 2.45258982 32.31560691917652 
Si 9.80833932 1.458686421 32.92222604333482 
Si 10.87147359 8.136724679999999 2.6849658358853064 
Si 12.235467869999999 6.76741986 1.1675129819813455 
Si 9.57175965 4.083593489999999 1.255679303739487 
Si 9.499073669999998 6.786707219999999 4.0685819528175795 
Si 9.5021199 4.07214162 6.787860593527416 
Si 8.14442985 5.43056472 8.14528872803841 
Si 10.860380099999999 5.42919636 5.430398177065351 
Si 10.85782257 5.42908233 10.861242019494595 
Si 8.14715028 8.14309407 10.863367500460846 
Si 12.204109619999999 6.791561639999999 12.2380737383104 
Si 9.50361858 6.786414 9.50401957669001 
Si 9.504237599999998 4.09672323 12.241810470976874 
Si 8.21527506 5.513611139999999 13.760946568678301 
Si 9.03462948 7.58428191 15.094205927685957 
Si 8.6165955 4.716802079999999 18.754901226689718 
Si 10.73522403 6.452485289999999 23.341003512838395 
Si 8.58665448 6.78537144 22.364653546405595 
Si 11.27411352 5.47660026 25.482185612678975 
Si 10.365831989999998 4.8620274299999995 29.876308972843674 
Si 10.41923061 5.99543676 27.718808664294453 
Si 8.650478699999999 5.83998129 31.224309570810814 
Si 12.063331439999999 4.601110499999999 31.4549928195512 
Si 9.43339239 7.925117579999999 32.032643695056564 
Si 11.40800103 4.92904449 34.21681536153713 
Si 9.731043269999999 9.60893343 1.2158231074271706 
Si 9.503732609999998 12.21601761 4.072592941092602 
Si 12.21813531 9.50060493 4.066799291362014 
Si 8.14557015 8.1456516 5.431186661939929 
Si 9.50257602 9.502657469999999 6.78751777401673 
Si 10.85945157 8.14465791 8.145151600234136 
Si 8.145114029999998 10.85976108 8.145802957304438 
Si 10.859467859999999 10.86075477 5.428649797560855 
Si 12.217548869999998 12.21706017 6.78751777401673 
Si 9.49718403 9.53220753 12.22610933738747 
Si 10.85713839 10.857789989999999 10.861344865347801 
Si 9.50585031 12.219682859999999 9.502545452794063 
Si 12.2175 9.502413119999998 9.501242738653458 
Si 10.870789409999999 8.27896896 13.634171913626737 
Si 8.186050799999999 10.91838879 13.768660007668728 
Si 10.304679329999999 8.19075861 17.183930818972616 
Si 11.206607759999999 9.22680261 20.65230437248172 
Si 9.278474489999999 8.76796218 19.294567700411108 
Si 8.34059403 10.98442845 18.995012011973966 
Si 10.02268314 12.14763219 17.741183933592183 
Si 11.46682422 10.33413165 17.206419778873602 
Si 10.755162989999999 10.3496886 22.70188509906709 
Si 8.532653129999998 11.03215815 22.720088815084505 
Si 11.818851119999998 12.14064378 23.78385775674215 
Si 11.195221049999999 8.59515786 24.18303679498455 
Si 11.604262949999999 11.432110230000001 26.052842970166353 
Si 9.68787477 9.30805713 29.916247445838554 
Si 10.28970882 11.606103719999998 29.708053156999146 
Si 10.552140719999999 9.32074704 26.299055942740804 
Si 8.16213708 11.95404183 26.562512736702743 
Si 8.2653831 9.61528653 26.74132739347639 
Si 11.11526973 8.166193289999999 28.256966732168824 
Si 8.228746889999998 8.64106308 33.98445229719438 
Si 11.01782295 10.97778213 34.03542955843334 
Si 12.21629454 14.93374347 4.069918948909255 
Si 9.455644529999999 14.899648499999998 1.3128890236827122 
Si 10.85915835 13.569716609999999 2.701318326545013 
Si 8.14635207 13.57660728 5.429609692190774 
Si 9.50223393 14.93270091 6.7880662852338265 
Si 10.86020091 13.574913119999998 8.14528872803841 
Si 12.21776064 14.93331993 9.50264829864727 
Si 12.2282514 12.22880526 12.250449522646152 
Si 9.52554492 14.920792919999998 12.247021327539295 
Si 9.527336819999999 12.417117659999999 15.31477600086112 
Si 10.96574382 13.61319462 13.836332579078082 
Si 10.9107162 14.470765379999998 21.146752952743668 
Si 8.66561211 14.55216651 20.48699680442909 
Si 11.691886859999999 12.93554691 19.537969552997936 
Si 8.319205259999999 15.13077102 18.17293082534972 
Si 10.994821469999998 14.323911029999998 23.487456007803313 
Si 8.72521722 14.772912299999998 24.00137673627221 
Si 8.35191558 16.179814439999998 25.87077152804119 
Si 9.06680223 15.315711389999999 29.573393653201812 
Si 10.20377907 12.562522199999998 27.519150581271116 
Si 10.7641062 14.767585469999998 28.042533128234933 
Si 9.575327159999999 13.388408909999999 31.15108332332835 
Si 11.77938045 14.18538087 32.540187980626705 
Si 10.94767821 15.938250029999999 34.08716102259581 
Si 16.28579718 2.71117728 2.6818427501429603 
Si 13.57318638 -0.0032227158599999997 2.69741704051341 
Si 12.87001224 3.0426462 0.14638461670180422 
Si 14.93577972 1.3574668769999998 4.068136287453688 
Si 14.75672004 3.96539325 1.2358609078267484 
Si 13.574847959999998 -0.000435312783 8.145220164136273 
Si 13.57422894 2.71480995 5.430329613163214 
Si 12.2175 1.3579865279999999 6.787654901821004 
Si 14.931967859999999 1.357277913 9.50213406938124 
Si 13.578578369999999 2.71541268 10.862236196075584 
Si 14.945504849999999 4.05210492 12.219012973516275 
Si 16.21575018 2.7349769699999995 13.79543421145328 
Si 13.57492941 0.047920944599999994 13.927728260626882 
Si 14.319545309999999 1.8978827399999998 15.335927964670425 
Si 12.60681471 3.67927569 14.910523233860571 
Si 14.471531009999998 1.2828537899999999 17.89247018365777 
Si 15.373687499999999 2.47285458 21.406473014039136 
Si 15.812931059999999 0.220478634 21.395297097990785 
Si 14.11093557 2.99732742 19.497825388296643 
Si 12.46142646 0.228004614 18.50083768732057 
Si 14.51401533 2.82217734 23.621669846236756 
Si 12.36828024 1.8946410299999998 23.88653220019251 
Si 16.123011209999998 2.25147348 25.35078289423316 
Si 13.19442759 1.92917583 28.459881600543675 
Si 14.52346353 3.91909707 28.581719654641365 
Si 16.12007901 0.221644998 34.06731177292711 
Si 15.28345719 1.6448501699999998 32.28890127929411 
Si 15.73877898 3.9757374 32.45211764833156 
Si 13.254130439999999 1.259764344 30.85019063879954 
Si 12.22245216 4.07386836 4.070810279637037 
Si 13.568885819999998 5.43136293 2.696076616226629 
Si 14.93490006 6.787521719999999 4.071770174266957 
Si 14.933010419999999 4.07238597 6.787312082310319 
Si 13.575043439999998 5.42975022 8.14480878072345 
Si 12.21792354 6.78730995 6.787586337918867 
Si 13.57595568 8.1456516 10.863161808754436 
Si 16.288240679999998 5.43113487 10.861756248760624 
Si 14.933238479999998 6.787391399999999 9.501619840115211 
Si 13.97235654 7.962356519999999 16.11536240416537 
Si 12.38290866 4.84518357 16.95996683264167 
Si 13.55942133 5.34268017 13.55323222715385 
Si 15.285868110000001 6.39947763 14.795507288025528 
Si 12.827902589999999 7.47246735 20.339892952393864 
Si 15.559540109999999 6.48848619 18.51773868919737 
Si 12.352641839999999 7.09647786 17.714444011758697 
Si 14.57966403 4.52163159 17.761444566673706 
Si 14.270707889999999 5.122276469999999 23.29612843888964 
Si 12.43575342 5.615619119999999 21.809251657143733 
Si 13.518842939999999 6.1272717299999995 25.243240413731066 
Si 14.52163905 5.9201118 27.32504617432089 
Si 13.48492716 7.912509119999999 28.277295929152487 
Si 15.75545994 5.74869213 34.183904688511305 
Si 14.69931408 7.31002347 31.35170130098161 
Si 14.336112239999999 4.886837099999999 30.79698505074112 
Si 14.03062587 7.733416859999999 34.07036286657221 
Si 14.93478603 12.21512166 4.066525035753466 
Si 14.90605047 9.441944639999999 1.286337652580107 
Si 13.56857631 10.855541969999999 2.7060972305239717 
Si 16.29 10.85930496 5.431495199499546 
Si 13.576086 8.144397269999999 5.4301924853589405 
Si 14.93312445 9.502087320000001 6.787826311576347 
Si 13.57532037 10.860103169999999 8.145323009989479 
Si 14.93019225 9.50314617 12.233959904182171 
Si 12.43637244 9.58848948 15.07977322628609 
Si 13.785477659999998 11.029926419999999 13.687446065587292 
Si 15.608996549999999 11.8338705 15.007232617825 
Si 15.514139879999998 8.78480604 17.757673552056165 
Si 14.89062384 8.575544699999998 21.020115425496382 
Si 12.465042839999999 10.73696706 19.39357397509713 
Si 14.74761393 10.3035879 19.43028994469157 
Si 13.459074929999998 8.43085692 24.74865470566484 
Si 14.09518314 11.877902370000001 23.30449323495037 
Si 14.714822159999999 9.599485229999999 23.178507064773385 
Si 14.439162779999998 9.30268143 26.693504071735738 
Si 13.82502978 11.524409369999999 26.76741595823957 
Si 12.58404129 11.105446859999999 30.18289246124987 
Si 15.915248549999998 10.759626449999999 30.468084012189287 
Si 12.84826509 10.28970882 32.60062706036059 
Si 15.03562113 11.286640529999998 32.71091209694817 
Si 14.104289249999999 9.217435859999998 30.094822128954725 
Si 12.30271299 12.277219139999998 1.3028409838245152 
Si 14.856952409999998 14.9719761 1.1243897157321945 
Si 16.28858277 13.58268345 2.6695663834653063 
Si 13.572893159999998 13.5733167 5.429849665848255 
Si 14.93258688 14.93234253 6.787483492065661 
Si 14.93333622 12.2179887 9.503231091815435 
Si 13.571166419999999 13.577193719999999 10.863847447775806 
Si 14.930355149999999 14.93797887 12.262071104058396 
Si 12.28757958 14.9405364 15.426569443295715 
Si 12.75381567 14.302098719999998 17.751091417450997 
Si 12.42435042 16.194214799999997 20.830227698527587 
Si 15.820343009999998 12.35681208 19.738724658455467 
Si 16.097093819999998 16.210195289999998 19.08057976184111 
Si 15.241152059999997 14.127307019999998 18.33909544217907 
Si 12.270752009999999 15.94900143 24.662332752874185 
Si 15.40993275 13.204348199999998 21.90246428209917 
Si 14.12616672 15.24017466 22.289130408201544 
Si 14.973523649999999 12.866917139999998 25.251708055645 
Si 14.405198129999999 15.221555189999998 25.425551829513704 
Si 14.289913799999999 16.19946018 27.67036826743457 
Si 13.875300719999998 12.56470506 28.799581453682112 
Si 16.08432246 12.907853909999998 29.477884137524786 
Si 12.94882326 14.66890065 28.847987568590927 
Si 13.678436069999998 13.36162815 33.97872721136593 
Si 13.31731935 15.23553201 31.07456600854331 
Si 15.600476879999999 14.48656668 31.223006856670207 
