&CONTROL
  dt          = 30.D0,
  prefix = 'x.33_y2.00_z3.16_struc11-scf',
  pseudo_dir = './',
  outdir='./',
  wf_collect= .true.,
  verbosity= 'high',
/

&SYSTEM
ibrav= 6, celldm(1) =30.783621515, celldm(3) =2.109682705316459, nat=  432, ntyp= 1,
  ecutwfc     = 12.D0, nbnd= 1728,
  degauss     = 0.05D0,
  occupations = "smearing",
  smearing    = "methfessel-paxton",
/
&ELECTRONS
  electron_maxstep=200,
  conv_thr    = 1.D-8,
  mixing_beta = 0.3D0,
  scf_must_converge=.false.,
/
&IONS
/
ATOMIC_SPECIES
Si  28.08  Si.pbe-hgh.UPF
K_POINTS {automatic}
1 1 1 0 0 0
ATOMIC_POSITIONS (angstrom)
Si 0.00028089661499999997 2.72130966 2.695344930070732 
Si 2.7070233299999997 0.013602687569999999 2.7031977281658373 
Si 3.3652696499999997 2.2381156799999995 0.2818333151265268 
Si 1.404057906 1.442155329 1.2552654796610885 
Si 4.06316583 4.06341018 1.4885846549235644 
Si 0.0001328486967 9.07690203e-05 5.429531139822372 
Si 0.000329512491 2.7151357499999995 8.144812210702604 
Si 2.7152497799999997 -0.000392743755 8.145121511284028 
Si 2.7152334899999997 2.7164552399999997 5.429668606747451 
Si 1.357663986 1.3568755499999998 6.787154491896852 
Si 2.7162271799999997 2.7152334899999997 10.863426854515986 
Si 1.36650294 1.348841322 12.22586154896821 
Si 0.732347901 0.6841946609999999 16.364268961722786 
Si 2.3142388499999997 2.6395338600000002 16.020636015758004 
Si 2.83994973 1.0761581249999999 21.187605328680597 
Si 2.52382599 0.170204436 19.004286891122582 
Si 3.4422724799999997 3.61445778 17.86173054333329 
Si 3.78766935 3.2929583399999998 21.60144950662918 
Si 0.855435141 1.561732074 22.303630559929754 
Si 0.6580540979999999 3.78942867 22.970826280797866 
Si 0.379925154 0.307317366 24.19816535462927 
Si 3.5289026999999997 3.76059537 25.527092486093633 
Si 2.3164054199999997 0.0540112869 25.660744704001125 
Si 1.6552920599999998 0.494875539 30.038688233704853 
Si 3.66806817 1.095458517 29.000778582631508 
Si 2.69449632 2.0336924699999996 27.009845106720746 
Si 0.7173806489999999 3.05701398 27.941939592214975 
Si 0.54740916 1.0964896739999999 33.38573292551423 
Si 2.52941346 0.614325222 32.201695933082526 
Si 3.44043171 3.01431789 32.44229741870104 
Si 1.35622395 4.076181539999999 4.076753496856906 
Si 2.68881111 5.42137716 2.7292889505457216 
Si 1.3363257149999999 6.69103605 1.281762229469954 
Si -0.000570008277 5.42971764 5.430940175804426 
Si 2.7146633399999995 5.42981538 8.144434176658637 
Si 1.357530408 6.78766833 6.787669992865896 
Si 4.0816224 4.06648899 12.248062457368375 
Si 1.35591444 4.0729887 9.502023162001848 
Si 0.000251442666 5.431444379999999 10.855522506323975 
Si 1.33612209 6.79431465 12.215929563631294 
Si 3.4911098999999997 7.10110422 14.670745178219187 
Si 3.2924696399999998 8.093181509999999 16.775913668870118 
Si 0.881316693 4.31719209 14.830687945547929 
Si 2.51271621 5.3183592 13.56011552377936 
Si 2.03623371 4.92985899 21.472127496861656 
Si 1.73452662 4.66130205 19.11573820062991 
Si 1.6250627069999999 7.02045243 18.485383615682814 
Si 1.5100944029999999 6.9418206 24.685279403644653 
Si 2.4255647099999997 7.08329925 22.5256396439314 
Si 1.368938295 4.63650867 25.021317301998856 
Si 3.29056371 7.51107465 26.109196180338206 
Si 0.803386962 6.9842397599999995 28.93015494987247 
Si 3.8906547299999996 7.24833324 29.86386467173637 
Si 1.8546165000000001 4.799099159999999 29.07580115699306 
Si 0.43139177999999995 7.759513439999999 31.153063861853067 
Si 1.7938222199999998 4.41861363 31.516663878685492 
Si 2.57217471 6.70851522 31.80829996023936 
Si 3.11590233 7.32417948 34.17822974859133 
Si 3.9746459699999996 9.24638319 1.1656026777786888 
Si 1.358201556 9.501158789999998 4.071289186585039 
Si 2.7126107999999998 10.84863501 2.6714016283951985 
Si 1.294866036 12.187412369999999 1.1618773241090634 
Si -4.29081858e-06 8.14498371 8.144709110508794 
Si 2.71435383 8.14589595 5.430493408297921 
Si -0.0016329421799999998 10.857708539999999 5.430218474447765 
Si 2.71539639 10.86002172 8.14501841109022 
Si 4.07601864 9.508961699999999 12.214245593799083 
Si 1.3577242589999998 9.50242941 9.5018513283455 
Si 2.71500543 8.146042559999998 10.861639784489967 
Si 0.00228556845 10.861438949999998 10.862292752384088 
Si 1.338042681 12.2184774 12.241807712277307 
Si 3.8129025599999995 12.173631030000001 15.113319943509161 
Si 1.6872204599999998 8.81225469 14.695935992239807 
Si 2.6199044099999997 10.750096799999998 13.611150119714722 
Si 0.1325070954 12.138379469999999 20.7101139644207 
Si 2.24352396 8.879206589999999 19.912049730877932 
Si 1.2327392339999999 10.94701032 18.91390238788352 
Si 1.2200183729999998 9.098160479999999 22.064747410874727 
Si 1.5254558729999999 10.72474956 23.848105829917078 
Si 3.52999413 11.20390362 24.960969321889426 
Si 0.670489884 11.220666029999999 29.812245841369425 
Si 0.306660879 10.289334149999998 25.906604299503883 
Si 1.7974548899999998 10.534189139999999 27.84258537211455 
Si 2.5877153699999997 8.313177959999999 28.19199192893262 
Si 0.18552518099999998 10.718917739999998 33.96862705457801 
Si 3.8690379 9.9909828 30.927961772037154 
Si 1.442401308 9.906535439999999 31.778675837884958 
Si 2.16767772 14.12465175 0.08598556163655198 
Si 1.3605098489999998 14.92931259 4.069914517334255 
Si 3.03437088e-05 13.574799089999999 8.14501841109022 
Si 2.71397916 13.57281171 5.430527775029191 
Si 1.3566686669999999 12.218004989999999 6.787154491896852 
Si -0.00269899236 16.28993484 10.861089916789652 
Si 4.07891826 14.919734069999999 12.225414781461705 
Si 1.356981435 14.932098179999999 9.502366829314543 
Si 2.71663443 13.57452216 10.861708517952504 
Si 2.7525538800000002 16.26776415 13.586096772619179 
Si 1.34581464 15.05541348 15.030014986911638 
Si 2.3210317799999998 13.490758979999999 16.475857738155195 
Si 3.57625773 14.35030083 18.431393480858265 
Si 3.24394173 12.379178249999999 19.74004424087356 
Si 0.1306283697 12.68738505 17.225121213295125 
Si 1.2218428529999998 12.8203929 22.736135872957732 
Si 3.43868868 13.341770639999998 21.92597455000806 
Si 1.563826968 14.41927269 26.9434142151766 
Si 1.1866401629999999 14.673527009999999 29.267636250939994 
Si 2.93071761 12.47598972 26.850864607867553 
Si 2.1610313999999997 12.95941176 30.45284171223486 
Si 3.67010442 14.861057489999999 32.707127449864615 
Si 0.0259379154 15.149716289999999 33.801398540220106 
Si 8.13317346 0.0408453831 2.71816443963375 
Si 4.07401497 1.354601466 4.068299280964584 
Si 5.46527871 2.7117963 2.715037067088216 
Si 7.34307588 1.94834916 1.3419246292305247 
Si 5.429701349999999 0.0005750874989999999 5.429909173866338 
Si 5.4307439099999995 2.71458189 8.145224611477838 
Si 6.78770091 1.357418007 6.78742942574701 
Si 4.07165292 1.356579072 9.502057528733118 
Si 5.43080907 -0.0033609528 10.859990181389023 
Si 6.774945839999999 1.360749312 12.207269147351354 
Si 7.422717689999999 3.6156795299999995 15.014756158227934 
Si 7.7974365599999995 0.41495517 16.23776502391937 
Si 5.481210330000001 0.39655072799999996 16.680271055746807 
Si 4.08556458 1.3705233119999998 14.986575438586858 
Si 5.5603308600000005 2.69871543 13.700469254284425 
Si 4.40085753 1.558092888 18.547174998505568 
Si 6.35468013 1.93479588 19.967655102072154 
Si 4.95356094 3.2280589799999997 23.686788393337547 
Si 5.942803769999999 1.3097681279999998 24.571834823723687 
Si 7.59066759 0.28531934999999997 23.216342208987925 
Si 6.517954799999999 0.9181043999999999 26.836980448434634 
Si 5.85698805 4.01129847 29.53483758656117 
Si 7.26151185 2.7720692999999996 28.04345891638539 
Si 4.81556835 2.31257727 30.708633293074534 
Si 7.394926949999999 1.011472164 31.277162128467612 
Si 6.35075424 1.6227609299999999 33.51154952869226 
Si 5.66730729 4.0522841099999996 32.93913725266572 
Si 6.782146019999999 4.07816892 4.076959697244524 
Si 4.0770123300000005 6.789476519999999 4.071942154479161 
Si 4.983355349999999 5.703243029999999 0.13050078865007148 
Si 6.78312342 6.80785164 1.2653658619812254 
Si 4.07276064 4.073184179999999 6.787910559984784 
Si 5.429359259999999 5.42800719 5.4316962438923575 
Si 6.786332549999999 6.787652039999999 6.7885978946101755 
Si 6.7870656 4.0715226 9.502504296239621 
Si 4.07191356 6.787391399999999 9.502435562777082 
Si 5.4315095399999995 5.43056472 10.860711882745687 
Si 6.78597417 6.77232315 12.233216029459905 
Si 7.38270945 7.770623219999999 16.924068647373385 
Si 5.320835279999999 8.04045078 13.559840589929202 
Si 5.61311046 4.1253284699999995 20.39483357175334 
Si 5.23627389 7.20936756 18.127454109509877 
Si 5.552039249999999 4.85220456 18.180722542977765 
Si 7.7845837499999995 4.16841552 17.510468183026656 
Si 4.7637987299999995 7.71994503 22.223831009921728 
Si 6.88190598 4.66760628 23.457424828844204 
Si 6.27453333 6.00371208 21.659769849593697 
Si 7.82872965 7.73245575 25.147030804983068 
Si 6.936396029999999 5.62247721 25.608782206321482 
Si 4.66956108 5.6173458599999995 26.400488594579375 
Si 4.139793989999999 5.27230737 28.632504690346423 
Si 7.4419236 7.581186809999999 31.688325701377167 
Si 7.08049737 5.0637465 31.362907122985277 
Si 5.42908233 8.13854916 2.7042940268933378 
Si 6.78488274 9.5053779 4.07379795796772 
Si 6.688690289999999 12.06971712 1.3404331130934237 
Si 4.07272806 9.50249457 6.787773093059705 
Si 5.42966877 8.14576563 8.144571643583715 
Si 5.42984796 10.85909319 5.432349211786479 
Si 6.785566919999999 9.50099589 9.501954428539308 
Si 5.4329756399999996 10.85964705 10.859199746569823 
Si 8.09546211 10.671676739999999 13.748548311330604 
Si 6.67640763 9.1742022 15.045858050026926 
Si 4.71766545 10.10797758 16.066687435659276 
Si 5.20985151 10.9807632 19.658320153914435 
Si 6.33426876 11.121020099999999 17.527342248080036 
Si 7.171672499999999 11.206216799999998 20.968036282599087 
Si 4.61042838 8.675174339999998 20.01786489645705 
Si 6.8981308199999996 11.0094336 23.302293403893206 
Si 6.1227594000000005 8.85180681 23.90367683438003 
Si 4.7173396499999996 9.313481699999999 25.768037639024836 
Si 8.09578791 8.87371686 27.186249538327626 
Si 5.945996609999999 9.559525859999999 27.883859816369345 
Si 5.9794073999999995 11.86737903 28.488783020176932 
Si 5.69548899 8.669065589999999 30.159693494505134 
Si 7.519757219999999 8.52548553 34.13973900956937 
Si 5.7741859799999995 10.309159079999999 34.35092257322109 
Si 4.411641509999999 12.175911629999998 30.273791042320223 
Si 7.559488529999999 13.98745737 0.1511063933847013 
Si 4.07238597 12.22030188 4.071495386972656 
Si 4.079504699999999 15.018304859999999 1.3302674339838747 
Si 5.41271088 13.56010551 2.69925930076234 
Si 6.783563249999999 14.936154389999999 4.066958978445069 
Si 4.07227194 14.932440269999999 6.786879558046696 
Si 5.4297828 13.574880539999999 8.145430811865456 
Si 6.78685383 12.21764661 6.787566892672088 
Si 4.072548869999999 12.21596874 9.502813596821047 
Si 6.78669093 14.933499119999999 9.502091895464387 
Si 6.77966994 12.208801139999998 12.260984348325746 
Si 7.40589012 13.16093535 16.631607764269045 
Si 5.31192465 13.527020519999999 13.756487026253883 
Si 7.0619267699999995 14.765402609999999 14.844778305368466 
Si 6.38831898 16.21172655 21.269673082952412 
Si 7.587621359999999 14.9498217 19.665983934987562 
Si 5.92778439 14.714056529999999 17.918057615884173 
Si 4.16751957 15.63243786 22.042649602668373 
Si 4.9729297500000005 12.37963437 23.55712271625733 
Si 4.346514089999999 15.89656392 24.391168917439376 
Si 7.99570215 14.73868701 24.607335657125194 
Si 5.72282361 14.052144959999998 24.99468308526491 
Si 6.826357079999999 15.3106452 29.97428497930561 
Si 5.0213110499999996 13.577128559999998 27.195322355382803 
Si 5.24642256 15.762692699999999 28.24965930400302 
Si 7.91202042 13.555413989999998 32.210871850331515 
Si 5.53884435 13.904850779999999 31.457278167051612 
Si 5.727173039999999 15.62523768 34.12386157972281 
Si 9.50817978 1.3524186059999999 4.077475198213568 
Si 10.862106840000001 2.69913897 2.706325100711371 
Si 9.19559097 3.76781184 1.3844809525616768 
Si 8.14519548 0.00025789350599999996 8.145052777821489 
Si 8.145032579999999 2.71397916 5.428053370377779 
Si 10.85661711 0.001245290679 5.432039911205054 
Si 10.859972849999998 2.7152334899999997 8.144709110508794 
Si 9.50189184 1.358175492 9.502126262195658 
Si 8.146107719999998 2.7161457299999996 10.859887081195215 
Si 10.86033123 -0.00374906205 10.862602052965514 
Si 9.51202422 4.07061036 12.220019204652376 
Si 8.244043199999998 0.172548567 13.555063614282727 
Si 9.133151400000001 2.01202677 14.981282961971338 
Si 10.942660889999999 2.7391797899999997 13.646307285803529 
Si 8.93110653 0.0550887075 18.265848936332578 
Si 9.81446436 2.68333767 21.06804347059364 
Si 12.01317453 2.9635256699999997 20.164060971277948 
Si 8.52677244 2.27776554 19.06116383137378 
Si 10.17626526 3.66391422 24.882441340938378 
Si 9.751731569999999 0.7952044949999999 22.475567316471587 
Si 10.98146367 1.503296586 24.33408577680056 
Si 10.979297099999998 1.9249404299999997 28.399188951757072 
Si 12.095601929999999 0.42274016099999995 29.813001909457356 
Si 8.90885439 2.09168487 29.566833013373174 
Si 10.61800119 0.5841594 26.436023794712145 
Si 10.485205109999999 0.202202883 34.34102495461545 
Si 12.086903069999998 6.638403059999999 1.2839204601936853 
Si 8.14234473 5.43170502 2.6982626655555215 
Si 9.506778839999999 6.78809187 4.070120717721872 
Si 9.50334165 4.072304519999999 6.788116760372402 
Si 8.14495113 5.42996199 8.144812210702604 
Si 10.859598179999999 5.42808864 5.429977907328877 
Si 8.14609143 8.14723173 10.85864987886951 
Si 12.23370855 6.7935816 12.204451075387245 
Si 9.5013054 6.78700044 9.502744863358508 
Si 10.85896287 5.42590578 10.861158650252191 
Si 10.77679611 8.002315889999998 13.554135712538447 
Si 11.65927428 4.65364575 14.749960493795626 
Si 8.21745792 5.41336248 13.671154432511452 
Si 9.92339559 6.42603033 15.108371134206338 
Si 11.64368475 7.58050263 20.999859875754744 
Si 8.14822542 7.06637394 20.67822163780251 
Si 11.28805776 6.89964579 18.7581179950384 
Si 8.90844714 6.3438798599999995 18.496071669107664 
Si 9.88429959 6.45487992 22.153207377162687 
Si 9.2067822 4.27457745 22.77624184834936 
Si 9.97092981 7.6004252999999995 24.178679417999405 
Si 11.921021999999999 6.98845887 25.42619176308607 
Si 12.13342731 4.63587336 25.856566338775337 
Si 8.50298904 4.201142129999999 26.633632499512377 
Si 11.69107236 4.18623678 28.150820584871635 
Si 9.643289039999999 7.6079349899999995 28.446065173208815 
Si 9.62141157 5.24513565 28.45142638328687 
Si 9.58081689 8.06218164 30.762451594242737 
Si 11.43096993 6.76194642 31.40184462951374 
Si 11.01059019 4.559538419999999 32.03508601988749 
Si 9.161039879999999 4.19374647 30.5663206588871 
Si 10.950072839999999 4.7006098199999995 34.36401629783481 
Si 9.26299899 9.355819409999999 1.2817897228549697 
Si 10.84581684 8.13794643 2.6893101320597896 
Si 8.15094585 10.85717097 2.7166351200922527 
Si 11.928987809999999 11.95858674 1.2971928918100066 
Si 8.142784559999999 8.14416921 5.429462406359833 
Si 9.502250219999999 9.502347959999998 6.78739505901574 
Si 10.85937012 8.14552128 8.144571643583715 
Si 8.14475565 10.8595656 8.145602645521803 
Si 10.859679629999999 10.860233489999999 5.4293936728972945 
Si 9.48796389 9.48679101 12.228954554782474 
Si 10.861667009999998 10.861797329999998 10.866382393405171 
Si 11.78920332 9.695905739999999 14.847252710019879 
Si 10.050034049999999 10.795334129999999 17.14267542497934 
Si 10.017340019999999 11.542784489999999 14.889420689287684 
Si 10.611810989999999 9.72332181 21.09570868926567 
Si 12.00152718 11.687618879999999 20.92868637529539 
Si 8.40866994 9.38181825 20.184955943889864 
Si 11.78154702 9.19590048 17.22041297111119 
Si 8.163912689999998 9.725113709999999 17.858465703862677 
Si 10.432669859999999 9.79874451 23.49433469822776 
Si 8.94536028 11.278837620000001 24.600221743752382 
Si 9.23230863 10.918861199999998 26.989981136046914 
Si 11.73068964 8.1655254 27.48706153713048 
Si 11.531300039999998 10.53107775 27.504451103152903 
Si 10.425013559999998 10.724765849999999 34.20627300130732 
Si 10.391651640000001 10.19638341 31.829332399776355 
Si 9.417982049999999 12.14380404 30.830600822350362 
Si 12.21820047 14.93340138 4.067062078638878 
Si 9.50068638 12.220383329999999 4.0720108879417 
Si 9.43423947 14.96200662 1.383051296540861 
Si 10.85081787 13.566865859999998 2.7033214483984076 
Si 8.14568418 13.573658789999998 5.430459041566651 
Si 9.503243909999998 14.93268462 6.787669992865896 
Si 10.86033123 13.575238919999999 8.145637012253074 
Si 9.50264118 12.21676695 9.50257302970216 
Si 8.145048869999998 13.574750219999999 10.867688329193415 
Si 9.517008959999998 14.931967859999999 12.249368393156619 
Si 10.90447713 13.51822392 13.842300754234085 
Si 9.574366049999998 12.91016709 17.843172508447704 
Si 10.927103939999999 15.37347573 21.297303934893176 
Si 8.63528013 12.855497849999999 20.053675030439976 
Si 11.06063307 15.689338829999999 18.956070367151327 
Si 11.78104203 13.932006209999999 17.56229321378122 
Si 10.306357199999999 13.18242186 21.65526780779738 
Si 9.81364986 13.3177266 23.953542961452225 
Si 12.0101283 13.590274589999998 24.912374763874208 
Si 11.069543699999999 14.775258059999999 28.903520733138524 
Si 12.05065782 15.061196429999999 26.750651219485384 
Si 8.47469331 15.894592829999999 26.59868153381119 
Si 8.69019372 14.61333546 28.566692399965127 
Si 8.29882647 12.29245029 28.69941671612834 
Si 11.5574292 13.095612449999999 30.452085644146933 
Si 9.02863476 15.77515455 32.16592016583087 
Si 11.372684309999999 16.14500271 32.17365268036653 
Si 12.27342357 1.386937116 1.1980964221941004 
Si 14.934965219999999 1.3544320499999998 4.068127447308235 
Si 12.216278249999998 4.07533446 4.073454290655024 
Si 14.837779079999999 4.05831141 1.3179400874774674 
Si 13.575157469999999 -0.0001301328279 8.145190244746567 
Si 13.57323525 2.71536381 5.4286719715406315 
Si 12.21725565 1.356445494 6.787944926716054 
Si 14.932733489999999 1.357115013 9.50088905986995 
Si 13.57776387 2.7179376299999998 10.860471315626798 
Si 12.21736968 1.3503628079999999 12.23795863837511 
Si 14.92318755 4.065218369999999 12.22228740891617 
Si 16.23454884 2.64445344 13.582900666611106 
Si 13.42243872 0.0008239856669999999 13.852232739571003 
Si 14.936089229999999 1.4312475449999997 15.201161308634271 
Si 14.109664949999999 2.3067617400000002 17.304542729259186 
Si 15.54999417 1.75409091 20.605089233660788 
Si 15.93347706 3.4226593199999997 18.89053301062019 
Si 12.73719987 1.0110616559999999 18.926686811915815 
Si 13.70577069 2.70197343 21.774211064721484 
Si 13.129446779999999 1.0904021009999998 23.40051352186174 
Si 14.690989889999999 1.293074136 25.14441893340658 
Si 14.213855789999998 3.71734542 25.153594850655566 
Si 16.01869005 1.81525986 29.69684235776609 
Si 14.37945993 0.11327723909999998 29.183678326448348 
Si 13.04807823 3.2731497 34.338000682263726 
Si 16.06299885 2.88460062 31.869472741899255 
Si 13.945706099999999 4.036613129999999 32.15464787797444 
Si 15.71584266 5.9171958899999995 0.19012809840477446 
Si 16.311339899999997 8.145863369999999 2.7070708587799213 
Si 13.559095529999999 5.4283655699999995 2.719721252560263 
Si 14.93107191 6.787554299999999 4.068436747889662 
Si 13.93420536 7.66364679 0.27079334637347885 
Si 14.932033019999999 4.073249339999999 6.787498159209549 
Si 13.57483167 5.42986425 8.144812210702604 
Si 12.21785838 6.7868049599999996 6.788048026909863 
Si 14.932375109999999 6.78605562 9.502813596821047 
Si 13.57079175 8.14990329 10.861158650252191 
Si 12.215496329999999 4.072060169999999 9.501645127957882 
Si 16.05693897 7.87854447 13.689437533546883 
Si 13.11362919 4.2743331 16.51871305204839 
Si 13.583742299999999 5.48987661 13.603108304597635 
Si 15.340781699999999 6.0619162499999995 15.332373488621624 
Si 15.61142376 7.15298787 17.967442608718596 
Si 15.44176341 6.19155207 21.462917212881404 
Si 14.709169529999999 5.405526989999999 19.353521614284308 
Si 12.494739509999999 4.846991759999999 18.69024370078093 
Si 13.85221779 7.830521549999999 21.899409066736656 
Si 14.702751269999998 4.44778902 22.918107715030292 
Si 13.70969658 8.05033881 24.24538524339371 
Si 15.80566572 8.07848793 25.44873633879893 
Si 12.70465245 5.39141985 29.914555600359037 
Si 15.86018835 4.53484278 26.554451550667206 
Si 15.38992863 6.72759081 27.352172116897282 
Si 13.52889387 7.253317979999999 28.718146584670276 
Si 13.17276189 7.92653481 32.3958679647558 
Si 14.961501629999999 6.2410410899999995 32.345348869789476 
Si 12.222843119999999 9.501419429999999 4.069605216752828 
Si 15.07636242 9.51463062 1.2380855506994128 
Si 13.574457 10.847641320000001 2.6908910016981915 
Si 14.93258688 12.22145847 4.072113988135509 
Si 13.57339815 8.14281714 5.430768342148078 
Si 14.932440269999999 9.502738919999999 6.78742942574701 
Si 13.574587320000001 10.860673319999998 8.144880944165141 
Si 12.217174199999999 9.500653799999998 9.500579759288524 
Si 14.92843293 9.502738919999999 12.256516673260696 
Si 12.22103493 12.221849429999999 12.247443856205521 
Si 13.673809709999999 10.989396900000001 13.783877311075758 
Si 13.558069259999998 10.34354727 18.211996268433108 
Si 15.260537159999998 9.75406104 21.36129478851718 
Si 15.523750979999999 9.41001624 18.999784849326264 
Si 13.785933779999999 11.414598479999999 22.439379148444694 
Si 12.70681902 10.16368938 24.09568376198331 
Si 12.777550199999999 11.59439121 25.879523315263434 
Si 12.73073274 11.365679609999999 29.39936393189639 
Si 14.909666849999999 12.13259652 28.91630515717082 
Si 14.997632849999999 11.939462279999999 26.572975218821522 
Si 14.41910979 8.65456749 30.411601634711335 
Si 12.91309929 10.23103224 31.68134925492944 
Si 14.57199144 11.71378062 32.902364850207235 
Si 13.42633203 13.200503759999998 0.07879260478182364 
Si 14.79496896 14.760271259999998 1.2358688965325233 
Si 13.58138025 16.290488699999997 2.6822374587645053 
Si 16.2771309 13.56157161 2.693351659657095 
Si 13.57647696 13.574815379999999 5.430390308104112 
Si 12.217662899999999 12.21789096 6.78742942574701 
Si 14.932668329999998 14.93229366 6.787566892672088 
Si 12.22039962 14.93410185 9.502298095852003 
Si 14.930909009999999 12.216555179999999 9.502538662970892 
Si 13.572860579999999 13.57602084 10.858409311750622 
Si 14.90264586 14.965867349999998 12.227270584950263 
Si 12.670883279999998 14.36688405 15.239755147850039 
Si 14.68535355 12.767922809999998 15.25535764384644 
Si 16.21680903 13.708246769999999 13.661463014293423 
Si 13.238834129999999 12.531831839999999 19.057933358634436 
Si 14.46532452 16.01148987 20.027762515062694 
Si 15.29243298 13.774954319999999 19.31774584703265 
Si 13.798639979999999 13.696436519999999 23.242529658215364 
Si 16.00355664 14.345593019999999 23.824633352459934 
Si 13.167011519999999 15.51633903 21.949378294002663 
Si 15.703869509999999 14.116653359999999 26.114488656953725 
Si 15.23887146 14.284815029999999 29.862730569604476 
Si 14.257122029999998 15.909042059999999 26.83897371884827 
Si 15.01301061 13.956946199999999 32.14557506091926 
Si 12.58790202 14.14874466 32.349060476766596 
