&CONTROL
  dt          = 30.D0,
  prefix = 'x.33_y.66_z3.14_struc32-scf',
  pseudo_dir = './',
  outdir='./',
  wf_collect= .true.,
  verbosity= 'high',
/

&SYSTEM
ibrav= 6, celldm(1) =30.783621515, celldm(3) =2.0985799228213096, nat=  432, ntyp= 1,
  ecutwfc     = 12.D0, nbnd= 1728,
  degauss     = 0.05D0,
  occupations = "smearing",
  smearing    = "methfessel-paxton",
/
&ELECTRONS
  electron_maxstep=200,
  conv_thr    = 1.D-8,
  mixing_beta = 0.3D0,
  scf_must_converge=.false.,
/
ATOMIC_SPECIES
Si  28.08  Si.pbe-hgh.UPF
K_POINTS {automatic}
1 1 1 0 0 0
ATOMIC_POSITIONS (angstrom)
Si 0.00279749799 2.6907984899999997 2.7162072906566785 
Si 2.74204683 -0.000910195605 2.719099415000036 
Si 1.3463717579999999 1.2760266509999998 1.3555345774275909 
Si 3.9200255999999998 4.01545242 1.2235805496152348 
Si -0.00249520446 -0.0009289649429999999 5.4309035659944875 
Si 7.56370764e-07 2.71534752 8.144440940442935 
Si 2.7152334899999997 -0.000231992406 8.145295587116506 
Si 2.7148914 2.71446786 5.429467759582891 
Si 1.3572713969999999 1.357838289 6.787262022815399 
Si 2.71606428 2.7156244499999995 10.858593660496355 
Si 1.379474667 1.346062248 12.24845426692117 
Si 1.94699709 2.6018388 19.599885651892922 
Si 0.309713625 1.97618877 18.159669263461424 
Si 2.0997972899999997 0.553254012 22.730627346510804 
Si 0.8966227769999999 3.84259923 23.630946338315308 
Si 0.741269934 2.3142551399999998 21.67172011795884 
Si 1.081468665 1.4809972049999998 26.551752624037707 
Si 3.3265157399999996 2.21972427 26.847733860028114 
Si 0.270107748 0.642544389 28.603690915542938 
Si 4.04365041 0.739290699 28.568547844325778 
Si 2.02704615 3.0741021899999996 33.952480029140915 
Si 1.116800046 1.541016081 32.10172556459382 
Si 3.0329536499999996 3.0839902199999996 31.687392857247584 
Si 0.358516836 2.54314593 30.1229450283461 
Si 1.357892046 4.076165249999999 4.073177674495866 
Si 2.7157384799999997 5.42430936 2.7026013156134603 
Si 1.4652855 6.79118697 1.2262094427831332 
Si 0.0202041612 8.12346462 2.6994288671611724 
Si -0.0006290139149999999 5.4276325199999995 5.431074495329201 
Si 2.7147447899999997 5.4298316699999996 8.144816984979306 
Si 1.3576232609999999 6.787407689999999 6.78777481081954 
Si 4.06780848 4.042444949999999 12.208593546065913 
Si 1.357502715 4.071571469999999 9.501619858070475 
Si 0.00255694356 5.427828 10.85804668662527 
Si 1.361936853 6.785322569999999 12.192970604873071 
Si 2.7157547699999998 8.14570047 10.859277377835209 
Si 2.5953553799999995 5.312755439999999 13.48871751960447 
Si 2.71213839 6.831390689999999 16.231586367889808 
Si 0.005117014799999999 8.039880629999999 13.576370082445706 
Si 0.6838998119999999 4.445980829999999 15.162149892319473 
Si 0.7027049879999999 6.0215985 20.15161135848211 
Si 2.6401040099999995 4.811805359999999 19.707195088226243 
Si 4.01297634 5.82035184 18.035677124060033 
Si 3.20852727 4.33621881 23.766664230078064 
Si 0.786618036 7.46121096 22.01258739724509 
Si 3.43723887 5.9378679 25.47917104870864 
Si 0.676145772 4.761485550000001 29.28669035119232 
Si 2.8499843699999996 5.6840697 29.072721009997593 
Si 1.626159024 7.5210278399999995 25.873334094558654 
Si 3.9442977 4.47181677 27.38158035820624 
Si 2.52752382 7.86916143 28.074083464865716 
Si 0.26828326799999996 4.88893851 34.17779907816064 
Si 3.42925677 5.361658019999999 31.34167118485546 
Si 3.2038031699999996 7.820014499999999 34.08939442624667 
Si 0.496134756 6.3588992399999995 30.948328599812072 
Si 1.35814617 9.501908129999999 4.0686309541924786 
Si 2.70961344 10.86580467 2.698406709739584 
Si 1.2430231109999998 12.063608369999999 1.2069730554544427 
Si 0.000422912835 8.14470678 8.145261401249563 
Si 2.71533123 8.14447872 5.4292284585142925 
Si -0.0026195623199999998 10.86165072 5.4292284585142925 
Si 2.7147122099999996 10.86018462 8.145193029515676 
Si 1.356939081 9.50080041 9.501243813534103 
Si 0.842549751 10.62394704 16.26690036844168 
Si 1.75093065 8.99874261 14.858100791730573 
Si 2.73878883 10.82146329 13.646075065141991 
Si 4.01393745 12.183225839999999 15.121981498661732 
Si 3.17648484 9.41975766 19.667402739104872 
Si 3.65127318 11.733947639999998 19.20141518680812 
Si 1.059102495 9.38877408 18.517185059948797 
Si 1.5714588329999999 10.78213923 22.989653660336092 
Si 2.6726514299999997 9.01037367 21.94729239138442 
Si 1.74610881 9.89413875 25.162438991483977 
Si 1.597130244 9.24073056 29.800025329204793 
Si 1.0140997409999999 11.41490799 28.82771090161884 
Si 3.75241779 10.95787575 25.782331316757027 
Si 0.12578388659999998 10.84545846 26.58094735440682 
Si 0.336663801 10.27258803 33.69762439108265 
Si 2.29991994 9.34159824 32.322839751979586 
Si 0.282398553 15.773721029999999 0.16026334422765484 
Si 4.02778395 14.87824344 1.323345165114289 
Si 2.18012328 13.99320774 0.13693319933256884 
Si 1.3566670379999999 14.934264749999999 4.0686309541924786 
Si 0.000172159236 13.57507602 8.145056286047906 
Si 2.7146307599999995 13.572795419999999 5.42994636172009 
Si 1.357279542 12.21720678 6.787569695617884 
Si 4.067319779999999 14.92646184 12.239189896979681 
Si 1.3560349859999998 14.93053434 9.50182497327213 
Si 2.7156896099999996 13.576069709999999 10.861191786384005 
Si 1.360206855 12.21090255 12.219772324556196 
Si 2.8453742999999996 16.26466905 13.841037064316547 
Si 2.06016372 12.78317025 16.30867549784573 
Si 1.298444949 14.65875198 15.005031647850553 
Si 3.8779973999999995 14.55975765 16.62465546599765 
Si 1.548968859 14.97888306 19.420614965645093 
Si 1.568217123 12.762824039999998 18.675670739095427 
Si 3.7363721399999994 15.75782199 18.64285230683038 
Si 1.0681727669999999 16.22901024 24.753849509784118 
Si 2.12436261 13.107178349999998 23.075665301564072 
Si 1.213306893 14.85457407 21.776875844674766 
Si 1.5208246259999998 13.95461673 25.2321781600472 
Si 3.32982261 13.18760208 26.552607270711274 
Si 2.6501223599999997 13.214969279999998 28.76757796166652 
Si 2.19326931 15.5857833 29.254589822133074 
Si 2.397888 15.772352669999998 31.605415148318848 
Si 0.22512128399999998 14.2568451 31.573690663795965 
Si 2.45413737 13.40908092 32.06248018934354 
Si 4.07381949 1.356324948 4.071810239818155 
Si 5.42312019 2.71006956 2.67831225715063 
Si 6.74756235 1.246962033 1.237460011593995 
Si 5.42997828 2.7146796299999996 8.14498791431402 
Si 6.78776607 1.356888582 6.788048297755082 
Si 4.07048004 1.356670296 9.502816363413471 
Si 6.804039779999999 1.350113571 12.24004454365325 
Si 4.860528749999999 0.7786880639999999 15.112682942853302 
Si 5.3872170299999995 2.66336613 13.623067976689516 
Si 5.558701859999999 2.08013526 17.106949676826098 
Si 7.36466013 1.9953132299999998 21.243678877968552 
Si 5.06027673 2.3490831599999997 21.238619369661023 
Si 4.11237792 1.7150112 19.141350618589694 
Si 6.751048409999999 2.9511778499999997 24.921941417541664 
Si 4.404473909999999 2.52954378 24.74643117665754 
Si 4.3538120099999995 0.9431225819999999 23.037787360991494 
Si 7.964767439999999 1.4738344919999997 23.521893422767906 
Si 8.041998329999998 0.42819405299999996 28.05199939482069 
Si 7.70362245 2.6172328499999997 27.085838423284432 
Si 4.7364804000000005 1.82972538 30.576967527212883 
Si 6.38680401 3.5208065699999995 30.395372202012947 
Si 6.78833622 4.07404755 4.071844425685098 
Si 4.07554623 6.781201199999999 4.07310930276198 
Si 6.79457529 6.820818479999999 1.3593463015917084 
Si 4.07228823 4.07313531 6.787877368420369 
Si 5.429147489999999 5.42991312 5.430766822526716 
Si 6.787554299999999 6.787554299999999 6.787569695617884 
Si 6.78683754 4.07155518 9.502098460207671 
Si 4.07194614 6.78784752 9.5026796199457 
Si 5.433285150000001 5.42774655 10.86385828400554 
Si 6.803192699999999 6.79226211 12.211362601288275 
Si 6.251629589999999 4.58750835 14.842170177735248 
Si 4.41071298 6.243842969999999 14.623790859704904 
Si 5.37369633 8.074480589999999 13.530116604472152 
Si 5.955151589999999 4.46979681 17.226087423121612 
Si 4.81765347 7.70862348 19.223123212316775 
Si 7.99817823 5.00707359 18.468606943023136 
Si 5.44610538 6.60469905 21.385105809510748 
Si 7.61738319 5.909458139999999 22.093402786697773 
Si 7.752915989999999 5.07707172 24.320509460417703 
Si 4.1265502199999995 4.5897726599999995 21.564889283762717 
Si 5.01484392 7.654133429999999 25.1774124012049 
Si 7.24323447 7.0604118 25.595026951777648 
Si 7.31805444 6.31907019 27.77273504776529 
Si 6.24718242 4.23859284 28.126422027155076 
Si 4.97783304 5.96424141 34.06956662341987 
Si 5.72067333 5.32059093 31.825230272760788 
Si 7.43074866 6.90298524 31.18841594335107 
Si 4.097211929999999 9.455367599999999 1.3861924629018574 
Si 5.4405179100000005 8.15062005 2.7314610244865376 
Si 6.78571353 9.50176152 4.072357213689239 
Si 4.07378691 12.22030188 4.075775800383515 
Si 6.65356905 12.0966282 1.2456372709667032 
Si 4.07269548 9.502315379999999 6.787808996686483 
Si 5.43035295 8.14526064 8.144885356713191 
Si 5.42919636 10.85906061 5.430595893192002 
Si 8.14495113 8.14715028 10.855961348741761 
Si 6.78900411 9.502087320000001 9.50144892873576 
Si 4.06837863 9.51093279 12.216798154132176 
Si 5.4319005 10.857236129999999 10.861567830920373 
Si 6.79460787 12.213508949999998 12.236591771092034 
Si 8.12224287 10.80360945 13.64788691608996 
Si 6.725000699999999 9.32268555 15.031047092593994 
Si 7.36286823 10.167843329999998 19.00737620604102 
Si 4.95141066 11.58712587 17.223010695096765 
Si 6.77523906 11.483814689999999 20.8348500952001 
Si 5.89566051 9.31124997 17.40611019844218 
Si 6.29891946 10.10074482 22.68410038160171 
Si 4.7529333 8.308356120000001 22.878720522106835 
Si 5.3522424 11.630229209999998 24.150332214776647 
Si 4.3402587299999995 9.0445338 27.045601657892803 
Si 7.503157709999999 8.18649063 29.18119276580697 
Si 7.33566393 10.99612467 27.11380246244361 
Si 5.924396069999999 9.78167259 28.561437184001687 
Si 5.60646414 10.88722602 30.59259046840572 
Si 5.68177281 10.31749956 34.112059656029714 
Si 7.69182849 11.880117809999998 30.943747693641743 
Si 7.41639717 8.60294448 32.850772095176616 
Si 4.16663991 10.79329788 32.369640203824225 
Si 7.3845502199999995 14.00254191 0.05682511546693194 
Si 5.4176793299999995 13.55318226 2.7067070382332856 
Si 6.79042134 14.934427649999998 4.07249395715701 
Si 4.072516289999999 14.93281494 6.787808996686483 
Si 5.43009231 13.575499559999999 8.144816984979306 
Si 6.78709818 12.217939829999999 6.78753550975094 
Si 5.4283329899999995 16.28882712 5.430424963857288 
Si 4.07210904 12.217614029999998 9.502884735147354 
Si 6.78696786 14.93175609 9.502474504744043 
Si 5.429701349999999 16.2908145 10.862046433057573 
Si 5.3942054399999995 13.51791441 13.651032015848692 
Si 6.360691139999999 15.074065529999999 15.11217015484916 
Si 8.09819883 16.083866339999997 13.732907167176599 
Si 6.58925613 13.3841898 17.15368175693685 
Si 5.07896136 13.03092486 20.5732598413541 
Si 7.6633698599999995 16.21364877 19.98704059501967 
Si 5.88308463 14.73075378 19.106036618037823 
Si 4.43879694 13.35721356 22.833697735343222 
Si 7.72494606 15.406202339999998 23.603597644761102 
Si 5.38280244 15.248710619999999 23.866931377821174 
Si 6.739906049999999 12.71739123 25.70418242492588 
Si 5.27154174 14.478503129999998 26.181622242648455 
Si 5.93190576 15.66394272 28.15903534421847 
Si 4.80770028 16.14772314 31.90898564677055 
Si 4.33990035 12.8814804 30.387133408079738 
Si 7.73796177 14.04725796 31.86717633149955 
Si 5.94858672 14.61045213 30.325906520385256 
Si 5.78104407 15.800485499999999 34.098316937518725 
Si 11.968800569999999 1.2512756250000001 1.2378223817835883 
Si 9.50125653 1.3586918849999998 4.0740665070363775 
Si 10.859402699999999 2.72043 2.713759582583577 
Si 9.42941763 3.97715463 1.3477265254178648 
Si 8.14469049 0.00032677577099999997 8.144680241511535 
Si 8.14384341 2.71360449 5.430732636659773 
Si 10.85876739 -0.001568749806 5.429877989986204 
Si 10.860298649999999 2.7150868799999994 8.145056286047906 
Si 9.50124024 1.357334928 9.501277999401047 
Si 8.145309509999999 2.71311579 10.861020857049292 
Si 9.52370415 1.057331772 15.082633565810616 
Si 10.800660959999998 2.67882534 13.730616714091434 
Si 8.301514319999999 1.63103625 17.02521126896596 
Si 9.52192854 3.7052582399999996 17.189200872690378 
Si 10.52744508 3.53782962 20.997267149045143 
Si 10.54958319 2.4359740199999997 18.91582645436831 
Si 9.53852805 0.263466315 18.638237214793108 
Si 11.353755329999998 1.7356343399999998 22.310619785252065 
Si 10.16246763 1.8750441599999998 24.279007817949193 
Si 11.161614779999999 0.0824772474 25.65909126642838 
Si 11.407153949999998 1.5463689749999998 29.87099518897796 
Si 9.8386713 3.66893154 27.109289928007165 
Si 11.89912824 2.8130223599999997 27.93997230884927 
Si 8.5509468 2.11584294 34.10501736743951 
Si 10.12873104 0.290221011 34.02228756943803 
Si 9.16226163 0.765833625 30.182291693358728 
Si 8.32583529 2.5803685799999996 31.64339564649225 
Si 8.733688019999999 7.479260279999999 0.23190461442757856 
Si 10.89291123 8.10750042 2.729379105189724 
Si 12.217239359999999 4.07271177 4.0707162920759865 
Si 12.184512749999998 6.61611834 1.2293716354753381 
Si 8.12673891 5.414649389999999 2.71315449273869 
Si 9.50464485 6.78889008 4.073143488628922 
Si 9.502738919999999 4.07241855 6.787706439085655 
Si 8.145228059999999 5.430255209999999 8.144919542580135 
Si 10.85837643 5.429733929999999 5.430048919320918 
Si 10.85985882 5.42950587 10.865088975215478 
Si 12.23201439 6.78281391 12.243839174883897 
Si 9.50068638 6.78864573 9.501551486336588 
Si 9.496369529999999 4.06893249 12.24397591835167 
Si 9.706689719999998 6.59819934 15.094120017103384 
Si 11.14993485 5.34518883 16.59788793218147 
Si 10.85265864 8.07391044 13.671680279482118 
Si 8.15827635 5.4941771699999995 13.652912238530543 
Si 8.27774721 4.1446647 20.686278317466865 
Si 8.18015382 7.334328149999999 18.241236741986846 
Si 9.920789189999999 4.19138442 24.835109315507058 
Si 11.454003989999999 5.94563823 24.76352411012892 
Si 12.07271448 5.35510944 21.365038705615348 
Si 9.11212101 7.7879232 22.015766682870765 
Si 11.286331019999999 7.10459028 22.70963722420795 
Si 9.52207515 5.72764545 28.11322628251517 
Si 11.051315189999999 7.03913706 26.818026341654857 
Si 9.587609819999999 5.913644669999999 30.498750263647846 
Si 11.58676749 7.18727832 30.50596348157277 
Si 10.217723309999998 4.2084237600000005 32.02822595066689 
Si 10.37179413 5.60670849 34.14374995468565 
Si 9.56301192 9.37715931 1.3429439226325728 
Si 8.15001732 10.856894039999998 2.687703114799806 
Si 11.419860149999998 10.22355513 0.09993896342046206 
Si 12.203637209999998 12.14359227 1.3047446349107337 
Si 12.21792354 9.50018139 4.07013513233796 
Si 8.1448371 8.14442985 5.430630079058945 
Si 9.50296698 9.50185926 6.787638067351769 
Si 10.85976108 8.145309509999999 8.14474861324542 
Si 8.145032579999999 10.859744789999999 8.14437256870905 
Si 10.859174639999999 10.85925609 5.429741246518433 
Si 9.50257602 9.48721455 12.233378299599412 
Si 10.8631494 10.856698559999998 10.859585050637694 
Si 11.59380477 9.98182782 14.7947201944187 
Si 8.452913579999999 8.21364606 16.148412153618075 
Si 9.78120018 11.70001557 15.09644465605549 
Si 8.579519459999998 11.963783249999999 17.360813924743027 
Si 9.11133909 8.71936911 19.797514148689014 
Si 10.95303762 10.125375299999998 19.389027224589984 
Si 9.90792009 11.407838129999998 22.721089489633773 
Si 8.47563813 9.62075997 23.370962820215627 
Si 11.74631175 10.623262859999999 21.519729753531333 
Si 8.31426939 9.233758439999999 25.665449837679734 
Si 9.50490549 9.51555915 28.796533390967042 
Si 8.84325456 11.760760979999999 28.781970211649426 
Si 11.715491069999999 11.163537 25.83395197584059 
Si 10.42459002 9.2794356 26.653216277123814 
Si 11.273885459999999 9.45136026 30.232818404700122 
Si 8.62765641 10.59710112 32.64230667855968 
Si 10.882045799999998 10.73991555 32.101828122194654 
Si 9.50402583 12.219633989999998 4.071639310483441 
Si 9.286424010000001 14.85830448 1.312638151587817 
Si 10.847641320000001 13.56513912 2.690766168477877 
Si 8.12976885 16.2952128 2.7202754088228667 
Si 8.14363164 13.573854269999998 5.429741246518433 
Si 9.502022160000001 14.933303639999998 6.787740624952598 
Si 10.85982624 13.57525521 8.144782799112363 
Si 9.5013054 12.216750659999999 9.502884735147354 
Si 8.14587966 13.576867919999998 10.861978061323688 
Si 9.50181039 14.91080715 12.241343606597077 
Si 10.86049413 16.2934209 10.862832707997256 
Si 11.26380195 16.25512311 16.29342860118926 
Si 10.790610029999998 13.380948089999999 13.64928853663461 
Si 8.86764069 12.64406994 21.028581403164715 
Si 10.14984288 12.37657185 19.02299914723386 
Si 11.085133229999999 14.662107719999998 18.457086305863427 
Si 8.85843684 14.94451116 21.593126809857434 
Si 11.15237835 15.64445988 22.027834293901563 
Si 11.932343549999999 14.6759868 24.117821455314083 
Si 10.5577119 12.75568902 24.505386628844146 
Si 8.66240298 13.955854769999998 25.255287806100508 
Si 9.6115887 15.192412379999999 27.043482134142355 
Si 10.571900489999999 13.42387224 28.47101556593809 
Si 9.71377587 15.350718599999999 31.75155972949914 
Si 11.41728633 14.16174408 30.564011083641574 
Si 14.936561639999999 1.35814617 4.073280232096693 
Si 14.854166819999998 3.8988811799999996 1.3182788196333721 
Si 13.574880539999999 9.50474259e-05 8.14498791431402 
Si 13.574538449999999 2.71412577 5.4313137963977995 
Si 12.217174199999999 1.3575841649999998 6.787706439085655 
Si 16.2935838 -0.0031896145799999998 10.863174566666684 
Si 14.93061579 1.3574978279999999 9.502577062344871 
Si 13.57727517 2.7169602299999998 10.857739013822785 
Si 12.19612752 1.371007125 12.227464144618315 
Si 14.93045289 4.05135558 12.221960220040533 
Si 16.14207051 2.54109339 13.624401225500282 
Si 14.83484688 1.0293097139999998 15.054498597316725 
Si 12.90164742 1.76979447 16.331409099362663 
Si 12.324264659999999 3.84869169 15.220026565053566 
Si 15.676958429999999 3.72579993 17.1168635782395 
Si 14.114486789999999 0.16134153569999998 19.799736230040292 
Si 12.84945426 1.9134071099999999 18.696660861398282 
Si 14.107514669999999 3.9464154 18.837369889734678 
Si 13.545737729999999 2.38684338 22.899061112937776 
Si 15.041176019999998 1.014104628 21.799335959256158 
Si 13.92319332 2.62700685 25.16954965180807 
Si 16.124444729999997 3.22429599 25.700558723029946 
Si 12.99575475 1.131697251 26.717998494980343 
Si 13.36760658 2.4852024 33.919764154476695 
Si 15.205819049999999 1.0376746289999998 33.05882728139025 
Si 12.27192489 3.0397139999999996 31.620080885237293 
Si 14.30263629 3.80992149 30.680858376851926 
Si 13.58815689 5.41078866 2.7007313486916913 
Si 14.93315703 6.78801042 4.067160961913939 
Si 14.932603169999998 4.07271177 6.787501323883998 
Si 13.57492941 5.42971764 8.14498791431402 
Si 12.21790725 6.78693528 6.787808996686483 
Si 12.21688098 4.07036601 9.502030088473786 
Si 14.931283679999998 6.7860719099999995 9.502337761276271 
Si 13.618765799999998 5.329354949999999 13.677970478999587 
Si 15.45655473 6.242165099999999 14.803061545952731 
Si 16.20234351 7.312336649999999 18.34844362071934 
Si 15.56082702 4.1873445 20.711131442734253 
Si 14.23201914 7.8576444 19.493020631829857 
Si 12.878173529999998 5.92363044 19.246506345305622 
Si 16.0761123 5.933518469999999 23.491878231592167 
Si 14.064606809999999 4.71971799 22.53060583902872 
Si 13.60104228 5.020138169999999 24.986757821265137 
Si 15.591354479999998 6.7211725499999995 25.69539665712159 
Si 15.59498715 4.90972455 27.341377778681558 
Si 12.68766198 6.7828953599999995 28.460725619988317 
Si 13.49255088 4.56318738 28.52044832953732 
Si 13.3410213 7.37028018 32.19242066959296 
Si 15.03363375 5.49360702 32.258399392792484 
Si 14.935111829999999 12.21722307 4.077758580666195 
Si 13.113303389999999 8.47029501 0.05836553063137267 
Si 15.071214779999998 9.34062084 1.1507304671602152 
Si 13.607981820000001 10.8502803 2.6949060769646453 
Si 13.57367508 8.146238039999998 5.429091715046521 
Si 14.93327106 9.50262489 6.787638067351769 
Si 13.574847959999998 10.85994027 8.144782799112363 
Si 12.216343409999999 9.501777809999998 9.501927530872958 
Si 13.577731290000001 8.14377825 10.860952485315405 
Si 14.920858079999999 9.49558761 12.239600127382994 
Si 16.2930951 10.85998914 10.862490849327829 
Si 13.52609199 10.81954107 13.689115071622926 
Si 15.225448499999999 11.91703095 15.023252714931044 
Si 13.02978456 9.59824719 18.479067818307623 
Si 16.25621454 11.25277362 19.50874613062353 
Si 14.046378299999999 11.71813005 18.816619068500426 
Si 15.006185099999998 8.605697489999999 21.623483859702606 
Si 12.87976995 8.86899276 22.673400205248626 
Si 14.24558871 11.96849106 22.94777597333121 
Si 13.42765152 10.20420261 24.51362542277735 
Si 15.88548672 10.80084015 21.785456497277398 
Si 14.86586304 9.037724579999999 26.12644625340284 
Si 13.04325639 10.49804163 29.112034756981767 
Si 14.186863259999999 8.593610309999999 28.33160560054552 
Si 15.74088039 8.301400289999998 30.14752466667794 
Si 14.194063439999999 11.4719067 30.876572465099223 
Si 14.897954339999998 9.505052099999999 32.0003302832416 
Si 12.21839595 14.935551659999998 4.068665140059421 
Si 14.72484051 14.73269229 1.3747778019296701 
Si 13.54961475 16.298144999999998 2.6955556084365577 
Si 16.279232309999998 13.541404589999999 2.7005638379436716 
Si 13.574880539999999 13.572143819999999 5.4292284585142925 
Si 12.217874669999999 12.217239359999999 6.788014111888138 
Si 14.932228499999999 14.932163339999999 6.787740624952598 
Si 12.21732081 14.930843849999999 9.5019617167399 
Si 14.9305995 12.217304519999999 9.501414742868818 
Si 13.575711329999999 13.57562988 10.858593660496355 
Si 12.231085859999999 12.20730246 12.225344620867864 
Si 14.91698106 14.93718066 12.218746748547911 
Si 15.606145799999998 15.34790043 16.219655500326784 
Si 12.27971151 14.58616374 15.036619388905661 
Si 14.01301638 13.304776050000001 16.500389839660723 
Si 13.41619965 16.16360589 13.565875021294278 
Si 16.20778437 13.48640955 13.530253347939924 
Si 13.109165729999999 12.48312474 20.913169916365955 
Si 12.519614339999999 14.75258238 20.342471053623537 
Si 15.99272379 16.101035999999997 18.374083020926406 
Si 15.674824439999998 15.548642099999999 23.175829891706357 
Si 14.281117199999999 13.941340379999998 24.166980731977773 
Si 15.70970133 13.07238291 25.92857845553815 
Si 15.726822119999998 12.885911279999998 29.840809068467504 
Si 12.559361939999999 12.336156359999999 27.699543106640842 
Si 14.57679699 13.7132478 27.887120958555762 
Si 14.32446489 16.04260377 28.20200697896552 
Si 13.11884199 13.91055228 33.888005484086875 
Si 12.89977407 15.9962913 30.10315141138624 
Si 12.437154360000001 12.576417569999998 31.99998842457217 
Si 14.307751349999998 15.4430829 32.06111275466583 
