&CONTROL
  dt          = 30.D0,
  prefix = 'x.33_y2.00_z3.17_struc45-scf',
  pseudo_dir = './',
  outdir='./',
  wf_collect= .true.,
  verbosity= 'high',
/

&SYSTEM
ibrav= 6, celldm(1) =30.783621515, celldm(3) =2.119710052438847, nat=  432, ntyp= 1,
  ecutwfc     = 12.D0, nbnd= 1728,
  degauss     = 0.05D0,
  occupations = "smearing",
  smearing    = "methfessel-paxton",
/
&ELECTRONS
  electron_maxstep=200,
  conv_thr    = 1.D-8,
  mixing_beta = 0.3D0,
  scf_must_converge=.false.,
/
&IONS
/
ATOMIC_SPECIES
Si  28.08  Si.pbe-hgh.UPF
K_POINTS {automatic}
1 1 1 0 0 0
ATOMIC_POSITIONS (angstrom)
Si 3.26032947 2.44955988 0.2091051670036536 
Si 1.4052731399999998 1.29138975 1.2216395854878612 
Si 4.06774332 1.3600292939999998 4.0737203351568985 
Si 0.00021577408199999998 2.71536381 8.145679636399333 
Si 2.7151520399999995 2.7147936599999998 5.4308214117516 
Si 1.3576151159999998 1.356976548 6.787300946964724 
Si 2.71235016 2.71713942 10.863334797264157 
Si 1.3490058509999998 1.3631488289999998 12.240843149220606 
Si 1.356880437 4.07337966 9.502780712994031 
Si 4.07240226 1.35816246 9.502711652840523 
Si 0.344795769 0.824787135 16.07299106740492 
Si 0.0050109017399999995 2.8074023099999996 13.738654288588789 
Si 2.36389077 2.1449043 16.419051496635802 
Si 3.9656050199999995 2.75558382 20.380514552264703 
Si 3.28546494 1.408320999 18.580012760068946 
Si 0.9036877499999999 1.225118772 23.848577341152428 
Si 3.6844559099999996 3.9538925099999997 23.97875573051587 
Si 3.2283196199999997 1.64408454 23.78255583439834 
Si 4.00442409 0.22496489999999997 25.45937089166045 
Si 1.417904406 2.89178451 29.6731452181325 
Si 0.683604963 1.2296066669999999 26.24392876559328 
Si 2.5808084099999995 0.299993382 27.30990676507308 
Si 0.365488956 3.2314310099999997 27.486735288131484 
Si 3.3774056999999997 1.96628445 28.829782623487215 
Si 0.3979223459999999 1.225640052 31.082145000088808 
Si 1.3605864119999997 4.06831347 4.069991086867442 
Si 2.71764441 5.428512179999999 2.6935842443594518 
Si 1.42770447 6.823180529999999 1.2593706003572072 
Si 4.0726140299999996 4.07253258 6.78685205596692 
Si 2.71459818 5.430222629999999 8.144747324326968 
Si 1.357649325 6.78773349 6.787128296580954 
Si 0.0011198267279999999 5.42877282 10.860710511430835 
Si 1.348603488 6.78351438 12.246816852499089 
Si 3.87776934 6.97889664 15.022068181389967 
Si 0.31165376399999994 6.21608481 16.733758616173844 
Si 1.419865722 4.199350229999999 15.333425883482848 
Si 2.75739201 5.39984178 13.709649024115238 
Si 1.8785790900000001 4.14389907 20.323194624852682 
Si 2.25872253 8.11642734 20.091394219601547 
Si 1.95791139 6.10221771 18.828698372852905 
Si 3.7844276399999996 6.13976616 17.32591490243211 
Si 2.1591254699999998 5.1398696699999995 22.57431391869112 
Si 0.366539661 4.947093809999999 24.175508107861468 
Si 2.5313030999999997 7.46166708 22.343342235282087 
Si 2.2934039399999997 8.1119313 25.98540208093437 
Si 1.3201416 7.85919195 29.60090829756265 
Si 3.6588480299999997 4.90936617 26.08533212306111 
Si 1.3329048149999998 5.00642199 26.384431647906236 
Si 0.765123381 7.04651643 27.42789603734228 
Si 3.73394493 4.18947849 33.1173131939063 
Si 2.58825294 4.67672868 30.90120739789665 
Si 0.84141108 6.31426464 31.342363658508674 
Si 3.13422858 7.97318937 34.49744583169607 
Si 0.008021782439999998 8.14594482 2.6879558418485123 
Si 1.357326783 9.500295419999999 4.0680919326459595 
Si 2.71964808 10.87370532 2.6933770638989265 
Si 1.3011246539999999 12.17535777 1.2512353142739108 
Si 2.7170091 8.14638465 5.429785509448973 
Si 0.000182211795 10.8620091 5.430061750063007 
Si 2.7150868799999994 10.860038009999998 8.145368865708543 
Si 1.357444071 12.218102729999998 6.787646247732266 
Si 1.357338186 9.500067360000001 9.502918833301049 
Si 2.71046052 8.14949604 10.862678725805825 
Si 1.3647615389999999 12.21531714 12.233488242871957 
Si 2.04543756 8.906427179999998 14.849694038232856 
Si 2.77540875 10.89471942 13.755090605123803 
Si 0.637571052 10.75933323 16.09460689545307 
Si 3.5532888299999996 11.128529789999998 17.14076463087594 
Si 1.0306764449999999 8.28229212 23.972091425702306 
Si 0.621396711 10.58353155 23.95807221454009 
Si 2.41077339 11.708665559999998 22.96640294023539 
Si 0.8378631179999999 11.13357969 26.280427056722502 
Si 3.35341053 9.03230001 29.141209385733607 
Si 2.85698907 10.10051676 27.02354883855026 
Si 0.48817546199999995 10.588043879999999 34.17980365563392 
Si 1.10196963 11.67082389 30.55493978820524 
Si 3.27122748 10.74087666 30.82423985681147 
Si 2.8427678999999997 10.07868816 33.20284419402652 
Si 2.71972953 16.28323965 2.712423854236559 
Si 4.07075697 12.21987834 4.069714846253408 
Si 3.95200287 14.83830036 1.3071843976387876 
Si 2.19217788 13.94948538 0.027009564157464798 
Si 1.359993456 14.931544319999999 4.070267327481476 
Si 2.7147122099999996 16.290325799999998 8.144747324326968 
Si 0.000299419974 13.574799089999999 8.144816384480476 
Si 2.71441899 13.575662459999998 5.429612859065202 
Si 4.088757419999999 14.900788799999999 12.224648543222873 
Si 1.3573886849999999 14.93248914 9.502918833301049 
Si 2.7187358399999995 13.571899469999998 10.859640079051454 
Si 2.6929650599999997 16.19416593 13.553642137339633 
Si 1.402951815 14.6676789 17.1518833155908 
Si 1.059408747 15.1756011 14.852525504526703 
Si 3.89080134 14.59155573 16.463906066339543 
Si 2.22884667 12.839566229999999 15.720059152899948 
Si 2.15073612 15.805160729999999 19.339916159199262 
Si 2.6859929399999998 12.22292457 20.676851670969494 
Si 0.1468597257 15.75231597 20.567425857735344 
Si 3.7554314399999997 14.302717739999999 20.30596411655232 
Si 0.686028915 13.222837349999999 21.080232027612393 
Si 0.26455448699999995 15.38994492 22.90100297486288 
Si 1.70059455 13.78489122 24.02723595827881 
Si 3.89127375 14.42748285 24.406514321347256 
Si 0.988602633 13.455963539999999 26.282119030483457 
Si 0.94105701 14.00004954 30.032154426146217 
Si 2.2523042699999998 14.38648092 28.077406781089323 
Si 0.6193848959999999 15.696832229999998 34.35639046815505 
Si 1.506298833 15.57799668 31.915908233396415 
Si 3.9289688099999998 15.911208629999999 32.20036700569775 
Si 5.44766922 2.70490563 2.7165536514163646 
Si 6.607338029999999 1.265210091 1.2147715532214451 
Si 8.14296375 2.7178073099999995 5.430752351598091 
Si 5.42906604 -0.0001407397356 5.430407050830548 
Si 5.430238919999999 2.7151194599999995 8.14485091455723 
Si 6.787863809999999 1.3577421779999999 6.787887958269547 
Si 4.07175066 4.07468286 12.232728581183363 
Si 6.77932785 1.363448565 12.239082115306141 
Si 5.69519577 0.06498700019999999 16.503615654606907 
Si 6.69947427 3.87560277 15.350138440631895 
Si 7.296958889999999 1.93235238 16.69208081353149 
Si 4.0772241 1.1628095219999999 14.953802219646857 
Si 5.340643919999999 2.70927135 13.669145244082527 
Si 7.61456502 2.8553111999999996 18.91823486187662 
Si 7.42100724 3.52779498 25.11821373332867 
Si 5.89794111 3.5085564899999997 23.35179312688934 
Si 5.03191584 1.5998197229999997 22.23837080194923 
Si 6.67961676 0.44710022699999996 29.855291373011056 
Si 6.135938009999999 0.358814943 26.366130707226496 
Si 6.56263827 2.5622866799999997 27.051380080414166 
Si 4.6795794299999995 3.76225695 27.913009085662438 
Si 7.94606652 2.1292658999999996 28.850535199616505 
Si 4.71623193 1.352470734 30.712914889355837 
Si 5.608549259999999 2.9468447099999997 32.37053122394259 
Si 7.66424952 2.8954823399999996 34.434255791235834 
Si 4.64141196 0.41491770299999997 34.46916569883436 
Si 4.32473436 4.274316809999999 1.3882782828960942 
Si 6.788906369999999 4.06982844 4.07610291045294 
Si 4.06806912 6.789411359999999 4.071165109477086 
Si 6.71605749 6.70048425 1.3260136484928686 
Si 8.11668798 5.4309231 2.7336909285094886 
Si 8.14477194 5.42991312 8.144989034864247 
Si 5.430711329999999 5.4279909 5.4291294379906425 
Si 6.7877171999999995 6.787407689999999 6.787611717655512 
Si 6.78620223 4.0701705299999995 9.503229603991839 
Si 4.071473729999999 6.7869027 9.502780712994031 
Si 5.42975022 5.43146067 10.859709139204963 
Si 6.79123584 6.76958643 12.23866775438509 
Si 7.99848774 5.228112599999999 13.708233290968314 
Si 7.48502694 5.8694499 16.833170707149268 
Si 5.86226601 4.12190757 19.932486806378584 
Si 6.38937783 7.92293472 19.860180825655227 
Si 5.85143316 5.98351248 18.504633602514467 
Si 6.51735207 7.3656538199999995 22.156085629043904 
Si 4.58314263 8.10049572 23.31557107637415 
Si 6.795731879999999 5.04248805 21.868415559604422 
Si 4.37795379 7.10791344 25.515206025772034 
Si 8.015005799999999 5.779187009999999 25.673043006615615 
Si 4.717942379999999 5.31283689 29.809711671695474 
Si 5.30180856 7.5479226299999995 29.09497361295969 
Si 6.31561671 7.455330269999999 26.852590428540072 
Si 4.98418614 6.32478798 34.13059829625914 
Si 6.4153115099999996 4.86948825 31.353482343223533 
Si 8.12032065 10.85169753 2.7046718520052346 
Si 4.26319074 9.608395859999998 1.4017622778686203 
Si 5.451090119999999 8.13822336 2.729146770408632 
Si 6.79087746 9.50096331 4.072926143391552 
Si 6.7401504 11.93752377 1.0493414084996104 
Si 4.07227194 9.50242941 6.7879224883463 
Si 5.43002715 8.14498371 8.144954504787494 
Si 5.42908233 10.85749677 5.430199870370024 
Si 6.78696786 9.50249457 9.503195073915084 
Si 4.05345699 9.51751395 12.208626587608912 
Si 5.42751849 10.86011946 10.859950849742242 
Si 6.799853249999999 12.21828192 12.216603035339139 
Si 7.90662843 8.190888929999998 16.06114725107822 
Si 8.107647029999999 10.805157 13.549947419126928 
Si 5.3833400099999995 8.15322645 13.536618809499796 
Si 6.4607769 9.78970356 14.88892020542566 
Si 4.81898925 11.69341812 15.2456504283736 
Si 6.680529 11.661929549999998 20.206275784962866 
Si 8.0368344 9.70312221 19.588739892290235 
Si 4.42232775 11.154284279999999 19.486427274867452 
Si 4.313021849999999 8.8457958 19.23090470688616 
Si 8.13613824 11.94273657 23.918776987193777 
Si 4.476426839999999 10.53420543 23.48970625344573 
Si 6.179155379999999 11.94850323 22.498796640829624 
Si 4.74794856 10.77819705 25.796626151319 
Si 6.79125213 9.75946932 26.451419996809445 
Si 7.900242749999999 11.15518023 28.102164846122104 
Si 5.519866499999999 10.3454532 34.10038447909919 
Si 6.906455009999999 8.536057739999999 30.64630637129693 
Si 6.641856539999999 8.377311689999999 33.09393633194368 
Si 7.07508909 10.94415957 30.26499073369998 
Si 5.44046904 13.55225373 2.672807497176432 
Si 6.788499119999999 14.936007779999999 4.068299113106485 
Si 8.126999549999999 16.27392177 2.6790539880612725 
Si 4.07116422 14.93327106 6.7879224883463 
Si 5.430238919999999 13.574603609999999 8.145368865708543 
Si 6.787831229999999 12.21712533 6.787646247732266 
Si 4.072923540000001 12.21743484 9.502297291919474 
Si 6.787358819999999 14.93242398 9.504058325833938 
Si 5.430271499999999 16.2911403 10.864543349950553 
Si 5.52372723 13.51832166 13.713067501713907 
Si 6.91833042 14.81806818 15.127902866641678 
Si 8.08938594 16.21187316 13.623047591615633 
Si 5.375276459999999 14.46685578 18.54638046531033 
Si 7.456112189999999 13.92345396 19.60300081398973 
Si 6.501990599999999 15.98552361 22.51623432959051 
Si 7.46788986 15.7211532 24.675296438802174 
Si 5.05644858 14.13408366 22.359847611970608 
Si 7.29348912 13.515226559999999 25.458127808897295 
Si 5.0118465599999995 13.052590559999999 25.994483491120732 
Si 7.97620302 13.591089089999999 27.685628530235842 
Si 6.201260909999999 15.143998499999999 28.2119359601238 
Si 4.47655716 13.554094499999998 28.26690784231653 
Si 7.7322114 15.637634369999999 31.663251661785722 
Si 5.62120659 14.23395765 31.71594455891268 
Si 5.051300939999999 12.2741892 30.282911843535427 
Si 9.503227619999999 1.357043337 4.068955184564815 
Si 10.858685939999999 2.7151520399999995 2.6979039569614054 
Si 9.35278947 4.03381125 1.3623738193150716 
Si 8.14526064 0.00028666490399999997 8.145230745401527 
Si 10.85994027 2.7146307599999995 8.145576046169069 
Si 9.48822453 4.05036189 12.246644202115316 
Si 12.19493835 1.349784513 12.235560047477211 
Si 9.50205474 1.3561897410000001 9.502884303224295 
Si 8.147052539999999 2.71679733 10.86098675204487 
Si 9.19894671 1.055867301 15.42962667732013 
Si 10.63860804 2.4698572199999997 13.722666863051582 
Si 8.98891974 1.417857165 20.236316951739045 
Si 10.919480219999999 0.8653736699999999 18.881598450440382 
Si 11.550962069999999 2.95448472 17.953740757977503 
Si 9.81786897 2.7265713299999996 22.094794742805146 
Si 9.71719677 0.0255549375 24.380962064549127 
Si 9.42861942 2.3948091899999997 24.394808625327574 
Si 12.12342525 2.6099023499999996 21.665793069210608 
Si 10.89533844 3.3635917799999997 26.03291546654819 
Si 11.51952237 1.520647065 27.312738231366925 
Si 9.904450319999999 0.8649191789999999 28.78972773445231 
Si 8.21973852 3.8236376699999997 30.420099838479977 
Si 9.629279639999998 3.03815016 32.07571342861498 
Si 8.78529474 1.154921904 33.276496847743296 
Si 11.08298295 2.03773239 30.536293546757957 
Si 8.50082247 7.69994091 0.04604378554715887 
Si 12.12702534 6.81422103 1.3168631781529982 
Si 9.5011425 6.78882492 4.070578098172264 
Si 10.24623081 5.86756026 0.10516272995807402 
Si 9.502869239999999 4.07189727 6.787749837962529 
Si 10.86026607 5.43015747 5.430372520753794 
Si 9.50011623 6.787423979999999 9.502918833301049 
Si 10.86008688 5.430190049999999 10.867858237318961 
Si 12.228365429999998 6.79626945 12.225718975602254 
Si 9.382274370000001 6.809627249999999 14.783223640480966 
Si 10.811428649999998 5.49557811 16.158211296834356 
Si 12.066850079999998 4.079749049999999 14.793686253737498 
Si 9.37031751 4.682902589999999 17.905156939984302 
Si 11.28383865 7.732504619999999 19.988839891641486 
Si 10.26875988 5.61495123 19.869469416302113 
Si 12.212010269999999 4.15821798 19.862597931028024 
Si 9.593181 6.19010226 23.80696859866358 
Si 11.95648533 6.16306086 24.485691787344702 
Si 9.141817679999999 4.93644015 21.84251800203875 
Si 11.30170878 7.02634941 26.558912125745355 
Si 9.034515449999999 7.73600697 29.81834419088403 
Si 11.64808305 4.38487704 30.15881074768073 
Si 9.59256198 5.3901166499999995 29.348562496642746 
Si 9.822348719999999 5.25078828 27.055351039240904 
Si 10.80144288 7.57698399 31.64754047686255 
Si 11.048904269999998 5.19476697 32.40571737215515 
Si 12.22036704 9.501549749999999 4.071406820014365 
Si 9.420295229999999 9.40856643 1.4172490172928922 
Si 12.09913686 12.137678999999999 1.3184515616836927 
Si 10.86178104 8.15462739 2.7333801578187007 
Si 10.441661939999998 10.97757036 0.07120136356798736 
Si 9.50528016 12.21771177 4.072408192240238 
Si 8.1440226 8.14594482 5.431304832826158 
Si 9.5029344 9.502185059999999 6.787749837962529 
Si 10.860298649999999 8.14486968 8.14526527547828 
Si 8.14508145 10.85998914 8.144989034864247 
Si 10.85998914 10.858425299999999 5.429543798911693 
Si 8.15052231 8.14390857 10.860158030202767 
Si 12.22165395 12.22755093 12.231381908189947 
Si 9.47542059 9.50943411 12.191430609385305 
Si 10.856470499999999 10.86308424 10.860745041507588 
Si 9.502168769999999 12.218428529999999 9.501295919693602 
Si 11.59760034 9.93750273 15.002420567716811 
Si 10.84896081 8.22438117 13.520078902734522 
Si 9.87667587 11.849997599999998 14.71222980267427 
Si 11.03772933 11.22957666 21.52069768668934 
Si 9.7893126 9.201276179999999 21.173704945386092 
Si 10.360293389999999 11.722495769999998 19.182907900197783 
Si 11.67714441 8.66854431 17.782678757737052 
Si 9.516569129999999 9.883566539999999 17.683611967529167 
Si 8.45666028 9.73778733 24.78779542886745 
Si 8.621482499999999 8.18839656 22.997341889007178 
Si 9.74212047 9.679550579999999 28.502195785319845 
Si 11.73310056 10.381356359999998 29.620590441312565 
Si 12.07393623 10.56077442 25.96392437319324 
Si 10.267652159999999 9.144130859999999 26.292996004661042 
Si 8.79396102 12.13831431 31.689287339658414 
Si 11.05566462 11.244188789999999 31.829272270820056 
Si 11.601428489999998 9.31859676 33.152706522579386 
Si 9.3652839 14.689409759999998 1.2676094766707662 
Si 10.858653359999998 13.57533666 2.710072356009596 
Si 8.14364793 13.57330041 5.428922257530117 
Si 9.50285295 14.9320656 6.787300946964724 
Si 10.86002172 13.574945699999999 8.144747324326968 
Si 10.859467859999999 16.28855019 5.431132182442388 
Si 8.14620546 13.571736569999999 10.860227090356275 
Si 9.49591341 14.93871192 12.223819821380772 
Si 10.86187878 16.290488699999997 10.86060692120057 
Si 10.92664782 13.66809192 13.626017178216495 
Si 10.56398355 15.79581027 16.87156815249997 
Si 8.31749481 13.02789492 16.183176542327665 
Si 8.306564219999998 15.59143593 21.080888099070727 
Si 9.39823857 13.69886373 18.138096837768327 
Si 10.23709212 15.00771636 22.409225621729156 
Si 10.231977059999998 12.77127855 23.20873501889657 
Si 11.6423001 12.72908745 25.18844790944677 
Si 11.58562719 16.11600651 25.75494834867665 
Si 11.664340469999999 14.20370712 27.114639181027915 
Si 9.856590299999999 14.74497495 28.537071162841617 
Si 8.69133402 12.728973419999999 34.17742108033788 
Si 11.27776248 15.223542569999998 32.34104253839448 
Si 9.54567936 14.249139929999998 30.84647722624119 
Si 10.515309030000001 16.24697811 34.39934588363731 
Si 16.2859275 2.7230364 2.672845480260862 
Si 12.22281054 1.41260364 1.2011632499726035 
Si 14.932049309999998 1.357838289 4.067228680727104 
Si 13.574733929999999 0.00021894737399999999 8.145403395785298 
Si 13.57499457 2.7157547699999998 5.428991317683626 
Si 12.217972409999998 1.3577193719999998 6.78685205596692 
Si 14.932228499999999 1.355709186 9.502953363377804 
Si 13.57450587 2.7166507199999996 10.865268481562394 
Si 13.44426732 3.2067679499999997 16.52108787344455 
Si 14.53566474 1.69284051 14.978940115523935 
Si 14.802006239999999 0.639198423 17.559476341597716 
Si 15.87405114 3.4444390499999997 20.734413308918793 
Si 12.76078779 0.731504079 20.40965793704527 
Si 15.04829475 1.3012452 19.886768984755985 
Si 15.79561479 3.0098707199999994 23.088673942022112 
Si 13.530262229999998 2.60234379 23.58304105091241 
Si 13.50142893 0.45317151 24.54266641398918 
Si 14.89176414 0.18021301199999998 26.41661367944118 
Si 14.53623489 0.534160503 30.21892761130984 
Si 14.32767402 3.5872371899999997 27.319471596333997 
Si 13.75496649 1.40496363 28.066736987372266 
Si 13.66928109 2.7093853799999996 34.10511509961452 
Si 12.62639529 0.773162496 31.766945482278672 
Si 14.93025741 6.788417669999999 4.066986970189824 
Si 12.21872175 4.0749435 4.069058774795078 
Si 14.978475809999999 4.13937045 1.1448032586943513 
Si 13.574913119999998 5.42569401 2.6829179036500705 
Si 14.93226108 4.07235339 6.78685205596692 
Si 13.57294203 8.1448371 5.430061750063007 
Si 16.290325799999998 5.42986425 5.428715077069591 
Si 13.57538553 5.430369239999999 8.145403395785298 
Si 12.21784209 6.787896389999999 6.787300946964724 
Si 13.575809069999998 8.141953769999999 10.856877672911114 
Si 12.21692985 4.07166921 9.502539002456754 
Si 14.93428104 6.787554299999999 9.502539002456754 
Si 14.94667773 4.07191356 12.216982866183434 
Si 12.72796344 6.92574237 16.570396823049588 
Si 13.63290552 5.447033909999999 13.601742534258273 
Si 14.866205129999999 6.840724859999999 15.13895249120303 
Si 13.53900996 7.3787509799999995 20.841836377701203 
Si 14.32684323 5.21509689 19.894814492639718 
Si 14.3744589 5.32223622 17.41514062076504 
Si 13.43639925 7.51433265 23.25010205084813 
Si 15.414184439999998 6.9599025 24.38627969636928 
Si 12.97592982 4.10457501 25.281644586606433 
Si 13.63927491 5.04478494 29.016935639495134 
Si 14.942344589999998 7.920931049999999 26.624691921962164 
Si 13.145915969999999 7.14243195 28.068290840826204 
Si 16.23096504 5.69356677 34.3323575347341 
Si 13.341330809999999 4.678341389999999 32.68309747872187 
Si 15.083904689999999 5.21121987 30.91667687228254 
Si 14.791352579999998 7.013969009999999 32.771321824828924 
Si 15.097506839999998 9.52401366 1.1438571345912854 
Si 13.58763561 10.852072199999999 2.685352274061244 
Si 14.9320656 9.502380539999999 6.786921116120428 
Si 13.57505973 10.860217200000001 8.144747324326968 
Si 16.2901629 8.144609039999999 8.145196215324773 
Si 12.218803199999998 9.50262489 9.502987893454558 
Si 14.911491329999999 9.5091246 12.21701739626019 
Si 16.2906516 10.860738479999998 10.862920436343106 
Si 15.169981049999999 11.87096283 14.85960417026132 
Si 13.475755889999999 10.77358698 13.658440920288717 
Si 16.21605969 8.1806751 13.663724022032113 
Si 14.52421287 9.038718269999999 16.13024193466343 
Si 13.510176659999999 11.12771529 21.471734037851842 
Si 14.556955769999998 9.420930539999999 20.124301382748325 
Si 13.5615879 10.07717319 18.04151621308675 
Si 14.69014281 11.249222399999999 23.56401497862083 
Si 13.644341099999998 9.44365509 24.626125609504154 
Si 15.34641804 10.11491712 27.48980846496261 
Si 12.55932936 8.2556091 30.13115215620059 
Si 16.260075269999998 9.78530526 29.599527094492483 
Si 13.269426750000001 11.17555902 27.951441061089895 
Si 14.525776709999999 9.31037031 31.15127421375077 
Si 15.659528129999998 11.27338047 32.19687946794557 
Si 13.44263832 8.3266335 34.39181832690488 
Si 13.668743519999998 13.3766964 0.06719725586756699 
Si 12.21888465 14.93136513 4.06826458302973 
Si 14.929231139999999 12.22152363 4.07054356809551 
Si 15.039677339999999 14.948453339999999 1.2301063603079982 
Si 13.584345029999998 16.291466099999997 2.6804628151928447 
Si 16.28245773 13.564536389999999 2.7022029515173074 
Si 16.290488699999997 16.289038889999997 5.42968191921871 
Si 13.57541811 13.57416378 5.431822783977473 
Si 12.21706017 12.217516289999999 6.787300946964724 
Si 14.93219592 14.93309187 6.787300946964724 
Si 16.28931582 16.292280599999998 10.864198049183013 
Si 12.21593616 14.93046918 9.502746182917278 
Si 14.93113707 12.21930819 9.50267712276377 
Si 13.57219269 13.57356105 10.859743669281716 
Si 14.914488689999999 14.940520109999998 12.227514539593473 
Si 12.26003319 14.87237904 15.29350911475496 
Si 13.73945841 13.24626237 16.340875402864228 
Si 13.473149489999999 16.26711255 13.683820526703075 
Si 16.223569379999997 13.55870457 13.576604638381193 
Si 12.47778162 12.262818779999998 18.2048089460575 
Si 15.296570639999999 14.629804649999999 17.413241466543557 
Si 12.49998489 14.965215749999999 21.472562759693943 
Si 13.36084623 13.135441499999999 20.196469243164664 
Si 15.439157009999999 13.83877854 19.529831581347523 
Si 14.184370889999999 15.006885569999998 23.155696821002074 
Si 13.906447199999999 13.210114860000001 24.605373033374864 
Si 15.04396161 14.119943939999999 26.464506895899294 
Si 14.870016989999998 14.44191579 30.071829484336824 
Si 13.66607196 13.4905635 28.224746618599617 
Si 14.60525562 13.3630128 32.29449599492978 
Si 12.27438468 13.172533829999999 32.61811187427041 
