&CONTROL
  dt          = 30.D0,
  prefix = 'x.33_y.66_z3.16_struc35-scf',
  pseudo_dir = './',
  outdir='./',
  wf_collect= .true.,
  verbosity= 'high',
/

&SYSTEM
ibrav= 6, celldm(1) =30.783621515, celldm(3) =2.110272343468375, nat=  432, ntyp= 1,
  ecutwfc     = 12.D0, nbnd= 1728,
  degauss     = 0.05D0,
  occupations = "smearing",
  smearing    = "methfessel-paxton",
/
&ELECTRONS
  electron_maxstep=200,
  conv_thr    = 1.D-8,
  mixing_beta = 0.3D0,
  scf_must_converge=.false.,
/
ATOMIC_SPECIES
Si  28.08  Si.pbe-hgh.UPF
K_POINTS {automatic}
1 1 1 0 0 0
ATOMIC_POSITIONS (angstrom)
Si -0.01027203417 2.71658556 2.706943989929851 
Si 2.7237042899999997 0.00910661499 2.6928050027376425 
Si 1.364522076 1.409682843 1.3076517760772648 
Si 4.07696346 4.00189914 1.1785273810094947 
Si -0.000198876465 0.000529297938 5.430257991289144 
Si 0.00018716721299999998 2.7151846199999996 8.144922906391303 
Si 2.7151357499999995 -0.00044095401 8.144991659064253 
Si 2.7161620199999996 2.71480995 5.429845475251443 
Si 1.357502715 1.357799193 6.787573260671986 
Si 2.7176607 2.7147284999999997 10.863850487216373 
Si 1.357427781 1.337912361 12.240829021062972 
Si 4.06645641 4.0770612 12.242547837886725 
Si 4.07106648 1.3563493829999997 9.501894412409392 
Si 3.63369627 1.6010219249999997 14.956422097249957 
Si 1.3860590849999999 3.9364133399999996 15.513249995473624 
Si 1.92034665 2.634093 19.352605511031623 
Si 0.559162395 1.8888580799999999 17.565207896008808 
Si 2.10036744 0.554856948 22.82423735531548 
Si 0.8957007629999999 3.8412960299999996 23.723522317504088 
Si 0.745953309 2.31430401 21.74127962734041 
Si 1.081105398 1.4824861109999998 26.646714089664208 
Si 3.3236486999999997 2.2205061899999996 26.944172529183245 
Si 0.277645131 0.6410440799999999 28.69949702227479 
Si 4.04782065 0.743343651 28.672477221805366 
Si 0.257324985 0.0329536926 34.18321021678271 
Si 2.3490017099999996 2.9886122699999995 34.22855260459337 
Si 2.3389182 2.74574466 31.73523692005438 
Si 0.398130858 2.51201574 30.243475798717427 
Si 1.355679864 4.07381949 4.068817561529291 
Si 0.673619193 4.84814835 0.15639789290038467 
Si 2.72891709 5.43618477 2.6856822258200013 
Si 1.3877255519999998 6.856672769999999 1.2727804203569235 
Si -0.000881280855 5.43051585 5.430601754653895 
Si 2.71458189 5.42997828 8.144819777381876 
Si 1.357463619 6.78753801 6.787435755326086 
Si 1.3560545339999999 4.07277693 9.502410057456519 
Si 1.3324682429999999 6.77862738 12.228006647557761 
Si 3.42228465 7.05339081 15.167664684889447 
Si 2.47303377 5.29439661 13.683982002624136 
Si 0.700243569 6.020213849999999 20.25409055875464 
Si 2.64978027 4.81783266 19.766771612883627 
Si 3.9954971699999997 5.97460185 17.793638651885846 
Si 3.20851098 4.3365934799999994 23.86216208250817 
Si 0.788357808 7.460982899999999 22.10656257872482 
Si 3.4371899999999997 5.937476939999999 25.573244230556263 
Si 0.6606018539999999 4.77446868 29.39015199839602 
Si 2.8362518999999997 5.694869969999999 29.165193252502966 
Si 1.626400116 7.521972659999999 25.967850196953936 
Si 3.94477011 4.47254982 27.48223094769151 
Si 2.52263682 7.872859259999999 28.158826002194424 
Si 3.5026757999999996 6.24859965 31.378135536751046 
Si 1.6176100319999998 5.126397839999999 32.217468168127084 
Si 3.97634013 9.49922028 1.3417702900288013 
Si 1.358312328 9.50453082 4.070123862315344 
Si 2.7024295499999997 10.884342689999999 2.705228610739743 
Si 0.0005630117219999999 8.14459275 8.144751024708928 
Si 2.71583622 8.14594482 5.430223614952669 
Si 2.7147936599999998 10.8598914 8.144957282727777 
Si 1.354453227 9.50089815 9.50227255211062 
Si 2.71502172 8.14757382 10.864606766618826 
Si 0.48603821399999997 10.557092879999999 16.414631914187215 
Si 1.64959056 8.99427915 14.948515539860685 
Si 2.7820224899999997 10.72945737 13.693848011192491 
Si 3.17835819 9.421419239999999 19.758865055494354 
Si 3.65899464 11.746083689999999 19.27721820514173 
Si 1.056621528 9.384685289999998 18.6115548256379 
Si 1.5716934089999999 10.78210665 23.086013157573365 
Si 2.67331932 9.01200267 22.04344762495654 
Si 1.7455712399999999 9.894024719999999 25.25687880597592 
Si 1.617342876 9.22351203 29.88816198491079 
Si 1.016057799 11.411307899999999 28.925624563607997 
Si 3.75336261 10.957712849999998 25.877337303014997 
Si 0.1275803478 10.84567023 26.675624588639764 
Si 2.1628233 8.69341914 34.27355122903928 
Si 0.37108294199999997 10.41118335 34.20679238360463 
Si 3.1791238199999996 8.55166356 32.03324538095702 
Si 1.352324124 12.300855929999999 1.1853407708988597 
Si 1.356880437 14.93038773 4.067339379060861 
Si 0.00043228772999999996 13.575010859999999 8.145163540746628 
Si 2.7166832999999997 13.574473289999998 5.431289281383397 
Si 1.357621632 12.21743484 6.787504507999036 
Si 4.06327986 14.932945259999999 12.230275485765116 
Si 1.355906295 14.9315769 9.502306928447094 
Si 2.71384884 13.57681905 10.863678605533998 
Si 1.36190916 12.19902714 12.23893832255684 
Si 2.60359812 16.11849888 13.716673898611958 
Si 3.68932662 12.274938539999999 15.188462368456882 
Si 1.6518059999999999 12.664334699999998 16.418860203573654 
Si 1.04894568 14.559024599999999 15.122253544405838 
Si 1.5470987669999998 14.978785319999998 19.504927057952788 
Si 1.561552884 12.760576019999998 18.781717691189638 
Si 3.76224066 15.77039787 18.700314526416605 
Si 1.068576759 16.22896137 24.849037950035335 
Si 2.12460696 13.106933999999999 23.17126647203161 
Si 1.216674036 14.852782169999998 21.870740910505635 
Si 1.520290314 13.95451899 25.327556553768726 
Si 3.3328525499999997 13.18752063 26.64829540114206 
Si 2.17544805 15.56988426 29.34786910453165 
Si 2.6484281999999997 13.21338915 28.868044200012204 
Si 2.6989272 13.763290679999999 34.269976090045866 
Si 2.17785897 15.48551835 32.83390463379857 
Si 0.544879323 14.820642 30.968678992996132 
Si 3.68875647 12.29368833 32.77006777696431 
Si 6.788385089999999 4.07267919 4.066136207284233 
Si 4.07357514 1.356489477 4.070467625680095 
Si 5.43310596 2.69995347 2.6755343312925524 
Si 6.81712065 1.2310646219999999 1.1713014750824289 
Si 5.4295873199999996 -0.00041254913699999995 5.431117399701021 
Si 5.430466979999999 2.7146959199999996 8.144888530054827 
Si 6.78781494 1.357421265 6.78740137898961 
Si 8.14640094 2.71288773 10.862303552074993 
Si 5.433480629999999 0.00195344793 10.863987992562274 
Si 6.7914150300000005 1.342151019 12.24715426697439 
Si 6.934604129999999 3.6447897599999997 15.1002183127253 
Si 5.011080929999999 0.31817465100000003 16.540208671330756 
Si 5.342940809999999 2.63316447 13.645755516463828 
Si 7.36689186 1.9975123799999999 21.338148329496914 
Si 5.05361412 2.34779625 21.334504437830553 
Si 4.092960239999999 1.7249481 19.27199300199751 
Si 5.87062278 2.1686877 17.752387048115725 
Si 6.75072261 2.9512430099999998 25.017413246090374 
Si 4.404327299999999 2.5291854 24.841612661356713 
Si 4.35591342 0.9440478539999999 23.1333149965631 
Si 7.96426245 1.4734972889999998 23.617161932450134 
Si 8.04235671 0.427979025 28.147034918783465 
Si 7.704420659999999 2.61685818 27.18013170274833 
Si 4.70859192 1.83198969 30.674142542077476 
Si 6.373869749999999 3.5339688899999997 30.49129480836642 
Si 4.0728909600000005 6.78361212 4.0714301631013985 
Si 6.84199548 6.896892779999999 1.0997299425412712 
Si 4.072548869999999 4.072548869999999 6.787676389681411 
Si 5.429456999999999 5.431411799999999 5.429295453867841 
Si 6.78778236 6.787440269999999 6.787298249980185 
Si 6.78599046 4.07149002 9.50227255211062 
Si 4.07235339 6.785599499999999 9.502238175774144 
Si 5.429766509999999 5.43346434 10.860894122279515 
Si 6.7650741 6.78721221 12.231547410214695 
Si 5.26442301 8.00951607 13.722621004822148 
Si 7.994675879999999 5.28113655 13.549879914034772 
Si 6.109466759999999 4.514219639999999 17.227288508458575 
Si 5.44336866 6.60219039 21.479056932708346 
Si 4.82056938 7.7027265 19.29818777039154 
Si 8.02513818 5.0348643299999996 18.56260292249735 
Si 7.61832801 5.908545899999999 22.189684560321613 
Si 7.753078889999999 5.07690882 24.415277336392524 
Si 4.12531218 4.58675901 21.65829515108952 
Si 5.0142574799999995 7.6543452 25.27258879174504 
Si 7.242843509999999 7.061340329999999 25.691395699021182 
Si 7.31839653 6.31721313 27.869961646794156 
Si 6.250163489999999 4.237599149999999 28.2194658597365 
Si 5.63317974 5.289672509999999 34.2134613928808 
Si 5.66294157 5.4369504 31.82750300715355 
Si 7.5687086699999995 7.021739339999999 31.32241149532491 
Si 5.43106971 8.142035219999999 2.6854106527618486 
Si 6.785697239999999 9.50402583 4.067408131733811 
Si 4.07093616 12.218298209999999 4.0733552379440034 
Si 4.0721742 9.50290182 6.787573260671986 
Si 5.4301086000000005 8.14506516 8.145163540746628 
Si 5.42953845 10.86104799 5.430704883663321 
Si 6.786576899999999 9.501614909999999 9.501103756670465 
Si 4.09118463 9.49558761 12.225875314696303 
Si 5.431525829999999 10.85915835 10.861616025345493 
Si 6.77694951 12.21696243 12.25444205030711 
Si 8.05354794 10.734686459999999 13.716948909303758 
Si 6.801107579999999 9.241170389999999 15.209844449744393 
Si 7.361679059999999 10.15455069 19.103548953269527 
Si 4.95512478 11.83730769 17.19476849415313 
Si 6.77789433 11.48171328 20.928760538414952 
Si 5.919834869999999 9.63628434 17.38033195844572 
Si 6.2990986499999995 10.10051676 22.7787918384954 
Si 4.75233057 8.30949642 22.97477133273994 
Si 5.35242159 11.6297568 24.24666140598216 
Si 4.3403076 9.04402881 27.14231773262572 
Si 7.504509779999999 8.19887103 29.273650594081907 
Si 7.334328149999999 10.99441422 27.210314126173465 
Si 5.92938081 9.782975789999998 28.658073536822297 
Si 5.633766179999999 10.87743573 30.70470310520384 
Si 7.43169348 8.3313576 33.32218611709089 
Si 5.0350760999999995 11.000604419999998 34.295242697355064 
Si 7.825862609999999 11.70008073 31.119625486458297 
Si 5.339715389999999 9.45193041 32.60873962988667 
Si 4.1577781499999995 14.98572486 1.2924024332169106 
Si 5.43035295 13.56546492 2.699498075449344 
Si 6.6966561 12.21712533 1.1428997458867014 
Si 6.78791268 14.932098179999999 4.072805216560402 
Si 4.07246742 14.932309949999999 6.787573260671986 
Si 5.43012489 13.57505973 8.144751024708928 
Si 6.78709818 12.217939829999999 6.787710766017885 
Si 4.07132712 12.215903579999999 9.50247881012947 
Si 6.78496419 14.9301108 9.501138133006942 
Si 5.24741625 13.55992632 13.720902187998394 
Si 6.4794126599999995 14.936284709999999 15.274575091327007 
Si 6.76957014 13.471781129999998 17.23687950633513 
Si 5.080215689999999 13.02984972 20.667397252194768 
Si 7.680702419999999 16.21436553 20.045082432986035 
Si 5.87801844 14.728196249999998 19.205577919927624 
Si 4.438943549999999 13.357360169999998 22.92850078384446 
Si 7.72440849 15.40566477 23.69804945217604 
Si 5.3828513099999995 15.2492319 23.96099404987408 
Si 6.73987347 12.71740752 25.799578029908318 
Si 5.27269833 14.47874748 26.274830881676575 
Si 5.931221579999999 15.661808729999999 28.2559047764001 
Si 4.777498619999999 16.13364858 32.00488490336507 
Si 7.51830741 14.0945967 34.282832839887554 
Si 4.360670099999999 12.858674399999998 30.49872009704504 
Si 7.7894707499999996 13.904557559999999 31.934688424282914 
Si 5.95039491 14.600173139999999 30.42646103777438 
Si 5.781190679999999 15.881609699999998 34.19702950404571 
Si 12.07989837 1.267370145 1.293347782469976 
Si 9.501191369999999 1.361817936 4.073423990616954 
Si 10.85363604 2.71002069 2.7052114225715056 
Si 9.53271252 4.00657437 1.2258326576328797 
Si 8.14488597 3.67174971e-05 8.145438551438428 
Si 8.1454887 2.71264338 5.4306705073268455 
Si 10.858278689999999 9.70895403e-05 5.429570464559642 
Si 10.86007059 2.7146633399999995 8.145129164410154 
Si 9.50027913 1.356222321 9.502513186465945 
Si 9.85906638 -0.00295596711 16.000397059662262 
Si 8.998563419999998 2.09556189 15.20901941766899 
Si 10.76749452 2.6767076399999996 13.571124489976384 
Si 10.528341029999998 3.53719431 21.08898864272539 
Si 10.539092429999998 2.4088837499999998 18.988800742115643 
Si 9.710094329999999 0.025052716799999996 18.453354925179486 
Si 9.45691515 3.57879897 17.2106847379411 
Si 11.35504224 1.73615562 22.408352436639724 
Si 10.16310294 1.87512561 24.374885141034284 
Si 11.16107721 0.08211544650000001 25.75320435200341 
Si 11.39065218 1.519280334 29.9259759550334 
Si 9.838769039999999 3.66982749 27.205604568076378 
Si 11.901131909999998 2.81746953 28.043424640647512 
Si 8.503200810000001 2.17111491 34.193626246734674 
Si 10.24924446 0.316900773 34.05921477111703 
Si 9.152308439999999 0.775783557 30.252104259172675 
Si 8.2917729 2.56987782 31.71818625716273 
Si 11.53574721 2.17888524 32.095741560668756 
Si 10.11791448 4.0716040499999995 32.124995823009066 
Si 10.85844159 8.12620134 2.7038535572807394 
Si 12.217939829999999 4.06945377 4.0701926149882945 
Si 8.15045715 5.439703409999999 2.672354520168605 
Si 9.50576886 6.78553434 4.071223905082547 
Si 9.502804079999999 4.0721742 6.787538884335511 
Si 8.145097739999999 5.42975022 8.145232293419578 
Si 10.8592398 5.4312326099999995 5.429398582877266 
Si 10.858523039999998 5.43181905 10.859690950502886 
Si 8.146303199999998 8.14848606 10.860412853568864 
Si 9.501777809999998 6.786609479999999 9.501275638352842 
Si 9.49773789 4.0752692999999995 12.209924694571857 
Si 9.51772572 6.583310279999999 14.70258722871782 
Si 10.81359522 5.1981715799999995 16.105554272939596 
Si 12.06911439 5.3572434300000005 21.464756376734705 
Si 8.276167079999999 4.1459679 20.781767323647422 
Si 9.22346316 7.143914339999999 18.25572536678414 
Si 11.50763067 6.811549469999999 17.62007252902307 
Si 11.454069149999999 5.9450354999999995 24.859385227314338 
Si 9.113407919999998 7.7889494699999995 22.11185653454199 
Si 11.2863636 7.10590977 22.804642843524675 
Si 9.92179917 4.19143329 24.930716125500172 
Si 9.520983719999998 5.729372189999999 28.208465432064468 
Si 11.05177131 7.041010409999999 26.914436998132285 
Si 9.58997187 5.908953149999999 30.592429990276162 
Si 11.561371379999999 7.1761848299999995 30.593117517005666 
Si 11.41217127 4.927317749999999 34.279463958913 
Si 9.440836919999999 9.454259879999999 1.3346372002102183 
Si 8.136154529999999 10.87541577 2.690962431102577 
Si 11.47039173 10.05148386 0.1787885759000762 
Si 12.20116113 12.13391601 1.2984629813374706 
Si 12.217597739999999 9.50278779 4.067236250051436 
Si 8.14602627 8.143973729999999 5.429673593569068 
Si 9.502869239999999 9.502250219999999 6.787091991961335 
Si 10.86033123 8.14540725 8.145026035400727 
Si 8.14491855 10.86013575 8.144922906391303 
Si 10.85976108 10.859109479999999 5.429467335550217 
Si 9.4719834 9.51106311 12.208618393785803 
Si 10.861357499999999 10.860608159999998 10.861822283364344 
Si 11.617913969999998 9.874558169999998 14.835967414241207 
Si 10.79725635 8.13545406 13.49350272221561 
Si 8.623437299999999 8.150815530000001 16.194417102727726 
Si 9.76209201 11.673185939999998 15.139372959970439 
Si 8.65354122 12.00030543 17.378888152313767 
Si 9.09923562 8.73342738 19.90039243276234 
Si 10.946994029999999 10.133227080000001 19.494992296711487 
Si 9.90792009 11.407219109999998 22.815952658224983 
Si 8.47588248 9.62061336 23.46542478324904 
Si 11.74618143 10.62430542 21.612746505260013 
Si 8.31467664 9.233546669999999 25.761489049093907 
Si 9.50420502 9.51533109 28.89011380802922 
Si 8.848956059999999 11.75883876 28.879285262039563 
Si 11.71573542 11.16383022 25.929898721485426 
Si 10.42439454 9.27915867 26.74802115325632 
Si 11.27857698 9.47250468 30.36131788015407 
Si 8.73810261 10.421983619999999 33.04844734973967 
Si 10.983402179999999 10.810630439999999 32.38687475427638 
Si 9.50269005 12.22217523 4.070811389044846 
Si 9.380270699999999 14.94377811 1.2939734317938225 
Si 10.85081787 13.56800616 2.6901305237598794 
Si 8.1340857 16.2952128 2.715689329929116 
Si 8.14410405 13.57532037 5.4306705073268455 
Si 9.50226651 14.932863809999999 6.787504507999036 
Si 10.860038009999998 13.57533666 8.144647895699501 
Si 9.50242941 12.21692985 9.502788197157745 
Si 8.142100379999999 13.579132229999999 10.863609852861048 
Si 9.487589219999998 14.93081127 12.248735578452244 
Si 10.86272586 16.290488699999997 10.863747358206949 
Si 11.809745009999999 15.038976869999999 14.968110051651491 
Si 10.672051409999998 13.41916443 13.665281275581682 
Si 8.192599379999999 16.19232516 13.97209007862195 
Si 8.86801536 12.6454383 21.124911914341872 
Si 10.151928 12.35339118 19.11410248856738 
Si 11.42795628 14.263312229999999 18.41832543831136 
Si 8.861580809999998 14.94780174 21.685108693540098 
Si 11.15026065 15.64551873 22.116119200264897 
Si 11.933402399999999 14.67518859 24.212319445843537 
Si 10.55732094 12.75568902 24.60115018771339 
Si 8.66227266 13.95559413 25.351104344254168 
Si 9.611800469999999 15.193520099999999 27.140014518081887 
Si 10.576233629999999 13.421526479999999 28.56333235349692 
Si 9.678393989999998 15.32830356 31.728911674142964 
Si 11.42321589 14.17120857 30.659910738776784 
Si 13.165284779999999 3.11238369 0.1839574018524722 
Si 14.932928969999999 1.358603919 4.0710863997366475 
Si 13.574587320000001 0.00028434683699999995 8.145026035400727 
Si 13.57554843 2.71528236 5.430704883663321 
Si 12.217174199999999 1.357802451 6.78726387364371 
Si 16.291466099999997 0.00238128849 10.861719154354917 
Si 14.931609479999999 1.355728734 9.502650691811846 
Si 13.571606249999999 2.7187358399999995 10.862062917719667 
Si 12.20862195 1.352934999 12.22295332609592 
Si 14.94136719 4.07336337 12.239522720276918 
Si 16.2193014 2.58694974 13.679581831555325 
Si 15.429464459999998 3.6885935699999997 17.031137132531658 
Si 13.4454402 -0.020043704699999998 13.651118224953942 
Si 14.804742959999999 1.139619078 15.102005882222004 
Si 13.423090319999998 2.50551603 16.40964734539833 
Si 12.27928797 3.9209215499999996 14.89719166950336 
Si 14.11671852 0.16711748099999998 19.894239068533295 
Si 12.842759069999998 1.91332566 18.777558154476154 
Si 14.1117012 3.9371952599999998 18.948580428439776 
Si 13.54502097 2.38767417 22.995156500269676 
Si 15.04319598 1.014635682 21.896007517814834 
Si 13.923665729999998 2.62731636 25.26578227712297 
Si 16.12366281 3.2252571 25.795968514578437 
Si 12.99653667 1.131175971 26.815020633046295 
Si 15.68917593 1.5473577779999999 32.36841466158925 
Si 13.73307273 2.8069624799999997 32.31437506065039 
Si 16.28553654 8.132668469999999 2.712365138191974 
Si 14.971796909999998 4.1253284699999995 1.3047504132787664 
Si 13.587326099999999 5.44349898 2.703636986360946 
Si 12.25429911 6.7574178 1.2577545236836574 
Si 14.93144658 6.788499119999999 4.074730291403008 
Si 14.93261946 4.0726629 6.78726387364371 
Si 13.57476651 5.430271499999999 8.144716648372452 
Si 12.217874669999999 6.78708189 6.787917024036736 
Si 16.2927693 5.431086 10.85762837031438 
Si 12.216473729999999 4.07189727 9.50213504676472 
Si 14.93248914 6.78615336 9.501997541418818 
Si 12.22714368 6.7855506299999995 12.222850197086494 
Si 16.2119709 5.84998335 16.53584287659842 
Si 16.18646076 8.10632754 13.627776692487348 
Si 13.62433698 5.4778383 13.653730826526049 
Si 14.61678894 7.12353555 15.140713637092967 
Si 16.20253899 7.30673289 18.45311429082416 
Si 15.564068729999999 4.18514535 20.80978403787463 
Si 14.23589616 7.85775843 19.600183886325294 
Si 12.888550259999999 5.936532119999999 19.35219299499392 
Si 16.077676139999998 5.934316679999999 23.588045175455722 
Si 14.063987789999999 4.719832019999999 22.619629400615686 
Si 13.6016613 5.01987753 25.082143887672988 
Si 15.591224159999998 6.72131916 25.79067455876127 
Si 15.59402604 4.90472352 27.435479130085373 
Si 12.687547949999999 6.783367769999999 28.549409937224507 
Si 13.48166916 4.57577955 28.630709972988114 
Si 14.009644349999999 4.84311474 31.194119007599834 
Si 12.630500369999998 6.33708693 32.47828143296366 
Si 16.01206002 6.073970849999999 31.122650604068102 
Si 14.97469653 9.50578515 1.3450738559640585 
Si 13.5840681 10.86518565 2.711131027712518 
Si 16.289006309999998 10.86007059 5.430395496635044 
Si 13.576428089999999 8.144250659999999 5.429639217232593 
Si 14.932375109999999 9.502673759999999 6.787676389681411 
Si 13.574457 10.85995656 8.144819777381876 
Si 12.216718079999998 9.50169636 9.502341304783569 
Si 13.575287789999999 8.14291488 10.860584735251239 
Si 14.930159669999998 9.50446566 12.224500261237297 
Si 16.292606399999997 10.86139008 10.862028541383191 
Si 12.78611874 8.4908367 16.37252090200522 
Si 13.508384759999998 10.775085659999998 13.643142914891719 
Si 14.79283497 12.015552869999999 15.18265276759259 
Si 16.2543249 11.25005319 19.606474755900233 
Si 14.05097208 11.70806283 18.92572016468383 
Si 13.042262699999998 9.58516632 18.552633784919575 
Si 15.005940749999999 8.60344947 21.714775471918106 
Si 12.87866223 8.86959549 22.76761952914099 
Si 14.24651724 11.96731818 23.04397089806432 
Si 13.427684099999999 10.20402342 24.609228626785036 
Si 15.885519299999999 10.80227367 21.880228779372764 
Si 14.865227729999999 9.038082959999999 26.220310012027063 
Si 13.042034639999999 10.497390029999998 29.20950435021937 
Si 14.185055069999999 8.59546737 28.426514534326024 
Si 15.733696499999999 8.30386008 30.28428051011337 
Si 14.19733773 11.49612993 30.983529570353372 
Si 15.115002299999999 9.75541311 32.26157300782464 
Si 13.378113629999998 8.32448322 34.183760238166315 
Si 12.21938964 14.93200044 4.068026905790363 
Si 14.932668329999998 12.216620339999999 4.072736463887452 
Si 14.914928519999998 14.97692826 1.1509197451863422 
Si 13.570905779999999 16.28638362 2.688497647777312 
Si 16.27748928 13.580207369999998 2.6827017974476104 
Si 13.57499457 13.57357734 5.429914227924393 
Si 12.21777693 12.217043879999999 6.787813895027311 
Si 14.9325543 14.932505429999999 6.7872294973072345 
Si 12.217092749999999 14.93063208 9.501172509343416 
Si 14.93133255 12.21689727 9.502100670428243 
Si 13.572355589999999 13.57841547 10.86099725128894 
Si 12.21901497 12.217972409999998 12.241241537100672 
Si 14.91572673 14.935372469999999 12.235053796535155 
Si 15.36239853 15.34690674 16.26674491467134 
Si 13.27675725 13.78658538 16.495897573614354 
Si 16.09662141 13.384043189999998 13.587143862773782 
Si 13.11335226 12.477618719999999 21.012535670404766 
Si 12.52401264 14.74062552 20.438553980280027 
Si 15.991208819999999 16.12410264 18.427985188860866 
Si 15.67400994 15.548348879999999 23.27209226691308 
Si 14.28126381 13.941470699999998 24.26230263907833 
Si 15.70939182 13.073718689999998 26.025224302530873 
Si 15.73706853 12.90549186 29.9338481360862 
Si 12.56081175 12.33850212 27.79550250198909 
Si 14.57673183 13.70725308 27.981719116674707 
Si 14.324106509999998 16.04491695 28.293615617513286 
Si 13.47446898 13.515861869999998 34.272588691617976 
Si 12.89426805 15.997659659999998 30.17805763040531 
Si 12.57511437 12.773151899999998 32.180719864435204 
Si 14.75781147 15.723238319999998 31.653489991916594 
