&CONTROL
  dt          = 30.D0,
  prefix = 'x.33_y.66_z3.18_struc7-scf',
  pseudo_dir = './',
  outdir='./',
  wf_collect= .true.,
  verbosity= 'high',
/

&SYSTEM
ibrav= 6, celldm(1) =30.783621515, celldm(3) =2.1265850812889053, nat=  432, ntyp= 1,
  ecutwfc     = 12.D0, nbnd= 1728,
  degauss     = 0.05D0,
  occupations = "smearing",
  smearing    = "methfessel-paxton",
/
&ELECTRONS
  electron_maxstep=200,
  conv_thr    = 1.D-8,
  mixing_beta = 0.3D0,
  scf_must_converge=.false.,
/
ATOMIC_SPECIES
Si  28.08  Si.pbe-hgh.UPF
K_POINTS {automatic}
1 1 1 0 0 0
ATOMIC_POSITIONS (angstrom)
Si 0.0028889500499999997 2.71902906 2.7346035122178844 
Si 2.71528236 0.016322417099999997 2.687909464751765 
Si 1.3624190369999998 1.476686871 1.297335165362358 
Si 0.000425327013 0.000774007947 5.4307335404118255 
Si -0.000506203605 2.7151031699999995 8.144905159169129 
Si 2.7150705900000003 8.9616177e-05 8.145286221949846 
Si 2.71386513 2.71580364 5.430837466624748 
Si 1.3575190050000001 1.357864353 6.7878713128969395 
Si 2.7182960099999995 2.70762606 10.863684173366 
Si 1.3548392999999999 1.345685949 12.22633003513601 
Si 1.35725022 4.07300499 9.503116835854442 
Si 3.6207945899999996 1.56385629 14.573988542986317 
Si 0.292133457 2.9621084399999997 13.565419288643566 
Si 2.8350464399999997 3.48627177 15.983539768855389 
Si 1.8228835799999998 1.369922211 17.09011144198414 
Si 3.1938174 0.939771729 19.736211391277145 
Si 1.4689360889999998 2.64350862 19.836846607457186 
Si 0.7400156039999999 3.44790882 17.415642982928663 
Si 0.52136145 1.288146411 23.107716306769827 
Si 1.91286954 2.84778522 24.19741729133414 
Si 3.54716379 4.04606133 22.92951749367856 
Si 3.0320251199999997 1.88102259 26.115514119104414 
Si 3.7624687199999998 2.66892102 30.189733444308665 
Si 0.301203729 2.60258814 28.126105276375792 
Si 0.14576259419999998 0.2425581 28.206855943816645 
Si 2.65406454 3.19872069 28.08983502806581 
Si 2.2543893899999996 3.28054536 34.49304078486527 
Si 3.15807714 0.42873976799999997 30.871316190725977 
Si 1.0770443010000001 0.451806408 32.60484006434573 
Si 2.74005945 3.8209335299999996 32.02943526546433 
Si 3.9788324999999998 4.179378689999999 1.2540187198162227 
Si 4.06971441 6.787407689999999 4.0709629705326735 
Si 1.3584589379999998 4.07096874 4.078341731650178 
Si 0.462328119 4.99558914 0.12193974340846112 
Si 2.7137510999999996 5.42663883 2.7457721158999653 
Si 1.355546286 6.72578262 1.4212637100654475 
Si 3.0954420899999997 7.7173386299999995 0.2391248625757138 
Si 0.00265344552 5.42890314 5.430317835560135 
Si 2.7152660699999998 5.42996199 8.144489454317439 
Si 1.357655841 6.787375109999999 6.788009881180836 
Si 2.71415835 8.143419869999999 5.430629614198903 
Si -0.00487849662 5.42963619 10.8604624607654 
Si 1.347647265 6.79926681 12.234782700453716 
Si 3.79516275 7.136925929999999 15.15684138712717 
Si 2.87052606 5.59416519 13.5295301031143 
Si 1.5812018819999998 7.89439464 18.184419821988026 
Si 0.7062219989999999 6.13720863 21.33009307679992 
Si 2.4833779199999997 4.52440089 20.8093534659158 
Si 3.74630904 7.373815109999999 19.056360748408547 
Si 3.73259286 5.0106573899999995 18.589939904811967 
Si 1.83326031 7.87647564 22.526145219255017 
Si 2.7803283299999997 7.404114509999999 24.665015965343844 
Si 0.299076255 4.48815564 24.7790576629909 
Si 1.405330155 6.114646979999999 26.04092974029697 
Si 1.6693177499999998 6.49542573 29.726776807809504 
Si 2.79420741 5.56210647 27.874084210038514 
Si 0.6603656489999999 4.8131574299999995 31.019688180708457 
Si 3.91891788 5.9000751 32.38829247868603 
Si 1.9717253099999998 7.60285251 32.72283095808385 
Si -0.005989148819999999 8.15084811 2.6946438833491486 
Si 1.3579604639999998 9.50301585 4.071274749171442 
Si 2.68420104 10.86635853 2.7059891615931977 
Si 1.2747283379999998 12.185799659999999 1.2195567876110924 
Si -0.00037008762299999996 8.14513032 8.144801232956207 
Si -0.00057912579 10.85982624 5.430456403844032 
Si 2.71536381 10.859598179999999 8.144801232956207 
Si 4.0813454700000005 9.49664646 12.217288454611746 
Si 1.3585827419999998 9.50314617 9.501869721299371 
Si 2.71767699 8.144185499999999 10.858626431003769 
Si -0.0017212014 10.859679629999999 10.86358024715308 
Si 1.3497405299999998 12.212075429999999 12.233466301756694 
Si 2.78984169 10.630316429999999 16.922235966043186 
Si 0.24773831999999998 8.1585207 13.932833093395892 
Si 2.1789341099999997 9.03906036 15.165813683509487 
Si 2.67444333 10.740974399999999 13.568848853670012 
Si 3.77010873 8.35207848 21.232229226297815 
Si 3.3812012699999996 10.71178272 20.86419186426795 
Si 1.135276164 11.43277812 20.265091888840203 
Si 0.9031257449999999 10.14405993 18.258068864879167 
Si 3.57645321 12.03511716 22.756099286381733 
Si 0.557588781 9.657005219999999 23.426527285945355 
Si 2.1778101 11.046151259999998 24.374542200225207 
Si 3.09464388 9.48459186 25.85344685218462 
Si 3.20300496 10.055507489999998 29.99438680608517 
Si 0.7638250679999999 11.85595974 27.74809099790536 
Si 1.9677342599999998 9.78164001 27.96238684895174 
Si 0.37743278399999997 8.254143000000001 28.777376210690683 
Si 1.9934235899999997 9.82589994 31.980174240539025 
Si -0.0039173540399999995 13.58796141 2.6849337108550815 
Si 1.356122952 14.92954065 4.067741257932074 
Si -0.000736852086 13.57505973 8.145043727453025 
Si 2.71580364 13.575727619999999 5.430387119702084 
Si 1.357484796 12.217597739999999 6.787386323903299 
Si -0.00376352757 16.2924435 10.85963105106202 
Si 1.3584426479999998 14.93322219 9.503047551712493 
Si 2.71914309 13.573968299999999 10.861571007036575 
Si 2.43471969 16.01380305 13.646343166439289 
Si 3.05390259 13.046302619999999 16.50618469364309 
Si 1.219039344 14.321565269999999 15.540259828669575 
Si 2.89417914 14.869658609999998 20.026442661898965 
Si 0.809397972 13.76905734 19.658439941940077 
Si 0.7821887849999999 15.25019301 22.830060107911642 
Si 4.06163457 15.26350194 24.128237075598673 
Si 2.88403047 14.303678849999999 22.338246626290978 
Si 1.455778656 12.787356779999998 25.721287351418063 
Si 3.66575499 12.33333819 29.777007810722093 
Si 1.6076307779999999 13.33914795 29.383993515519833 
Si 3.5307923399999996 13.90356387 26.029428572733536 
Si 3.5213115599999996 16.001878769999998 27.078667618399994 
Si 2.18364192 15.61924296 28.987757507716978 
Si 2.88720702 13.356073259999999 34.610719899964614 
Si 0.21052381499999998 13.142087819999999 31.257367429662416 
Si 1.8456569999999999 14.33306601 32.71330438856594 
Si 6.79074714 4.07269548 4.0709629705326735 
Si 4.07165292 1.359033975 4.069577287693706 
Si 5.42072556 2.7157221899999997 2.67163115560099 
Si 6.70149423 1.237807053 1.1507229925853644 
Si 5.43062988 2.7147447899999997 8.14424695982062 
Si 6.78805929 1.357106868 6.7878713128969395 
Si 4.073493689999999 1.35899325 9.501419374376708 
Si 6.7657094099999995 1.3780558079999998 12.182230678785858 
Si 7.31434032 3.67758153 14.937764930286352 
Si 8.13504681 0.10048893749999999 13.472093549439084 
Si 5.058354509999999 0.3394836 16.017281145984256 
Si 5.50284345 2.7433500299999998 13.599091381630487 
Si 5.3237349 1.300290606 20.855704556879274 
Si 6.90032997 2.28503088 19.28929403363904 
Si 6.7942332 0.696013056 17.53366851873775 
Si 4.1004210599999995 1.99835946 17.613795628901066 
Si 7.6459395599999995 3.19925826 23.276007487562474 
Si 5.21397288 1.78601931 25.229577796010318 
Si 5.39044245 2.5799613299999997 22.912993225823868 
Si 6.41268882 3.3841986299999998 26.515560754714432 
Si 5.9239725299999995 0.00974469429 26.663620966058147 
Si 7.47518778 2.762784 28.583484539448104 
Si 7.50493332 0.42824780999999995 28.385816882469342 
Si 7.71618204 2.97533592 32.081155877428806 
Si 6.07660983 3.47260446 30.34655809960885 
Si 4.7449023299999995 5.99318874 0.0071912089452495056 
Si 6.65252649 6.73936848 1.2713501479246132 
Si 4.07194614 4.072516289999999 6.7878020287549905 
Si 5.429489579999999 5.42900088 5.430213909347213 
Si 6.78757059 6.787456559999999 6.787559534258171 
Si 6.78973716 4.0734774 9.501384732305732 
Si 4.0721742 6.788808629999999 9.502458636505931 
Si 4.0907447999999995 4.07709378 12.229447821523687 
Si 5.42774655 5.429766509999999 10.862991331946517 
Si 6.782553269999999 6.81089787 12.253108355999064 
Si 7.28226531 5.057474849999999 16.872143531414498 
Si 6.032415059999999 7.00279407 16.188724755235555 
Si 6.997744169999999 5.9912828099999995 20.71498846458209 
Si 7.85419092 7.929352979999999 19.655322155552398 
Si 6.14574459 4.54468194 18.991718643970696 
Si 5.6259144 7.206174719999999 22.33495562954843 
Si 4.501236509999999 5.95353888 24.004495598078844 
Si 7.8388294499999995 7.04724948 25.425790486008168 
Si 5.9639318999999995 5.624334269999999 25.826391394753774 
Si 6.29926155 5.75695116 29.65257349178278 
Si 4.99122342 6.492737879999999 27.768841598418906 
Si 5.77623852 7.146846539999999 31.498476243642827 
Si 8.14192119 10.874405789999999 2.6822385577332892 
Si 4.08499443 9.61460235 1.3203478931105166 
Si 5.43321999 8.168245829999998 2.7051750729253046 
Si 6.78828735 9.49855239 4.0697504980485775 
Si 4.78464993 11.57161779 0.13325557589218232 
Si 4.07248371 12.2194548 4.069092298700068 
Si 4.0723370999999995 9.50239683 6.787420965974274 
Si 5.429359259999999 8.14534209 8.145043727453025 
Si 5.4304995599999994 10.86000543 5.430802824553774 
Si 6.78700044 9.50251086 9.501904363370345 
Si 5.43056472 10.857301289999999 10.863441678869181 
Si 4.07129454 12.21727194 9.501315448163783 
Si 6.81625728 12.2070744 12.232773460337212 
Si 5.46475743 8.3520459 13.89136653443978 
Si 6.139521809999999 10.30932198 15.16519012623195 
Si 4.4365977899999995 11.98378737 14.863734824614495 
Si 5.06182428 11.650950089999998 19.484051756655973 
Si 5.140684169999999 10.227269249999999 17.478379773462933 
Si 5.82673752 8.15757588 18.242791711579546 
Si 6.647818679999999 10.54643922 24.571794152352282 
Si 7.287396659999999 8.47073484 23.508663636225172 
Si 5.15104461 10.42170669 26.443505247088105 
Si 5.35584249 9.15300891 30.20372884098224 
Si 8.06172552 8.27033526 27.44854101019149 
Si 5.82362613 8.75209572 27.938449177908574 
Si 6.97658346 10.4216904 31.450081270491875 
Si 7.82666082 8.35900173 32.45799232548612 
Si 5.9484563999999995 12.09154572 32.7849095492696 
Si 4.10146362 15.019624349999999 1.2024782466208137 
Si 5.42170296 13.593939839999999 2.6991161747119174 
Si 6.764911199999999 12.34210221 1.2062888744279752 
Si 6.78757059 14.934069269999998 4.073595767926713 
Si 8.14408776 13.575711329999999 5.430456403844032 
Si 4.0728583800000004 14.93258688 6.787698102542068 
Si 5.42988054 13.574668769999999 8.144628022601337 
Si 6.7872285 12.21820047 6.787455608045248 
Si 5.43139551 16.28899002 5.430317835560135 
Si 8.14346874 13.572844289999999 10.85897285171351 
Si 6.78812445 14.932440269999999 9.501835079228396 
Si 4.045654079999999 14.938386119999999 12.220614093425269 
Si 5.429489579999999 16.2952128 10.859180704139355 
Si 8.03621538 14.33150217 16.21280099456262 
Si 5.41028367 13.56828309 13.480476930614838 
Si 6.501045779999999 15.21466452 14.68480852803277 
Si 6.95236023 12.303201689999998 20.839699920089195 
Si 7.677004589999999 14.47804701 20.084710625277562 
Si 4.33748943 13.697756009999999 18.546741242307146 
Si 6.46470279 14.64914088 18.054096350983098 
Si 6.71628555 15.88240791 21.686352134698552 
Si 5.9206005 12.22663869 23.00742751129953 
Si 6.1488234 14.50709208 23.503952314572683 
Si 7.4328012 15.091251479999999 25.31857327634303 
Si 7.036498079999999 15.150563369999999 30.139848862105822 
Si 4.82773698 12.52891593 27.64447656362154 
Si 6.930319859999999 13.223717009999998 28.59301110896601 
Si 7.81812486 13.986642869999999 34.25858324851191 
Si 5.113691639999999 15.54281028 31.74038182525564 
Si 4.130410949999999 13.37762493 31.89949285724012 
Si 5.82344694 15.7481946 34.25387192685942 
Si 12.1109634 1.373680314 1.302330551996837 
Si 9.49941576 1.3574652479999998 4.070477981539035 
Si 10.85153463 2.74822074 2.708306716141372 
Si 12.21624567 4.07178324 4.073110778933074 
Si 8.14478823 0.00047049266699999997 8.145009085382052 
Si 8.14410405 2.7151357499999995 5.430872108695723 
Si 10.860510419999999 -0.000906934347 5.430317835560135 
Si 10.8600543 2.7150868799999994 8.144870517098155 
Si 9.50150088 1.357924626 9.502735773073725 
Si 8.14390857 2.71775844 10.857621810945517 
Si 8.964859409999999 0.251115237 16.672674486745073 
Si 9.03974454 1.82408904 14.937383867505636 
Si 10.892715749999999 2.7079518599999997 13.6729136348765 
Si 11.44436031 3.91536666 18.56361193087158 
Si 8.93040606 2.37094434 20.542159172491825 
Si 10.97484993 1.79012439 19.514709989468138 
Si 11.86249203 2.9553480899999998 24.947106349286724 
Si 8.35737273 1.0765572300000001 22.456895719377602 
Si 8.477446319999999 3.29509233 25.49497070174364 
Si 10.09256724 1.5626638619999997 25.824278228424348 
Si 9.82080117 3.45740589 28.97119859779131 
Si 10.8739008 0.237356703 29.94096873264296 
Si 9.78610347 0.12226280309999998 27.784499814499245 
Si 12.172816529999999 2.7909657 28.62661391781098 
Si 8.311630410000001 2.47679676 34.46459964459546 
Si 10.249896060000001 0.823474161 34.40089287607391 
Si 9.86752089 3.4444553399999998 31.397737101249863 
Si 11.23187355 1.4982841529999997 32.14070559743345 
Si 8.43269769 7.80890472 0.07561255547395872 
Si 10.85546052 8.15115762 2.7255203612084498 
Si 12.07232352 6.784312589999999 1.2747346782587923 
Si 9.435819599999999 4.09794498 1.2655476010364353 
Si 8.11971792 5.42479806 2.7017177942420796 
Si 9.50299956 6.79004667 4.070374055326113 
Si 9.502168769999999 4.07219049 6.7875248921871965 
Si 8.145537569999998 5.429489579999999 8.144766590885231 
Si 10.86013575 5.430190049999999 5.429902130708445 
Si 10.85995656 5.42600352 10.861086018042936 
Si 12.217874669999999 4.07487834 9.501488658518655 
Si 12.226247729999999 6.797784419999999 12.232392397556493 
Si 9.50428647 6.787928969999999 9.502701131002752 
Si 9.516438809999999 4.06277487 12.217600233250513 
Si 10.183041900000001 6.00346773 14.992395476212659 
Si 9.672855389999999 5.446056509999999 17.299765255519976 
Si 10.90392327 7.969735889999999 13.83143575165442 
Si 12.057418169999998 4.42345176 14.86501658124054 
Si 8.28185229 5.47378209 13.597774982933466 
Si 8.631337949999999 4.51532736 21.589215767686905 
Si 11.93999985 7.197785369999999 19.75457168889347 
Si 9.95073021 7.58916891 18.43439700613783 
Si 10.647029969999998 5.518074599999999 22.170717571059765 
Si 11.189731319999998 5.13727956 24.376586082412686 
Si 10.82415114 7.84329291 21.74299192074136 
Si 9.46760139 5.402659949999999 25.856980343423988 
Si 8.50181616 6.72319251 29.170598358318788 
Si 10.2623742 5.60512836 28.112560226624883 
Si 9.641725199999998 7.5208160699999995 31.087863776385678 
Si 10.44527832 5.57605071 32.34696448801382 
Si 10.09284417 5.98473423 34.632648330891286 
Si 9.62128125 9.550305719999999 1.2937462468094312 
Si 9.500148809999999 12.218803199999998 4.068884446274223 
Si 12.21908013 9.501680069999999 4.075362513546397 
Si 8.14534209 8.14534209 5.4307681824828 
Si 9.50306472 9.50200587 6.787836670825965 
Si 10.86046155 8.14495113 8.144870517098155 
Si 8.14456017 10.86052671 8.145147653665948 
Si 10.86140637 10.858685939999999 5.4307335404118255 
Si 8.14175829 8.14687335 10.86565877141153 
Si 9.506713679999999 9.49013046 12.265510217407826 
Si 10.862253449999999 10.86139008 10.863718815436975 
Si 11.0320767 9.50767479 17.154372483641275 
Si 8.25407784 10.9214676 13.855996979975126 
Si 10.732682789999998 11.81876967 17.28725946789829 
Si 8.739210329999999 8.998938090000001 21.621086472983166 
Si 9.05342814 11.33192673 21.358430290856813 
Si 10.58921676 12.21679953 19.69703120900533 
Si 9.87188661 12.073398659999999 23.499760623984805 
Si 11.675971529999998 10.55784222 23.900707953440154 
Si 8.66022012 11.384543429999999 25.462892144021534 
Si 11.69139816 9.12287241 25.80993641104103 
Si 8.15210244 11.58790779 29.791799975028074 
Si 10.279837079999998 10.80997884 29.11530961304397 
Si 9.75855708 9.86173794 26.994348817648802 
Si 11.54617281 10.265615910000001 34.50190915503467 
Si 11.2495482 9.28503936 30.684526144033107 
Si 11.525598539999999 11.16953172 32.25987432158468 
Si 9.46447371 15.00453981 1.1261894779214385 
Si 10.85102964 13.58131509 2.677839014719566 
Si 8.139168179999999 16.2872307 2.6853147736357976 
Si 9.501842969999998 14.932782360000001 6.787628818400119 
Si 10.85994027 13.574847959999998 8.145147653665948 
Si 9.50194071 12.21790725 9.501835079228396 
Si 9.50327649 14.938402409999998 12.222657975612746 
Si 10.85958189 16.2896742 10.860947449759038 
Si 9.36215622 12.47198238 15.35447440203496 
Si 10.81120059 13.6381509 13.706551085792443 
Si 10.632303809999998 16.18530417 18.219927944736575 
Si 11.625228179999999 15.039204929999999 21.649319760827137 
Si 10.09064502 14.530044689999999 19.869167659676112 
Si 10.67604246 14.39641782 23.706054156636142 
Si 9.27534681 16.22299923 24.306782309399683 
Si 11.993268149999999 13.95614799 25.61254589063006 
Si 11.24521506 12.960161099999999 29.081880014553867 
Si 8.233552439999999 13.35343428 26.646334572642026 
Si 10.31728779 14.11895025 27.257940335691462 
Si 10.7241957 14.37300909 30.88787510065164 
Si 8.46716733 13.869012779999998 31.596617230712724 
Si 14.14996641 2.1851406 0.20293429102897095 
Si 14.934557969999998 1.3588254629999998 4.0695426456227315 
Si 13.574978279999998 0.0001416351969 8.144939801240103 
Si 13.57507602 2.7144027 5.430491045915007 
Si 12.2173371 1.357431039 6.787143829406481 
Si 14.932472849999998 1.3556586869999998 9.502042931654241 
Si 13.57232301 2.7145656000000002 10.864619509282303 
Si 12.21792354 1.351742571 12.231838124420909 
Si 14.946140159999999 4.07789199 12.236168383292682 
Si 13.26467007 3.92760045 16.961173653818182 
Si 15.0221493 2.0397849299999997 16.940007348452948 
Si 13.65637941 0.0762797169 13.621712653976635 
Si 15.2220276 1.477947717 14.700189607545315 
Si 12.459944069999999 0.914916447 21.225058317606155 
Si 15.822542159999998 2.2512779999999997 21.164711829969104 
Si 14.589275129999999 0.510435747 20.212193446462607 
Si 14.13375786 3.87195381 21.851317676677674 
Si 13.204185299999999 2.10313674 23.20914829058227 
Si 15.02022708 1.265757435 24.623653332600654 
Si 15.37121142 3.0262421699999997 26.142153871683572 
Si 15.39149247 3.4141885199999997 30.00647688885517 
Si 14.83440705 0.0044113645799999995 29.962412174575988 
Si 13.233539879999999 3.7183065299999996 26.711184529505722 
Si 12.8764305 0.5101197209999999 28.776094454064637 
Si 15.95871027 0.484029657 34.64553518129368 
Si 15.32108709 1.5929828099999999 31.546698006438906 
Si 13.439624669999999 2.63445138 32.65430894169688 
Si 14.96296773 4.0726140299999996 1.390349125928075 
Si 13.552807589999999 5.44120209 2.6980110926478402 
Si 14.930338859999999 6.790698269999999 4.067706615861099 
Si 14.93315703 4.07186469 6.787767386684016 
Si 13.575369239999999 5.42989683 8.144593380530361 
Si 12.21712533 6.78809187 6.787732744613042 
Si 13.57339815 8.14612401 5.430248551418187 
Si 14.93331993 6.78770091 9.501904363370345 
Si 13.7290491 5.5961037 13.644541778748632 
Si 15.167276909999998 6.71814261 15.333689159450442 
Si 15.403547069999998 5.26186548 17.335758367262166 
Si 12.29453541 4.94072442 20.54933008118348 
Si 15.954702929999998 6.7412581199999995 19.20760803028189 
Si 15.37560972 5.54259105 22.96776234003407 
Si 14.11440534 7.511253839999999 23.637982487171847 
Si 12.45383532 6.934538969999999 25.158353698087375 
Si 13.205472209999998 4.37244777 30.06083029821368 
Si 15.821320409999998 7.26472098 26.815942152131694 
Si 13.72979844 6.050040839999999 26.866935280605706 
Si 12.5491644 6.29023689 28.830066800642438 
Si 13.95533349 7.144696259999999 32.38514005022738 
Si 12.75016671 5.08738329 32.27504754867138 
Si 16.253950229999997 6.25065219 32.748673943030596 
Si 12.24760392 12.135984839999999 1.3356631526882088 
Si 14.89889916 9.515054159999998 1.2210013619707163 
Si 13.58804286 10.84456251 2.7206115797514063 
Si 14.93229366 9.50264118 6.787732744613042 
Si 13.574799089999999 10.86033123 8.144697306743284 
Si 12.21850998 9.503227619999999 9.501765795086447 
Si 13.5757602 8.14363164 10.860531744907348 
Si 14.941416059999998 9.491726879999998 12.255186880257517 
Si 14.93270091 12.21692985 9.501904363370345 
Si 12.20497299 12.21601761 12.247530982572219 
Si 13.9488012 8.467998119999999 16.64208553807486 
Si 15.26988762 10.44822681 16.850492237055626 
Si 12.27401001 9.288199619999999 15.200143975844913 
Si 13.45252635 10.713949289999999 13.688606493027809 
Si 14.868892979999998 11.98676844 14.967695679608058 
Si 13.919511779999999 10.01299059 20.696766735249664 
Si 12.986632349999999 12.01384242 19.92099219785351 
Si 13.99804587 8.20998081 19.102885049726893 
Si 13.16582235 11.9993769 24.951367324016548 
Si 15.71297562 10.98139851 21.910832754611345 
Si 12.718010249999999 9.03078504 22.439921104600245 
Si 15.368328089999999 8.84760399 25.11162154434318 
Si 14.780161349999998 11.276540729999999 28.16133626255655 
Si 13.259620169999998 8.17577181 30.162019787529307 
Si 15.087569939999998 9.66692583 29.87483701915322 
Si 13.818481199999999 10.21759299 26.282038554277378 
Si 16.16518602 10.859467859999999 32.00681399311818 
Si 15.733142639999999 11.33744904 34.53201311471125 
Si 13.23966492 8.37602478 34.530211727020585 
Si 12.219959789999999 14.93289639 4.070304771184165 
Si 14.933010419999999 12.216473729999999 4.070131560829293 
Si 14.83792569 14.974712819999999 1.1826941598874503 
Si 13.54852332 16.284249629999998 2.6931057753978944 
Si 13.57387056 13.574049749999999 5.430179267276239 
Si 12.21824934 12.21699501 6.787975239109862 
Si 14.932668329999998 14.931967859999999 6.7875248921871965 
Si 12.2170113 14.932179629999998 9.502874341357623 
Si 13.576753889999999 13.573414439999999 10.863788099578924 
Si 14.93586117 14.93384121 12.232011334775779 
Si 12.519809819999999 15.3577233 17.16566579877886 
Si 12.38222448 14.87653299 14.888988894354684 
Si 12.76331274 13.022910179999998 16.427720402886532 
Si 16.22628981 13.4824185 13.687705799182481 
Si 13.55982858 13.660272719999998 21.51428496816972 
Si 15.54919596 14.84809065 21.075023508216912 
Si 14.57410914 16.218438029999998 17.939396453987538 
Si 16.02266481 14.29429581 17.560135060962033 
Si 14.497008569999998 12.41587962 17.94809161380206 
Si 14.687520119999999 12.69326574 23.34636553371106 
Si 16.16445297 14.093342369999998 24.635119858093113 
Si 15.35410692 15.74500176 26.141842093044808 
Si 13.36921929 15.089980859999999 27.147189634786955 
Si 13.565448629999999 13.244030639999998 28.698496215082436 
Si 13.913305289999998 13.16719071 34.55307549386355 
Si 12.733078499999998 13.26802581 32.231641033740715 
Si 14.402819789999999 14.11192926 30.7269626809765 
