&CONTROL
  dt          = 30.D0,
  prefix = 'x.33_y2.00_z3.15_struc29-scf',
  pseudo_dir = './',
  outdir='./',
  wf_collect= .true.,
  verbosity= 'high',
/

&SYSTEM
ibrav= 6, celldm(1) =30.783621515, celldm(3) =2.101198140089011, nat=  432, ntyp= 1,
  ecutwfc     = 12.D0, nbnd= 1728,
  degauss     = 0.05D0,
  occupations = "smearing",
  smearing    = "methfessel-paxton",
/
&ELECTRONS
  electron_maxstep=200,
  conv_thr    = 1.D-8,
  mixing_beta = 0.3D0,
  scf_must_converge=.false.,
/
&IONS
/
ATOMIC_SPECIES
Si  28.08  Si.pbe-hgh.UPF
K_POINTS {automatic}
1 1 1 0 0 0
ATOMIC_POSITIONS (angstrom)
Si 0.0239607981 2.7083265299999995 2.7070923908338913 
Si 2.71171485 -0.00536696856 2.6742022081739916 
Si 1.321801551 1.3630820399999999 1.1283396631963076 
Si -0.000430021791 0.00030589850699999996 5.430457018983337 
Si 0.0006335360189999999 2.7147122099999996 8.144744244238199 
Si 2.7147122099999996 1.2571612020000001e-05 8.144983843862114 
Si 2.71399545 2.71591767 5.430251647877125 
Si 1.357284429 1.357927884 6.787686202905024 
Si -0.00296741898 0.0007933392899999999 10.860571752789655 
Si 2.7151194599999995 2.7172045799999998 10.856909301395534 
Si 1.362050883 1.371963348 12.237721934013933 
Si 3.2360736599999997 0.868740813 16.63057566737733 
Si 1.292420907 2.1189380399999997 17.073047715711727 
Si 1.1100201479999998 4.0527402299999995 15.445070956766827 
Si 2.86816401 0.7140297959999999 20.21604712518477 
Si 1.400734746 2.40873714 19.516690051496482 
Si 0.65397834 3.4421747399999996 24.694643295391796 
Si 0.6809692409999999 1.275867009 23.6511869332448 
Si 2.86389603 0.991021698 22.63552412747187 
Si 1.68769287 1.6908857099999999 27.508843563818942 
Si 1.7893098899999997 1.5124906619999998 29.895598103182888 
Si 2.02276188 3.86630118 26.66045552405593 
Si 2.72264544 2.81193093 33.84752007150847 
Si 0.763005681 3.6130568399999996 30.360216002470516 
Si 3.7667366999999996 1.377001845 31.2699415459556 
Si 4.0364991 4.144094549999999 1.2158072173321262 
Si 1.359576432 4.06971441 4.073296292097055 
Si 2.70322776 5.431525829999999 2.701632942260414 
Si 1.312428285 6.75694539 1.2909798879093686 
Si 2.86080093 8.10409581 0.0150806399287931 
Si 0.0010565270459999998 5.4300760200000004 5.430354333430231 
Si 2.7150705900000003 5.42957103 8.144641558685093 
Si 1.35773892 6.7874728499999994 6.78713854662179 
Si 4.05098091 4.06407807 12.237550791425422 
Si 1.35567009 4.07012166 9.501904971124482 
Si 1.3578040799999997 6.76852758 12.263667150432088 
Si 1.060161345 7.934419169999999 16.812705610069937 
Si 2.73805578 5.27501151 13.910058851900693 
Si 0.018225252 5.63720337 17.089169347549394 
Si 1.73631852 7.775233289999999 19.706418725118944 
Si 2.7074957399999997 4.36127283 19.78665037061255 
Si 0.809337699 5.688924119999999 19.492730089105045 
Si 0.889132635 5.34329919 23.322353563681204 
Si 3.0286693799999997 6.248241269999999 23.034594415360075 
Si 1.3999511969999998 5.1633761400000004 28.644888066349978 
Si 3.21181785 6.752204999999999 29.19891085387536 
Si 1.498715838 4.4232888599999995 32.522397237191306 
Si 3.41756055 5.74769844 31.483595953451793 
Si 1.357688421 9.50102847 4.06970229773834 
Si 2.72523555 10.86945363 2.7142838024030924 
Si -0.0001468911654 8.14535838 8.145052300897518 
Si 2.7162108899999997 8.14622175 5.429772448629296 
Si -0.000732422835 10.86088509 5.430251647877125 
Si 2.7151846199999996 10.859972849999998 8.145463043109942 
Si 1.358056575 9.5017941 9.50087811559342 
Si 2.7142560899999997 8.150115060000001 10.861735522391523 
Si 2.6382632399999997 10.71548055 13.775198492154614 
Si 2.1495632399999995 10.695574169999999 16.397753289967984 
Si 3.23178939 8.382915449999999 17.97654366897504 
Si 2.9374616700000002 11.32573653 20.10826152294101 
Si 0.622035279 11.13414984 19.450184041601396 
Si -0.00328937454 8.94000087 18.744802748797554 
Si 4.007926439999999 10.620917099999998 18.119926929628924 
Si 2.48279148 8.158178609999998 21.83389224288986 
Si 1.4022855539999999 10.03353228 22.965829323296653 
Si 2.43463824 11.81438766 24.185220266432186 
Si 3.7870177499999995 10.026641609999999 21.916109142410185 
Si 0.9152569079999999 8.97119622 24.999208645904634 
Si 2.11716243 10.7847945 29.53558255399273 
Si 3.07977111 8.86516461 25.99823639207437 
Si 2.24792226 8.774413019999999 28.277136872159154 
Si 1.546427619 9.257297490000001 32.6107410413803 
Si 0.24389876699999996 10.869746849999999 34.07490011460319 
Si 3.43943802 10.02004416 31.30923588427755 
Si 0.00731520369 13.57194834 2.684741168774453 
Si 1.5236265059999998 12.26614194 1.2566247246918207 
Si 1.3550934239999999 14.935242149999999 4.069531155149829 
Si -0.0001257364827 13.57551585 8.144881158309008 
Si 2.71544526 13.57318638 5.430114733806317 
Si 1.35769005 12.217597739999999 6.7875492888342155 
Si 1.357007499 14.932309949999999 9.50234994185461 
Si 2.71731861 13.576737599999998 10.85951066874089 
Si 1.364935842 12.204598319999999 12.249428087068035 
Si 2.6781737399999996 16.20227835 13.564932707910922 
Si 0.018368278199999998 13.56909759 13.655090623538122 
Si 1.1845306079999998 15.11949834 14.99034509909509 
Si 3.06846585 14.83377174 16.91511733503447 
Si 3.16475604 13.55443659 20.78242640760059 
Si 2.2183559099999997 14.97091725 19.19925477832767 
Si 2.29177494 13.793410889999999 22.929752465638693 
Si 3.39859899 15.56074557 24.16608652503674 
Si 0.660590451 12.33040599 25.75244140645595 
Si 2.3255929799999997 15.93842922 26.30625882287512 
Si 1.45081998 13.96748583 27.237616789547896 
Si 2.83825557 12.792129749999999 28.61729988108213 
Si 0.11901897539999999 12.67381548 32.339651181180066 
Si 2.98308996 13.35121884 33.90574278011966 
Si 0.7251542369999999 15.787062539999999 30.581469140896562 
Si 2.00104731 14.167722509999999 31.902073810877056 
Si 3.8924303399999998 13.95582219 30.344197056185955 
Si 8.16229998 -0.00375982974 2.7095808040708302 
Si 4.0745362499999995 1.3578431759999998 4.067272072981495 
Si 5.4213119999999995 2.7161457299999996 2.6802777700661053 
Si 6.84541638 1.297402389 1.2678003357215402 
Si 5.4293429699999995 -0.000974889711 5.4301831908417215 
Si 5.43015747 2.7150705900000003 8.1447784727559 
Si 6.78727737 1.3577014529999998 6.7875835173519175 
Si 8.147687849999999 2.71549413 10.857901928408895 
Si 4.07051262 1.35705474 9.501562685947462 
Si 6.80690682 1.352943144 12.222250644012608 
Si 7.5730581 3.63882762 16.869935691667763 
Si 4.55523786 0.6588865169999999 14.713231019779295 
Si 5.3881618499999995 2.6300205 13.568697844858148 
Si 6.36684876 0.030204103499999996 18.0427073936931 
Si 5.82271389 3.24755811 18.366235343012878 
Si 7.1935011 3.3050781 20.28987803786809 
Si 4.49243991 1.321231401 18.504176269352136 
Si 4.50943038 2.6777013299999997 22.802080094610048 
Si 6.43472919 1.67068611 21.8027785202987 
Si 5.36393862 3.28046391 24.91990117038899 
Si 7.31153844 0.30673092599999996 25.30288405495722 
Si 5.78847231 1.616401314 26.5046815399939 
Si 7.03706823 2.7333805499999997 28.124306540619504 
Si 8.064983519999998 2.59553457 33.913033454390195 
Si 4.62492648 3.57977637 31.513819734582704 
Si 6.7862511 4.07287467 4.069565383667531 
Si 4.073461109999999 6.785664659999999 4.071071438446422 
Si 5.587600319999999 5.56186212 0.1500348884989268 
Si 6.994697939999999 6.91932411 1.4019487422994146 
Si 8.16518331 5.412662009999999 2.713465740830013 
Si 4.07232081 4.07267919 6.787378146245705 
Si 5.43009231 5.4296199 5.430251647877125 
Si 6.787375109999999 6.7877171999999995 6.787412374763408 
Si 6.78730995 4.06937232 9.50173382853597 
Si 4.07012166 6.786951569999999 9.502829141102438 
Si 5.430304079999999 5.4320634 10.862454321263266 
Si 6.79047021 6.797996189999999 12.224852011357964 
Si 5.3083408499999996 8.013979529999999 13.612373433445963 
Si 6.39978714 4.3255162799999995 14.905526832229413 
Si 4.697400689999999 6.1565448599999995 15.11137713768954 
Si 8.075930399999999 5.36994963 13.581293939372502 
Si 5.144838119999999 7.0353089099999995 17.67752333832993 
Si 6.54527313 5.369835599999999 21.24262882810465 
Si 7.0850097 6.99240105 19.588775309776995 
Si 4.17698406 4.854387419999999 17.929239857510805 
Si 7.555236839999999 4.21982676 24.72709193017334 
Si 4.19967603 4.742116739999999 21.637797064974816 
Si 7.597916639999999 6.08736123 23.320505223725295 
Si 6.25184136 7.81296093 24.274385555046024 
Si 4.127185529999999 6.943938299999999 24.995203909333497 
Si 5.02794108 5.6602863 28.12362197026546 
Si 5.952203099999999 4.12252659 29.656477678516367 
Si 4.11899166 4.854257099999999 26.136143089895928 
Si 7.1761848299999995 6.47786511 27.626452750643185 
Si 6.60860865 4.140070919999999 32.76562508398208 
Si 7.95598713 5.01987753 31.044478299852198 
Si 4.65473718 7.2110128499999995 33.03240215095185 
Si 8.18448696 10.834527869999999 2.7060073468227364 
Si 4.15784331 9.57773808 1.3514924843548228 
Si 5.44120209 8.14863267 2.7108164535598744 
Si 6.7858275599999995 9.499399469999998 4.071824465835867 
Si 4.072923540000001 12.217744349999998 4.077540628292109 
Si 6.77334942 12.12339267 1.4289481970627917 
Si 4.0730701499999995 9.5027715 6.7875492888342155 
Si 5.42988054 8.1453258 8.145052300897518 
Si 5.4302877899999995 10.86248151 5.43083353267806 
Si 6.78773349 9.50151717 9.5021787992661 
Si 4.0510297799999995 9.49309524 12.237413877354614 
Si 5.4319656599999995 10.86068961 10.863960376042156 
Si 8.019615869999999 10.83434868 13.660977928582874 
Si 6.795683009999999 8.96132448 16.94965390939584 
Si 6.159395609999999 9.85403277 14.825534786359722 
Si 4.47885405 11.621937599999999 15.127122255832482 
Si 7.168691429999999 9.209730689999999 20.5405677015179 
Si 6.266860739999999 10.59345216 18.835063349977858 
Si 6.04577286 9.583227809999999 22.656745808447145 
Si 6.3620595 11.34455148 24.194770022871058 
Si 4.26340251 10.89770049 25.341870336619856 
Si 7.34942898 8.42878809 26.35055052478157 
Si 6.2899436699999995 9.611099999999999 28.122697800287508 
Si 6.40762263 11.893329 28.467960858348082 
Si 5.74870842 10.644781949999999 34.060797965309945 
Si 7.64549973 9.2010807 30.14272800099169 
Si 6.55763724 8.798750279999998 32.49039357313989 
Si 5.09085306 8.72774217 29.994039320093982 
Si 4.30437186 11.77302735 32.63500906043105 
Si 7.544697209999999 13.890662189999999 0.1563216403452623 
Si 4.115831399999999 14.841590939999998 1.2293856703045294 
Si 5.42238714 13.560203249999999 2.7157761657749013 
Si 6.78830364 14.931918989999998 4.070523782163189 
Si 5.995795139999999 15.740049599999999 0.05297273856604661 
Si 4.0723696799999995 14.93257059 6.787857345493533 
Si 5.43009231 13.57486425 8.144470416096583 
Si 6.78693528 12.217548869999998 6.78813117363515 
Si 8.14469049 13.57634664 10.861256323143694 
Si 4.07121309 12.21769548 9.502486855925417 
Si 6.787391399999999 14.930550629999999 9.502897598137842 
Si 4.065250949999999 14.90461695 12.216842538215683 
Si 6.78297681 12.222696509999999 12.227350693150212 
Si 5.43142809 16.28977194 10.863241577170413 
Si 5.27629842 13.39181352 13.630617233381157 
Si 6.19055838 15.104788469999999 14.881703783908787 
Si 8.03123064 16.159158719999997 13.651633543250215 
Si 5.6691806399999995 14.26761279 17.20044625859876 
Si 5.4167345099999995 14.035301099999998 20.990878080406073 
Si 6.43165038 16.09357518 20.37894064092882 
Si 6.47219619 12.89747718 19.245908247955565 
Si 5.691611969999999 15.02623809 24.59305305485211 
Si 6.3315483299999995 13.42625058 23.045821369166347 
Si 4.5164025 16.199150669999998 27.520207431696022 
Si 4.92174657 16.05210084 29.863286382472154 
Si 5.60786508 14.245230329999998 26.76745387039254 
Si 4.50620496 12.25361493 27.182953846777725 
Si 7.88409936 13.5057132 27.226013322046903 
Si 7.20156465 16.1573994 30.595365919083598 
Si 5.57984628 12.33765504 30.674947222740865 
Si 7.430732369999999 12.587413319999998 32.288445318697796 
Si 12.16255383 1.30846167 1.2749198674035664 
Si 9.50593176 1.3534725689999998 4.07353589172097 
Si 10.850606099999998 2.7052640099999996 2.7024818094994254 
Si 9.43423947 3.9363970499999996 1.263590228044188 
Si 8.14527693 -0.00021971137499999998 8.144607330167391 
Si 8.14659642 2.71531494 5.430080505288615 
Si 10.858555619999999 -0.00039728052 5.431107360819676 
Si 10.86000543 2.7150705900000003 8.14491538682671 
Si 9.49980672 1.3580810099999998 9.502007656677588 
Si 10.86306795 -0.001479211821 10.866253686728195 
Si 9.615742649999998 0.7499052629999999 15.097172302843191 
Si 10.73080944 2.55032982 13.715195900622922 
Si 8.44527357 1.3621176720000001 17.087218322040375 
Si 9.476251379999999 2.9223934199999997 19.80133440470673 
Si 9.962361269999999 0.801197586 18.821714228074057 
Si 8.19144279 1.0990195109999998 23.316158201977135 
Si 9.33490305 3.0069059399999998 23.823424834321518 
Si 10.270535489999999 3.77385543 21.811643706383528 
Si 10.987898219999998 3.1654728 25.465161457382646 
Si 10.24030125 2.45451204 29.44734143535684 
Si 12.13978041 1.04332563 29.35670432048181 
Si 8.44266717 0.9957490559999999 28.877265473029198 
Si 10.411997849999999 3.92245281 27.590375892985225 
Si 8.80583643 1.4849377559999999 31.813353492993347 
Si 12.219796889999998 4.07131083 4.067990871853238 
Si 12.16955853 6.76626327 1.3433050229204924 
Si 9.504367919999998 6.78659319 4.073775491344883 
Si 11.00071845 5.12473626 0.00799348842451284 
Si 9.50264118 4.07274435 6.787480831798812 
Si 8.14493484 5.42965248 8.144573101649689 
Si 10.859549309999998 5.4312651899999995 5.430662390089549 
Si 12.210527879999999 6.791040359999999 12.181142194252445 
Si 9.50189184 6.78726108 9.501665371500566 
Si 9.49809627 4.05125784 12.231150058615139 
Si 10.86300279 5.430711329999999 10.862283178674756 
Si 10.848911939999999 8.09257878 13.481894323965747 
Si 11.51593857 4.54060944 15.021321907615448 
Si 9.0155376 7.95447216 16.51104968356177 
Si 9.801530099999999 6.44251581 14.824062960098534 
Si 10.438583129999998 7.583385959999999 20.167476858565557 
Si 9.20077119 6.6079244699999995 18.43421317916915 
Si 10.27061694 4.5048528899999996 18.170482450274857 
Si 9.98603064 6.72420249 23.938056140105683 
Si 9.69786054 6.06304026 21.775703762796375 
Si 11.63156499 5.27251914 24.71562537674315 
Si 11.855357009999999 5.7170732399999995 28.192421290846582 
Si 8.17979544 6.93919791 29.660927385817633 
Si 10.444675590000001 7.261805069999999 29.22721783801496 
Si 8.18891784 4.47219144 26.982374733043713 
Si 9.590346539999999 6.24643308 32.72687840194336 
Si 11.23697232 7.28679393 31.440262650041 
Si 8.27838252 7.95769758 33.90454478200009 
Si 9.55724526 9.49296492 1.042302861100435 
Si 10.840033889999999 8.15066892 2.6927985618415153 
Si 9.507625919999999 12.21666921 4.074015090968798 
Si 8.144397269999999 8.144185499999999 5.430662390089549 
Si 9.50288553 9.502103609999999 6.787412374763408 
Si 10.86042897 8.14514661 8.144710015720497 
Si 8.14485339 10.86020091 8.144812701273604 
Si 10.85850675 10.86062445 5.430046276770913 
Si 8.14436469 8.14514661 10.86084558093127 
Si 9.482474159999999 9.51047667 12.22765874980953 
Si 10.86191136 10.86153669 10.858209985068212 
Si 10.372673789999999 9.90212085 16.100786670385 
Si 9.42159843 11.97637542 15.137561953731607 
Si 9.52774407 9.743553989999999 20.490559837155207 
Si 10.72737225 10.484879309999998 18.40227797215314 
Si 10.50990075 10.57769973 22.555977052332306 
Si 10.51516242 8.98022088 24.323777306090083 
Si 8.3487879 11.753381609999998 25.59533251020354 
Si 9.379358459999999 9.69126309 26.299173519710795 
Si 10.6583841 9.44857467 28.43181554365472 
Si 11.440939409999999 10.29368358 33.91584019284176 
Si 11.285842319999999 11.16233154 31.60312193726735 
Si 9.459651869999998 10.77989121 29.991437952748626 
Si 9.43946856 14.820544259999998 1.321857433728388 
Si 10.85617728 13.544792909999998 2.7030020829684966 
Si 8.14465791 13.573903139999999 5.430491247501039 
Si 9.50257602 14.93268462 6.78796003104664 
Si 10.85984253 13.57512489 8.145052300897518 
Si 12.2047938 12.20178015 12.2237909273092 
Si 9.50096331 12.215659229999998 9.501836514089078 
Si 9.4936491 14.92216128 12.23583936554032 
Si 10.719243539999999 13.378634909999999 13.641228073868792 
Si 11.903217029999999 14.11570854 17.31781584579909 
Si 8.71000236 15.71074389 20.13711616336384 
Si 8.62987185 13.40139204 20.006808196472136 
Si 10.53673038 12.73853565 18.85015812628446 
Si 12.08322153 15.979952429999999 18.742064467381386 
Si 8.545424489999998 13.67224587 22.367275234240903 
Si 11.811879 15.39181827 22.682725253382998 
Si 9.776590109999999 12.42035937 23.841463263150498 
Si 11.538728279999999 13.87187982 24.501902512211554 
Si 9.530399339999999 15.80457429 22.29097986828304 
Si 11.08676223 15.063916859999999 26.54424970645747 
Si 9.17118855 12.96384264 29.15879503112856 
Si 8.82196353 15.77290653 26.954375805563433 
Si 11.32034454 13.64852763 28.414358999626675 
Si 12.21894981 13.36337118 31.953485044465538 
Si 11.77742565 15.149504519999999 30.219879079892106 
Si 8.48080206 14.236303409999998 31.024249245890285 
Si 10.12245939 15.755183009999998 31.946194370195 
Si 11.1568581 15.83365194 34.20798059142876 
Si 15.599206259999999 0.554897673 0.009631117625449721 
Si 13.91855067 2.39573772 0.1887832819635325 
Si 14.93107191 1.356896727 4.06987344032685 
Si 13.57520634 -7.794927899999999e-05 8.145154986450624 
Si 13.574847959999998 2.71384884 5.430046276770913 
Si 12.217614029999998 1.357041708 6.78744660328111 
Si 14.93289639 1.356981435 9.502007656677588 
Si 13.57540182 2.71437012 10.865740258962663 
Si 12.23139537 1.350063072 12.25582881987832 
Si 14.91787701 4.073249339999999 12.259628185343246 
Si 16.25732226 2.6559704699999998 13.793853034302233 
Si 15.68593422 0.585700434 15.104565662666833 
Si 15.639247079999999 0.64920537 17.480195933777612 
Si 15.63800904 2.90455587 20.671662924316752 
Si 13.498692209999998 3.04522002 19.73390422483369 
Si 13.46085054 1.444246965 18.021211884576214 
Si 15.255503549999998 1.0314795419999998 22.07845500187101 
Si 12.47009274 2.9551363200000003 21.877533602959975 
Si 13.08531717 1.052444772 23.11886502594252 
Si 12.95770131 1.9469156399999998 25.31780768867532 
Si 14.76385506 3.5194056299999996 25.575137684759326 
Si 14.878227149999999 3.2613883199999996 29.580319226629303 
Si 12.71097297 0.40900606199999995 27.0907422200884 
Si 15.007341689999999 0.0356301396 27.154201891908002 
Si 15.6167343 2.27225952 27.52202154313423 
Si 13.710576239999998 1.8023093099999998 30.982866967988507 
Si 12.59423883 3.33208692 32.63322917751055 
Si 15.021481409999998 4.094247149999999 1.3413163460420032 
Si 13.58261829 5.43066246 2.700825149242646 
Si 14.931251099999999 6.788531699999999 4.0709002958579115 
Si 14.93257059 4.0726140299999996 6.787172775139493 
Si 13.57476651 5.430304079999999 8.145018072379816 
Si 12.217744349999998 6.787521719999999 6.78778888845813 
Si 13.57421265 8.144739359999999 10.85951066874089 
Si 16.2939096 5.42891943 10.864542260843093 
Si 12.21694614 4.07271177 9.502452627407713 
Si 14.93156061 6.78721221 9.502589541478523 
Si 13.968055979999999 7.338693869999999 15.097959558750338 
Si 15.925104 7.86411153 13.596765229373828 
Si 13.87596861 5.441055479999999 16.67822176401858 
Si 13.35693663 5.4859833 13.688531885333024 
Si 12.69494361 6.873370019999999 20.10709775333914 
Si 12.58425306 4.97534067 18.72491598001266 
Si 13.38643782 4.48377363 23.399641556652433 
Si 13.86389772 6.28197786 22.04333654270871 
Si 16.03388862 7.013447729999999 24.523158421704526 
Si 15.853428 5.15918961 21.39891623993221 
Si 14.84471862 5.82163875 26.171330006093637 
Si 13.845522599999999 5.395085099999999 29.51816023848238 
Si 12.69913014 6.67344285 26.234823906430936 
Si 15.650992169999999 6.34630707 28.281415436871914 
Si 14.66614764 6.97052358 33.07056694818964 
Si 16.26297489 5.4635031000000005 34.08831769354239 
Si 16.02738891 8.113381109999999 31.565607481865904 
Si 13.11081102 5.7020538599999995 31.747223996792982 
Si 12.21487731 12.16480185 1.2407598067369208 
Si 16.28687232 8.14791591 2.696515778863958 
Si 13.273206029999999 8.515369439999999 0.06187249545375662 
Si 12.217532579999999 9.50182668 4.069770754773744 
Si 14.980235129999999 9.594484199999998 1.295812954608898 
Si 13.588189469999998 10.87329807 2.7054768047983546 
Si 13.57554843 8.14449501 5.430320104912529 
Si 14.93226108 9.502185059999999 6.787686202905024 
Si 13.574538449999999 10.85971221 8.144162359437265 
Si 14.93514441 9.50387922 12.233443369301176 
Si 16.291466099999997 10.85906061 10.862043579050841 
Si 12.2137533 9.49931802 9.501254629288143 
Si 12.33884421 9.17019486 14.912030250592801 
Si 13.504409999999998 10.796262659999998 13.63034340523954 
Si 13.11030603 10.62995805 18.510782373268633 
Si 14.094743309999998 8.7107517 19.55636090351316 
Si 16.14389499 11.25270846 21.630745990328197 
Si 12.688623089999998 11.41080291 22.140545532982525 
Si 14.2682481 8.15407353 23.39286431014743 
Si 14.298123959999998 9.79120224 21.682294137987483 
Si 12.712422779999999 8.77156227 25.142489221005416 
Si 12.63853134 10.27131741 29.567483532491035 
Si 13.59949473 10.849123709999999 26.013502310969482 
Si 15.87437694 10.27885968 26.440811125961876 
Si 13.110843599999999 12.06771345 28.120712546260787 
Si 16.11887355 8.68292838 28.28685777118654 
Si 14.854492619999998 9.507006899999999 30.135779611898172 
Si 16.264571309999997 11.34552888 30.431548233361585 
Si 12.218803199999998 14.935062959999998 4.073227835061651 
Si 14.93032257 12.21622938 4.071413723623443 
Si 14.797005209999998 14.899338989999999 1.2829122262869954 
Si 13.56277707 16.28978823 2.711364109843107 
Si 13.575369239999999 13.57551585 5.42932747789917 
Si 12.217597739999999 12.21735339 6.787309689210301 
Si 14.932098179999999 14.93312445 6.787720431422726 
Si 12.21637599 14.93089272 9.501768057053674 
Si 14.931055619999999 12.21639228 9.502589541478523 
Si 13.57603713 13.57584165 10.86402883307756 
Si 14.939233199999999 14.92726005 12.232074228593095 
Si 12.574804859999999 14.28751917 14.85541628231361 
Si 14.3672913 12.619309139999999 14.84774909434835 
Si 13.642663229999998 16.15524912 13.792073151381725 
Si 13.865673329999998 12.47994819 17.18312662864152 
Si 16.106656049999998 12.748065299999999 17.942931264591625 
Si 15.23202966 15.18154695 20.94846894697323 
Si 12.915037799999999 14.759261279999999 20.64951707336353 
Si 12.604990229999999 12.500066339999998 20.01444115591969 
Si 16.2012195 14.918349419999998 18.79624821090373 
Si 16.2701262 13.546796579999999 22.358067762979054 
Si 13.39199271 12.46784472 24.267197566328598 
Si 15.439661999999998 13.689627299999998 24.507995188362514 
Si 16.2702891 15.857207279999999 25.219263786211116 
Si 14.90277618 13.00763016 29.370943383845862 
Si 16.09197876 14.828819579999998 28.601041335173655 
Si 12.85386885 14.07856734 34.18446559976745 
Si 14.48607798 13.864451579999999 31.522103035866603 
Si 15.136944929999999 16.236959759999998 31.949035337164272 
