&CONTROL
  dt          = 30.D0,
  prefix = 'x.33_y2.00_z3.16_struc22-scf',
  pseudo_dir = './',
  outdir='./',
  wf_collect= .true.,
  verbosity= 'high',
/

&SYSTEM
ibrav= 6, celldm(1) =30.783621515, celldm(3) =2.1107125888071807, nat=  432, ntyp= 1,
  ecutwfc     = 12.D0, nbnd= 1728,
  degauss     = 0.05D0,
  occupations = "smearing",
  smearing    = "methfessel-paxton",
/
&ELECTRONS
  electron_maxstep=200,
  conv_thr    = 1.D-8,
  mixing_beta = 0.3D0,
  scf_must_converge=.false.,
/
&IONS
/
ATOMIC_SPECIES
Si  28.08  Si.pbe-hgh.UPF
K_POINTS {automatic}
1 1 1 0 0 0
ATOMIC_POSITIONS (angstrom)
Si 0.01380631257 2.71858923 2.684863734582729 
Si 1.387958499 1.533895722 1.026495565024027 
Si 8.01143829e-05 2.7151846199999996 8.144902926049232 
Si 2.71557558 -5.5338921899999995e-05 8.14466224149273 
Si 2.71296918 2.7141909299999996 5.429946745202179 
Si 1.3575124889999999 1.357225785 6.787063808790953 
Si 2.71723716 2.71233387 10.858002397460416 
Si 1.378917549 1.370862144 12.221721094598951 
Si 4.07404755 1.361446524 9.502776426815585 
Si 2.83874427 3.5584364699999997 17.021624437895866 
Si 0.22799809799999998 2.92415274 13.56948584399223 
Si 2.6843802299999995 0.028050402599999996 13.706641657690119 
Si 3.94968969 2.16337716 19.992084467223492 
Si 1.82544111 2.7602916299999998 18.919147097847063 
Si 0.281072547 1.028509875 18.609351690121322 
Si 1.63222542 3.3062183999999997 24.803437518708275 
Si 2.33934174 3.8630594699999996 22.629608987893146 
Si 2.11598955 0.1007135766 22.67685192798362 
Si 3.5842724099999996 1.9344700799999999 22.285739523668386 
Si 1.374670746 1.63429425 27.953998363315304 
Si 2.11618503 3.5194870799999998 29.131805432310326 
Si 2.71705797 1.621353474 26.03161642702829 
Si 2.71319724 3.15661104 34.09998166410999 
Si 0.5651620019999999 3.60968481 30.91273361639049 
Si 0.07597623419999999 1.319514435 31.581630382416737 
Si 4.07028456 6.78814074 4.068050373991443 
Si 1.357059627 4.07061036 4.072417079516545 
Si 2.7164878199999998 5.43318741 2.6947042945928406 
Si 1.291117707 6.845693309999999 1.325054442311943 
Si -0.00688037472 8.15174406 2.7381512953922016 
Si 0.00043606701 5.431216319999999 5.433969615646564 
Si 2.7147447899999997 5.430238919999999 8.14466224149273 
Si 1.3574457 6.786495449999999 6.788095314033103 
Si 2.713914 8.14441356 5.43163153709769 
Si 1.3583497949999999 4.07210904 9.501916839113791 
Si 1.3590812159999999 6.79108923 12.246958589523555 
Si 0.799987239 6.26327694 16.50133319375537 
Si 1.5485811569999999 4.286583179999999 15.198473305903692 
Si 2.8152378 5.48814987 13.65410365735661 
Si 2.28631779 8.06864877 15.968698270217148 
Si 3.17322684 6.60823398 19.844957436184824 
Si 0.232994241 4.3939831499999995 19.61194040198312 
Si 0.930768246 6.563436479999999 19.042893343397 
Si 0.1596279906 4.2464772 21.93753773742659 
Si 0.470774484 8.03512395 23.630444140843288 
Si 2.6739220500000003 7.16416281 23.89502523545478 
Si 3.5194707899999997 5.793962039999999 22.115609925729768 
Si 1.9641015899999998 5.58048159 25.539760344063065 
Si 2.53641816 5.52688749 27.793496147636752 
Si 1.6692688799999997 7.499981159999999 28.801964439378803 
Si 1.546564455 4.84176267 32.75589595008038 
Si 3.50441883 6.48907263 32.57730800915613 
Si 2.68245801 8.09492454 34.23624350659801 
Si 4.06438758 9.52321545 1.238569604459274 
Si 1.359949473 9.50501952 4.075064609638063 
Si 2.70454725 10.846403279999999 2.7056073050023666 
Si 4.07491092 12.216604049999999 4.072176394960043 
Si 1.1089173149999998 11.92947651 1.3154820736647903 
Si -0.00035047609199999997 8.14498371 8.145349911654163 
Si -0.000634163184 10.85816466 5.429946745202179 
Si 2.71531494 10.85979366 8.145728130242953 
Si 1.3584833729999999 9.503732609999998 9.502776426815585 
Si 2.7113076 8.14506516 10.861406364759512 
Si -0.0018133865099999999 10.85718726 10.863056773146951 
Si 1.393295103 12.21274332 12.228013276576066 
Si 0.1292846076 8.27158959 13.703237690391022 
Si 3.0067430399999995 10.900062539999999 13.874467560587934 
Si 1.266464421 10.4081697 15.477323556364926 
Si 3.80089683 8.89088652 19.631195166503257 
Si 3.2386474799999996 10.56272922 21.223048439697315 
Si 0.9462356009999999 11.02885128 21.15517539476384 
Si 0.312280929 11.614199849999999 18.960819909629926 
Si 3.0656802599999997 11.93553639 24.921441718410243 
Si 3.07516104 10.74424869 27.009861615175346 
Si 1.141164999 9.51876828 27.604455620258715 
Si 3.08680839 8.14454388 30.646123894802766 
Si 0.1169441181 10.33761771 31.48360300090441 
Si 1.78165359 12.148870229999998 32.19568545306868 
Si 2.0243094299999997 9.35173062 32.33205044608091 
Si 3.5978745599999997 12.11436801 30.630169947057514 
Si 2.6902283399999996 16.2966789 2.6820717937273093 
Si 3.7265981399999997 14.596687079999999 1.4264823527725592 
Si 1.354143717 14.94066672 4.070319685524173 
Si 2.08863864e-05 13.57486425 8.145177994113805 
Si 2.7155267100000002 13.574538449999999 5.428055652258237 
Si 1.357172028 12.21707646 6.787957780000816 
Si 1.3597458479999998 14.93361315 9.502054373146079 
Si 2.71681362 13.57256736 10.861612665807941 
Si 0.11595107969999999 13.583611979999999 13.608098523556716 
Si 0.681202188 15.518244959999999 14.83421442139243 
Si 1.75782132 12.23515836 17.12343400529608 
Si 3.47998383 15.364239299999998 17.639599228467972 
Si 2.07935334 14.68155798 21.11876325971594 
Si 1.3879796759999998 15.24755403 18.866643481021622 
Si 3.94551945 13.0085424 17.858415873836073 
Si 0.6372973799999999 13.09720887 22.152434662874526 
Si 0.8686723949999999 12.68386641 24.456679839805492 
Si 2.5588657799999996 15.80033889 24.914874468368552 
Si 2.19188466 16.06391109 29.135587618198205 
Si 0.785694393 14.56466094 25.856707521467712 
Si 1.3745599739999999 14.13996435 28.09280458540063 
Si 3.20370543 12.631689539999998 28.36147731747265 
Si 3.7871480699999998 16.27144569 32.48237514337025 
Si 2.93679378 12.72239226 34.35558866311477 
Si 1.68298506 15.88597542 31.465861110739425 
Si 0.1437040269 13.937740289999999 31.7887222515324 
Si 6.78929733 4.07204388 4.070594753588746 
Si 8.130713669999999 -0.015144128819999998 2.726172081180032 
Si 4.07186469 1.359504756 4.068497359596375 
Si 5.42645964 2.71350675 2.697963851158035 
Si 6.604063739999999 1.1229853589999998 1.3610608519645948 
Si 8.1453258 2.71547784 5.430049895726394 
Si 5.43201453 -0.0008408230109999999 5.430703182379756 
Si 5.43009231 2.71484253 8.144799775525017 
Si 6.787586879999999 1.357279542 6.787476410887813 
Si 5.42911491 -0.0019303812899999998 10.86467279802632 
Si 6.79719798 1.372178376 12.246099001821763 
Si 4.35731436 0.8825123789999999 15.326758174519089 
Si 5.44252158 2.66872554 13.787649202706971 
Si 7.44679431 3.23830539 17.508460528682626 
Si 5.7240942299999995 3.7753704 19.346843554750553 
Si 7.02841824 0.4775755589999999 19.193011739637907 
Si 5.84670906 2.4031170900000003 23.004939362003487 
Si 7.330206779999999 0.9267315839999999 21.525588927219932 
Si 6.616607039999999 2.1762951299999997 25.283637592437206 
Si 7.63181613 1.109275695 29.25527660979569 
Si 4.78315125 2.65831623 26.69635278857787 
Si 5.3973657 1.576197594 28.672510531488967 
Si 4.24722654 2.2459837499999997 32.51001948385987 
Si 6.670738709999999 2.30290101 32.735747214350376 
Si 4.202217269999999 2.92591206 30.216089359350406 
Si 7.2153297 0.37856493899999993 31.4436837480332 
Si 4.18449375 4.17411702 1.2376309346889176 
Si 6.8934393 6.842565629999999 1.2332573524622013 
Si 5.4390681 8.15275404 2.6836775035542564 
Si 8.14438098 5.41851012 2.695605142504318 
Si 4.0725 4.0723370999999995 6.787063808790953 
Si 5.42895201 5.42960361 5.429706060645677 
Si 6.7879615499999995 6.7865606099999995 6.787270109839382 
Si 6.789753449999999 4.074161579999999 9.501366702984646 
Si 4.07359143 6.787896389999999 9.502157523670293 
Si 4.079537279999999 4.06129248 12.247164890571986 
Si 5.43082536 5.42805606 10.861990884396729 
Si 6.80798196 6.76610037 12.222821366857243 
Si 5.75882451 6.091596629999999 16.25136509007434 
Si 6.742593899999999 4.246965899999999 15.188192636990262 
Si 4.130410949999999 7.086703859999999 14.856941920227804 
Si 7.578287189999999 7.699859459999999 16.450926970922307 
Si 4.40782965 5.164825949999999 17.938185612562346 
Si 7.511367869999999 7.38929061 20.832417404495082 
Si 6.9513339599999995 5.09777631 20.912221526729425 
Si 5.62834161 4.9468005900000005 22.81834006369854 
Si 8.06535819 7.75381194 23.163000348608946 
Si 6.14950758 6.867961739999999 24.226104034676883 
Si 7.789666229999999 4.19531031 25.74709289773523 
Si 5.1984159299999995 4.9745750399999995 29.75614117187569 
Si 6.55551954 6.08569965 26.38879230887679 
Si 7.98444576 7.6401403199999995 27.49821058031726 
Si 4.77950229 4.98975732 27.45787872534919 
Si 5.4804447 5.59957347 34.07797621894412 
Si 7.45358724 5.093003339999999 30.272272011539513 
Si 7.223979689999999 4.6076916599999995 32.59501551581304 
Si 8.141953769999999 10.85045949 2.666901789966089 
Si 6.7886945999999995 9.50169636 4.068841194677091 
Si 4.0721253299999995 9.50270634 6.7876827119362435 
Si 5.4299457 8.14485339 8.145281144638021 
Si 5.42883798 10.85805063 5.431184551492758 
Si 6.78851541 9.50288553 9.502638892783297 
Si 4.050264149999999 9.522596429999998 12.210443303951443 
Si 5.42339712 10.86319827 10.86260978754202 
Si 4.84210476 10.71440541 15.632427561276227 
Si 5.51939409 8.26406361 13.437728241061595 
Si 6.815491649999999 9.42565464 14.999702245741373 
Si 6.07273281 9.09658035 20.051567936187478 
Si 6.493112549999999 11.277404099999998 20.834067812882523 
Si 8.11786086 8.48621034 18.725327262847067 
Si 6.040657799999999 10.42876026 17.604356132694512 
Si 4.47049728 8.495381609999999 24.67253950347943 
Si 6.248143529999999 11.824210529999998 23.11716713234941 
Si 4.26525957 10.536013619999999 23.42885363301909 
Si 6.766589069999999 9.67924107 27.580696616181193 
Si 6.785566919999999 10.29264102 29.888586444967757 
Si 8.02121229 11.54666151 26.846608718851062 
Si 4.566868919999999 8.898379919999998 27.05094990732099 
Si 4.5760076100000004 9.998199269999999 30.770832878578712 
Si 4.885859699999999 11.368416329999999 34.330076100125595 
Si 7.9089579 8.425171709999999 31.722705916034798 
Si 5.422875840000001 13.582976669999999 2.7121848700964772 
Si 6.675951509999999 12.243010139999999 1.2502462438004127 
Si 6.78753801 14.93322219 4.075924197339854 
Si 5.03333307 15.972670799999998 0.10266709209151924 
Si 4.07256516 14.93263575 6.787751478952386 
Si 5.42981538 13.574750219999999 8.144971693065376 
Si 6.78696786 12.21764661 6.787579561412028 
Si 4.072304519999999 12.219633989999998 9.499922595645636 
Si 6.78763575 14.93172351 9.501744921573433 
Si 4.05785529 14.934118139999999 12.247061740047771 
Si 6.80262255 12.22028559 12.252494334323094 
Si 5.72047785 12.878206109999999 16.123802275128448 
Si 5.628292739999999 13.80624741 13.64530147929026 
Si 6.40382706 15.61267809 14.98398898255262 
Si 7.921843289999999 13.0979745 17.13412727630637 
Si 4.41203247 14.4630765 21.159920318877727 
Si 4.4872434 12.33394092 20.197663461984003 
Si 4.76946765 16.22928717 19.493317299135864 
Si 7.742506679999999 15.104576699999999 22.52064765081403 
Si 5.65070778 14.09783841 23.167745272722836 
Si 4.23583983 14.099646599999998 25.146447395231245 
Si 4.486624379999999 15.777923849999999 28.918455764725618 
Si 4.91703876 13.992409529999998 27.455575030308392 
Si 7.171835399999999 13.486800509999998 27.929861140648992 
Si 7.334328149999999 12.65172624 30.13549441643041 
Si 5.35695021 15.31075923 31.05057710024981 
Si 5.55075234 13.042637369999998 31.669273944491422 
Si 8.39622438 2.12442777 0.16335535917833785 
Si 9.502478279999998 1.3594607730000001 4.066812567700862 
Si 10.34959086 0.634176216 0.1681260709232819 
Si 10.867792049999998 2.73426021 2.6896671106603414 
Si 9.400144499999998 4.02030684 1.2128473020708586 
Si 8.14459275 -1.6713377099999997e-05 8.14507484358959 
Si 10.86000543 2.7151357499999995 8.145006076573447 
Si 9.503357939999999 1.358978589 9.503429713468945 
Si 8.140617989999999 2.71396287 10.859687189355927 
Si 10.86220458 -0.004128847109999999 10.863366224719595 
Si 8.32389678 0.21286794599999997 13.680028822442646 
Si 10.240024319999998 1.100508417 15.18733304928847 
Si 10.904102459999999 2.79837765 13.64344476985439 
Si 11.090736989999998 2.16720531 17.585857805351953 
Si 9.4804542 1.83889665 21.351161390772354 
Si 11.040612659999999 1.106797986 19.721039273094526 
Si 10.598143679999998 0.8435629889999999 23.189785101396776 
Si 10.73838429 2.8042257599999996 24.455304499482626 
Si 8.32461354 0.531940176 25.93847150366214 
Si 12.210169500000001 1.78038297 29.543066572355556 
Si 8.63055603 3.22745625 29.451572057376847 
Si 10.180256309999999 1.91785428 26.48565065111468 
Si 9.43653636 3.9082316399999995 27.412389344170375 
Si 11.84667444 0.638792802 27.493809491284086 
Si 10.52423595 2.8797461999999996 30.772758355030724 
Si 10.56228939 0.718185375 32.16474029580417 
Si 12.20958306 4.07763135 4.068978728709378 
Si 9.50804946 6.7818528 4.067362703830009 
Si 9.502738919999999 4.0725814499999995 6.78720134282324 
Si 8.14462533 5.43012489 8.14504046008152 
Si 10.86215571 5.430678749999999 5.431047017460473 
Si 10.86114573 5.42909862 10.862712938066235 
Si 8.14382712 8.14456017 10.861887733872514 
Si 9.5032602 6.78931362 9.502398208226795 
Si 9.497281769999999 4.07272806 12.215085077541119 
Si 8.210974499999999 5.38773831 13.668716648287067 
Si 9.41736303 6.8462960399999995 15.065787348255121 
Si 10.863801 5.61656394 16.411317169623743 
Si 10.75467429 4.79191527 20.17387007439841 
Si 11.46190464 6.948369179999999 19.51515082676137 
Si 11.45753892 7.886184479999999 17.39475426748962 
Si 9.82133874 4.110520859999999 18.003583044914663 
Si 12.021563879999999 7.25489811 23.106542628355268 
Si 9.208199429999999 4.42649799 23.890796063961968 
Si 9.93007449 6.60279312 24.026163935240128 
Si 9.00011097 4.1360147099999995 21.58393774041755 
Si 10.00697958 7.32680217 26.27742412623265 
Si 10.88347932 6.561449099999999 29.871085239359278 
Si 8.57609856 7.109232929999999 29.7740893630891 
Si 10.98916884 5.6915631 27.679239750314597 
Si 11.037208049999998 4.98723237 31.750281489508275 
Si 8.54402355 7.67013021 34.040360661113716 
Si 9.33511482 5.39743086 33.57638960319461 
Si 9.656565389999999 9.34656669 1.060841251236817 
Si 10.88593911 8.14377825 2.6814872740900912 
Si 9.50223393 12.21846111 4.0669157182250775 
Si 12.206683439999999 9.509645879999999 4.075098993146135 
Si 8.14355019 8.145716760000001 5.429706060645677 
Si 9.5030973 9.50299956 6.787717095444315 
Si 10.860347519999998 8.14469049 8.145177994113805 
Si 8.14486968 10.860282360000001 8.14507484358959 
Si 10.86139008 10.8598914 5.432284823751052 
Si 12.218428529999999 9.50288553 9.501882455605719 
Si 9.50669739 9.50811462 12.231451627383233 
Si 10.858083209999998 10.85914206 10.862747321574307 
Si 9.503928089999999 12.21991092 9.503257795928587 
Si 11.58075648 11.458809539999999 16.272270262981912 
Si 10.9014309 8.19487998 13.6079953730325 
Si 8.26645824 10.86432228 13.763271295484158 
Si 11.8685682 8.58331503 21.157066487707784 
Si 9.42495417 10.30969665 19.588181397905597 
Si 11.43009027 10.53933678 18.41305624254017 
Si 10.220867279999998 10.18973709 21.82658215687932 
Si 9.147682080000001 9.72996813 23.860744877907326 
Si 8.184275190000001 11.743754219999998 24.513687696188324 
Si 10.74257082 9.460531529999999 25.66673863937174 
Si 11.09311533 10.499181929999999 29.725161631103116 
Si 10.3351905 11.05719588 27.4267960340524 
Si 11.19491154 10.58292882 34.087019081566964 
Si 9.09843741 10.33988202 31.171366364105584 
Si 9.46092249 11.841689699999998 32.98908490182244 
Si 9.49040739 14.95969344 1.3230258153357144 
Si 10.87131069 13.56800616 2.692510626777868 
Si 8.14211667 13.574717639999998 5.431150167984687 
Si 9.502038449999999 14.933140739999999 6.7876139449201 
Si 10.860217200000001 13.574978279999998 8.145006076573447 
Si 10.8592398 16.28758908 5.430668798871684 
Si 12.217532579999999 12.2306949 12.241594762264375 
Si 8.14415292 13.575874229999998 10.860649927581933 
Si 9.495815669999999 14.934052979999999 12.235199429763046 
Si 11.88331065 15.669090359999998 14.685127530393673 
Si 9.56465721 12.29448654 15.33628240625494 
Si 10.86002172 13.64539995 13.703994127568599 
Si 9.34982469 13.87968273 21.068632104947447 
Si 8.241111 12.29315076 19.71165257539096 
Si 10.32654051 15.214990319999998 19.340345071725007 
Si 8.426214270000001 15.376082129999999 17.842668227139253 
Si 10.872744209999999 12.46913163 22.299939912501983 
Si 9.273848130000001 15.477519959999999 24.23593771798538 
Si 10.13094648 13.22091513 24.446364787383995 
Si 11.39710302 12.97218312 26.4924242022048 
Si 8.426572649999999 15.535952189999998 27.89705927394862 
Si 10.768146119999999 14.867703809999998 27.890148188826213 
Si 8.236484639999999 13.50369324 34.19831849719496 
Si 9.40749129 13.381583399999998 31.14623201970519 
Si 8.86024503 15.327798569999999 32.35708163995709 
Si 11.372456249999999 14.272402049999998 30.09526571198656 
Si 12.29347656 1.4963847389999998 1.2491906701026125 
Si 14.93465571 1.355630994 4.068703660644804 
Si 13.57455474 4.23287505e-05 8.14504046008152 
Si 13.57597197 2.71627605 5.4289496234681005 
Si 12.216604049999999 1.3572828000000001 6.787132575807096 
Si 16.28939727 -0.000535939371 10.863538142259955 
Si 14.9323914 1.3584817439999999 9.502157523670293 
Si 13.57256736 2.71349046 10.858690067621849 
Si 12.213541529999999 1.38663738 12.214191106331254 
Si 14.927015699999998 4.098303359999999 12.247508725652702 
Si 14.78843667 1.252246509 16.907539958114068 
Si 13.73590719 0.1689273 13.454060407395637 
Si 15.48522513 1.120253526 14.65744880639598 
Si 12.83744853 3.96545841 21.029847507842607 
Si 13.032276929999998 1.614301533 20.933264233669288 
Si 15.102915119999999 0.664268733 20.38182153121586 
Si 13.304792339999999 3.05090523 17.294732642509132 
Si 12.71359566 3.9671688599999997 24.842841018958406 
Si 16.110435329999998 0.492306606 22.544612955939982 
Si 12.887019 0.612013671 23.02770124434693 
Si 15.920217 2.5944920099999997 23.548714542156933 
Si 13.92374718 2.04533982 24.578088006806556 
Si 13.87302012 3.25029483 28.76668696009727 
Si 14.85771804 0.07536715109999999 29.969869058049184 
Si 13.97792772 0.629300619 26.439989352395504 
Si 15.300724589999998 1.500698331 28.109205518750816 
Si 15.75303273 1.228971357 33.80909718582367 
Si 13.84089624 2.70956457 34.09324249652794 
Si 14.97340962 4.12180983 1.2687101876348992 
Si 13.58784738 5.4327312899999995 2.70180448900964 
Si 12.93404823 7.27021071 1.3759282808547844 
Si 14.94192105 6.77764998 4.080634737945673 
Si 14.93345025 4.07297241 6.78782024596853 
Si 13.57486425 5.43056472 8.14507484358959 
Si 12.21714162 6.787684619999999 6.7876827119362435 
Si 16.28600895 5.430646169999999 10.860959379154579 
Si 12.21951996 4.072548869999999 9.501951222621862 
Si 14.9335317 6.78908556 9.50184807209765 
Si 12.227469479999998 6.783807599999999 12.240288188957653 
Si 12.34643535 4.1524350299999995 15.195275639653028 
Si 13.63145571 5.58383733 13.802812329766576 
Si 15.106433759999998 7.11389187 15.245062959340803 
Si 15.494249789999998 8.04349701 19.799330520973715 
Si 14.1972237 4.38525171 19.12909279813267 
Si 13.747440509999999 6.6930723 18.852855694284884 
Si 15.590654009999998 5.96124405 23.2772567459311 
Si 13.318899479999999 5.32342539 22.983002683853762 
Si 16.066550069999998 4.91140242 25.295156067641212 
Si 15.68002095 6.63092595 29.15377649396812 
Si 14.247624959999998 8.10693027 26.36211070661317 
Si 14.89386555 5.94223362 26.999202727673126 
Si 12.97850364 4.65089274 27.07917876744783 
Si 16.08466455 5.7325813199999995 34.24067897913926 
Si 14.83277805 4.71215943 30.377519929746892 
Si 13.34496348 4.80199878 32.40429019653949 
Si 13.920212249999999 6.81334137 33.64130566643392 
Si 12.29315076 12.173761349999998 1.2575561776164497 
Si 14.93591004 12.21732081 4.073723652823268 
Si 16.10595558 10.240627049999999 0.0693962343410495 
Si 14.576177969999998 9.131554979999999 1.503590807974084 
Si 13.58138025 10.857219839999999 2.7226649633567215 
Si 14.93283123 9.50229909 6.787717095444315 
Si 13.57519005 10.859663339999999 8.144971693065376 
Si 13.57597197 8.14488597 5.428158802782453 
Si 13.57688421 8.14268682 10.860856228630364 
Si 14.9490072 9.49464279 12.222821366857243 
Si 12.40734366 9.64082925 14.993753898844975 
Si 13.694970419999999 10.928130209999999 13.560752432942026 
Si 15.50472426 11.85563394 14.907520060601229 
Si 13.798314179999998 8.5128282 16.670568820484128 
Si 15.01162596 9.935271 18.4831642154983 
Si 13.15650447 10.28817756 19.975202164760304 
Si 12.787666289999999 8.851204079999999 24.656826240290677 
Si 15.78313665 9.28683126 21.894523968828935 
Si 14.063417639999999 10.34019153 23.275365652987166 
Si 13.10261715 11.87223345 21.768577178762413 
Si 15.27879825 11.34122832 25.02142895988266 
Si 16.15189338 9.215676539999999 25.65680180553903 
Si 14.26557654 8.514880739999999 28.713014303997394 
Si 12.31595676 8.484402150000001 30.02790841967416 
Si 15.75658395 10.31297094 29.15219485259682 
Si 12.919077719999999 8.93112282 32.50462127309262 
Si 14.524750439999998 10.67358267 32.80478929855829 
Si 12.216457440000001 14.93359686 4.07272653108919 
Si 14.81252958 14.71516425 1.3915074483620575 
Si 13.5698958 16.2906516 2.690279137104017 
Si 16.3036836 13.546226429999999 2.7197148583641724 
Si 16.28814294 16.28749134 5.42956852661339 
Si 13.573837979999999 13.574457 5.429396609073032 
Si 12.216473729999999 12.217304519999999 6.787957780000816 
Si 14.93252172 14.932847519999997 6.78782024596853 
Si 12.219259319999999 14.93333622 9.50208875665415 
Si 14.93274978 12.218803199999998 9.502123140162222 
Si 13.57220898 13.57532037 10.858552533589563 
Si 14.940650429999998 14.905936439999998 12.221136574961731 
Si 13.40219025 15.54546555 16.484966643913257 
Si 15.38764803 14.065453889999999 16.200236813571767 
Si 14.27005629 14.776821899999998 19.773542889919966 
Si 15.911941679999998 13.75024239 18.449674678636494 
Si 12.358147859999999 14.55565257 18.36220303410217 
Si 14.470472159999998 15.227631359999998 23.401449977085974 
Si 14.64396066 13.602817889999999 21.759362398599208 
Si 14.748216659999999 14.8366062 25.69706489349095 
Si 15.758864549999998 14.15245878 29.475434211978584 
Si 13.85148474 12.74241267 26.44954796763943 
Si 14.475261419999999 12.32488368 28.741449465172664 
Si 13.99912101 12.85233759 32.18358245822745 
Si 13.29702201 13.80018753 34.245183218696646 
Si 12.63644622 12.29090274 30.218117986326636 
Si 12.536246429999998 16.21402344 30.972629687451338 
Si 15.90762483 15.21785736 33.804077193645206 
