&CONTROL
  dt          = 30.D0,
  prefix = 'x.33_y.66_z3.17_struc47-scf',
  pseudo_dir = './',
  outdir='./',
  wf_collect= .true.,
  verbosity= 'high',
/

&SYSTEM
ibrav= 6, celldm(1) =30.783621515, celldm(3) =2.115268347576902, nat=  432, ntyp= 1,
  ecutwfc     = 12.D0, nbnd= 1728,
  degauss     = 0.05D0,
  occupations = "smearing",
  smearing    = "methfessel-paxton",
/
&ELECTRONS
  electron_maxstep=200,
  conv_thr    = 1.D-8,
  mixing_beta = 0.3D0,
  scf_must_converge=.false.,
/
ATOMIC_SPECIES
Si  28.08  Si.pbe-hgh.UPF
K_POINTS {automatic}
1 1 1 0 0 0
ATOMIC_POSITIONS (angstrom)
Si 2.70873378 -0.008854918199999999 2.704696815983779 
Si 1.4447682450000001 1.449487458 1.3210504596605936 
Si 1.3566393449999998 4.07241855 4.076865305314611 
Si 0.000505245753 -0.001204044399 5.430812551578626 
Si -1.086710787e-05 2.71487511 8.144806060791277 
Si 2.7147936599999998 0.00033713621099999995 8.144806060791277 
Si 2.71337643 2.71541268 5.43002002398684 
Si 1.3574994569999999 1.357431039 6.7876887041601135 
Si 2.71352304 2.7135393299999997 10.863313531504971 
Si 1.36352187 1.3603925609999998 12.22005185320093 
Si 0.057612843 2.64264525 13.74739035345931 
Si 3.65334201 1.68873543 14.625338636551996 
Si 2.7667587599999997 0.9760234949999999 19.733351254223788 
Si 0.40068513 1.077720336 19.89368303181436 
Si 3.7175897699999996 2.3538887099999997 18.114424130531976 
Si 0.962416458 3.9061139399999996 24.892257926376832 
Si 3.6056448899999998 3.8154763800000002 22.403135506903297 
Si 3.9847946399999996 1.508090733 21.720217926832888 
Si 3.75746769 0.934127244 25.47628184608082 
Si 1.4840809019999999 1.7384362199999999 25.741778589329343 
Si 0.9664303139999999 2.1454744499999996 27.96089030405331 
Si 2.38674564 3.3259944599999995 29.364801246321267 
Si 0.8721665999999999 0.14450859 29.091723804368698 
Si 3.32037441 2.33383572 34.43201592187673 
Si 1.187568693 3.1057536599999995 31.583568383831413 
Si 0.971918415 0.786235221 32.63218576092928 
Si 4.073461109999999 6.78822219 4.070111591923733 
Si 0.00017858238299999998 5.27089014 0.0031367311724437804 
Si 2.6958809699999997 5.42483064 2.704817418008616 
Si 1.2553855919999999 6.80034195 1.32748027047048 
Si 3.0145785299999996 7.925329349999999 0.14306742544653767 
Si 0.00277319331 5.42981538 5.430640262971716 
Si 2.71497285 5.4301086000000005 8.144909433955423 
Si 1.3575173759999999 6.78721221 6.7877231618814955 
Si 4.0895882100000005 4.06029879 12.228804114431966 
Si 1.3575010859999999 4.07144115 9.502647029571461 
Si 0.000546140169 5.42965248 10.866793761364555 
Si 1.3859027009999998 6.77869254 12.226874482034573 
Si 2.81672019 5.40966465 13.721168027487586 
Si 1.0481947109999998 4.421268899999999 15.272799221320296 
Si 0.9798825959999999 8.04704823 18.792552087330282 
Si 1.9687116599999999 6.013746719999999 19.711815178360016 
Si 1.9710411299999997 4.10323923 17.664923155103423 
Si 1.278004257 4.1412438 22.59775271726899 
Si 0.854342082 6.318174239999999 21.789236742761087 
Si 1.98604422 7.6949073 25.202239587929554 
Si 2.4599528999999998 5.43429513 25.74901471081957 
Si 0.9444241529999999 6.564446459999999 29.448361220672684 
Si 2.4656869799999996 5.3699984999999995 28.17159927030441 
Si 1.085640534 7.0133337000000004 31.829630972220475 
Si 1.87048296 5.002088849999999 32.86574019645666 
Si 1.3579783829999998 9.500718959999999 4.067527262820081 
Si 2.71728603 10.87631172 2.6802008218532953 
Si -0.0001516491486 8.145048869999998 8.145150638005097 
Si 2.71634121 8.14490226 5.430399058922042 
Si 0.0013054691969999997 10.86130863 5.429399785001963 
Si 2.7151520399999995 10.859809949999999 8.14487497623404 
Si 1.358603919 9.501484589999999 9.502026790586584 
Si 2.71673217 8.14415292 10.856559818114095 
Si 0.8735675399999999 9.77587335 14.842697943029826 
Si 2.6270882999999996 10.81120059 13.58850580016678 
Si 1.69225407 9.40029111 16.979800280864566 
Si 2.1027131999999997 11.56298409 19.874972489103918 
Si 0.1362484197 10.04224743 20.221892827978174 
Si 1.89547182 11.70456048 17.544837996087058 
Si 0.677981655 10.382643269999999 22.552061778716418 
Si 1.80846693 8.262744119999999 22.879237843238773 
Si 2.2585922099999998 12.05653851 23.511054622499632 
Si 3.99240207 8.93651481 22.053493008039858 
Si 4.0573503 8.675174339999998 25.81196896778453 
Si 1.582079913 11.72259351 25.804181522752195 
Si 1.6368192 11.99310525 30.132898313648045 
Si 2.40153696 10.01724228 29.053475733634645 
Si 0.0384421194 8.51149242 26.39568276799608 
Si 3.2897817899999997 10.553183279999999 26.957860492343865 
Si 0.48231757799999997 8.692881569999999 28.694426276833916 
Si 4.00204575 9.205462709999999 30.66161759053388 
Si 2.4707043 8.99133066 32.483018285066485 
Si 1.5822134909999999 11.33932239 32.69283135056165 
Si 1.395153792 12.401821349999999 1.2294514989107495 
Si 1.355769459 14.93375976 4.074728926588925 
Si -0.0004961933999999999 13.575222629999999 8.144806060791277 
Si 2.71453302 13.576688729999999 5.428951834623996 
Si 1.357649325 12.217516289999999 6.7875853309959675 
Si -0.000438399738 16.2935838 10.86176293404278 
Si 1.358336763 14.93214705 9.503508472606011 
Si 2.7150380100000002 13.575988259999999 10.859902217088152 
Si 1.3638053159999999 12.22758351 12.217433066375898 
Si 2.57978214 16.23327822 13.619552207131987 
Si 3.87167688 12.70211121 16.648696036104663 
Si 2.82734127 14.89912722 16.614100483837106 
Si 0.018720630899999997 13.16609928 16.747176203814497 
Si 0.887629068 15.16672305 14.923260095621007 
Si 1.8438325199999999 13.855475789999998 20.528669921442365 
Si 3.17213541 15.05396367 18.98689363592492 
Si 2.09152197 14.3826039 22.826793191295323 
Si 3.73837581 16.07798565 23.328428699174882 
Si 0.368222418 14.79936726 24.290695026489388 
Si 1.530963522 14.028247529999998 26.22911414283536 
Si 2.98421397 15.79620123 30.083451483464835 
Si 3.3223780799999996 13.577943059999999 29.474204511709207 
Si 3.7432628099999996 13.954502699999999 27.14400110324958 
Si 2.62902681 13.35244059 33.8461657429395 
Si 2.8896830999999996 15.568287839999998 32.66929672685772 
Si 6.7860719099999995 4.07238597 4.072937125077059 
Si 4.06986102 1.3592995019999998 4.06938797977471 
Si 5.44494879 2.7266039099999997 2.698074041934153 
Si 6.76417815 1.2984693840000001 1.2643123756329468 
Si 5.42991312 -0.0014105950829999998 5.429055207788143 
Si 5.42989683 2.71492398 8.14504726484095 
Si 6.78766833 1.357427781 6.7874475001104395 
Si 8.149561199999999 2.71458189 10.861556187714488 
Si 4.0716040499999995 1.35726651 9.50095860122374 
Si 6.79723056 1.3232285549999998 12.213332597531435 
Si 7.127494019999999 3.35521872 14.963851291409036 
Si 4.251575969999999 0.6648014159999999 16.552179958513605 
Si 5.43911697 2.58479946 13.565109007348385 
Si 5.19986574 3.97586772 18.91015629040714 
Si 6.29794206 1.173469698 21.275816694168874 
Si 7.06582008 2.8398845699999997 19.8182550797091 
Si 7.63217451 1.159364187 23.201865488538697 
Si 7.34740902 2.37938256 25.188146379884305 
Si 5.128173449999999 2.87950185 25.82706144974986 
Si 4.64194953 2.68053579 29.574958889030253 
Si 5.005737809999999 0.450107361 29.194476729529903 
Si 5.727384809999999 3.9422451599999997 27.958650552163476 
Si 7.18791363 0.37524015 30.212219988269474 
Si 7.31948796 2.16609759 31.999921031290455 
Si 4.970144159999999 3.02106195 31.90946951266263 
Si 4.78135935 0.38160139499999995 34.2227197222023 
Si 4.11123762 4.122119339999999 1.31568883821355 
Si 4.70883627 6.088550399999999 0.06134198018149958 
Si 6.724218779999999 6.871122 1.2258506670263276 
Si 4.0720927499999995 4.07276064 6.7874130423890575 
Si 5.430141180000001 5.4299457 5.430950382464155 
Si 6.7875054299999995 6.78770091 6.787309669224912 
Si 6.78713076 4.0726140299999996 9.503508472606011 
Si 4.07096874 6.78810816 9.502164621472112 
Si 5.42672028 5.43203082 10.863244616062207 
Si 6.79193631 6.78507822 12.243035153362744 
Si 4.28860314 6.57992196 15.22138830101831 
Si 5.71425507 5.67346491 17.097645687991104 
Si 5.434588349999999 8.124230249999998 13.72681909379424 
Si 8.02007199 5.168132819999999 13.59088338294214 
Si 4.0770123300000005 5.25503997 20.582630713126623 
Si 8.08112691 4.65911919 20.911185086504258 
Si 7.2775574999999995 6.862455719999999 21.38604694486998 
Si 5.093801549999999 7.340648669999999 20.69048338105237 
Si 4.862532419999999 7.674381899999999 18.35700648906145 
Si 7.16755113 7.69533084 23.59309845711024 
Si 4.39310349 4.69323045 24.51856393798874 
Si 6.3280134 6.003109349999999 24.96341312103072 
Si 8.061888419999999 4.556557349999999 25.56073772118817 
Si 5.60553561 7.22927394 26.84346085735553 
Si 7.9786791 4.74555393 27.88274019195887 
Si 7.65309087 7.1894611799999995 28.048860866741624 
Si 4.6347982199999995 5.9636061 28.49346884573393 
Si 5.04027261 6.96480579 30.580021706301235 
Si 4.3098453 5.27988222 32.34460161827488 
Si 7.37503686 7.21707273 30.391021104520814 
Si 4.209629219999999 9.630159299999999 1.2337518225392263 
Si 5.42588949 8.15840667 2.7078703721230637 
Si 6.78822219 9.501403139999999 4.075211334688273 
Si 7.717762169999999 8.64088389 0.0632523162549192 
Si 4.07269548 12.21608277 4.068492079018778 
Si 6.861331709999999 12.114319140000001 1.1189903814763829 
Si 4.0728909600000005 9.502217639999998 6.787826535045642 
Si 5.429766509999999 8.145032579999999 8.144427025856073 
Si 5.431411799999999 10.85951673 5.429813277658547 
Si 6.78524112 9.50089815 9.502371367800404 
Si 4.064273549999999 9.4861557 12.228597368103674 
Si 5.43191679 10.86114573 10.860143421137824 
Si 6.805228949999999 12.19653477 12.210438148935346 
Si 8.02473093 10.868964929999999 13.814479536990119 
Si 6.15801096 9.891597509999999 15.181727463707595 
Si 4.486770989999999 11.640117239999999 14.734225036119202 
Si 4.23109944 11.01896325 20.921177825705044 
Si 6.237636479999999 10.97162451 19.607442740293855 
Si 6.29817012 9.41899203 17.75072288134467 
Si 5.9834799 11.461187879999999 24.570629554996984 
Si 5.402350439999999 9.2365929 23.947013713425047 
Si 5.059950929999999 12.027998429999998 26.698324934894433 
Si 7.8208778699999995 9.43759521 31.11129085456934 
Si 6.0196762800000005 10.381356359999998 34.21279589844428 
Si 5.7274499699999994 10.78461531 31.726430096681298 
Si 4.08020517 14.96391255 1.2623069362485126 
Si 5.44222836 13.569651449999999 2.678567525859787 
Si 6.790633109999999 14.93333622 4.071972308878363 
Si 4.07207646 14.932994129999999 6.78796436593117 
Si 5.430141180000001 13.57463619 8.144840518512659 
Si 6.78807558 12.21699501 6.787929908209788 
Si 8.144250659999999 13.57556472 10.861039321893758 
Si 4.0725814499999995 12.21720678 9.501854501979674 
Si 6.78590901 14.931088199999998 9.50195787514382 
Si 4.062106979999999 14.92758585 12.241174436408114 
Si 5.4332525700000005 16.290325799999998 10.86107377961514 
Si 6.336516779999999 15.93743553 16.70506886828566 
Si 5.3802612 13.43250594 13.538473188720076 
Si 7.0152233399999995 14.48202177 14.80369180242537 
Si 8.09557614 16.219024469999997 13.665725553783904 
Si 6.63003 15.13831329 20.744582003622153 
Si 5.53609134 14.78899053 18.717951120538192 
Si 6.0087131099999995 12.62457081 17.90306046757462 
Si 5.429522159999999 14.55257376 22.703572379633194 
Si 4.58829027 12.33221418 22.877997365269017 
Si 7.34866335 15.21497403 23.929474733241594 
Si 7.26607305 15.40656072 26.234661835977867 
Si 5.03077554 15.910231229999999 26.999175300280918 
Si 6.75797166 12.22035075 28.337892233694078 
Si 7.00512354 14.57182854 31.252946547170858 
Si 5.549302529999999 13.051531709999999 30.21080722169281 
Si 12.17227896 1.2685446539999998 1.3171016047902133 
Si 8.1251262 -0.01150205949 2.709693185584173 
Si 9.50409099 1.357227414 4.069353522053328 
Si 10.860217200000001 2.7256753799999998 2.6880847485055033 
Si 9.48633489 4.01618547 1.1316811602613839 
Si 8.14542354 -0.000271142163 8.14487497623404 
Si 8.1438597 2.7158688 5.429468700444726 
Si 10.86189507 -0.001397134656 5.430157854872368 
Si 10.859972849999998 2.71490769 8.145012807119569 
Si 9.501419429999999 1.356401511 9.50226799463626 
Si 10.85847417 0.000190829205 10.862900038848387 
Si 8.52685389 0.411905682 16.95878107082153 
Si 8.93187216 1.72357974 14.989246632067589 
Si 10.87621398 2.69907381 13.745357347897771 
Si 10.267163459999999 0.7996027949999999 20.303316423603906 
Si 8.952218369999999 1.8682675199999998 18.68066786600284 
Si 10.807421309999999 3.5203341599999995 17.90430094554437 
Si 9.79605666 1.66348593 22.42136364151439 
Si 11.425643099999998 0.38297301300000003 23.543100303384918 
Si 9.830803229999999 4.05430407 22.39031723454918 
Si 11.617685909999999 3.5249279399999995 25.681339746025266 
Si 11.10389931 1.1894078339999998 25.754906981175893 
Si 9.56032407 3.3008427 28.979977413926783 
Si 8.75484873 0.929088747 26.43368963468046 
Si 11.63278674 3.9827909699999995 28.08083763218415 
Si 9.04577184 0.989233056 28.759654743410096 
Si 8.57479536 2.09012103 34.266618859243 
Si 10.48139325 0.12551005169999999 34.359275672039274 
Si 9.22527135 3.49023024 31.279789112127457 
Si 10.96776378 2.9928150899999997 32.78452334715922 
Si 10.86963282 8.1511902 2.7027878582192146 
Si 8.13675726 5.4222893999999995 2.6740156608652215 
Si 9.50251086 6.78704931 4.06835424813325 
Si 10.705788 5.7839274 0.11806283534845542 
Si 9.502315379999999 4.07241855 6.7874475001104395 
Si 8.14550499 5.42963619 8.144840518512659 
Si 10.86091767 5.42908233 5.429951108544076 
Si 10.8611946 5.42867508 10.85852390823287 
Si 12.22134444 6.78717963 12.246859960436149 
Si 9.50282037 6.78683754 9.501716671094146 
Si 9.52135839 4.05062253 12.217536439540043 
Si 9.735050609999998 5.992928099999999 14.967813929367969 
Si 8.192599379999999 6.17892732 16.999441182052323 
Si 10.642810859999999 7.92730044 13.68705488331938 
Si 11.63777148 4.4369073 15.317249681903112 
Si 11.67272982 5.092856729999999 21.42360586117639 
Si 9.036323639999999 8.00163171 20.32140672732947 
Si 10.87662123 6.651956339999999 19.873663095691402 
Si 9.33314373 5.1629526 18.89888861551522 
Si 10.086653969999999 4.91011551 24.568734380320972 
Si 10.777594319999999 7.13446614 24.946907872488726 
Si 11.65393116 6.20759772 28.922157357447738 
Si 10.79315127 7.65864576 27.293995564425547 
Si 10.98296235 6.6558170699999994 31.114908915314455 
Si 8.7832422 5.776531739999999 31.58911607697392 
Si 9.15994845 7.12527858 33.43749716734865 
Si 11.99362653 5.156404019999999 32.7406586678399 
Si 9.55167408 9.61002486 1.3572345128838608 
Si 8.13794643 10.865071619999998 2.7131045000009935 
Si 10.65634785 11.314333529999999 0.11689265113032177 
Si 12.21476328 9.50400954 4.073419533176408 
Si 8.14421808 8.14759011 5.430261228036514 
Si 9.50275521 9.50220135 6.7876197887173495 
Si 10.86020091 8.14490226 8.144806060791277 
Si 8.14462533 10.86007059 8.14504726484095 
Si 10.86049413 10.86024978 5.43036460120066 
Si 8.145472409999998 8.14802994 10.86258991935595 
Si 9.48530862 9.501842969999998 12.257024988243845 
Si 10.86285618 10.85998914 10.864795213524397 
Si 12.21683211 12.209990309999998 12.235109877444877 
Si 11.97681525 9.309735 15.127938960630251 
Si 8.507110410000001 8.344959750000001 18.024834054938704 
Si 10.57638024 9.3724515 17.4385359256235 
Si 8.51694957 11.34108171 20.416372207458338 
Si 10.024328429999999 11.47091301 18.37103078166394 
Si 9.32239233 8.669977829999999 23.80873487751897 
Si 9.83582055 9.71760402 21.6705298926 
Si 8.24891391 12.14839782 25.002832754291756 
Si 9.473058539999998 10.23577263 25.5167696687047 
Si 11.810510639999999 10.727649179999998 25.65336007626306 
Si 8.33481108 10.67421798 29.21463449653839 
Si 9.00612198 9.11383146 27.561008447414878 
Si 11.7077859 9.87928227 33.00625878425257 
Si 11.611593449999999 10.96317 30.941931153976675 
Si 10.095955559999998 8.72813313 31.792588921734794 
Si 8.80003719 12.95778276 0.004519267990138465 
Si 9.50027913 12.216685499999999 4.07090411951552 
Si 9.40732839 14.83647588 1.3477655310480796 
Si 10.88134533 13.58204814 2.7087903932839636 
Si 8.14542354 13.57558101 5.431019297906919 
Si 9.50246199 14.93274978 6.7876197887173495 
Si 10.85985882 13.575108599999998 8.144771603069893 
Si 9.500979599999999 12.217109039999999 9.502578114128696 
Si 9.49649985 14.95387791 12.214400786894279 
Si 12.090584609999999 14.92761843 14.858445121701411 
Si 11.975723819999999 14.672989439999998 17.176243750463506 
Si 8.45149635 12.71967183 17.193369237990375 
Si 8.848890899999999 12.78387072 14.882083118569483 
Si 10.74757185 13.545851759999998 13.572138382510317 
Si 9.6847308 14.71878063 17.792175520167255 
Si 8.566080209999999 13.663677329999999 21.069690604861584 
Si 10.443877379999998 14.772114089999999 20.208419858917804 
Si 12.20293674 12.40154442 17.85071918879532 
Si 11.3370255 14.31412074 23.522735790048138 
Si 9.04951854 13.67825688 23.403512074066324 
Si 8.30684115 13.44524472 27.029325806490192 
Si 9.85988088 12.286748789999999 30.076801143238104 
Si 10.98617148 15.83523207 29.061848959930476 
Si 10.473003899999998 13.632025859999999 28.173080952323836 
Si 8.94464352 13.49696547 32.0527447181691 
Si 10.90490067 14.692667759999999 32.68562968679281 
Si 14.892725249999998 3.9010151699999995 1.337317949925049 
Si 15.894495089999998 0.556142229 0.12717724723121557 
Si 16.3115028 2.71093293 2.7238001767179747 
Si 13.57318638 -0.0234246942 2.700772081518366 
Si 14.935747139999998 1.3553980469999998 4.069525810660239 
Si 12.214437479999999 4.07479689 4.070456169137554 
Si 13.57512489 0.00011211576209999999 8.14487497623404 
Si 13.57595568 2.71653669 5.429158580952289 
Si 12.21702759 1.357564617 6.7875508732745855 
Si 14.93061579 1.35671265 9.502474740964551 
Si 13.576069709999999 2.71639008 10.86293449656977 
Si 12.23341533 1.351755603 12.247066706764441 
Si 15.50149884 0.684942372 15.019948461818975 
Si 14.9512878 1.2246349589999999 17.22217589306575 
Si 15.9874947 2.81712744 21.425983443951754 
Si 12.56876127 1.2879998009999998 20.036682575549772 
Si 12.5134893 3.62317293 19.778559784677007 
Si 16.01950455 2.9974251599999997 18.35328505515219 
Si 13.36306167 0.556867134 22.17809212855727 
Si 14.7383775 2.0427334200000002 23.287113891237833 
Si 13.607704889999999 3.87631953 24.330011286586284 
Si 15.80786487 0.637225704 24.925716373838778 
Si 12.54662316 0.542403243 27.573619973440703 
Si 15.26905683 3.40853589 27.77822992300718 
Si 13.321342979999999 2.46000177 28.69077375836742 
Si 13.985258219999999 1.9702592099999998 34.36148096620772 
Si 14.12533593 2.07291879 30.87491088588863 
Si 12.59304966 1.3198483799999998 32.417927649375834 
Si 15.727196789999999 0.30306730499999995 30.93452274387954 
Si 13.57444071 5.429701349999999 2.683663822852189 
Si 12.334201559999999 6.98296914 1.2459395185920497 
Si 14.9315769 6.787342529999999 4.069008944839508 
Si 14.932538009999998 4.07293983 6.78779207732426 
Si 13.57486425 5.42991312 8.145357384333389 
Si 12.217304519999999 6.787619459999999 6.7874819578318215 
Si 12.21618051 4.071506309999999 9.501820044258293 
Si 14.931251099999999 6.787928969999999 9.502061248307966 
Si 14.92284546 4.057464329999999 12.260574133546196 
Si 16.2652392 8.0506809 13.568313575436912 
Si 15.738306569999999 7.6464282599999995 16.873670499007922 
Si 13.55401305 5.39632314 13.797216218577722 
Si 15.51692547 6.2235945 14.993243727747906 
Si 14.87448045 6.407671499999999 21.19449647170729 
Si 14.75717616 4.33729395 19.976209274524315 
Si 13.36311054 5.78878182 22.905115591996672 
Si 13.05260685 7.56841545 24.454472576218166 
Si 15.21292149 4.668371909999999 25.806421274642027 
Si 15.35019732 5.1943271399999995 29.2688709499937 
Si 14.50552824 6.97252725 26.337931626959804 
Si 13.87756503 6.931232099999999 28.723026185581 
Si 15.047463959999998 7.731250289999999 32.18140984980959 
Si 15.24817305 4.05937026 31.302152173304393 
Si 14.4015003 5.579325 32.849786271456786 
Si 16.27716348 8.165069279999999 2.7070399410377566 
Si 15.02762274 9.64817604 1.2279146845371107 
Si 13.58861301 10.84386204 2.716433115886497 
Si 13.574750219999999 10.8600543 8.144737145348511 
Si 13.57393572 8.145781920000001 5.429985566265458 
Si 14.932603169999998 9.50252715 6.7875164155532035 
Si 12.21789096 9.500784119999999 9.501992332865202 
Si 13.575287789999999 8.146857059999999 10.859833301645386 
Si 14.917697819999999 9.49125447 12.227253516969775 
Si 16.290325799999998 10.858653359999998 10.861142695057904 
Si 14.041523879999998 11.03290749 16.97711257859677 
Si 13.515975899999999 10.77026382 13.685917778513772 
Si 13.5531171 8.67929571 16.877323017474417 
Si 15.49095921 11.64554181 15.017501963600852 
Si 12.32977068 8.26445457 18.853817915947527 
Si 12.270426209999998 9.809642519999999 21.42460513509647 
Si 14.2035768 8.60908581 20.460305802220425 
Si 12.748065299999999 11.760679529999999 20.144362954868612 
Si 14.906620619999998 11.58424254 19.124138740189537 
Si 15.0680871 11.037273209999999 23.862385549710787 
Si 13.009829309999999 9.89278668 23.710806033351243 
Si 15.70018797 10.79508978 26.12887663133504 
Si 14.807821769999999 8.80085169 30.0311791201283 
Si 13.167646829999999 10.28562003 29.282860784874803 
Si 12.51994014 9.19249587 27.3078820261425 
Si 14.356148939999999 11.84142906 27.97139990907483 
Si 15.94592262 11.394838709999998 34.33498297846495 
Si 13.624483589999999 8.54275293 34.07127803672829 
Si 12.39418134 12.278310569999999 1.3541884503136898 
Si 12.21706017 14.933694599999999 4.075245792409655 
Si 14.930713529999998 12.215903579999999 4.070628457744464 
Si 15.00522399 14.92598943 1.2264192194291308 
Si 16.299122399999998 13.59048636 2.7077532158703645 
Si 13.573756529999999 13.576688729999999 5.430674720693098 
Si 12.21777693 12.21741855 6.7876887041601135 
Si 14.93265204 14.932375109999999 6.7876542464387315 
Si 12.21756516 14.93172351 9.502647029571461 
Si 14.93133255 12.21785838 9.502647029571461 
Si 13.57437555 13.577894189999999 10.859729928481242 
Si 14.919163919999999 14.923171259999998 12.21271235854656 
Si 13.649830829999999 16.21777014 13.707936262476888 
Si 16.219627199999998 13.505045309999998 13.540678482888527 
Si 12.27252762 13.74411735 21.360892808261102 
Si 16.09531821 15.01633377 20.178786218529257 
Si 14.881794659999999 13.951146959999999 18.536703506068726 
Si 13.50240633 16.030777229999998 18.34766844656692 
Si 14.35886937 14.723162639999998 21.797196476400334 
Si 14.84131401 13.413853889999999 23.73995726564044 
Si 13.10739012 14.13786294 25.17009053388012 
Si 15.85943901 13.06472661 29.350914784604306 
Si 14.35357512 15.748927649999999 26.467561574798992 
Si 12.38457024 12.7133676 26.87082028813286 
Si 16.20938079 14.765337449999999 27.765687312424124 
Si 14.142082049999999 13.08658779 34.36461661885349 
Si 14.581472219999998 14.408635319999998 30.96667179792897 
Si 12.83608017 13.166457659999999 32.28967601039193 
Si 12.34506699 15.61652253 31.029074731351823 
