&CONTROL
  dt          = 30.D0,
  prefix = 'x.33_y2.00_z3.18_struc16-scf',
  pseudo_dir = './',
  outdir='./',
  wf_collect= .true.,
  verbosity= 'high',
/

&SYSTEM
ibrav= 6, celldm(1) =30.783621515, celldm(3) =2.1249479012156414, nat=  432, ntyp= 1,
  ecutwfc     = 12.D0, nbnd= 1728,
  degauss     = 0.05D0,
  occupations = "smearing",
  smearing    = "methfessel-paxton",
/
&ELECTRONS
  electron_maxstep=200,
  conv_thr    = 1.D-8,
  mixing_beta = 0.3D0,
  scf_must_converge=.false.,
/
&IONS
/
ATOMIC_SPECIES
Si  28.08  Si.pbe-hgh.UPF
K_POINTS {automatic}
1 1 1 0 0 0
ATOMIC_POSITIONS (angstrom)
Si 2.7021851999999997 -0.01378494009 2.6867678343214982 
Si 3.1864706099999998 2.0370807899999996 0.004874263889376763 
Si 1.287823869 1.322609535 1.2173198178970017 
Si 3.9477837599999996 3.84846363 1.3081956309582525 
Si 1.358234136 4.07235339 4.069282731894044 
Si 4.07570913 1.3555804949999999 4.070044270722882 
Si -0.001392081498 -0.0020884757400000003 5.431018004059716 
Si -3.8107197e-05 2.7150868799999994 8.144727005221412 
Si 2.7151683299999996 -0.00011048871689999999 8.1446923898201 
Si 2.7153801 2.71435383 5.430048772823013 
Si 1.357320267 1.3573235249999998 6.787491735226145 
Si 2.71681362 2.7182145600000003 10.862901393152201 
Si 1.3549174919999998 1.3499734769999998 12.24388282844668 
Si 3.9776922 1.74175938 17.228569848004902 
Si 1.70373852 2.68643277 16.956458178300682 
Si 1.309318524 4.02359742 15.017961089494415 
Si 0.32960697299999997 1.81679112 21.31297951027177 
Si 2.4003315 2.8769769 20.902440850725647 
Si 3.4724089799999995 1.12622544 19.579059443212348 
Si 2.65851171 2.2539495599999997 24.80785427281435 
Si 3.14621802 3.79449486 23.04516880726565 
Si 4.01810769 1.562926131 28.580898400290543 
Si 1.51505145 3.93295986 29.639610449381447 
Si 1.7973571499999998 1.63053126 29.294771821523227 
Si 0.759003228 2.82841641 26.133416450610234 
Si 0.455189841 0.908895663 27.517582502825302 
Si 1.7573652 0.5165428679999999 31.327180494085706 
Si 0.443470815 4.81354839 0.011595224823283545 
Si 2.71909422 5.4171906299999995 2.7010016873405003 
Si 1.27392687 6.730262369999999 1.3903518244293118 
Si -0.0300381084 8.149642649999999 2.7167101564553424 
Si -0.0012703707629999998 5.42922894 5.429321849395485 
Si 2.7153801 5.429294099999999 8.145003928431898 
Si 1.357302348 6.78760317 6.78773404303532 
Si 2.71334385 8.143354709999999 5.430325696033499 
Si 4.05459729 4.07360772 12.23443282388883 
Si 1.356445494 4.0711968 9.500993043979976 
Si 1.356443865 6.788808629999999 12.247378983979068 
Si 2.71288773 8.14527693 10.864562932415119 
Si 2.71239903 5.457443219999999 13.736187394356698 
Si 1.69854201 5.008393079999999 17.372292994247356 
Si 3.5135412299999995 6.474998069999999 20.944602409522204 
Si 2.78964621 4.7357147699999995 19.507197870091115 
Si 0.18569948399999997 6.74089974 22.404299267397448 
Si 2.37267108 6.16425003 22.95634568750213 
Si 3.12228801 8.066286719999999 24.25106554273009 
Si 3.61535373 5.11403373 26.951862999202852 
Si 2.228472 7.72857873 29.373418013301375 
Si 1.330718697 4.771927439999999 27.352501653974084 
Si 4.039398719999999 6.21492822 29.000644756585338 
Si 3.75122862 4.522104 30.553145505374847 
Si 0.8406584819999999 6.82042752 31.084076530679937 
Si 2.45136807 6.75930744 32.84015045457827 
Si 4.03184016 9.421419239999999 1.2738813836388536 
Si 1.3572143819999998 9.5074956 4.070321193933368 
Si 2.72994336 10.840815809999999 2.717869772399254 
Si 1.49563377 12.08719629 1.1870763417717534 
Si 0.000341076762 8.14495113 8.145073159234519 
Si -0.0012700954619999998 10.85922351 5.430221849829567 
Si 2.71461447 10.86018462 8.144934697629276 
Si 1.3565334599999999 9.50420502 9.501719967407503 
Si -0.001035965808 10.85837643 10.85853985258704 
Si 0.435042369 10.06943544 15.90729997997156 
Si 2.72583828 10.93285431 13.683848907574765 
Si 0.517481172 8.8037676 21.169844825851598 
Si 2.70510111 9.805586309999999 20.931690864833275 
Si 2.33929287 12.112396919999998 20.51582143348529 
Si 3.71097603 8.30451168 19.473551700017016 
Si 1.5456196349999998 8.43062886 17.414627630050468 
Si 3.93102135 9.95086053 22.952330300950077 
Si 3.1092723 12.20637393 23.790092243474128 
Si 1.624502331 9.36878625 25.589262342004414 
Si 3.1813392599999997 9.850791059999999 29.773606667855564 
Si 2.62826118 11.49314886 26.000424078774127 
Si 0.82585413 8.507696849999999 27.623574861638982 
Si 4.04811387 10.55100042 27.68079412000574 
Si 2.36762118 8.31650112 34.60975900038913 
Si 0.667585377 10.13391126 34.578743600814654 
Si 1.94673645 11.58552945 30.855580266627328 
Si 0.189708453 10.602297629999999 32.33403867201302 
Si 4.07088729 12.215871 4.069767347512395 
Si 1.359429822 14.93200044 4.072467348814638 
Si -1.65964149e-05 13.57489683 8.144484697412235 
Si 2.71370223 13.57548327 5.429806465013837 
Si 1.3579295129999998 12.21714162 6.787491735226145 
Si 0.00086784975 16.28874567 10.86283216234958 
Si 4.05260991 14.94302877 12.220690509568442 
Si 1.357649325 14.932163339999999 9.50199689061799 
Si 2.71844262 13.577552099999998 10.859751391632917 
Si 1.3512033719999998 12.205722329999999 12.227925128442397 
Si 2.598255 16.17230475 13.726945082206713 
Si 1.5120117359999998 14.54050287 15.127172680629997 
Si 3.35815092 12.90953178 14.836818694434985 
Si 0.9088337609999999 12.47836806 16.41265022370797 
Si 0.505148013 15.23975112 17.876847083753617 
Si 3.9473439299999997 13.849757999999998 20.253713614759892 
Si 2.1730534199999996 15.44951745 19.870901891663724 
Si 1.066374351 12.46400028 22.474118531841338 
Si 3.94099083 14.569645679999999 23.82166148946958 
Si 2.3179041 16.242172559999997 24.163557808216375 
Si 1.216564893 16.07003613 22.032910626733845 
Si 1.049330124 15.38904897 26.048297178786967 
Si 0.705850587 12.446912069999998 29.030621694120494 
Si 1.95833493 13.437881639999999 27.210682354803726 
Si 3.3046545599999995 13.061761829999998 34.451601231800076 
Si 3.82430556 15.48691929 31.396999758529596 
Si 3.36606786 13.255107839999999 32.01716928841394 
Si 0.665032734 14.1356475 33.330512229547104 
Si 6.78818961 4.074194159999999 4.075963504347029 
Si 4.9844956499999995 0.36651848400000003 0.16423865613732672 
Si 5.437699739999999 2.71137276 2.7183440033972124 
Si 6.74246358 1.4146985339999998 1.2571794525063913 
Si 5.42872395 -5.75970417e-05 5.430429542237431 
Si 5.430401819999999 2.7151031699999995 8.14510777463583 
Si 6.787652039999999 1.357548327 6.787457119824834 
Si 4.07240226 1.356554637 9.50199689061799 
Si 6.787375109999999 1.370252898 12.226159742975549 
Si 8.115058979999999 0.1583026362 13.733418162251834 
Si 4.43606022 0.755860887 15.014118779948914 
Si 5.278350959999999 2.5903543499999997 13.617387337058021 
Si 5.546060819999999 0.6148579049999999 20.556182991413685 
Si 7.27628688 0.11078552069999999 18.993886084053223 
Si 7.997982749999999 2.1569100299999997 18.17367414999375 
Si 5.8782790799999995 3.15556848 17.445677645026258 
Si 6.0662819699999995 2.89500993 20.834629279557785 
Si 7.04996991 3.9950410499999998 24.612796486427975 
Si 7.01238888 0.14567642009999998 25.776185509082747 
Si 5.5175859 3.9426849899999996 22.809334078135148 
Si 5.3866143 2.93426883 29.92899520433976 
Si 6.51901365 2.4412519799999997 26.2666165148542 
Si 4.2194683799999995 2.77057062 26.53083587305956 
Si 7.143572249999999 3.4738425 28.330525202609508 
Si 6.56190522 1.88708247 31.889749996188876 
Si 7.22471274 3.35082042 33.98463946811735 
Si 4.074340769999999 6.78571353 4.070425040137301 
Si 6.643648439999999 6.60046365 1.370385660953241 
Si 5.42883798 8.13991752 2.7037778425256267 
Si 8.14363164 8.14330584 5.4303949268361205 
Si 4.07269548 4.0725814499999995 6.787630196831388 
Si 5.431086 5.42891943 5.431398773474134 
Si 6.78791268 6.78703302 6.787837889239253 
Si 6.78802671 4.073249339999999 9.502308429229787 
Si 4.07300499 6.78817332 9.50376227608484 
Si 8.14395744 8.14350132 10.86241677753385 
Si 5.43453948 5.426313029999999 10.860755238270931 
Si 6.78102201 6.784263719999999 12.229863590915803 
Si 5.807482739999999 4.245174 15.381318957053912 
Si 4.40688483 6.38835156 15.144549612088019 
Si 5.433578369999999 8.02710927 13.719745078734066 
Si 4.49442729 8.11220823 16.914850465925095 
Si 5.11707996 4.4108433 19.22321311773729 
Si 6.6096349199999995 6.194777489999999 19.70350181092468 
Si 6.94496457 7.35798123 23.375745889783815 
Si 5.71003596 6.06852999 21.856995157272344 
Si 6.6573157499999995 6.16464099 25.439758423743054 
Si 4.49877672 6.967591379999999 25.789477823186097 
Si 7.48401696 5.79901194 27.704540285304947 
Si 6.10780518 7.3041753599999995 28.88181008388535 
Si 5.45576535 4.9733532899999995 34.57233975157216 
Si 4.59322614 5.73626286 32.48572336055696 
Si 6.84974952 6.8513948099999995 32.54955416057408 
Si 6.79102407 9.50573628 4.070009655321571 
Si 6.611768909999999 12.19392837 1.1725828732429202 
Si 4.07227194 9.502738919999999 6.787837889239253 
Si 5.43082536 8.14456017 8.14503854383321 
Si 5.4295547399999995 10.85933754 5.430325696033499 
Si 6.78903669 9.50311359 9.501512274999637 
Si 4.08049839 9.50319504 12.250321293090487 
Si 5.43085794 10.860168329999999 10.861689854106324 
Si 6.76526958 12.22693191 12.226090512172926 
Si 8.108705879999999 10.87855974 13.616833490637049 
Si 6.5612862000000005 9.505557089999998 16.99605819740024 
Si 7.290540629999999 8.99467011 14.837476387059889 
Si 4.47276159 10.95785946 16.547477211813547 
Si 6.65884701 11.817727109999998 15.580357514591029 
Si 6.03520065 8.42678442 19.22625927305264 
Si 7.10905374 10.07673336 20.508759891617885 
Si 7.194820589999999 10.76527908 24.48870027272875 
Si 6.274305269999999 9.601374869999999 22.727226346225926 
Si 7.37153451 9.76403052 26.631670537077927 
Si 5.3739081 8.68201614 27.16339771661317 
Si 7.5747848399999995 11.736163079999999 27.90510192049974 
Si 6.82557516 8.43067773 30.798914854681545 
Si 4.94204391 11.13336792 34.420897370837395 
Si 5.08230081 9.99425709 31.15143810163076 
Si 4.09369329 14.80730049 1.2610286851321526 
Si 5.44086 13.57377282 2.7066889977758652 
Si 6.78830364 14.932228499999999 4.06865965467045 
Si 4.07259774 14.9320656 6.78769942763401 
Si 5.42989683 13.57486425 8.14552315945156 
Si 6.787456559999999 12.21756516 6.787214812015658 
Si 8.14395744 13.576802759999998 10.86594754846755 
Si 4.0698936 12.21637599 9.503554583676975 
Si 6.78599046 14.931886409999999 9.502377660032408 
Si 5.42859363 16.2909774 10.862243700527296 
Si 6.890702579999999 14.773743089999998 17.306281423947656 
Si 5.337695429999999 13.63989393 13.708114303893636 
Si 6.33700548 15.471003959999999 15.078641887992253 
Si 7.31370501 12.242733209999999 19.408543976355332 
Si 5.35041792 13.23875268 18.411066572183238 
Si 6.857210339999999 13.04016129 24.785665800574126 
Si 7.38813402 14.196735 22.822661007639812 
Si 5.29356582 14.965899929999999 21.932456732129893 
Si 5.3647857 14.66196111 25.65288544961367 
Si 5.37550452 12.28050972 28.51810606231275 
Si 7.216746929999999 15.3520218 29.51984116084607 
Si 4.82355045 15.72498135 29.239214102419393 
Si 4.227434189999999 14.118510419999998 27.664524881389664 
Si 5.82993036 16.009274429999998 32.67413498989166 
Si 7.8693243299999995 14.608578779999998 32.87919662725686 
Si 5.444834759999999 12.30733935 30.887807205247686 
Si 7.52325957 13.433418179999999 30.93668415189854 
Si 12.1766121 1.2179853809999999 1.2052667351605804 
Si 9.50290182 1.3589117999999998 4.069005808683558 
Si 10.866700619999998 2.70400968 2.6879551425864587 
Si 9.385744139999998 4.03245918 1.3179052510259326 
Si 8.14431582 0.000480369294 8.145453928648937 
Si 8.142507629999999 2.71480995 5.429944926619081 
Si 10.85992398 -0.0012708708660000001 5.430014157421702 
Si 10.8597285 2.7156733199999996 8.145488544050249 
Si 9.503911800000001 1.3578610949999999 9.502204583025852 
Si 8.14136733 2.7158688 10.863212931763998 
Si 10.858409009999999 0.0009757107269999999 10.862901393152201 
Si 9.52269417 4.08745422 12.234778977901938 
Si 11.31794991 3.5291144699999997 17.13410441782772 
Si 9.19866978 1.9141238699999998 14.989853383630042 
Si 10.97069598 2.7604545299999996 13.662595051169932 
Si 10.09219257 1.45785726 17.16120827705408 
Si 11.80933776 3.82327929 21.37144492308571 
Si 8.28729315 3.31553628 20.222836676790656 
Si 9.70792776 3.1084577999999996 22.055999099408147 
Si 9.393042059999999 0.8033299469999999 22.16296068945853 
Si 12.00172266 1.3458293009999998 24.34345404882862 
Si 11.146041539999999 3.24938259 25.609373890165987 
Si 9.153302129999998 2.6581370399999997 29.38092955538582 
Si 10.939810139999999 2.11175415 27.835005732845367 
Si 8.282666789999999 0.858556305 30.70202634641261 
Si 12.0974427 6.88869891 1.271911767304269 
Si 8.141399909999999 5.4169788599999995 2.7229063132899762 
Si 9.50104476 6.791007779999999 4.072051963998908 
Si 9.501468299999999 4.073119019999999 6.78728404281828 
Si 8.14508145 5.4296199 8.144934697629276 
Si 10.85933754 5.42947329 5.429287233994176 
Si 12.21663663 4.07333079 9.501823813611434 
Si 12.218738039999998 6.7749295499999995 12.250702062504905 
Si 9.50340681 6.78719592 9.501166120986529 
Si 10.85964705 5.42784429 10.859509083823744 
Si 8.15876505 4.20907536 15.424899747304211 
Si 9.56146437 5.1396579 17.19533906274653 
Si 10.50154398 7.27780185 16.964869720819205 
Si 8.34267915 5.655431879999999 13.60686425505954 
Si 9.23753772 7.50851712 14.887945642171038 
Si 9.86318775 6.956302409999999 21.024494755747536 
Si 8.810202149999999 5.47215309 19.47538631628649 
Si 12.158921159999998 7.44814638 20.860071599521227 
Si 9.20383371 6.6362202 23.295092004729646 
Si 9.359859329999999 4.29362046 24.090242388240096 
Si 10.80849645 7.902099809999999 28.563659930437765 
Si 9.58686048 5.9516003699999995 28.693917685570316 
Si 12.07248642 5.066971919999999 30.99324571764039 
Si 11.61165861 7.03617228 32.15788089474235 
Si 8.4808998 5.0520828600000005 32.71352731658336 
Si 9.73151568 4.641900659999999 30.607145531419697 
Si 8.36574579 7.612936019999999 34.60338976654795 
Si 10.178236349999999 5.9362389 34.487151248946276 
Si 9.38323548 9.51854022 1.1564105577505133 
Si 10.83532608 8.17777548 2.709305922114962 
Si 8.11742103 10.85757822 2.6833686019127776 
Si 9.50255973 9.50239683 6.7873532736209015 
Si 10.859614469999999 8.14539096 8.144830851425343 
Si 8.145114029999998 10.860217200000001 8.14510777463583 
Si 10.86098283 10.859467859999999 5.430706465447918 
Si 12.216978719999998 9.50376519 9.501823813611434 
Si 9.51039522 9.52113033 12.211863582234187 
Si 10.857154679999999 10.860347519999998 10.857847544560823 
Si 9.50467743 12.216604049999999 9.501962275216679 
Si 10.99923606 8.32899555 13.595475788028285 
Si 8.3256561 10.933815419999998 17.52892768517874 
Si 9.22966965 9.08213112 20.26267900369939 
Si 10.11763755 9.36842787 18.042551009828433 
Si 9.45540018 10.582326089999999 23.869949974298148 
Si 10.01320236 8.41404564 24.663369587743063 
Si 10.401230159999999 10.44291627 21.729298941836795 
Si 10.4014908 12.20564088 25.32493913759512 
Si 8.81986212 11.74142475 29.91757212190719 
Si 11.0578149 12.143315340000001 29.16891022235715 
Si 9.569511630000001 8.989098929999999 26.89734374213834 
Si 11.03336361 10.87562754 27.114832308574115 
Si 10.33015689 11.302197479999998 34.47292431900753 
Si 12.121698509999998 10.23824871 33.07207364336065 
Si 10.947091769999998 8.91113499 30.71282635162158 
Si 8.783209620000001 9.64773621 30.988849561673916 
Si 12.1308372 12.207318749999999 1.3114979402433031 
Si 12.21828192 14.93265204 4.074232734281489 
Si 8.444719710000001 13.1470074 0.03755390272807685 
Si 9.50334165 12.21837966 4.067655808032437 
Si 9.54294264 14.89523391 1.3084344772272969 
Si 10.865136779999998 13.5827649 2.718987849861593 
Si 8.14283343 16.297167599999998 2.6842478331060717 
Si 8.144332109999999 13.574457 5.430948773257094 
Si 9.50282037 14.93248914 6.787837889239253 
Si 10.86000543 13.57525521 8.144969313030588 
Si 9.51311565 14.940292049999998 12.263925145805635 
Si 9.35060661 12.33990306 15.113464981710921 
Si 10.97618571 13.569879509999998 13.78596434144163 
Si 9.007506629999998 13.23966492 17.28329679747728 
Si 10.71880371 12.5760429 20.875371606900597 
Si 8.624724209999998 13.597800569999999 20.937471636852177 
Si 9.249071039999999 15.773997959999999 20.20570205314181 
Si 11.34215685 16.199443889999998 19.01091686149814 
Si 11.07118899 12.565438109999999 18.494731997151447 
Si 10.781357309999999 15.67467783 24.91007355288515 
Si 8.53752384 15.925608989999999 23.976461564131487 
Si 12.05114652 13.655353139999999 24.50254643325307 
Si 11.609866709999999 14.549739299999999 28.9601447370517 
Si 8.54008137 13.246751069999998 26.379185799916932 
Si 10.565074979999999 16.03599003 27.326505487589674 
Si 8.32601448 15.366324419999998 27.420555532951123 
Si 9.62330121 16.11869436 32.346015600866565 
Si 11.53568205 15.708414419999999 31.094807305086288 
Si 10.94272605 16.061614199999998 34.43252814567782 
Si 16.2945612 2.71039536 2.710330537993762 
Si 14.93446023 1.3559176979999998 4.071463502176625 
Si 14.90797269 3.96281943 1.319089097750762 
Si 13.574847959999998 7.02015921e-05 8.144900082227965 
Si 13.575874229999998 2.71495656 5.429460311000729 
Si 12.218004989999999 1.356935823 6.78773404303532 
Si 14.933417669999999 1.3575678749999998 9.502412275433718 
Si 13.57287687 2.71726974 10.865289855842645 
Si 12.217874669999999 1.339411041 12.2452328290978 
Si 14.93325477 4.0880569499999995 12.251567447537678 
Si 16.224758549999997 2.6527287599999996 13.668306592386212 
Si 14.640621209999999 1.67531247 15.19456886698213 
Si 12.7850436 3.5094850199999996 15.132572683234484 
Si 15.938152289999998 1.248392295 17.307146808980423 
Si 13.22860401 0.5259715199999999 20.475494490958205 
Si 15.114106349999998 1.66938291 19.478570933207084 
Si 14.744388509999999 3.96729918 19.421697828853436 
Si 15.131161979999998 3.00612402 22.690984021053517 
Si 12.98892924 2.0296362599999997 22.263656891871655 
Si 14.990334929999998 3.0186999 25.0179005279683 
Si 14.09647005 0.8513056259999999 25.34456607013835 
Si 14.372927639999999 0.6723485730000001 27.679097965341512 
Si 13.1413059 2.2876046999999997 28.94166011275173 
Si 13.75043787 2.35915038 34.577255138558286 
Si 12.942975149999999 3.31478694 32.55775801068474 
Si 14.488537769999999 0.31607812799999996 33.049608247909944 
Si 12.8901141 1.405002726 31.147941946098367 
Si 12.21808644 4.07166921 4.06869427007176 
Si 13.56583959 5.437911509999999 2.687141680655655 
Si 14.93309187 6.788662019999999 4.0731250414395435 
Si 14.932440269999999 4.07264661 6.787664812232699 
Si 13.575304079999999 5.42963619 8.145350082445006 
Si 12.21732081 6.787896389999999 6.787803273837941 
Si 13.575157469999999 8.142996329999999 10.861932161915497 
Si 16.28770311 5.428544759999999 10.862520623737781 
Si 14.933792339999998 6.78827106 9.502827660249448 
Si 14.490655469999998 7.4820784499999995 15.190622711232699 
Si 13.622805719999999 5.500432529999999 13.911687479002468 
Si 15.73693821 5.05817532 17.686185453333714 
Si 15.09112116 5.0357765699999995 21.50450652572444 
Si 12.43689372 4.25737521 19.12698230209326 
Si 12.63072843 6.61004217 18.70737440740371 
Si 14.789511809999999 7.14963213 17.639143122952333 
Si 12.959265149999998 5.7151836 22.12325682415504 
Si 15.4544859 7.26169104 24.50908874410081 
Si 13.26905208 6.39657801 24.29336556313189 
Si 13.1931081 4.55590575 25.728277793668596 
Si 13.86841005 4.56157467 29.45244497449394 
Si 16.12936431 6.54460524 26.734547509773634 
Si 14.004952829999999 5.88357333 27.524955583304504 
Si 13.10413212 8.03173563 28.000294274104448 
Si 13.96276173 7.23486141 32.666208062991494 
Si 14.88327705 4.88636469 32.984877447458736 
Si 15.894511379999999 4.735763639999999 30.78375330890741 
Si 14.93476974 12.216473729999999 4.070771194150408 
Si 12.21618051 9.500295419999999 4.071221194367449 
Si 14.95477386 9.50220135 1.2201444346439634 
Si 13.580875260000001 10.860673319999998 2.6905409130643756 
Si 13.575238919999999 10.85998914 8.144830851425343 
Si 13.57426152 8.14384341 5.430083388224324 
Si 14.93242398 9.50257602 6.787422504423523 
Si 14.933238479999998 9.51925698 12.2250520501336 
Si 12.209566769999999 12.215284559999999 12.239071287664478 
Si 12.78255123 9.30450591 15.20969579735495 
Si 13.625949689999999 10.9377576 13.676233519286388 
Si 16.28014455 8.263102499999999 13.669760439241266 
Si 15.42014658 12.16480185 18.337612690601713 
Si 14.04383706 10.51498323 19.352259333823966 
Si 15.74781993 8.869953869999998 19.02133609729269 
Si 12.22285941 10.45080063 17.70716238652806 
Si 12.42312867 9.35319672 22.218760716371545 
Si 15.93956952 10.56794202 22.4794493036432 
Si 12.29588748 8.51175306 24.430373321520047 
Si 15.806822309999998 9.65081502 24.60341571267275 
Si 13.82097357 11.12365908 21.668998912753374 
Si 14.76147672 11.146530239999999 26.1528703061469 
Si 14.259891329999999 9.479541959999999 29.56560272137895 
Si 12.924534869999999 9.72322407 26.346370399474292 
Si 15.853053329999998 10.528520219999999 28.16939050950772 
Si 12.586973489999998 10.910113469999999 30.645845550085173 
Si 15.53660379 8.5476888 31.402261299528835 
Si 13.27116978 8.50996116 34.46475508429818 
Si 16.293257999999998 15.959866859999998 0.03680724852180283 
Si 14.8799376 14.82591996 1.421661454914933 
Si 13.568185349999998 16.28452656 2.708963229641985 
Si 16.3136205 13.54705722 2.7062943822009218 
Si 13.57450587 13.57603713 5.430498773040053 
Si 12.217516289999999 12.21785838 6.787595581430077 
Si 14.93200044 14.932847519999997 6.787837889239253 
Si 12.217109039999999 14.933140739999999 9.501754582808813 
Si 14.93384121 12.21676695 9.501962275216679 
Si 13.57432668 13.576004549999999 10.862936008553511 
Si 14.93892369 14.93444394 12.238932826059234 
Si 12.83902866 14.3672913 15.281107370259138 
Si 14.604929819999999 12.536376749999999 15.229426576102108 
Si 13.60293192 16.2145773 13.785479725823281 
Si 16.235900909999998 13.496102099999998 13.673221979372348 
Si 12.503145149999998 14.393518199999999 17.785358578089166 
Si 14.09651892 14.694801749999998 21.192206375098376 
Si 14.63215041 14.256991709999998 18.929328360608576 
Si 15.321869009999999 15.08142861 24.854654295386556 
Si 12.605039099999999 13.16552913 22.172791463430798 
Si 15.95944332 14.46488469 22.646849384382243 
Si 13.826675069999999 14.673803939999999 28.11120201990426 
Si 15.35223357 13.97348055 29.789668214063777 
Si 13.973969249999998 13.48766388 25.962727906746665 
Si 15.248531429999998 12.506973299999999 33.07685056874154 
Si 13.61031129 13.41575982 34.59338591556912 
Si 13.779645839999999 13.0601817 31.345284348971255 
Si 12.633090479999998 14.981212529999999 33.108004429921266 
Si 16.06260789 15.5264877 31.512130583289323 
