&CONTROL
  dt          = 30.D0,
  prefix = 'x.33_y.66_z3.16_struc31-scf',
  pseudo_dir = './',
  outdir='./',
  wf_collect= .true.,
  verbosity= 'high',
/

&SYSTEM
ibrav= 6, celldm(1) =30.783621515, celldm(3) =2.1115588181846787, nat=  432, ntyp= 1,
  ecutwfc     = 12.D0, nbnd= 1728,
  degauss     = 0.05D0,
  occupations = "smearing",
  smearing    = "methfessel-paxton",
/
&ELECTRONS
  electron_maxstep=200,
  conv_thr    = 1.D-8,
  mixing_beta = 0.3D0,
  scf_must_converge=.false.,
/
ATOMIC_SPECIES
Si  28.08  Si.pbe-hgh.UPF
K_POINTS {automatic}
1 1 1 0 0 0
ATOMIC_POSITIONS (angstrom)
Si -0.0236027439 2.71559187 2.711418228348827 
Si 2.3214878999999997 3.26691063 0.3215476162142966 
Si 1.2680624699999998 1.376949717 1.2923510200600343 
Si -0.000397506951 2.7156081599999995 8.14565738772512 
Si 2.71596654 -0.0006722378010000001 8.145141428327896 
Si 2.7146796299999996 2.7155267100000002 5.431023012466933 
Si 1.356763149 1.357864353 6.787858637991951 
Si 2.7170091 2.7151683299999996 10.859844598172378 
Si 1.363901427 1.354891428 12.240379958676526 
Si 1.358763561 4.07432448 9.503077767233657 
Si 3.81669813 1.7151578099999998 15.116853598197126 
Si 2.7643967099999998 0.059581163699999995 13.733704043413713 
Si 0.41085334799999995 0.9733193549999999 16.484730754822724 
Si 3.5148770099999997 2.3710583699999996 20.13504029829902 
Si 2.82232395 1.87463691 17.37974832253963 
Si 0.0658120887 1.8612302399999998 22.165581307425242 
Si 3.45914892 1.4321614139999999 23.752397234939316 
Si 2.2834670399999997 2.69496873 22.18831791819622 
Si 2.77902513 1.79647749 25.946944537796288 
Si 3.38890644 1.76526585 29.670829891316647 
Si 0.429756264 1.9609576199999998 26.23120376837325 
Si 4.034299949999999 3.68608491 26.45268793895469 
Si 3.54732669 0.394002972 27.722842385746173 
Si 3.2520378599999997 3.9095999999999997 28.625083385024205 
Si -0.010658823929999998 0.0681308073 34.11303391765145 
Si 1.8394668 1.37508777 31.408925114096625 
Si 2.45413737 3.5266058099999995 32.38766569333632 
Si 4.07044746 6.789655709999999 4.072949084388578 
Si 1.360071648 4.0713597 4.070266095523016 
Si 2.73487923 5.41860786 2.7278532550150505 
Si 1.489901319 6.70967181 1.2551434680615954 
Si 0.015124450499999999 8.139998969999999 2.6861774946366572 
Si 3.35155347 7.53691059 0.009982094471615886 
Si 0.000650972835 5.429733929999999 5.430610244949153 
Si 2.71593396 5.43001086 8.144350290585487 
Si 1.357830144 6.787554299999999 6.787239486715282 
Si 2.71759554 8.14594482 5.429853504499893 
Si 4.06499031 4.06896507 12.225795506381676 
Si -0.0028738003499999996 5.429701349999999 10.85633607427126 
Si 1.370404395 6.78050073 12.210626300103309 
Si 4.0711479299999995 6.573813209999999 14.888765147331224 
Si 3.65803353 7.639553879999999 16.945276112784356 
Si 2.55920787 5.28322167 13.61592771167418 
Si 2.89259901 4.89610611 17.160809551651155 
Si 0.598263282 4.69264401 14.765450851394824 
Si 0.266838345 5.59129815 20.954315026503526 
Si 4.06347534 4.539127049999999 19.368083852972973 
Si 0.7717762169999999 7.032181229999999 19.135282972945763 
Si 0.0865453491 5.9980268699999995 24.87478091036601 
Si 2.1872583 5.08430448 22.144495766725377 
Si 2.2503494699999997 6.32297979 24.083299195025273 
Si 3.46589298 7.499476169999999 28.802539020375914 
Si 1.0237531949999998 4.65459057 28.43761813736636 
Si 1.104061266 6.9651153 28.51490885507043 
Si 0.508577058 4.82990355 34.397293148228414 
Si 0.221789979 7.176054509999999 32.37170534931554 
Si 0.584995077 4.90403934 31.998081951139483 
Si 4.0422006 9.4328874 1.2205397911544777 
Si 1.353593115 9.503976960000001 4.068958998383383 
Si 2.72121192 10.85347314 2.690239814957463 
Si -0.00024953347799999996 8.14488597 8.144728660810117 
Si 0.000803558007 10.86117831 5.430851026001191 
Si 2.71485882 10.860103169999999 8.144625468930672 
Si 1.358773335 9.502168769999999 9.504866426477365 
Si 2.72282463 8.136724679999999 10.85671444449589 
Si 2.66579334 12.046797089999998 17.020227814554346 
Si 0.346102227 8.409631049999998 13.557796286253673 
Si 1.236901329 10.564309349999998 15.64082756472409 
Si 2.1368570399999998 10.321099649999999 13.508504965172262 
Si 1.238113305 9.277448219999998 20.05427545398698 
Si 3.7160422199999994 9.33690672 19.77837476564504 
Si 2.51146188 11.64575358 19.4228787409581 
Si 0.368259885 11.78623854 22.527303242172014 
Si 2.6293200299999997 8.65688067 23.78610658222458 
Si 0.846827505 9.49765644 22.413516996437675 
Si 3.3308977499999997 11.731569299999999 25.001328551858343 
Si 2.7563820299999997 9.665866979999999 25.908385172177127 
Si 0.6431503769999999 9.85722561 26.970435995421823 
Si 0.9286814969999999 11.59628085 30.616549069134038 
Si 3.59287353 8.91921483 30.683417407014193 
Si 2.2250999699999996 8.38294803 32.54475813114428 
Si 1.39023747 10.66814181 32.72266093130691 
Si 3.20276061 11.159659979999999 30.22699972423035 
Si 3.45919779 11.99978415 32.85550327744537 
Si 2.71948518 16.2968418 2.6838728759957258 
Si 1.570663881 12.446602559999999 1.3095152693410002 
Si 1.3550771339999998 14.930583209999998 4.074324976114507 
Si -0.0006258780899999999 13.5742941 8.144556674344376 
Si 2.71362078 13.574880539999999 5.430163080138227 
Si 1.3575043439999999 12.21732081 6.787411473181024 
Si -0.00231505335 16.2877194 10.863559505832386 
Si 1.3566393449999998 14.932798649999999 9.502493013250136 
Si 2.71899648 13.57206237 10.86273397079683 
Si 1.35607734 12.20806809 12.236355475378183 
Si 0.061881148799999994 13.531288499999999 13.759261232222848 
Si 1.1843807400000002 15.15290913 15.094013795546703 
Si 1.73587869 14.23653147 17.179212103485458 
Si 1.92093309 15.067207439999999 21.17263464611533 
Si 1.0471326029999999 12.970554120000001 20.671844455170273 
Si 2.73895173 15.492669659999999 18.978775289121323 
Si 3.0728641499999996 15.470287199999998 23.264058864113917 
Si 1.236303486 12.61222299 24.52124553138852 
Si 1.4355611369999999 14.88301641 24.946017704475988 
Si 3.9850389899999996 13.03178823 26.860330260054347 
Si 2.3504841 14.717281949999999 27.176372589500268 
Si 0.438761376 14.660609039999999 28.52282023249452 
Si 2.6928999 13.827701339999999 34.11172682051182 
Si 1.5167048849999998 15.32092419 32.61571974690907 
Si 0.593729775 13.970711249999999 30.79837316071557 
Si 6.7898349 4.07178324 4.069646944246348 
Si 4.06938861 1.359561771 4.068958998383383 
Si 5.44742487 2.69562033 2.691196059706984 
Si 6.82272441 1.2421923209999999 1.2083184328989123 
Si 5.43045069 0.00018954881099999998 5.429887901793041 
Si 5.430434399999999 2.7148914 8.144900647275858 
Si 6.787928969999999 1.357553214 6.787652254233062 
Si 8.13850029 2.71844262 10.860463749449048 
Si 4.07228823 1.3581885239999998 9.502183437611803 
Si 5.43308967 -0.00431165349 10.861908435761272 
Si 6.78778236 1.36687761 12.231436662457986 
Si 7.16422797 3.93408387 14.92323123506575 
Si 5.78842344 0.914738886 16.097004466455896 
Si 5.4409414499999995 2.77340508 13.670000256503196 
Si 6.59648889 2.16187848 18.146945548917714 
Si 5.515631099999999 1.026739152 19.993426642407766 
Si 5.65240194 2.24891595 23.630114857797363 
Si 6.86724498 1.080670455 21.95844080808661 
Si 7.181218439999999 2.61809622 29.386192290515055 
Si 7.224256619999999 1.350960651 27.258582120124533 
Si 6.2013260699999995 2.9339756099999996 25.89156489582764 
Si 5.351346449999999 2.3516243999999995 30.897918927086543 
Si 5.90906718 0.14688546389999999 31.926982746202093 
Si 8.15822748 2.6750460599999997 34.282268599940735 
Si 4.20879843 4.182555239999999 1.3321727663377383 
Si 6.8475015 6.77271411 1.2327542699514138 
Si 5.44250529 8.143696799999999 2.6913680461727245 
Si 8.14820913 5.42531934 2.7008995361040986 
Si 4.0721742 4.07280951 6.787617856939913 
Si 5.42919636 5.430711329999999 5.429543928861558 
Si 6.7877171999999995 6.7874728499999994 6.787858637991951 
Si 6.787456559999999 4.07280951 9.501495491748837 
Si 4.07149002 6.788433959999999 9.499018886642165 
Si 5.42916378 5.431656149999999 10.85867509020534 
Si 6.790698269999999 6.779344139999999 12.217987320837029 
Si 5.3790394500000005 8.072444339999999 13.570832860356852 
Si 5.891702039999999 5.33771172 16.327810303480508 
Si 6.14525589 7.64069418 16.611519177367096 
Si 4.2669048599999995 5.65750071 21.35752009678706 
Si 4.9616082 7.9184061 21.24566009946902 
Si 7.04304666 8.131756229999999 20.125993810201038 
Si 7.63092018 5.84252253 20.050422957154378 
Si 6.23512782 4.56769971 18.553143183705146 
Si 7.568154809999999 4.9415715 22.227221256746866 
Si 5.419112849999999 4.5210614399999995 23.055783254101392 
Si 4.243023719999999 5.442831089999999 24.917261567404072 
Si 5.50698111 7.38290493 25.219992144401626 
Si 7.75135215 6.857454689999999 25.557188809133713 
Si 4.659884819999999 5.54031045 29.54452303087635 
Si 6.934473809999999 4.95512478 28.930152977955842 
Si 7.537399289999999 4.787777609999999 26.647754988398294 
Si 5.0507145 5.787820709999999 34.11165802592553 
Si 4.65524217 4.4626943699999995 31.82764336359001 
Si 6.78571353 9.50220135 4.072673906043392 
Si 4.0725814499999995 9.50246199 6.787445870474172 
Si 5.43002715 8.143973729999999 8.144247098706042 
Si 5.4309231 10.860412679999998 5.43088542329434 
Si 6.78908556 9.50047461 9.503524932044584 
Si 4.05627516 9.503911800000001 12.2389352723643 
Si 5.42629674 10.86648885 10.863972273350166 
Si 6.782341499999999 12.21507279 12.247775376703395 
Si 8.10016992 10.71782631 13.573068684411487 
Si 7.3264926599999995 8.72086779 14.692872562852063 
Si 6.599160449999999 11.491780499999999 17.5656656920058 
Si 4.50980505 11.562430229999999 20.698055192549226 
Si 7.1984695499999996 9.13660488 17.98672295743327 
Si 4.7675943 12.14106732 23.11917746537358 
Si 5.049166949999999 8.82352737 23.3915008352281 
Si 6.606197729999999 10.76433426 23.540681895611968 
Si 7.575078059999999 11.03562792 25.67953998086196 
Si 4.53816594 8.571276719999998 26.970711173767008 
Si 6.16827366 10.168592669999999 27.505520287635665 
Si 8.09155251 9.421907939999999 28.638807904990347 
Si 4.83053886 11.7779958 28.652945192474267 
Si 7.91654904 8.338965029999999 30.66924572223712 
Si 5.154481799999999 11.058433919999999 34.25220536572918 
Si 7.27042248 9.453054419999999 32.572998308818974 
Si 5.58044901 11.12952348 31.889902464188303 
Si 7.94372076 13.84312797 -0.00063898475589738 
Si 4.07676798 12.215561489999999 4.071985960180428 
Si 4.14150444 14.94615645 1.2251318297897662 
Si 5.42013912 13.574815379999999 2.7053918225892573 
Si 6.72252462 12.24429705 1.256436806283969 
Si 6.7874728499999994 14.93403669 4.072089152059872 
Si 4.07271177 14.932163339999999 6.787411473181024 
Si 5.429701349999999 13.575222629999999 8.145760579604563 
Si 6.7877171999999995 12.217304519999999 6.787445870474172 
Si 4.07196243 12.21785838 9.502871383474767 
Si 6.786609479999999 14.933108159999998 9.502286629491248 
Si 4.07675169 14.92739037 12.255342781196005 
Si 5.6432306699999994 14.774899679999999 16.7832648620562 
Si 8.08023096 14.46478695 16.483974014373466 
Si 4.92366879 12.54973455 16.06367348939526 
Si 5.48704215 13.58185266 13.780725143147341 
Si 6.79237614 15.377531939999999 14.691152698194651 
Si 7.869552389999999 13.52400687 20.91554927712547 
Si 6.005243339999999 12.977298179999998 19.487614446663066 
Si 5.0617917 15.18141663 18.950466316860332 
Si 7.32525462 15.115621319999999 22.69192868717943 
Si 5.22131967 14.42717334 23.672423528369684 
Si 5.768793989999999 14.26961646 26.03273138690797 
Si 6.312489029999999 14.908917509999998 29.962174964282138 
Si 7.94315061 13.3662708 26.11893100353743 
Si 5.7661875899999995 15.869603969999998 27.732989587224903 
Si 6.49664748 12.532385699999999 30.146682044729236 
Si 5.93056998 15.797585879999998 34.20442752554629 
Si 9.500490899999999 1.3588287209999999 4.071573192662649 
Si 12.218868359999998 4.07034972 4.069646944246348 
Si 10.874373209999998 2.7069907499999997 2.70116439526134 
Si 8.145097739999999 4.2557299199999994e-05 8.145313414793637 
Si 8.14638465 2.715543 5.430610244949153 
Si 10.86077106 0.00169147215 5.43067903953545 
Si 10.85969592 2.7150543000000003 8.145003839155303 
Si 12.20156838 1.3544483399999998 12.24244379626542 
Si 9.50361858 1.357683534 9.503662521217176 
Si 10.8623349 -0.0033314516099999998 10.858881473964228 
Si 9.51966423 4.0711153499999995 12.22321570939556 
Si 8.406878039999999 0.35267035499999994 13.65706687427946 
Si 8.99027181 2.26606932 15.29293334182291 
Si 10.793020949999999 2.71632492 13.708009265431986 
Si 12.0288618 2.2558391999999996 20.48981397982985 
Si 9.89171154 3.08754144 19.86904603038377 
Si 8.99033697 1.81433133 17.810712008393782 
Si 8.49205845 2.7766304999999996 21.803102632229212 
Si 11.79386226 1.401544359 22.779572990121117 
Si 9.718907219999998 2.19553362 23.719994984793683 
Si 9.070760700000001 0.836936217 25.668704833520266 
Si 10.812292020000001 1.90024479 29.416117935554013 
Si 10.52881344 2.1043096199999995 27.094507031807485 
Si 10.75835583 0.0880989264 34.33056239952085 
Si 11.75760072 3.92579226 30.15689804079426 
Si 8.90342982 1.69386678 30.737765130188393 
Si 11.63589813 3.59165178 32.630063418151884 
Si 9.94680432 1.8783673199999997 32.87204837544967 
Si 10.87512255 8.127846629999999 2.7118516342424948 
Si 12.152959019999999 6.76020339 1.1960214005984204 
Si 9.52619652 4.0798305 1.3202162672394142 
Si 9.49944834 6.78973716 4.070954041385981 
Si 9.50251086 4.072060169999999 6.787514665060469 
Si 8.14465791 5.42968506 8.144763058103266 
Si 10.860363809999999 5.430206339999999 5.430025490965634 
Si 10.86111315 5.42486322 10.863215532900904 
Si 9.501403139999999 6.7890204 9.502080245732358 
Si 9.24387453 7.1725521599999995 14.93719653608393 
Si 10.037441880000001 6.34303278 17.16466204848376 
Si 12.15944244 5.626403099999999 16.307756681575093 
Si 8.264487149999999 5.49565956 13.573619041101859 
Si 11.417595839999999 6.9768441 20.834371665295652 
Si 9.907529129999999 5.4958550399999995 19.57646265486494 
Si 10.07686368 8.03445606 22.48908784948433 
Si 8.967058559999998 6.233254469999999 23.620105245491228 
Si 10.230967080000001 4.3903179 24.447153761947234 
Si 9.81979119 4.336479450000001 26.74778231687334 
Si 10.713379139999999 5.99426388 29.78196754547857 
Si 9.21668652 8.10598545 26.954716432453086 
Si 10.905584849999999 6.48820926 27.471226186366884 
Si 8.460895679999998 6.09306273 30.43551611529491 
Si 9.41213394 6.69654207 32.77549517358259 
Si 11.5061157 7.3042079399999995 31.578297385558503 
Si 10.77516711 5.302411289999999 34.06604721521097 
Si 9.64289808 9.55900458 1.3492269442806297 
Si 8.142996329999999 10.85902803 2.6912270172708173 
Si 10.9551879 11.10386673 0.008241041081625156 
Si 8.14452759 8.14540725 5.430919820587488 
Si 9.502315379999999 9.50239683 6.787583459646765 
Si 10.8600543 8.14469049 8.144935044569007 
Si 8.14501629 10.86024978 8.145175825621044 
Si 10.86031494 10.85951673 5.429853504499893 
Si 12.21735339 9.50409099 9.502733794302175 
Si 8.146628999999999 8.14475565 10.856886430961632 
Si 9.51277356 9.48978837 12.206842597857005 
Si 10.85945157 10.85857191 10.864006670643313 
Si 12.242896109999998 12.2246676 12.234188445909846 
Si 9.50497065 12.216913559999998 9.502114643025505 
Si 11.784332609999998 9.99404532 14.905344642628672 
Si 10.90092591 8.208596159999999 13.630959328779957 
Si 9.94799349 11.69190315 14.697137827202443 
Si 9.54038511 8.65722276 17.424533598218623 
Si 8.85438063 9.379293299999999 20.978221145241545 
Si 10.414115549999998 9.897461909999999 19.209409139680194 
Si 10.187505360000001 12.1883409 18.380159196462703 
Si 8.40559113 11.430872189999999 22.010999872017102 
Si 10.70414271 11.698777530000001 22.735338071132496 
Si 11.10026664 9.65509929 23.900133609010958 
Si 9.81534402 10.082679209999998 25.851148076378472 
Si 8.54224794 11.64484134 29.429429688002376 
Si 12.113781569999999 10.36314414 28.99819082380304 
Si 11.00322711 11.63798325 27.2650488112364 
Si 8.32580271 8.160899039999999 34.3500656647359 
Si 11.18526786 9.61184934 31.079777415961228 
Si 9.17311077 10.816006139999999 31.501247448906472 
Si 8.15353596 16.28848503 2.711469824288549 
Si 12.215708099999999 14.93268462 4.072398727698206 
Si 9.498698999999998 12.21777693 4.069440560487458 
Si 9.500784119999999 14.962658219999998 1.3161986633997012 
Si 10.86125976 13.58918316 2.7077996331096332 
Si 8.14594482 13.57615116 5.430231874724524 
Si 9.502103609999999 14.93265204 6.787411473181024 
Si 10.86033123 13.57540182 8.144831852689562 
Si 12.2183145 14.93361315 9.501357902576247 
Si 8.14394115 13.57432668 10.862561984331089 
Si 9.502103609999999 14.956125929999999 12.236080297032997 
Si 8.66201202 12.219259319999999 16.621081624862303 
Si 10.93796937 13.65359382 13.607053210041938 
Si 12.173386679999998 13.016915459999998 17.503165810355473 
Si 11.90217447 14.773547609999998 20.47247774408314 
Si 9.763672139999999 14.212161629999999 19.611616688462433 
Si 9.488696939999999 15.77316717 17.84479972590368 
Si 11.78586387 15.466605659999999 17.279996172409767 
Si 8.924981489999999 14.87723346 24.56792265819066 
Si 10.983190409999999 13.768405739999999 23.952348700009967 
Si 9.465499979999999 13.250644379999999 28.00517536790683 
Si 10.41901884 14.709267269999998 29.692947350810954 
Si 9.65250918 12.539553299999998 33.00757371045369 
Si 12.160713059999999 14.882658029999998 33.1210503805497 
Si 8.432078670000001 15.66957906 30.81564060187598 
Si 11.33911062 13.41002574 31.501763408303695 
Si 13.57393572 0.00446463288 2.7024852513182323 
Si 12.247766819999999 1.340873883 1.251270332853105 
Si 14.9323914 1.360060245 4.075494484081547 
Si 13.57470135 -0.000452233206 8.144900647275858 
Si 13.574782799999998 2.71388142 5.430369463897117 
Si 12.21728823 1.357973496 6.787549062353617 
Si 14.933694599999999 1.3583335049999998 9.502527410543285 
Si 13.570970939999999 2.7187521299999995 10.863834684177572 
Si 16.26123186 2.7807518699999996 13.597800338185063 
Si 15.29358957 3.35914461 16.791107444893996 
Si 13.617136799999999 0.17611607699999998 13.771781846928803 
Si 14.343230969999999 2.2010396400000003 14.885634993654735 
Si 12.607140509999999 3.8889279899999996 14.756301171417396 
Si 15.63879096 3.4338179699999998 20.547842213370913 
Si 12.78890433 0.31049391600000004 19.31727905099304 
Si 15.14012148 0.0841927473 19.029855269446443 
Si 16.170040439999998 2.1680361 18.60917637424361 
Si 13.28728059 2.4354364499999996 24.26388498405347 
Si 15.44345757 1.494208395 24.314517799567664 
Si 12.78820386 2.15407557 26.51928109848966 
Si 12.25467378 0.055921940999999996 29.61094420394558 
Si 13.603404329999998 0.27317841299999995 27.665158125136593 
Si 15.913489229999998 0.5921512739999999 28.11025909847467 
Si 13.42297629 2.7319959 34.0005203717636 
Si 15.933509639999999 3.7970035199999996 30.13653484325051 
Si 15.994499399999999 1.486693818 30.342265053570063 
Si 14.827581539999999 1.286374059 32.610525755643685 
Si 14.9271786 4.061096999999999 1.2273607743857715 
Si 13.572632519999999 5.4389052 2.6821151743158516 
Si 14.933433959999999 6.78659319 4.069302971314866 
Si 14.932440269999999 4.0721253299999995 6.787617856939913 
Si 13.57496199 5.43009231 8.144625468930672 
Si 12.217304519999999 6.78766833 6.787308281301579 
Si 12.218738039999998 4.073216759999999 9.50166747821458 
Si 14.933971529999999 6.786739799999999 9.503249753699398 
Si 14.93138142 4.093937639999999 12.219603993614996 
Si 12.227990759999999 6.79558527 12.243338125887274 
Si 13.77979245 5.6840697 13.713134462111073 
Si 15.74630496 6.74347356 15.143236322041817 
Si 15.301587959999999 7.09756929 17.49466967894786 
Si 13.458341879999999 4.14686385 20.155953852533145 
Si 13.87194498 5.08691088 17.876892400410973 
Si 12.49226343 4.674350339999999 24.0206273269092 
Si 15.159474 6.3538330499999995 22.724606115670248 
Si 13.025288519999998 5.62645197 21.947399276986026 
Si 12.7850436 5.927263109999999 25.997336572258444 
Si 13.881523499999998 6.96760767 29.68438242481705 
Si 13.871163059999999 4.6249101900000005 29.417253046227902 
Si 13.88729016 7.98708474 26.24554743961606 
Si 16.13122137 4.21303383 26.46314471607175 
Si 16.183430819999998 7.68141918 26.551580156755847 
Si 13.863197249999999 4.17677229 27.137366059070175 
Si 15.984285569999999 7.8802223399999995 30.188337166731742 
Si 16.12609002 11.41116129 0.11895512697572387 
Si 12.22020414 9.5011425 4.072605111457096 
Si 14.993446319999999 9.54918171 1.2656724794942682 
Si 13.58240652 10.85301702 2.70912392889584 
Si 13.57505973 10.86134121 8.144350290585487 
Si 13.57492941 8.14644981 5.430335066603968 
Si 14.932179629999998 9.50291811 6.787514665060469 
Si 13.572990899999999 8.144136629999998 10.863731492298127 
Si 14.932880099999998 9.49648356 12.237318599586334 
Si 16.28371206 10.86870429 10.860910914259973 
Si 13.69602927 10.91372985 13.732568932739822 
Si 15.46875594 11.807301509999999 15.185269814268953 
Si 14.168422979999999 9.219520979999999 17.729809574909147 
Si 12.67920747 11.45889099 21.365362679624855 
Si 13.828271489999999 9.52517025 20.671947647049716 
Si 12.34630503 8.448189479999998 19.154683046281363 
Si 15.527318489999999 10.476213029999998 19.240057127875264 
Si 13.95779328 11.57686317 24.8166494849455 
Si 14.905121939999999 8.66639403 22.61291810481795 
Si 13.43783277 9.34954776 24.38599537472968 
Si 12.61284201 8.234676449999998 28.15081350709643 
Si 14.20269714 11.452994010000001 29.116104744715166 
Si 16.103512079999998 10.063652489999999 29.232161211797287 
Si 15.961479569999998 11.741962319999999 26.008068527720688 
Si 12.63025602 10.23067386 32.920238983150334 
Si 13.386877649999999 12.067941509999999 31.30879459374213 
Si 13.57313751 8.29369512 34.228024068645986 
Si 12.32605656 12.32097408 1.3980642210924847 
Si 14.933140739999999 12.213899909999999 4.070231698229868 
Si 15.019559189999999 15.03128799 1.3035163814159492 
Si 16.306289999999997 13.587814799999999 2.7046282026813664 
Si 16.2909774 16.290325799999998 5.430266272017672 
Si 13.575939389999998 13.576102289999998 5.429268750516373 
Si 12.21785838 12.21699501 6.787377075887875 
Si 14.932668329999998 14.932798649999999 6.787789843405655 
Si 14.933303639999998 12.21881949 9.500429175661244 
Si 13.57370766 13.57409862 10.86018857110386 
Si 14.938532729999999 14.935128119999998 12.260983937272314 
Si 12.386867129999999 14.91272937 15.060235653675143 
Si 16.03227591 15.99648678 21.205931225882818 
Si 13.176980999999998 12.979187819999998 19.678313039876844 
Si 15.46742016 12.868937099999998 19.241467416894345 
Si 15.60461454 14.499891899999998 17.559439781945972 
Si 15.39168795 15.447041369999999 24.704995871386352 
Si 14.57410914 14.7535272 22.654951597045088 
Si 12.26985606 15.33811014 22.690552795453506 
Si 14.39767215 12.398872859999999 22.691619111541097 
Si 12.30411393 12.967442729999998 25.754526079925096 
Si 15.151410449999998 13.145003729999999 27.679226618034217 
Si 13.86684621 14.6160396 26.400576039835123 
Si 14.035854959999998 13.43561733 34.257915316391795 
Si 14.764555529999999 13.86502173 31.80084787222754 
Si 13.554127079999999 15.94501038 31.565604784386807 
