&CONTROL
  dt          = 30.D0,
  prefix = 'x.33_y2.00_z3.15_struc30-scf',
  pseudo_dir = './',
  outdir='./',
  wf_collect= .true.,
  verbosity= 'high',
/

&SYSTEM
ibrav= 6, celldm(1) =30.783621515, celldm(3) =2.1043587689124634, nat=  432, ntyp= 1,
  ecutwfc     = 12.D0, nbnd= 1728,
  degauss     = 0.05D0,
  occupations = "smearing",
  smearing    = "methfessel-paxton",
/
&ELECTRONS
  electron_maxstep=200,
  conv_thr    = 1.D-8,
  mixing_beta = 0.3D0,
  scf_must_converge=.false.,
/
&IONS
/
ATOMIC_SPECIES
Si  28.08  Si.pbe-hgh.UPF
K_POINTS {automatic}
1 1 1 0 0 0
ATOMIC_POSITIONS (angstrom)
Si 2.7203322599999997 -0.01530522063 2.730765714171831 
Si 1.434134133 1.359858249 1.4059429582276104 
Si 3.9837357899999994 3.9443302799999995 1.2627211000717604 
Si 0.000350782344 -0.0006319200509999999 5.430809688449149 
Si -0.000168316425 2.71492398 8.145443232575948 
Si 2.71487511 -7.660958939999999e-06 8.14434627243689 
Si 2.71601541 2.71322982 5.429918408336165 
Si 1.357258365 1.357778016 6.787612260447364 
Si 2.7147122099999996 2.7153801 10.861756496915682 
Si 1.3649895989999998 1.3579881569999999 12.245743112359945 
Si 4.07170179 1.3566002489999998 9.502314364582856 
Si 3.73883193 1.3885514549999998 17.109561528933135 
Si 0.006002946449999999 2.52473823 13.896839521665 
Si 1.2675916889999999 4.04814645 15.36025290717798 
Si 1.97778519 3.22716303 19.60476876524385 
Si 1.042325424 1.05987627 19.565998080328995 
Si 2.70404226 3.4731909 17.18340065829352 
Si 0.637918029 0.08691529499999999 21.655947105266215 
Si 2.4357459599999998 0.381383109 25.20745839548176 
Si 3.35694546 3.30053319 29.607776873298306 
Si 0.686581146 1.549084518 26.36386006207569 
Si 0.752128848 3.9071727899999997 26.755680511745712 
Si 0.73896327 0.823764123 28.67364675488114 
Si 3.22095654 1.9658934899999998 34.241165100660474 
Si 1.227212037 2.5518773699999997 30.250218434738898 
Si 2.11918239 1.3939141229999998 32.133287633450514 
Si 1.354502097 4.0746177 4.069242195846898 
Si 2.70449838 5.4354843 2.6735695269212236 
Si 1.398258666 6.8204438099999996 1.0585665341916348 
Si 2.7152009099999996 5.4301086000000005 8.14527183255422 
Si 1.357452216 6.787684619999999 6.787166620390872 
Si 4.07072439 4.07057778 12.239161351525592 
Si 1.3587032879999998 4.07259774 9.502382924591545 
Si -0.0022060895399999996 5.4330408 10.865870097437151 
Si 1.362176316 6.7805496 12.244680432225232 
Si 2.7151357499999995 8.14493484 10.862407816998248 
Si 4.02657849 6.74026443 15.042031626837925 
Si 2.6600103899999996 5.35607055 13.685743254904892 
Si 0.08242625969999999 8.10279261 13.814773191261672 
Si 0.38024443799999996 4.66899093 20.678041421299742 
Si 3.6505401299999996 7.0760013299999995 20.860136804383483 
Si 1.322140383 6.81725097 20.575887008349902 
Si 1.461284676 6.9897132 18.017296044004198 
Si 0.8812596779999999 5.049199529999999 24.641838323779623 
Si 0.2063943 8.112957569999999 22.320190749470598 
Si 3.22634853 5.33523564 24.56121175355881 
Si 2.29879593 4.99327596 28.29485270686244 
Si 3.2079245399999996 6.45118209 26.699701264649374 
Si 0.213087861 5.3317821599999995 33.93956962242803 
Si 3.4796580299999995 6.670706129999999 31.783220229073414 
Si 1.7546447699999999 6.550502219999999 30.139665420724388 
Si 2.84055246 8.13793014 33.77063776101299 
Si -0.001310735754 8.15185809 2.66039914925165 
Si 1.3600146329999998 9.49988817 4.067631035642655 
Si 2.72903112 10.84413897 2.68524529640133 
Si 1.3413642119999998 12.214095389999999 1.320719439424054 
Si 8.51036841e-05 8.14506516 8.145374672567257 
Si 2.71450044 8.14477194 5.430192648370928 
Si -0.000989016399 10.86020091 5.429849848327473 
Si 2.7150868799999994 10.85992398 8.14520327254553 
Si 4.07336337 9.49431699 12.225655029813431 
Si 1.357100352 9.50288553 9.50265716462631 
Si -0.0028916541899999997 10.8629865 10.862476377006939 
Si 2.63352285 10.753566569999998 13.63195792808667 
Si 1.178573355 9.719656559999999 15.209078088013957 
Si 0.508479318 11.3844294 16.91056610370702 
Si 2.7619694999999997 8.24024763 16.48779081011293 
Si 1.86831639 10.718852579999998 20.58229736916252 
Si 3.7306869299999996 9.36086931 20.118694590392845 
Si 1.6708490099999997 9.880406279999999 22.758597725046272 
Si 3.8558918699999998 9.200298779999999 23.598903471569574 
Si 0.763787601 11.223451619999999 24.410893934503424 
Si 0.452257641 9.29023587 25.71202577944441 
Si 1.96364547 8.70565293 29.08010476640673 
Si 2.4682770899999995 8.70405651 26.78389295532213 
Si 2.1137903999999996 10.211761169999999 32.612042174140946 
Si 0.1068926994 11.186261550000001 33.79909016461983 
Si 2.6969724 10.755716849999999 30.15982206327959 
Si 3.9073356899999996 11.715458489999998 33.06477819153307 
Si 0.202789323 16.0834428 0.26512018240857305 
Si -0.00250233948 13.568950979999999 2.7113700877130995 
Si 1.358108703 14.933727179999998 4.072807316298838 
Si 0.000234681885 13.57492941 8.144860472502073 
Si 2.71384884 13.57582536 5.4308439684534955 
Si 1.357486425 12.21743484 6.787612260447364 
Si 0.0018169051499999998 16.285862339999998 10.860556696763586 
Si 1.357468506 14.93345025 9.501457364474215 
Si 2.71687878 13.57242075 10.862442097002592 
Si 1.3574668769999998 12.218428529999999 12.237687311338732 
Si 2.7554372099999997 16.23205647 13.604533924610205 
Si 3.6569258099999997 12.44450115 14.965347257116854 
Si 1.080458685 15.300854909999998 15.075797431118325 
Si 0.011764051559999999 13.619498849999998 13.689136975335105 
Si 1.82102652 13.373943389999999 16.441649924263775 
Si 0.0416608605 14.23659663 20.7233595870446 
Si 2.07961398 13.04439669 20.512400440301878 
Si 2.7594934199999996 16.09469919 18.577157074976277 
Si 3.03367041 13.752115739999999 18.47404282190476 
Si 2.52874557 12.75305004 24.613248800155404 
Si 3.03285591 13.71502341 22.53039573611772 
Si 2.63713923 16.05237777 22.86915073906078 
Si 2.62552446 14.05962207 28.006797830346493 
Si 1.4520726809999998 12.660995250000001 29.50946182083517 
Si 2.8234316699999997 16.13441421 29.01946343871939 
Si 1.74154761 14.533221239999998 25.896726442858416 
Si 2.73295701 13.44395781 34.17665013248209 
Si 3.23933166 15.699471209999999 31.280949605401915 
Si 1.65068199 13.971688649999999 31.80227991148956 
Si 6.7887271799999995 4.07337966 4.07263591627711 
Si 8.161664669999999 -0.010577878919999999 2.6850053363709105 
Si 7.57805913 3.1744485899999995 0.1658809410282811 
Si 4.07295612 1.3586755949999998 4.075686836663867 
Si 5.4172395 2.71924083 2.716923448417084 
Si 6.71736069 1.3210180019999997 1.3516811393489856 
Si 8.14309407 2.71555929 5.430981088470877 
Si 5.42911491 0.00109885824 5.4313581685186785 
Si 5.4297828 2.71490769 8.144826192497728 
Si 6.78703302 1.3575760199999998 6.788092180508203 
Si 5.427323009999999 0.0028106440199999996 10.862030736950445 
Si 6.77597211 1.366348185 12.225552189800396 
Si 7.2254295 0.906914799 16.05284611497616 
Si 4.399098209999999 1.072714419 14.932575572962474 
Si 5.46070122 2.76188805 13.683994974683268 
Si 4.294923659999999 3.28290741 20.284884051460235 
Si 4.90096053 0.0584695341 19.6036032450961 
Si 5.53905612 2.1079911599999996 18.655966804966777 
Si 7.720987589999999 2.3258536199999997 17.91760979136724 
Si 5.26096953 2.4719749199999996 22.302742227258694 
Si 7.682038199999999 2.13302889 22.361566714715718 
Si 4.60770795 3.3710526 24.477637102964273 
Si 4.78530153 0.174353499 22.05026999525347 
Si 4.266872279999999 1.576345833 26.053557462739462 
Si 8.109764729999998 1.4133301739999997 26.11862091098738 
Si 4.52573667 1.5341807969999999 28.463098968190565 
Si 6.36867324 3.3156503099999997 28.481781570558905 
Si 6.109320149999999 0.18927513899999998 25.788950109195902 
Si 7.90485282 0.379517904 30.677861488950057 
Si 5.0921888399999995 0.30945298499999996 34.16112129051354 
Si 4.07580687 6.78693528 4.067493915625272 
Si 6.772877009999999 6.670803869999999 1.1845901141673052 
Si 8.14570047 5.42600352 2.6971473139101163 
Si 4.07248371 4.07227194 6.787509420434328 
Si 5.43093939 5.42859363 5.430981088470877 
Si 6.7875054299999995 6.78778236 6.7875437004386745 
Si 6.78682125 4.07155518 9.503102804682804 
Si 4.07220678 6.787423979999999 9.502622884621966 
Si 5.42968506 5.429294099999999 10.862716337037357 
Si 6.785257409999999 6.8015474099999995 12.223701069565735 
Si 7.913291039999999 4.44053997 17.05618756216706 
Si 6.80985531 4.21228449 14.965484377134237 
Si 4.67672868 4.74276834 16.094873400303847 
Si 7.103368529999999 5.73939054 21.14428376040403 
Si 7.44930297 7.729995959999999 19.93358256692669 
Si 5.101099469999999 5.413525379999999 19.948802888856132 
Si 6.45888726 7.66327212 17.828447500064375 
Si 5.96306853 5.44095774 17.826390699803643 
Si 4.258206 6.93603765 23.13677473298675 
Si 6.55643178 6.357237659999999 23.354487040585557 
Si 6.5723308199999995 4.5706482 24.899726796471448 
Si 6.46825401 5.235622289999999 27.151991641985013 
Si 5.1037873199999995 6.9473592 27.95170986336314 
Si 5.79834405 4.787875349999999 34.24401034102116 
Si 6.49770633 4.550448599999999 30.474341103150323 
Si 5.41311813 6.72545682 30.32021820361258 
Si 4.590798929999999 4.38244983 31.885340362018905 
Si 4.19276907 9.406595339999999 1.1241099025003913 
Si 5.43475125 8.127634859999999 2.685804060472163 
Si 6.78672351 9.50255973 4.069584995890353 
Si 4.07240226 9.50264118 6.787303740408255 
Si 5.43009231 8.14496742 8.144929032510765 
Si 5.42947329 10.859598179999999 5.429884128331818 
Si 8.14226328 8.14700367 10.861036616824423 
Si 6.78696786 9.5021199 9.5019715645394 
Si 5.4312651899999995 10.86360552 10.860796656794005 
Si 5.42751849 8.150571179999998 13.648720850211662 
Si 6.78797784 9.68639238 15.07583171112267 
Si 6.00863166 10.710300329999999 17.184737578463 
Si 7.13889702 9.70302447 21.08511647290355 
Si 7.1913834 11.27036682 19.304613047193918 
Si 4.50366372 9.023487119999999 17.912742030750167 
Si 5.017059359999999 10.27591119 21.85113745000997 
Si 4.593828869999999 12.105115289999999 25.537403437308004 
Si 4.90503303 11.8369656 29.672120441454968 
Si 6.64856802 10.230657569999998 29.26624519000325 
Si 4.35307896 9.806140169999999 25.831937234645263 
Si 8.1204021 8.36520822 26.476606996368314 
Si 6.02661582 8.998270199999999 27.291442699662845 
Si 5.7567882599999995 10.66206564 34.12793824630702 
Si 7.05153375 8.41823217 30.713101333417317 
Si 7.604139419999999 9.57576699 32.84267804337803 
Si 4.0716855 12.21618051 4.069859235925118 
Si 4.10424921 14.970102749999999 1.314998106698776 
Si 5.439768569999999 13.57242075 2.699169834166506 
Si 6.84178371 12.24286353 1.280361590307998 
Si 6.78827106 14.92981758 4.070064915951192 
Si 4.07269548 14.93258688 6.78788650048213 
Si 5.4299457 13.57499457 8.145100432532493 
Si 6.78794526 12.21735339 6.78757798044302 
Si 4.07232081 12.216978719999998 9.501628764495944 
Si 6.78807558 14.93261946 9.502314364582856 
Si 4.09012578 14.9198481 12.22041018914856 
Si 6.77458746 12.21811902 12.226820549961182 
Si 4.59664704 12.49030863 17.096055207220974 
Si 5.39045874 13.545819179999999 13.679127214066193 
Si 7.28200467 14.34865554 14.998838821362488 
Si 8.02828215 16.15533057 13.5673058398909 
Si 7.40261583 15.13313307 17.299575593020705 
Si 6.47314101 13.30169724 20.26561868901802 
Si 5.47785459 14.32382958 18.45580585959291 
Si 8.06776911 16.13544048 22.682873195446877 
Si 6.171759719999999 15.3357318 23.734789408795468 
Si 6.22807425 12.95180433 23.99932820233034 
Si 5.0729014800000005 12.631135679999998 22.029701992646118 
Si 6.3499234499999995 14.79094533 27.41810731571978 
Si 6.01485444 15.945303599999999 29.46764021553356 
Si 4.7280096 13.09237074 27.643429784283306 
Si 7.07552892 14.77403631 32.33008913839851 
Si 5.207815259999999 14.011240769999999 30.900201597135517 
Si 9.50166378 1.359615528 4.068762275786059 
Si 10.86816672 2.69944848 2.6748721670863564 
Si 8.145 -3.2898143699999995e-05 8.145100432532493 
Si 10.85977737 -9.571270949999999e-05 5.429335648262289 
Si 10.860233489999999 2.71547784 8.145066152528146 
Si 9.504123569999999 1.3586055479999999 9.501080284426413 
Si 8.14734576 2.71238274 10.861619376898298 
Si 10.85937012 -0.001543283649 10.861687936906991 
Si 9.44622891 1.104256746 15.08436743220472 
Si 10.70153631 2.66075973 13.793759548597828 
Si 12.16384074 3.7626641999999997 15.364777867751599 
Si 11.692571039999999 1.6901037899999998 17.472621054957216 
Si 9.63507888 2.46412314 21.05608130922284 
Si 9.687386069999999 1.5261481979999998 18.885574274073498 
Si 11.308338809999999 1.69207488 22.633749949219652 
Si 12.16294479 3.11064066 24.324028403491713 
Si 8.32720365 3.07032291 24.46135410090012 
Si 11.670009389999999 0.0742713228 27.069753911559953 
Si 9.562474349999999 1.8104380199999999 29.830254101501147 
Si 11.41534782 0.503141085 29.376729644009067 
Si 8.567904689999999 2.7612364499999997 27.975157386335518 
Si 10.47279213 3.70915155 30.917478719325686 
Si 11.274325289999998 4.01830317 33.16360744406139 
Si 8.53312554 7.81638183 0.013330602409884642 
Si 10.871799389999998 8.14915395 2.7279410418137546 
Si 12.2189661 6.85351251 1.291554011726831 
Si 9.5562027 4.10897331 1.2034544005586802 
Si 9.5029344 6.78491532 4.072601636272765 
Si 9.502380539999999 4.0725814499999995 6.78757798044302 
Si 8.14498371 5.430271499999999 8.144860472502073 
Si 10.858490459999999 5.430613589999999 5.430329768388311 
Si 9.5013054 6.786544319999999 9.502725724635 
Si 9.50145201 4.0689487799999995 12.23607615113449 
Si 10.86360552 5.42997828 10.863024857076466 
Si 8.209312919999999 5.51372517 13.582217641781229 
Si 9.62988237 6.70875957 15.169587523007843 
Si 11.333572019999998 5.733460979999999 16.547952217739432 
Si 9.184481189999998 4.69968129 20.644549857054106 
Si 9.55517643 7.688912579999999 18.93264072003998 
Si 9.65242773 5.39778924 18.409836373765483 
Si 10.99361601 7.97675688 20.74324198956504 
Si 10.20685788 6.451198379999999 24.0900673738331 
Si 8.23244472 7.7996357099999996 24.204939668395152 
Si 10.26460593 4.3131033 25.058134696552393 
Si 11.99077578 7.708134779999999 25.023169092119897 
Si 10.66967307 5.970904019999999 21.875373413082297 
Si 10.98799596 7.8784793099999995 29.24728834760014 
Si 8.85420144 7.01506044 29.96010675796222 
Si 11.720817899999998 4.3557831 28.961255991340593 
Si 9.97433442 4.5834521399999995 27.381496271078696 
Si 8.45615529 6.351471 27.733243395668733 
Si 8.6130117 5.12035425 31.34114529303276 
Si 10.430470709999998 6.025947929999999 34.22769305895266 
Si 9.45898398 9.43181226 1.435708286000881 
Si 8.135665829999999 10.871962289999999 2.71660464437667 
Si 10.85976108 10.726720649999999 0.04064580115255898 
Si 12.18498516 12.17164365 1.3515474473320377 
Si 9.50510097 12.21872175 4.073390076372713 
Si 8.14700367 8.14514661 5.430604008423076 
Si 9.502478279999998 9.50255973 6.787509420434328 
Si 10.860412679999998 8.144397269999999 8.145134712536839 
Si 8.14501629 10.86011946 8.144654792476 
Si 10.860412679999998 10.860542999999998 5.431392448523024 
Si 9.500653799999998 9.50690916 12.23288811073035 
Si 10.86101541 10.859386409999999 10.862613497024322 
Si 10.836108 8.19341388 13.69259925577401 
Si 8.15539302 10.92681072 13.622633766904672 
Si 8.32849056 8.378875529999998 16.467188527501236 
Si 10.690850069999998 11.45346642 20.61880557379057 
Si 9.38781297 11.118902399999998 18.732754014700884 
Si 10.79829891 9.759013199999998 22.187287172622767 
Si 8.590270859999999 9.763981649999998 22.933562867226133 
Si 8.36468694 11.97995922 23.684055002364 
Si 9.46377324 12.188748149999999 25.71805906020923 
Si 8.94658203 10.914821279999998 29.21705338376734 
Si 9.524942189999999 10.18071243 27.012232064268066 
Si 11.388404159999999 8.756461439999999 27.048294628839617 
Si 10.87109892 9.879233399999999 30.453601700521244 
Si 11.977157339999998 9.51539625 32.66781574121121 
Si 9.10720143 11.506246019999999 32.95401949749249 
Si 12.21582213 14.933499119999999 4.072498796259728 
Si 9.57361671 14.88932064 1.1380481522673058 
Si 10.846761659999999 13.576086 2.6997011742338626 
Si 8.14438098 13.573854269999998 5.430706848436112 
Si 9.50242941 14.93213076 6.787509420434328 
Si 10.859972849999998 13.57492941 8.144929032510765 
Si 9.501614909999999 12.21688098 9.502554324613275 
Si 8.145374669999999 13.575792779999999 10.86230497698521 
Si 9.50975991 14.938174349999999 12.210571827901376 
Si 11.02200948 16.07581908 16.216773095756743 
Si 9.12754764 12.688395029999999 14.941831174135782 
Si 10.884978 13.61161449 13.594729843367368 
Si 10.19744226 12.48946155 17.080697765274152 
Si 8.310196889999999 14.619541949999999 20.92256069229679 
Si 9.157749299999999 15.525379979999999 18.971617084980913 
Si 10.97954145 14.54776821 18.00409824233115 
Si 9.67748175 13.06905975 22.00392342937824 
Si 11.31408918 14.212927259999999 23.209036982147243 
Si 10.161408779999999 16.15689441 23.711890365892618 
Si 11.62097649 13.047801299999998 25.241875519844722 
Si 11.563700849999998 13.453666649999999 29.133033093116314 
Si 9.24423291 13.24424241 28.948195309684923 
Si 9.65716812 15.993505709999999 25.998435215751766 
Si 8.54689059 14.050646279999999 26.865685045690693 
Si 8.15930262 13.463864189999999 34.076998159849474 
Si 8.96733549 14.59979847 30.82159754717109 
Si 11.263834529999999 15.02332218 30.896876436713992 
Si 11.47798287 15.63885612 33.9790259074298 
Si 16.279232309999998 2.73080673 2.685639516451304 
Si 13.57317009 0.013086099089999999 2.713646280001646 
Si 12.24377577 1.212140529 1.1412944686788327 
Si 14.93270091 1.356425946 4.069962075938155 
Si 12.21746742 4.0720927499999995 4.068933675807787 
Si 13.575010859999999 6.13207728e-05 8.14520327254553 
Si 13.57556472 2.7145656000000002 5.430809688449149 
Si 12.217597739999999 1.357421265 6.787200900395218 
Si 14.931185939999999 1.356518799 9.502520044608929 
Si 13.57595568 2.71673217 10.862819177050392 
Si 12.22158879 1.364067585 12.261751874389333 
Si 14.92623378 4.05568872 12.267305235093318 
Si 13.82299353 0.10305135449999998 13.701374936886479 
Si 15.535512359999998 0.7121808809999999 15.460830439927923 
Si 15.29308458 0.7148377799999999 18.37895008985011 
Si 13.35882627 1.72734273 19.33810461143955 
Si 15.34118895 1.4152035239999998 22.85365617709658 
Si 15.93899937 3.83668596 22.903533583419403 
Si 13.299840179999999 0.8480443679999999 21.614502580012402 
Si 15.08950845 0.6993068939999999 25.1656025101758 
Si 13.54326165 1.3598158949999999 29.69652780454902 
Si 13.04843661 1.67557311 26.008170736985907 
Si 13.39935579 2.9478709800000003 27.973580506135622 
Si 13.27099059 2.82447423 33.95002502375343 
Si 15.657980579999998 3.9901703399999997 30.466079622103038 
Si 14.372096849999998 2.3142388499999997 31.776638468239064 
Si 16.095644009999997 0.6831113759999999 32.448080913356016 
Si 14.85418311 4.11847038 1.1165374495404519 
Si 13.57240446 5.43431142 2.6942746495459566 
Si 14.93333622 6.7877171999999995 4.067116835577471 
Si 16.290488699999997 5.429701349999999 5.430364048392657 
Si 14.932538009999998 4.0726140299999996 6.787269460403909 
Si 13.57437555 5.42997828 8.145168992541183 
Si 12.21741855 6.7874728499999994 6.787303740408255 
Si 12.21243381 6.787375109999999 12.253593233355083 
Si 13.57751952 8.14232844 10.86408753721118 
Si 12.21841224 4.0728583800000004 9.50180016451767 
Si 14.93229366 6.78815703 9.501594484491598 
Si 14.85467181 6.747871859999999 15.099142114077667 
Si 16.25916303 5.555427569999999 16.781193367306784 
Si 12.967703369999999 7.56623259 16.475827088596322 
Si 13.44254058 5.275272149999999 13.795747788849871 
Si 13.2595713 7.5370246199999995 20.636494056032895 
Si 13.158377819999998 4.11832377 19.442795744710967 
Si 15.148266479999998 5.1797964599999995 18.865143391483528 
Si 14.179011479999998 7.36990551 18.535404029683356 
Si 13.82872761 4.679481689999999 23.639011076653908 
Si 12.90262482 5.34266388 21.521123848175034 
Si 16.12162656 7.258498199999999 24.501187465949688 
Si 14.01387975 6.50976093 25.29716916685415 
Si 12.818421809999998 6.41187432 29.400417127011867 
Si 14.54617179 6.593084279999999 27.741230636681255 
Si 15.217580429999998 4.38965001 28.1317141661818 
Si 13.947888959999998 7.0394628599999995 31.641780931143536 
Si 16.07137191 5.947869959999999 31.683396856419073 
Si 13.482402209999998 8.085997619999999 33.88808105590096 
Si 12.217548869999998 9.5000022 4.072293116233654 
Si 14.966339759999999 9.58767498 1.006080419538111 
Si 13.59128457 10.84536072 2.686623352576022 
Si 13.57395201 8.145863369999999 5.430295488383965 
Si 14.932798649999999 9.502413119999998 6.787063780377835 
Si 13.57502715 10.86018462 8.145374672567257 
Si 12.215708099999999 9.50185926 9.502622884621966 
Si 14.95506708 9.479835179999998 12.243514912077481 
Si 12.228919289999999 12.20098194 12.244097672151357 
Si 12.423014639999998 11.53151181 17.067808483640214 
Si 12.23872587 9.63224442 15.281648857213558 
Si 13.722858899999999 10.81126575 13.762701864660729 
Si 15.15841515 12.18604401 15.219087849282866 
Si 14.40412299 11.11785984 20.886806647764345 
Si 12.68173242 11.70016218 19.435356983767974 
Si 16.17684966 10.72706274 19.379994776749854 
Si 16.21415376 8.425937339999999 19.005382889261313 
Si 14.33034558 9.067013999999999 22.02942775261135 
Si 12.653273789999998 9.529780319999999 23.656802398909264 
Si 13.189882679999998 11.37108789 25.06485357740413 
Si 12.34764081 11.29292847 29.313243075961047 
Si 15.895081529999999 8.366560289999999 28.821976333684482 
Si 13.063586309999998 10.36794969 27.21798065035026 
Si 15.346255139999998 10.08610011 27.41958135590664 
Si 15.63680358 12.110621309999999 28.623769348558316 
Si 14.3402499 11.34520308 30.483973784371436 
Si 14.848644509999998 9.03950019 30.79379646364682 
Si 14.935111829999999 12.21626196 4.070750516038103 
Si 14.84488152 14.8844988 1.3780253226885668 
Si 13.57584165 13.57509231 5.429884128331818 
Si 12.2173371 12.217662899999999 6.78788650048213 
Si 14.93245656 14.93242398 6.787509420434328 
Si 12.21658776 14.932407689999998 9.500223284317775 
Si 14.932782360000001 12.217614029999998 9.501594484491598 
Si 13.571899469999998 13.57611858 10.86206501695479 
Si 14.93981964 14.92590798 12.22730047002202 
Si 13.75293024 13.50380727 16.543564377183195 
Si 12.504269159999998 14.847585659999998 14.936003573397032 
Si 12.84634287 14.054230079999998 19.480298069465036 
Si 14.987842559999999 14.63244363 18.662205765757673 
Si 14.78149713 13.13086401 22.104295282102107 
Si 15.13925811 12.623577119999998 24.38024761061847 
Si 13.054024079999998 14.727886739999999 21.730300434691785 
Si 15.67252755 14.64207102 25.632256209332233 
Si 15.118749 15.881674859999999 29.344095079872073 
Si 12.496694309999999 14.19719112 27.131834999429806 
Si 14.75528652 14.154543899999998 27.736020076020726 
Si 14.7512466 12.790533329999999 32.4501719936211 
Si 13.295034629999998 13.77541044 34.17335925206491 
Si 15.72068079 14.82512175 31.483887231127774 
