&CONTROL
  dt          = 30.D0,
  prefix = 'x.33_y2.00_z3.17_struc47-scf',
  pseudo_dir = './',
  outdir='./',
  wf_collect= .true.,
  verbosity= 'high',
/

&SYSTEM
ibrav= 6, celldm(1) =30.783621515, celldm(3) =2.115268347576902, nat=  432, ntyp= 1,
  ecutwfc     = 12.D0, nbnd= 1728,
  degauss     = 0.05D0,
  occupations = "smearing",
  smearing    = "methfessel-paxton",
/
&ELECTRONS
  electron_maxstep=200,
  conv_thr    = 1.D-8,
  mixing_beta = 0.3D0,
  scf_must_converge=.false.,
/
&IONS
/
ATOMIC_SPECIES
Si  28.08  Si.pbe-hgh.UPF
K_POINTS {automatic}
1 1 1 0 0 0
ATOMIC_POSITIONS (angstrom)
Si 2.70871749 -0.00885944682 2.7046899244395024 
Si 1.444764987 1.449489087 1.32105735120487 
Si 1.3566393449999998 4.07241855 4.076865305314611 
Si 0.000505501506 -0.001204660161 5.430812551578626 
Si -7.429233689999999e-05 2.71480995 8.144771603069893 
Si 2.71480995 0.00033695213399999996 8.144806060791277 
Si 2.71337643 2.71541268 5.43002002398684 
Si 1.3575010859999999 1.357435926 6.7876887041601135 
Si 2.71314837 2.7142235099999996 10.863451362390501 
Si 1.364623074 1.361319462 12.219569445101584 
Si 0.051152391900000004 2.6428407299999996 13.73023040821106 
Si 3.6546452099999995 1.68534711 14.622857680612489 
Si 3.49775622 2.47634064 18.034999082746406 
Si 0.401426325 1.075618926 19.895061340669642 
Si 2.76444558 0.9867683789999999 19.724495619828605 
Si 0.9624311189999999 3.90606507 24.892257926376832 
Si 3.60518877 3.8155252499999994 22.403032133739146 
Si 3.98572317 1.5096187349999999 21.718598413927932 
Si 3.7574514 0.9343650779999999 25.476385219244964 
Si 1.484253576 1.7379963899999997 25.741330638951375 
Si 0.9664303139999999 2.1454744499999996 27.96089030405331 
Si 2.38674564 3.3259944599999995 29.364801246321267 
Si 0.8721665999999999 0.14450549489999998 29.091723804368698 
Si 3.32037441 2.33383572 34.43201592187673 
Si 1.187568693 3.1057699499999996 31.583568383831413 
Si 0.971918415 0.7862384789999999 32.63218576092928 
Si 4.073461109999999 6.78822219 4.070111591923733 
Si 0.000175143564 5.27089014 0.0031342329876435835 
Si 2.6958646799999997 5.42483064 2.7048105264643394 
Si 1.255393737 6.8003256599999995 1.3274768246983417 
Si 3.0145948199999997 7.925329349999999 0.14305846643897835 
Si 0.00277461054 5.42981538 5.430640262971716 
Si 2.71482624 5.43015747 8.145012807119569 
Si 1.357538553 6.7872285 6.787826535045642 
Si 4.088724839999999 4.05761094 12.22801158684018 
Si 1.356554637 4.07165292 9.502026790586584 
Si 0.0023078042999999998 5.4279909 10.863933770489847 
Si 1.382279805 6.77750337 12.221499077498978 
Si 0.9568648259999999 4.55326677 14.989350005231735 
Si 2.81970126 5.41899882 13.70231965389162 
Si 1.6136564489999998 4.10591079 17.462794161476452 
Si 1.95483258 6.0111729 19.720601897312434 
Si 0.975876885 8.037225359999999 18.794274973399382 
Si 2.78920638 7.717501529999999 17.32375725569997 
Si 1.2777077789999998 4.14134154 22.59630549297094 
Si 0.8545766579999999 6.321073859999999 21.789512404532143 
Si 1.9865003399999999 7.694711819999999 25.201757179830203 
Si 2.45996919 5.4341973900000005 25.749186999426477 
Si 0.9444274109999999 6.564446459999999 29.448361220672684 
Si 2.4656869799999996 5.3699984999999995 28.17159927030441 
Si 1.085640534 7.013349989999999 31.829630972220475 
Si 1.87048296 5.00207256 32.86574019645666 
Si 1.3579783829999998 9.500718959999999 4.067527262820081 
Si 2.71728603 10.876328009999998 2.6801835929926043 
Si 6.52289067e-05 8.14496742 8.145460757497535 
Si 2.71634121 8.14490226 5.430399058922042 
Si 0.0013061354579999998 10.86130863 5.429399785001963 
Si 2.7152009099999996 10.85982624 8.145116180283715 
Si 1.358755416 9.50120766 9.502509198685932 
Si 2.7151846199999996 8.14423437 10.857214514820352 
Si 0.891937773 10.35972324 16.493429543557244 
Si 2.6345817 10.79297208 13.605079964151537 
Si 3.5849402999999995 10.03506354 16.943895335184493 
Si 2.12434632 8.34671907 15.03514431694845 
Si 2.69944848 12.028193909999999 19.227822023828054 
Si 0.1230281073 10.03605723 20.21482899509486 
Si 0.6857080019999999 10.385510309999999 22.548271429364394 
Si 1.80747324 8.26445457 22.882545784491445 
Si 2.25831528 12.055365629999999 23.50833246251045 
Si 3.9864562199999996 8.93583063 22.051563375642463 
Si 4.0571874 8.674848540000001 25.811934510063153 
Si 1.581786693 11.72236545 25.803630199210083 
Si 1.6368192 11.99312154 30.132898313648045 
Si 2.40153696 10.01724228 29.053475733634645 
Si 0.0385074423 8.511639030000001 26.39544156394641 
Si 3.28989582 10.553134409999998 26.958205069557685 
Si 0.48231757799999997 8.692881569999999 28.694426276833916 
Si 4.00206204 9.205462709999999 30.661652048255263 
Si 2.47068801 8.99133066 32.483018285066485 
Si 1.5822086039999999 11.339338680000001 32.69283135056165 
Si 1.395152163 12.401805060000001 1.2294583904550258 
Si 1.3557678299999998 14.93375976 4.074728926588925 
Si -0.000556984422 13.57535295 8.144668229905747 
Si 2.71453302 13.576688729999999 5.428951834623996 
Si 1.357707969 12.217516289999999 6.7875508732745855 
Si -0.001191330054 16.294072500000002 10.862658834798713 
Si 1.3580793809999998 14.93265204 9.502922691342517 
Si 2.71753038 13.57492941 10.860970406450994 
Si 1.3576770179999997 12.223006019999998 12.2195349873802 
Si 2.57473224 16.23163293 13.621344008643852 
Si 0.8998758899999999 15.181367759999999 14.915369277424523 
Si 2.81743695 14.89972995 16.612067478275566 
Si 3.90127581 12.71897136 16.781978502410347 
Si 1.8433275299999998 13.86451674 20.521295969066614 
Si 3.17252637 15.05704248 18.987617248073942 
Si 2.0948777099999996 14.380844579999998 22.828826196856866 
Si 3.7386690299999996 16.07826258 23.32715376348375 
Si 0.36816377399999994 14.799220649999999 24.290109245225896 
Si 1.5310221659999999 14.028280109999999 26.229562093213328 
Si 2.98421397 15.79618494 30.08348594118622 
Si 3.3223780799999996 13.577943059999999 29.474204511709207 
Si 3.74305104 13.954372379999999 27.143828814642667 
Si 2.62902681 13.352456879999998 33.8461657429395 
Si 2.8896830999999996 15.568287839999998 32.66929672685772 
Si 6.7860719099999995 4.07238597 4.072937125077059 
Si 4.06986102 1.3592995019999998 4.06938797977471 
Si 5.44494879 2.7266039099999997 2.6980637046177387 
Si 6.76417815 1.2984693840000001 1.2643089298608086 
Si 5.42991312 -0.00141131673 5.429055207788143 
Si 5.42988054 2.71490769 8.14504726484095 
Si 6.78766833 1.357427781 6.7874475001104395 
Si 8.14952862 2.71459818 10.861625103157252 
Si 4.07170179 1.3572681389999999 9.500993058945124 
Si 6.79706766 1.3234403249999998 12.213332597531435 
Si 7.12659807 3.3557888699999996 14.964643819000822 
Si 4.24150875 0.6739726859999999 16.56248281720683 
Si 5.437601999999999 2.5860374999999998 13.566728520253339 
Si 5.17784166 3.9683743199999997 18.899991262599446 
Si 6.29628048 1.172658456 21.274576216199122 
Si 7.0631810999999995 2.83685463 19.81722134806764 
Si 7.6323862799999995 1.159183368 23.20172765765317 
Si 7.34740902 2.37946401 25.18828421076983 
Si 5.128173449999999 2.87955072 25.827130365192623 
Si 4.64194953 2.68053579 29.574958889030253 
Si 5.005737809999999 0.450105732 29.194511187251283 
Si 5.727384809999999 3.9422451599999997 27.958650552163476 
Si 7.18791363 0.37524177899999994 30.212219988269474 
Si 7.31948796 2.16609759 31.999921031290455 
Si 4.970144159999999 3.02106195 31.90946951266263 
Si 4.78135935 0.381604653 34.2227197222023 
Si 4.11123762 4.122119339999999 1.3156922839856884 
Si 4.7088525599999995 6.088550399999999 0.06134887172577599 
Si 6.724218779999999 6.871105709999999 1.225857558570604 
Si 4.0720927499999995 4.07276064 6.7874130423890575 
Si 5.430141180000001 5.4299457 5.430950382464155 
Si 6.7875054299999995 6.78770091 6.787309669224912 
Si 6.78711447 4.07248371 9.503611845770159 
Si 4.07137599 6.7877497799999995 9.502543656407315 
Si 5.426247869999999 5.432568389999999 10.862314257584893 
Si 6.792587909999999 6.78571353 12.243172984248272 
Si 4.28308083 6.57842328 15.213979890921173 
Si 5.7289812300000005 5.663886389999999 17.102504226705967 
Si 5.43913326 8.12621763 13.718101290284588 
Si 8.01968103 5.16873555 13.590780009777996 
Si 4.077582479999999 5.25267792 20.581803727813455 
Si 8.08145271 4.65937983 20.91194315637466 
Si 7.276971059999999 6.86188557 21.38556453677063 
Si 5.08824666 7.3396224 20.694480476732686 
Si 4.883758289999999 7.66698624 18.366758024212565 
Si 7.16730678 7.69510278 23.592409302682597 
Si 4.392908009999999 4.692790619999999 24.51856393798874 
Si 6.328274039999999 6.003141929999999 24.96379215596592 
Si 8.061888419999999 4.556557349999999 25.56073772118817 
Si 5.60553561 7.229257649999999 26.84346085735553 
Si 7.9786791 4.74555393 27.88274019195887 
Si 7.65309087 7.1894611799999995 28.048860866741624 
Si 4.6347982199999995 5.9636061 28.49346884573393 
Si 5.04027261 6.964789499999999 30.580021706301235 
Si 4.3098453 5.27988222 32.34460161827488 
Si 7.37503686 7.2170890199999995 30.390986646799433 
Si 4.209629219999999 9.630159299999999 1.2337587140835027 
Si 5.42588949 8.15840667 2.7078669263509254 
Si 6.78822219 9.501403139999999 4.075211334688273 
Si 7.717778459999999 8.64088389 0.06325438371820212 
Si 4.07269548 12.21608277 4.068492079018778 
Si 6.861331709999999 12.114335429999999 1.119004164564936 
Si 4.0728583800000004 9.502168769999999 6.78796436593117 
Si 5.42981538 8.145162899999999 8.144392568134693 
Si 5.431411799999999 10.85951673 5.429813277658547 
Si 6.78540402 9.501549749999999 9.502164621472112 
Si 4.064794829999999 9.49112415 12.230182423287248 
Si 5.43313854 10.860103169999999 10.8576969229197 
Si 6.8032578599999995 12.19537818 12.21098947247746 
Si 8.028005219999999 10.86876945 13.811309426622971 
Si 6.15439458 9.89058753 15.180728189787517 
Si 4.474162529999999 11.65034736 14.7606885661406 
Si 4.23732222 11.034324719999999 20.90873858828613 
Si 6.2408619 10.972878839999998 19.615023438997902 
Si 6.29127945 9.42905925 17.747621686420292 
Si 5.983333289999999 11.461253039999999 24.570147146897636 
Si 5.40195948 9.238059 23.94625564355464 
Si 5.059950929999999 12.02814504 26.698014815401994 
Si 7.8208778699999995 9.43759521 31.11129085456934 
Si 6.01965999 10.381356359999998 34.21276144072289 
Si 5.72746626 10.78461531 31.726430096681298 
Si 4.08018888 14.96391255 1.2623103820206512 
Si 5.44224465 13.569651449999999 2.678546851226958 
Si 6.790633109999999 14.93333622 4.071972308878363 
Si 4.07207646 14.932994129999999 6.78796436593117 
Si 5.430141180000001 13.57463619 8.144840518512659 
Si 6.78807558 12.21699501 6.787929908209788 
Si 8.14429953 13.57554843 10.861004864172376 
Si 4.0730701499999995 12.216473729999999 9.502509198685932 
Si 6.78590901 14.931088199999998 9.50195787514382 
Si 4.06204182 14.92906824 12.241829133114374 
Si 5.433382889999999 16.290325799999998 10.860970406450994 
Si 6.337982879999999 15.936018299999999 16.706343803976797 
Si 5.3816295599999995 13.436855369999998 13.536991506700648 
Si 7.01807409 14.481907739999999 14.802520239898382 
Si 8.09551098 16.21905705 13.66582892694805 
Si 6.630062579999999 15.13717299 20.743858391473132 
Si 5.536449719999999 14.79149919 18.716641727125676 
Si 6.024025709999999 12.626346419999999 17.909641892358586 
Si 5.42875653 14.55255747 22.703158886976606 
Si 4.58728029 12.332507399999999 22.877928449826253 
Si 7.34861448 15.21484371 23.92954364868436 
Si 7.26607305 15.40656072 26.234661835977867 
Si 5.03075925 15.910231229999999 26.999175300280918 
Si 6.75797166 12.22035075 28.337892233694078 
Si 7.00512354 14.57182854 31.252946547170858 
Si 5.549302529999999 13.05151542 30.21080722169281 
Si 12.17227896 1.2685413959999998 1.3170981590180753 
Si 8.1251262 -0.01150792389 2.709693185584173 
Si 9.50409099 1.357225785 4.069353522053328 
Si 10.860217200000001 2.7256753799999998 2.6880709654169506 
Si 9.48633489 4.01618547 1.1316949433499366 
Si 8.14542354 -0.000271280628 8.14487497623404 
Si 8.1438597 2.7158688 5.429468700444726 
Si 10.86189507 -0.001397846529 5.430157854872368 
Si 10.859972849999998 2.71490769 8.145012807119569 
Si 9.501403139999999 1.356401511 9.50226799463626 
Si 10.85847417 0.00018977035499999998 10.862900038848387 
Si 8.52696792 0.41200993799999996 16.958884443985678 
Si 8.931904739999998 1.72369377 14.989143258903445 
Si 10.87606737 2.6990412299999997 13.745426263340535 
Si 10.26708201 0.7996027949999999 20.303144134996998 
Si 8.952088049999999 1.8684467099999997 18.680151000182107 
Si 10.80799146 3.5199106199999997 17.904232030101607 
Si 9.79634988 1.6633719 22.421535930121294 
Si 11.425643099999998 0.38297301300000003 23.543100303384918 
Si 9.83070549 4.05417375 22.39031723454918 
Si 11.617685909999999 3.5249279399999995 25.681339746025266 
Si 11.10389931 1.189409463 25.754906981175893 
Si 9.56032407 3.3008427 28.979977413926783 
Si 8.75484873 0.929087118 26.43368963468046 
Si 11.63278674 3.9827909699999995 28.08083763218415 
Si 9.04577184 0.989237943 28.759654743410096 
Si 8.57481165 2.09010474 34.266618859243 
Si 10.481376959999999 0.12551216939999998 34.359275672039274 
Si 9.225255059999999 3.49023024 31.279823569848837 
Si 10.96776378 2.9928150899999997 32.78452334715922 
Si 10.86963282 8.1511902 2.702780966674938 
Si 8.13675726 5.4222893999999995 2.673994986232392 
Si 9.50251086 6.78704931 4.068319790411868 
Si 10.705788 5.7839274 0.1180624907712416 
Si 9.502315379999999 4.07241855 6.7874475001104395 
Si 8.14550499 5.42963619 8.144840518512659 
Si 10.86091767 5.42908233 5.429951108544076 
Si 10.86124347 5.42869137 10.858627281397016 
Si 12.22246845 6.786918989999999 12.248307184734195 
Si 9.50282037 6.78683754 9.501716671094146 
Si 9.521179199999999 4.05063882 12.217570897261426 
Si 9.735294960000001 5.992830359999999 14.967676098482439 
Si 8.190449099999999 6.17772186 16.99923443572403 
Si 10.64251764 7.926811739999999 13.687089341040762 
Si 11.63778777 4.43663037 15.316353781147178 
Si 11.673023039999999 5.092791569999999 21.423433572569483 
Si 9.03601413 8.0019738 20.321096607837035 
Si 10.87627914 6.65224956 19.87349080708449 
Si 9.33329034 5.16292002 18.898544038301402 
Si 10.086653969999999 4.91011551 24.568734380320972 
Si 10.777594319999999 7.13446614 24.946907872488726 
Si 11.65393116 6.20759772 28.922122899726354 
Si 10.79315127 7.658662049999999 27.293995564425547 
Si 10.98294606 6.6558170699999994 31.114908915314455 
Si 8.7832422 5.776531739999999 31.58911607697392 
Si 9.15993216 7.125294869999999 33.43749716734865 
Si 11.993642819999998 5.15642031 32.740624210118526 
Si 9.55167408 9.61002486 1.3572345128838608 
Si 8.13794643 10.865071619999998 2.7131045000009935 
Si 10.65634785 11.314333529999999 0.11688989451261121 
Si 12.21476328 9.50400954 4.073419533176408 
Si 8.14421808 8.14759011 5.430261228036514 
Si 9.50275521 9.50220135 6.7876197887173495 
Si 10.86020091 8.14490226 8.144806060791277 
Si 8.14462533 10.86007059 8.14504726484095 
Si 10.86049413 10.86024978 5.43036460120066 
Si 8.14558644 8.148176549999999 10.86258991935595 
Si 9.48496653 9.50137056 12.257093903686611 
Si 10.862693279999998 10.86011946 10.86465738263887 
Si 12.21688098 12.21008805 12.234661927066911 
Si 11.9759193 9.3108753 15.12911052315724 
Si 8.511769349999998 8.344552499999999 18.025695497973253 
Si 10.57634766 9.37175103 17.438260263852445 
Si 8.515809269999998 11.34106542 20.415545222145173 
Si 10.02357909 11.47156461 18.37092740849979 
Si 9.32239233 8.669977829999999 23.80873487751897 
Si 9.83567394 9.717832079999999 21.67018531538618 
Si 8.248995359999999 12.14838153 25.00286721201314 
Si 9.473058539999998 10.23577263 25.5167696687047 
Si 11.810510639999999 10.72763289 25.65336007626306 
Si 8.33481108 10.67421798 29.21463449653839 
Si 9.00612198 9.11383146 27.561008447414878 
Si 11.7077859 9.87928227 33.00625878425257 
Si 11.61160974 10.96318629 30.94189669625529 
Si 10.095939269999999 8.72813313 31.792588921734794 
Si 8.80003719 12.95778276 0.004509413081823205 
Si 9.50027913 12.216685499999999 4.07090411951552 
Si 9.40734468 14.83647588 1.3477620852759415 
Si 10.88134533 13.582064429999999 2.7087869475118254 
Si 8.14542354 13.57558101 5.431019297906919 
Si 9.50246199 14.93274978 6.7876197887173495 
Si 10.85985882 13.575108599999998 8.144771603069893 
Si 9.500979599999999 12.217109039999999 9.502578114128696 
Si 9.49648356 14.953861619999998 12.214366329172897 
Si 12.08887416 14.92835148 14.858100544487593 
Si 11.97468126 14.67316863 17.17796663653261 
Si 8.450893619999999 12.72071439 17.19378273064696 
Si 8.84828817 12.78365895 14.882841188439889 
Si 10.7470017 13.5462753 13.571690432132351 
Si 9.6848937 14.718829499999998 17.792244435610016 
Si 8.566373429999999 13.66366104 21.069725062582965 
Si 10.443812219999998 14.772032639999999 20.208282028032276 
Si 12.198978269999998 12.40348293 17.852235328536125 
Si 11.33700921 14.31412074 23.522735790048138 
Si 9.04955112 13.67825688 23.40347761634494 
Si 8.30684115 13.44524472 27.029325806490192 
Si 9.85988088 12.286748789999999 30.076801143238104 
Si 10.98617148 15.83523207 29.061848959930476 
Si 10.473003899999998 13.632025859999999 28.173080952323836 
Si 8.94464352 13.49696547 32.0527447181691 
Si 10.90490067 14.692667759999999 32.68562968679281 
Si 14.892725249999998 3.9010151699999995 1.3373076126086343 
Si 15.894511379999999 0.556138971 0.127170700264153 
Si 16.3115028 2.71093293 2.723803622490113 
Si 13.57318638 -0.0234367488 2.7007651899740894 
Si 14.935747139999998 1.355396418 4.069525810660239 
Si 12.214437479999999 4.07479689 4.070456169137554 
Si 13.57512489 0.00011217294 8.14487497623404 
Si 13.57595568 2.71655298 5.429158580952289 
Si 12.21702759 1.357564617 6.7875508732745855 
Si 14.93046918 1.357036821 9.502647029571461 
Si 13.57569504 2.7167158799999997 10.86241763074904 
Si 12.233529359999999 1.352133531 12.246687671829239 
Si 15.50610891 0.682265925 15.02291182585783 
Si 14.95076652 1.220451687 17.222313723951277 
Si 15.987967109999998 2.81818629 21.42736175280703 
Si 12.56933142 1.288578096 20.036785948713923 
Si 12.513033179999999 3.62312406 19.779490143154323 
Si 15.99181155 2.9922123599999995 18.354112040465363 
Si 13.36275216 0.556916004 22.177471889572395 
Si 14.73847524 2.0423913299999996 23.28673485630263 
Si 13.607802629999998 3.87638469 24.32980454025799 
Si 15.80806035 0.6372387359999999 24.925613000674634 
Si 12.54662316 0.542403243 27.573619973440703 
Si 15.269040539999999 3.40855218 27.77822992300718 
Si 13.32135927 2.46000177 28.69077375836742 
Si 13.985241929999999 1.9702592099999998 34.361515423929106 
Si 14.12533593 2.07291879 30.874876428167248 
Si 12.59306595 1.3198500089999998 32.417927649375834 
Si 15.727196789999999 0.303057531 30.93452274387954 
Si 13.57444071 5.429701349999999 2.6836500397636365 
Si 12.334217849999998 6.98296914 1.245946410136326 
Si 14.9315769 6.787342529999999 4.069008944839508 
Si 14.9325543 4.0729887 6.787826535045642 
Si 13.57483167 5.42988054 8.145288468890625 
Si 12.217304519999999 6.787619459999999 6.7874819578318215 
Si 12.21632712 4.07134341 9.50195787514382 
Si 14.931886409999999 6.7873262400000005 9.502474740964551 
Si 14.92100469 4.05656838 12.256956072801083 
Si 16.2908145 8.05315698 13.592813015339534 
Si 15.745523039999998 7.66310922 16.865159441826563 
Si 13.55173245 5.39646975 13.796768268199756 
Si 15.49579734 6.24043836 14.978771484767453 
Si 14.87351934 6.407361989999999 21.194772133478345 
Si 14.75880516 4.33621881 19.97562349326082 
Si 13.363273439999999 5.7889610099999995 22.90504667655391 
Si 13.05260685 7.56841545 24.454472576218166 
Si 15.212937779999999 4.6683882 25.806386816920643 
Si 15.35019732 5.1943271399999995 29.2688709499937 
Si 14.50552824 6.97252725 26.337931626959804 
Si 13.87756503 6.931232099999999 28.723026185581 
Si 15.047463959999998 7.73126658 32.18140984980959 
Si 15.24818934 4.05935397 31.302152173304393 
Si 14.4015003 5.579325 32.849786271456786 
Si 16.27716348 8.16508557 2.7070330494934804 
Si 15.02760645 9.64817604 1.2279146845371107 
Si 13.5886293 10.84386204 2.7164365616586355 
Si 13.574717639999998 10.860233489999999 8.14453039902022 
Si 13.57393572 8.145781920000001 5.429985566265458 
Si 14.93257059 9.502478279999998 6.7874819578318215 
Si 12.217744349999998 9.501419429999999 9.502474740964551 
Si 13.5764118 8.14421808 10.861177152779286 
Si 14.92626636 9.50093073 12.232835667833664 
Si 16.2909774 10.85893029 10.862658834798713 
Si 14.05465362 11.03616549 16.97538969252767 
Si 13.52434896 10.767103559999999 13.691017521278313 
Si 13.54971249 8.679344579999999 16.873360379515482 
Si 15.480028619999999 11.641941719999998 15.02628868255327 
Si 12.33074808 8.265611159999999 18.85402466227582 
Si 12.26876463 9.809153819999999 21.424536219653703 
Si 14.215175279999999 8.61741 20.458445085265794 
Si 12.75305004 11.762813519999998 20.14584463688804 
Si 14.91440724 11.59171965 19.11369805061078 
Si 15.06802194 11.037403529999999 23.860387001870627 
Si 13.009764149999999 9.89272152 23.711116152843683 
Si 15.699976199999998 10.795073489999998 26.12935903943439 
Si 14.80780548 8.800835399999999 30.0311791201283 
Si 13.167646829999999 10.28562003 29.282860784874803 
Si 12.51992385 9.19249587 27.3078820261425 
Si 14.356148939999999 11.84142906 27.97139990907483 
Si 15.94592262 11.394838709999998 34.33498297846495 
Si 13.624483589999999 8.54275293 34.07127803672829 
Si 12.39418134 12.278310569999999 1.3541850045415516 
Si 12.21706017 14.933694599999999 4.075245792409655 
Si 14.930713529999998 12.215903579999999 4.070628457744464 
Si 15.0052077 14.92598943 1.226422665201269 
Si 16.299122399999998 13.59048636 2.7077497700982263 
Si 13.573756529999999 13.57670502 5.430674720693098 
Si 12.21777693 12.21741855 6.7876887041601135 
Si 14.93265204 14.932375109999999 6.7876542464387315 
Si 12.21756516 14.93172351 9.502647029571461 
Si 14.931348839999998 12.21748371 9.502922691342517 
Si 13.57448958 13.57828515 10.859350893546038 
Si 14.91948972 14.923513349999999 12.213573801581111 
Si 13.649211809999999 16.21855206 13.706730242228518 
Si 16.219496879999998 13.50445887 13.562180101030911 
Si 12.27164796 13.74431283 21.36175425129565 
Si 16.09507386 15.01470477 20.17441008791374 
Si 14.866840439999999 13.958184239999998 18.549039370323495 
Si 13.50227601 16.02711198 18.353009393381136 
Si 14.35862502 14.720833169999999 21.79299263439173 
Si 14.84095563 13.413430349999999 23.739853892476297 
Si 13.10739012 14.13786294 25.17009053388012 
Si 15.85942272 13.06472661 29.350914784604306 
Si 14.35357512 15.748927649999999 26.467561574798992 
Si 12.38457024 12.7133676 26.87082028813286 
Si 16.20938079 14.765337449999999 27.765687312424124 
Si 14.14206576 13.08658779 34.36461661885349 
Si 14.58145593 14.40865161 30.96667179792897 
Si 12.83608017 13.166457659999999 32.28967601039193 
Si 12.34506699 15.61652253 31.029074731351823 
