&CONTROL
  dt          = 30.D0,
  prefix = 'x.33_y.66_z3.15_struc30-scf',
  pseudo_dir = './',
  outdir='./',
  wf_collect= .true.,
  verbosity= 'high',
/

&SYSTEM
ibrav= 6, celldm(1) =30.783621515, celldm(3) =2.1043587689124634, nat=  432, ntyp= 1,
  ecutwfc     = 12.D0, nbnd= 1728,
  degauss     = 0.05D0,
  occupations = "smearing",
  smearing    = "methfessel-paxton",
/
&ELECTRONS
  electron_maxstep=200,
  conv_thr    = 1.D-8,
  mixing_beta = 0.3D0,
  scf_must_converge=.false.,
/
ATOMIC_SPECIES
Si  28.08  Si.pbe-hgh.UPF
K_POINTS {automatic}
1 1 1 0 0 0
ATOMIC_POSITIONS (angstrom)
Si 2.7203322599999997 -0.015289956899999999 2.7307520021700924 
Si 1.434137391 1.359850104 1.4059395302271758 
Si 3.9837194999999994 3.9443465699999996 1.262731384073064 
Si 0.00035044677 -0.000631279854 5.430809688449149 
Si -0.000180718002 2.71492398 8.145477512580294 
Si 2.7148914 2.0287566e-06 8.144380552441234 
Si 2.71601541 2.71324611 5.429918408336165 
Si 1.357259994 1.357779645 6.787612260447364 
Si 2.7146307599999995 2.7156733199999996 10.86107089682877 
Si 1.366178769 1.3598110079999999 12.245366032312143 
Si 4.07175066 1.356574185 9.501868724526362 
Si 3.78819063 2.6699635799999997 16.741908482326746 
Si -0.0038904103799999997 2.5220829599999997 13.884978640161428 
Si 1.046200815 1.0899068849999998 19.541522157226247 
Si 1.7206475399999999 3.2839662599999997 17.8686236651574 
Si 0.6389247509999999 0.08727986519999999 21.65776394549653 
Si 2.4359903099999998 0.38141080199999994 25.20752695549045 
Si 3.35694546 3.3005169 29.607776873298306 
Si 0.6866234999999999 1.549069857 26.363825782071345 
Si 0.752241249 3.90723795 26.75571479175006 
Si 0.7389583829999999 0.8237576069999999 28.673681034885483 
Si 3.22095654 1.9658771999999998 34.241165100660474 
Si 1.2271957470000001 2.5518773699999997 30.250218434738898 
Si 2.11918239 1.393910865 32.133287633450514 
Si 1.354505355 4.07460141 4.069242195846898 
Si 2.70451467 5.4354843 2.6736106629264387 
Si 1.398250521 6.8204438099999996 1.0585425381885927 
Si 2.7152009099999996 5.43015747 8.14527183255422 
Si 1.357437555 6.787684619999999 6.787166620390872 
Si 4.07044746 4.06951893 12.239367031551666 
Si 1.3584670829999999 4.0725814499999995 9.502245804574164 
Si -0.0017179434 5.43312225 10.866007217454532 
Si 1.361959659 6.7807125 12.244200512164394 
Si 2.71445157 8.145 10.86230497698521 
Si 4.02814233 6.73413939 15.0402833466163 
Si 2.65865832 5.36245623 13.680361294222637 
Si 0.08942998229999999 8.10202698 13.818543991739686 
Si 1.140361902 4.14112977 15.21284888849197 
Si 0.374598324 4.66902351 20.67619030106508 
Si 3.64925322 7.074893609999999 20.858937004231386 
Si 1.3235494679999997 6.808405499999999 20.573795928084817 
Si 1.464304842 6.99433956 18.01191408332194 
Si 0.8807514299999999 5.04931356 24.64135840371878 
Si 0.206162982 8.11269693 22.321904749687874 
Si 3.2268535199999997 5.33569176 24.56272007375001 
Si 2.29879593 4.99327596 28.29485270686244 
Si 3.2079245399999996 6.451198379999999 26.699701264649374 
Si 0.213104151 5.3318147399999996 33.93953534242368 
Si 3.4796417399999995 6.670722419999999 31.783220229073414 
Si 1.7546447699999999 6.550502219999999 30.13963114072004 
Si 2.84055246 8.13793014 33.77063776101299 
Si -0.001309429296 8.1518418 2.660453997258603 
Si 1.3600130039999998 9.49988817 4.067631035642655 
Si 2.72901483 10.844155259999999 2.685276148405241 
Si 1.3413805019999998 12.2140791 1.3207228674244884 
Si 0.00010765474559999999 8.145 8.145443232575948 
Si 2.71450044 8.14477194 5.430192648370928 
Si -0.000988029225 10.86020091 5.429849848327473 
Si 2.7150868799999994 10.859907689999998 8.145168992541183 
Si 4.07367288 9.497004839999999 12.225003709730865 
Si 1.3573479599999998 9.50308101 9.502520044608929 
Si -0.00282760191 10.86292134 10.86206501695479 
Si 0.507995505 11.402315819999998 16.774577326468087 
Si 2.8425724199999998 8.20159146 16.521590894397676 
Si 1.3676383529999998 9.57206916 15.266599935305846 
Si 2.63715552 10.74880989 13.631443728021488 
Si 1.86758334 10.718021789999998 20.582845849232054 
Si 3.73083354 9.36046206 20.119243070462375 
Si 1.6711911 9.88009677 22.759180485120144 
Si 3.85571268 9.20018475 23.598560671526116 
Si 0.763802262 11.223451619999999 24.41075681448604 
Si 0.45226089899999994 9.29023587 25.71202577944441 
Si 1.96366176 8.70563664 29.08010476640673 
Si 2.4682770899999995 8.70405651 26.78389295532213 
Si 2.1137903999999996 10.211761169999999 32.612042174140946 
Si 0.10691029259999998 11.186261550000001 33.79909016461983 
Si 2.6969724 10.75573314 30.159787783275245 
Si 3.9073356899999996 11.7154422 33.06477819153307 
Si 0.202797468 16.0834428 0.26514246441139766 
Si -0.00249979824 13.568950979999999 2.7113735157135337 
Si 1.358107074 14.93371089 4.072807316298838 
Si 0.000240622848 13.57499457 8.144860472502073 
Si 2.71384884 13.57582536 5.4308439684534955 
Si 1.3575173759999999 12.21743484 6.787612260447364 
Si 0.001433684529 16.2854388 10.860625256772277 
Si 1.3572225269999998 14.93322219 9.50173160450898 
Si 2.71725345 13.57206237 10.862887737059085 
Si 1.354795317 12.216685499999999 12.238955671499518 
Si 2.74836735 16.231730669999997 13.608853205157747 
Si 3.6614544299999996 12.44599983 14.963256176851772 
Si 1.8812180699999999 13.44776967 16.412066280513535 
Si 0.01104186699 13.61997126 13.687114455078717 
Si 1.0830292469999998 15.311345669999998 15.07079255048387 
Si 0.0427915494 14.2361568 20.72267398695769 
Si 2.0792230199999997 13.044689909999999 20.513120320393135 
Si 2.77130367 16.08614694 18.568689913902915 
Si 3.0371238899999997 13.75249041 18.479767582630473 
Si 2.52872928 12.753098909999999 24.613283080159746 
Si 3.03217173 13.714534709999999 22.53060141614379 
Si 2.6366179499999998 16.05156327 22.86921929906947 
Si 2.6255081700000003 14.05962207 28.006797830346493 
Si 1.452056391 12.66097896 29.509427540830824 
Si 2.8234316699999997 16.13441421 29.01946343871939 
Si 1.74151503 14.53327011 25.896657882849727 
Si 2.7329407199999998 13.44394152 34.17665013248209 
Si 3.23934795 15.699487499999998 31.280949605401915 
Si 1.65068199 13.971688649999999 31.802314191493906 
Si 6.7887271799999995 4.07337966 4.07263591627711 
Si 8.161648379999999 -0.01056724155 2.6850361883748217 
Si 7.578042839999999 3.1744485899999995 0.16588334062858529 
Si 4.07295612 1.358673966 4.075686836663867 
Si 5.41725579 2.71924083 2.7169200204166493 
Si 6.71736069 1.321016373 1.351701707351593 
Si 8.14309407 2.71555929 5.430981088470877 
Si 5.42911491 0.0010977782129999998 5.4313581685186785 
Si 5.4297828 2.7148914 8.144860472502073 
Si 6.78703302 1.3575760199999998 6.788092180508203 
Si 5.42792574 0.00338206464 10.861002336820079 
Si 6.77571147 1.367609031 12.22496942972652 
Si 7.237321199999999 0.910612629 16.06045627594088 
Si 4.37166585 1.099866591 14.92530821204121 
Si 5.471029079999999 2.7614970899999998 13.675939173662057 
Si 4.97778417 0.402063264 17.06287216301445 
Si 4.283813879999999 3.27341034 20.275662730291273 
Si 4.89051864 0.06798533759999999 19.60531724531338 
Si 5.54946543 2.1287771999999996 18.65456132478861 
Si 7.7287253399999996 2.32844373 17.919975111667085 
Si 5.26530267 2.47549356 22.300959667032725 
Si 7.683993 2.13159537 22.364137715041636 
Si 4.60824552 3.37066164 24.47767138296862 
Si 4.785497009999999 0.175114242 22.054006515727135 
Si 4.26679083 1.576606473 26.05372886276119 
Si 8.10969957 1.4133546089999998 26.11855235097869 
Si 4.52572038 1.5341759099999999 28.463098968190565 
Si 6.36867324 3.3156340199999996 28.481781570558905 
Si 6.10945047 0.18933867 25.788984389200245 
Si 7.90486911 0.37952279099999997 30.67782720894571 
Si 5.09217255 0.309462759 34.16112129051354 
Si 4.07580687 6.78693528 4.067493915625272 
Si 6.772877009999999 6.670803869999999 1.1845764021655671 
Si 8.14570047 5.42600352 2.6971644539122894 
Si 4.07248371 4.07227194 6.787509420434328 
Si 5.43093939 5.4286099199999995 5.430981088470877 
Si 6.7875054299999995 6.78778236 6.7875437004386745 
Si 6.78682125 4.07131083 9.50351416473495 
Si 4.07210904 6.787586879999999 9.502622884621966 
Si 5.4297828 5.42901717 10.86316197709385 
Si 6.785322569999999 6.80149854 12.223941029596153 
Si 7.911287369999999 4.43843856 17.055296282054073 
Si 6.808617269999999 4.214972339999999 14.965861457182037 
Si 4.70706066 4.75060383 16.07636219795723 
Si 7.106105249999999 5.74048197 21.144558000438792 
Si 7.44923781 7.73053353 19.93368540693973 
Si 5.10035013 5.4131018399999995 19.95092824912556 
Si 6.4586266199999995 7.66208295 17.82834466005134 
Si 5.9607553499999995 5.43942648 17.82453957956898 
Si 4.258596959999999 6.936330869999999 23.137048973021518 
Si 6.55555212 6.35674896 23.353561480468226 
Si 6.57246114 4.5706482 24.90003531651056 
Si 6.46825401 5.235622289999999 27.151991641985013 
Si 5.1037873199999995 6.9473592 27.95170986336314 
Si 5.79834405 4.787875349999999 34.24401034102116 
Si 6.49770633 4.550448599999999 30.47430682314598 
Si 5.41313442 6.725440529999999 30.32021820361258 
Si 4.590798929999999 4.382433539999999 31.885340362018905 
Si 4.19278536 9.406595339999999 1.1240996184990877 
Si 5.43475125 8.12765115 2.6858349124760736 
Si 6.78672351 9.50255973 4.069584995890353 
Si 4.07240226 9.50264118 6.787303740408255 
Si 5.43005973 8.14498371 8.14496331251511 
Si 5.42947329 10.859598179999999 5.429884128331818 
Si 8.14218183 8.147052539999999 10.86107089682877 
Si 6.786918989999999 9.502250219999999 9.501937284535053 
Si 5.43136293 10.86310053 10.860796656794005 
Si 5.429489579999999 8.15164632 13.64556708981187 
Si 6.787521719999999 9.685708199999999 15.076071671153091 
Si 6.00899004 10.71183159 17.184326218410853 
Si 7.1388807299999995 9.70335027 21.084945072881823 
Si 7.19112276 11.270806649999999 19.30420168714177 
Si 4.51879713 9.029546999999999 17.924500072240704 
Si 5.01704307 10.27636731 21.851274570027353 
Si 4.593828869999999 12.105115289999999 25.537403437308004 
Si 4.90503303 11.8369656 29.672120441454968 
Si 6.64856802 10.23067386 29.26624519000325 
Si 4.35307896 9.806140169999999 25.831937234645263 
Si 8.1204021 8.36520822 26.476606996368314 
Si 6.02661582 8.998270199999999 27.291442699662845 
Si 5.7567882599999995 10.66206564 34.12793824630702 
Si 7.0515174599999995 8.41821588 30.713067053412974 
Si 7.60415571 9.57578328 32.84267804337803 
Si 4.0716855 12.21618051 4.069859235925118 
Si 4.1042655 14.97011904 1.3150255307022525 
Si 5.439768569999999 13.57242075 2.6991869741686787 
Si 6.84181629 12.242879819999999 1.2803478783062596 
Si 6.78827106 14.92981758 4.070064915951192 
Si 4.07269548 14.93258688 6.78788650048213 
Si 5.4299457 13.57499457 8.145100432532493 
Si 6.78794526 12.21735339 6.78757798044302 
Si 4.07248371 12.21683211 9.50180016451767 
Si 6.78807558 14.93258688 9.502314364582856 
Si 4.0909891499999995 14.91948972 12.219758869065991 
Si 6.7743594 12.21828192 12.226751989952492 
Si 4.5965492999999995 12.490324919999999 17.094752567055842 
Si 5.389611659999999 13.54603095 13.679572854122688 
Si 7.27921908 14.35241853 14.999901501497202 
Si 8.02763055 16.15493961 13.568437080034304 
Si 7.40846394 15.131292299999998 17.302112313342278 
Si 6.47548677 13.29979131 20.269183809469958 
Si 5.475117869999999 14.311335149999998 18.459199580023125 
Si 8.067541049999999 16.13566854 22.682770355433842 
Si 6.17239503 15.33504762 23.735886368934526 
Si 6.228090539999999 12.951836909999999 23.99932820233034 
Si 5.073064379999999 12.63147777 22.03001051268523 
Si 6.349939739999999 14.79094533 27.418141595724126 
Si 6.014870729999999 15.945303599999999 29.467674495537903 
Si 4.7280096 13.09237074 27.643429784283306 
Si 7.07554521 14.77403631 32.33008913839851 
Si 5.207815259999999 14.011208189999998 30.900167317131167 
Si 9.50166378 1.359613899 4.068762275786059 
Si 10.86816672 2.6994647699999996 2.6749133030915706 
Si 8.145 -3.28652379e-05 8.145100432532493 
Si 10.85977737 -9.56172501e-05 5.429335648262289 
Si 10.860233489999999 2.71547784 8.145066152528146 
Si 9.504123569999999 1.3585811129999998 9.501114564430761 
Si 8.14745979 2.71221984 10.860625256772277 
Si 10.859321249999999 -0.001505166678 10.861790776920026 
Si 9.452793779999999 1.103919543 15.080425231704979 
Si 10.70327934 2.66186745 13.792594028450079 
Si 12.16354752 3.7630714499999995 15.364983547777673 
Si 11.691805409999999 1.69080426 17.47289529499198 
Si 9.634704209999999 2.46384621 21.056595509288027 
Si 9.6863598 1.52674767 18.885025794003965 
Si 11.308289939999998 1.69212375 22.633749949219652 
Si 12.16286334 3.1108850099999996 24.324096963500402 
Si 8.327236229999999 3.0704858099999996 24.46128554089143 
Si 11.670009389999999 0.0742696938 27.0697881915643 
Si 9.562474349999999 1.8104217299999998 29.8302198214968 
Si 11.41534782 0.503142714 29.376729644009067 
Si 8.567904689999999 2.7612364499999997 27.975157386335518 
Si 10.47279213 3.70915155 30.91744443932134 
Si 11.274325289999998 4.01830317 33.16360744406139 
Si 8.53312554 7.81638183 0.013333413370240979 
Si 10.8717831 8.14915395 2.7279273298120166 
Si 12.21894981 6.853496219999999 1.2915677237285694 
Si 9.55621899 4.10897331 1.2034612565595493 
Si 9.5029344 6.78491532 4.072601636272765 
Si 9.502380539999999 4.0725814499999995 6.78757798044302 
Si 8.14498371 5.430271499999999 8.144860472502073 
Si 10.858490459999999 5.430613589999999 5.430329768388311 
Si 9.5013054 6.786544319999999 9.502725724635 
Si 9.50192442 4.06929087 12.235870471108417 
Si 10.86357294 5.42992941 10.863059137080814 
Si 8.2077165 5.512535999999999 13.584171602028928 
Si 9.629833499999998 6.70900392 15.169107602947005 
Si 11.334467969999999 5.73316776 16.54819217776985 
Si 9.18418797 4.700088539999999 20.64482409708887 
Si 9.554980950000001 7.68905919 18.932743560053023 
Si 9.65285127 5.39778924 18.41038485383501 
Si 10.993681169999999 7.97680575 20.743276269569385 
Si 10.20685788 6.45121467 24.0900673738331 
Si 8.23242843 7.7996357099999996 24.204939668395152 
Si 10.26460593 4.3131033 25.058134696552393 
Si 11.99077578 7.708134779999999 25.023169092119897 
Si 10.66967307 5.970904019999999 21.875373413082297 
Si 10.98797967 7.8784793099999995 29.24728834760014 
Si 8.85418515 7.01506044 29.96010675796222 
Si 11.720817899999998 4.3557668099999995 28.961255991340593 
Si 9.97433442 4.5834521399999995 27.381496271078696 
Si 8.45615529 6.351471 27.733243395668733 
Si 8.61299541 5.12035425 31.34114529303276 
Si 10.430487 6.02596422 34.22769305895266 
Si 9.458951399999998 9.43181226 1.4357254260030536 
Si 8.135682119999998 10.871946 2.71660464437667 
Si 10.85977737 10.726720649999999 0.04064922915299354 
Si 12.184968869999999 12.171627359999999 1.3515645873342106 
Si 9.50510097 12.21872175 4.073390076372713 
Si 8.14700367 8.14514661 5.430604008423076 
Si 9.502478279999998 9.50255973 6.787509420434328 
Si 10.860412679999998 8.144397269999999 8.145134712536839 
Si 8.14501629 10.86011946 8.144654792476 
Si 10.860412679999998 10.860542999999998 5.431392448523024 
Si 9.50067009 9.506876579999998 12.232922390734695 
Si 10.86108057 10.85928867 10.862682057033012 
Si 10.83612429 8.193397589999998 13.692530695765319 
Si 8.155604789999998 10.92663153 13.622530926891637 
Si 8.328409109999999 8.379510839999998 16.46705140748385 
Si 10.690752329999999 11.453498999999999 20.61873701378188 
Si 9.387943289999999 11.118723209999999 18.732891134718265 
Si 10.79829891 9.758980619999999 22.187287172622767 
Si 8.590270859999999 9.76399794 22.933562867226133 
Si 8.36468694 11.97995922 23.684089282368348 
Si 9.46377324 12.188748149999999 25.71805906020923 
Si 8.94659832 10.91480499 29.21705338376734 
Si 9.524942189999999 10.18071243 27.012232064268066 
Si 11.388404159999999 8.75644515 27.048294628839617 
Si 10.87108263 9.87924969 30.453567420516897 
Si 11.977157339999998 9.515379959999999 32.66781574121121 
Si 9.10720143 11.50622973 32.95401949749249 
Si 12.215838419999999 14.933482829999999 4.072498796259728 
Si 9.57361671 14.88932064 1.1380378682660022 
Si 10.84677795 13.576086 2.6997183142360353 
Si 8.14438098 13.573854269999998 5.430706848436112 
Si 9.50242941 14.93213076 6.787509420434328 
Si 10.859972849999998 13.57492941 8.144929032510765 
Si 9.501614909999999 12.21688098 9.502554324613275 
Si 8.14550499 13.57569504 10.861893616933061 
Si 9.50938524 14.938206929999998 12.210503267892683 
Si 11.02156965 16.07565618 16.217321575826272 
Si 9.12678201 12.68933985 14.94231109419662 
Si 10.884831389999999 13.611419009999999 13.594729843367368 
Si 10.19667663 12.49016202 17.080766325282845 
Si 8.31042495 14.619134699999998 20.922834932331554 
Si 9.15897105 15.527318489999999 18.97319396518081 
Si 10.97849889 14.54793111 18.003686882279002 
Si 9.67743288 13.06910862 22.003889149373894 
Si 11.31410547 14.212927259999999 23.209036982147243 
Si 10.16142507 16.15689441 23.71195892590131 
Si 11.62097649 13.047801299999998 25.241875519844722 
Si 11.563700849999998 13.453666649999999 29.133033093116314 
Si 9.24423291 13.2442587 28.948195309684923 
Si 9.657184410000001 15.993505709999999 25.998435215751766 
Si 8.54689059 14.050646279999999 26.865685045690693 
Si 8.15930262 13.4638479 34.077032439853824 
Si 8.96733549 14.59981476 30.821563267166745 
Si 11.263834529999999 15.02332218 30.896876436713992 
Si 11.47798287 15.63885612 33.9790259074298 
Si 16.2792486 2.73080673 2.6856703684552152 
Si 13.57318638 0.01307309967 2.7136497080020807 
Si 12.24377577 1.212137271 1.141284184677529 
Si 14.93270091 1.3564275749999999 4.069962075938155 
Si 12.21746742 4.0720927499999995 4.068933675807787 
Si 13.575010859999999 6.125968529999999e-05 8.14520327254553 
Si 13.57556472 2.7145656000000002 5.430809688449149 
Si 12.217597739999999 1.357421265 6.787200900395218 
Si 14.93110449 1.3566328289999998 9.502760004639349 
Si 13.576102289999998 2.7174000599999997 10.862750617041703 
Si 12.22158879 1.364096907 12.261443354350222 
Si 14.92432785 4.054352939999999 12.264837074780434 
Si 13.82364513 0.10242076859999999 13.702780417064648 
Si 15.536001059999998 0.712531116 15.458910759684573 
Si 15.29622855 0.7144598520000001 18.38196673023252 
Si 13.35954303 1.72667484 19.336733411265726 
Si 15.342329249999999 1.4158013669999998 22.854067537148723 
Si 15.937842779999999 3.84023718 22.90041410302395 
Si 13.30024743 0.8480443679999999 21.613748419916803 
Si 15.08924781 0.699531696 25.16567107018449 
Si 13.54326165 1.359814266 29.696493524544675 
Si 13.048192259999999 1.67545908 26.008444977020673 
Si 13.39935579 2.9478709800000003 27.973580506135622 
Si 13.27099059 2.82445794 33.950059303757776 
Si 15.657980579999998 3.9901866299999997 30.466045342098692 
Si 14.372096849999998 2.3142551399999998 31.776638468239064 
Si 16.0956603 0.6831130049999999 32.44804663335167 
Si 14.854166819999998 4.11848667 1.1165511615421901 
Si 13.57240446 5.43431142 2.694295217548564 
Si 14.93333622 6.7877171999999995 4.067116835577471 
Si 16.290488699999997 5.429701349999999 5.430364048392657 
Si 14.932538009999998 4.07263032 6.787269460403909 
Si 13.57444071 5.4299457 8.145237552549874 
Si 12.21741855 6.7874728499999994 6.787303740408255 
Si 12.212384939999998 6.787358819999999 12.253593233355083 
Si 13.57763355 8.14130217 10.86463601728071 
Si 12.21833079 4.07267919 9.501628764495944 
Si 14.93242398 6.7879615499999995 9.501457364474215 
Si 14.853808439999998 6.75029907 15.09633115372133 
Si 16.26154137 5.55756156 16.784689927750033 
Si 12.96802917 7.565613569999999 16.475827088596322 
Si 13.44232881 5.275060379999999 13.795473548815107 
Si 13.26095595 7.53687801 20.637076816106767 
Si 13.15885023 4.12049034 19.44444118491955 
Si 15.143167709999998 5.17992678 18.870936712217933 
Si 14.178767129999999 7.37085033 18.536672389844142 
Si 13.827245219999998 4.67959572 23.640039476784274 
Si 12.90231531 5.34235437 21.520781048131575 
Si 16.121431079999997 7.25778144 24.500536145867123 
Si 14.013847169999998 6.5094188399999995 25.296997766832426 
Si 12.81840552 6.41187432 29.400417127011867 
Si 14.54617179 6.593084279999999 27.74119635667691 
Si 15.21756414 4.38965001 28.131748446186148 
Si 13.947888959999998 7.039446569999999 31.641780931143536 
Si 16.07135562 5.947869959999999 31.68343113642342 
Si 13.4824185 8.085997619999999 33.88808105590096 
Si 12.217548869999998 9.5000022 4.072293116233654 
Si 14.966323469999999 9.587691269999999 1.0060769915376764 
Si 13.59126828 10.84537701 2.686654204579933 
Si 13.57395201 8.145863369999999 5.430295488383965 
Si 14.932798649999999 9.502380539999999 6.78702950037349 
Si 13.574978279999998 10.86018462 8.145374672567257 
Si 12.21582213 9.50207103 9.502862844652384 
Si 14.95648431 9.48244158 12.245263192299106 
Si 12.229114769999999 12.201128549999998 12.244234792168738 
Si 12.42338931 11.53196793 17.06791132365325 
Si 12.238367489999998 9.632407319999999 15.281888817243978 
Si 13.722907769999999 10.81093995 13.762084824582509 
Si 15.152306399999999 12.189611519999998 15.212574648457206 
Si 14.405491349999998 11.11737114 20.88646384772089 
Si 12.68181387 11.70003186 19.43539126377232 
Si 16.17614919 10.72804014 19.372316055776444 
Si 16.213974569999998 8.427305699999998 19.00384028906576 
Si 14.32957995 9.066948839999998 22.03001051268523 
Si 12.653208629999998 9.52968258 23.656870958917956 
Si 13.18991526 11.371071599999999 25.06475073739109 
Si 12.34764081 11.29292847 29.313243075961047 
Si 15.895081529999999 8.36657658 28.821976333684482 
Si 13.063586309999998 10.36794969 27.21798065035026 
Si 15.346255139999998 10.08610011 27.41958135590664 
Si 15.63680358 12.110621309999999 28.623769348558316 
Si 14.3402499 11.34518679 30.483939504367086 
Si 14.848644509999998 9.03951648 30.79379646364682 
Si 14.935095539999999 12.21626196 4.070750516038103 
Si 14.84488152 14.884515089999999 1.3780321786894358 
Si 13.57584165 13.57509231 5.429884128331818 
Si 12.2173371 12.217662899999999 6.78788650048213 
Si 14.93245656 14.93242398 6.787509420434328 
Si 12.21658776 14.932407689999998 9.500223284317775 
Si 14.93276607 12.21769548 9.501628764495944 
Si 13.57191576 13.57633035 10.861859336928717 
Si 14.94043866 14.925614759999998 12.227197630008984 
Si 13.753109429999999 13.501461509999999 16.542604537061518 
Si 12.503601269999999 14.847976619999999 14.935900733383997 
Si 12.84543063 14.05367622 19.48070942951718 
Si 14.98551309 14.6303748 18.662102925744637 
Si 14.781024719999998 13.13068482 22.10460380214122 
Si 15.139274399999998 12.62367486 24.380281890622815 
Si 13.053779729999999 14.727968189999999 21.73019759467875 
Si 15.672674159999998 14.64205473 25.632119089314852 
Si 15.11873271 15.88169115 29.344095079872073 
Si 12.496694309999999 14.19719112 27.131834999429806 
Si 14.75528652 14.154543899999998 27.736054356025072 
Si 14.751230309999999 12.79054962 32.4501719936211 
Si 13.29505092 13.77541044 34.17335925206491 
Si 15.720664499999998 14.82512175 31.483921511132117 
