&CONTROL
  dt          = 30.D0,
  prefix = 'x.33_y.66_z3.15_struc24-scf',
  pseudo_dir = './',
  outdir='./',
  wf_collect= .true.,
  verbosity= 'high',
/

&SYSTEM
ibrav= 6, celldm(1) =30.783621515, celldm(3) =2.1034888228945987, nat=  432, ntyp= 1,
  ecutwfc     = 12.D0, nbnd= 1728,
  degauss     = 0.05D0,
  occupations = "smearing",
  smearing    = "methfessel-paxton",
/
&ELECTRONS
  electron_maxstep=200,
  conv_thr    = 1.D-8,
  mixing_beta = 0.3D0,
  scf_must_converge=.false.,
/
ATOMIC_SPECIES
Si  28.08  Si.pbe-hgh.UPF
K_POINTS {automatic}
1 1 1 0 0 0
ATOMIC_POSITIONS (angstrom)
Si -0.00899944308 2.7188335799999996 2.6862048670691334 
Si 2.52025848 2.9299031099999997 0.06425254863423789 
Si 1.336995234 1.3039900649999998 1.312470492191305 
Si 1.359581319 4.07124567 4.066120798206624 
Si 4.07430819 1.3547317859999999 4.071603331474616 
Si -0.001530813654 -0.000681301557 5.42952402445758 
Si 0.000371600964 2.7150705900000003 8.14512554959303 
Si 2.7151683299999996 -1.9492451099999997e-08 8.14471435959793 
Si 2.7142886699999997 2.71451673 5.4293526952929545 
Si 1.3579344 1.3566426029999998 6.787753109936866 
Si -0.00165775185 0.0018679580099999998 10.859904694738283 
Si 2.71686249 2.71384884 10.856135453116538 
Si 1.3828059719999999 1.3533536519999998 12.217688324389545 
Si 1.6845489 2.73642678 16.821440041188684 
Si 0.11662385669999999 2.7856062899999996 13.531200497901768 
Si 2.7757345499999997 0.0343631034 13.688583468526078 
Si 3.69875853 1.71193239 15.264503390577593 
Si 0.31125303 3.58621092 20.60442226193642 
Si 3.60023661 1.8156019499999998 19.075343733493316 
Si 2.13115554 3.6786566699999996 19.00790857429701 
Si 0.471233862 1.611300915 22.098686704127772 
Si 4.056910469999999 1.93502394 23.358435785780745 
Si 1.8700919999999999 2.65794156 23.689135339339465 
Si 1.219150116 2.50142724 25.95383276901546 
Si 2.2867902 3.5442804599999995 29.890531516264534 
Si 0.668539971 0.085191813 29.955636598821947 
Si 2.89152387 2.57113215 27.71293783388377 
Si 3.8243544299999996 0.47256149699999994 28.070912990450754 
Si 2.6586420299999998 2.40608187 32.04722304056108 
Si 1.70445528 0.25106799599999996 32.05907901875311 
Si 2.7210653099999997 5.42654109 2.6775561708388755 
Si 1.2368280239999998 6.761327399999999 1.264083709517979 
Si -0.00045958651199999996 5.431444379999999 5.429798151120979 
Si 2.71494027 5.4295547399999995 8.144611562099156 
Si 1.3573577339999998 6.787586879999999 6.787753109936866 
Si 4.05961461 4.067906219999999 12.19987009126857 
Si 1.358561565 4.071571469999999 9.501709875091919 
Si 1.3689985679999999 6.78271617 12.226151985122009 
Si 2.59836903 7.95491199 16.47514953364911 
Si 1.1082086999999998 4.32590724 15.028103409228342 
Si 2.70829395 5.3558262 13.599869227083374 
Si 0.0388133685 8.06513013 13.68375198608366 
Si 2.81258253 7.454287709999999 20.55593610834761 
Si 0.5621564969999999 8.00399376 20.24531633288291 
Si 3.15486801 5.85242685 18.762085488893394 
Si 0.706215483 7.36852086 17.820357602616912 
Si 2.67489945 6.41529522 22.632479849432688 
Si 1.05642279 4.731332759999999 22.753575302989475 
Si 0.1372825089 7.981024859999999 25.146529745303567 
Si 0.1189469736 4.22165124 29.387817481422548 
Si 0.276223014 7.791686189999999 27.491135097360548 
Si 3.48298119 5.80399668 27.688197902511956 
Si 1.078787331 5.621679 27.71742665799694 
Si 3.74819868 5.4031812299999995 30.065629922511043 
Si 3.3448582799999995 7.996663259999999 32.22328089012949 
Si 3.6348691499999997 5.72588613 32.450394830756075 
Si 2.34936009 8.5698432 0.07725471893761131 
Si 1.3597377029999997 9.49697226 4.070918014816118 
Si 2.73711096 10.862188289999999 2.699465744411091 
Si 1.209016107 12.005778869999999 1.2807026384865812 
Si -0.0001240659432 8.14478823 8.144577296266231 
Si 2.7151357499999995 8.14480452 5.431340113602602 
Si -0.0007005921749999999 10.86055929 5.430003746118529 
Si 2.71490769 10.85994027 8.144885688762555 
Si 4.0607386199999995 9.51446772 12.205626751199963 
Si 1.3580549459999998 9.50213619 9.502703584246744 
Si 2.7161783099999997 8.14107411 10.859253643912709 
Si 1.340491068 12.23242164 12.236020545004395 
Si 3.1740739199999997 11.884581269999998 17.011992338084344 
Si 1.281100986 9.598019129999999 14.994454361296038 
Si 2.69267184 10.84586571 13.528150838771447 
Si 2.2576311 11.43103509 21.032128388505683 
Si 3.66538032 9.67507083 20.329233357716124 
Si 0.23401725299999998 11.94834033 19.9052964727686 
Si 3.67846119 9.66443346 17.80829602942733 
Si 1.5068070809999998 10.48527027 23.040483122070103 
Si 2.10957129 8.36455662 23.888117031134666 
Si 2.41917903 11.69170767 24.87750869100976 
Si 1.6927753499999998 11.285321039999998 27.083748609715784 
Si 2.1647781 9.15752124 28.122448803169885 
Si 0.0197786664 9.39012615 31.6486086061451 
Si 0.538298163 10.08939069 34.08100302215581 
Si 3.44515581 11.01775779 31.135991745587802 
Si 2.13677559 9.16191954 30.543398430983665 
Si 2.72386719 16.2919548 2.6998769344061904 
Si 3.79196991 14.711352389999998 1.2543693458837548 
Si -0.010154892779999999 13.5576783 2.6925097803273252 
Si 1.3589622989999999 14.93325477 4.069718710663744 
Si 7.860120480000001e-06 13.57507602 8.145022752094254 
Si 2.71606428 13.574717639999998 5.430038011951454 
Si 1.357670502 12.217548869999998 6.787581780772243 
Si 4.089751109999999 14.92802568 12.247910789029353 
Si 1.3582390229999999 14.93351541 9.50253225508212 
Si 2.7114867899999995 13.57709598 10.864564848016075 
Si 1.083110697 15.319914209999999 15.014911063552233 
Si 1.012083039 12.565161179999999 17.65516202208571 
Si 1.474305273 15.836958809999999 21.29583823869612 
Si 2.64254751 15.92495739 19.205553898608137 
Si 1.080698148 14.96707281 17.52443786947702 
Si 3.73296753 13.190778629999999 21.622562955635548 
Si 2.92120425 14.93478603 22.97428153285909 
Si 1.6178853329999998 13.89776463 24.593856126057 
Si 0.599359599 15.13057554 26.3069421773071 
Si 2.81948949 13.19537241 28.03931989249395 
Si 1.9303649999999999 15.3865566 28.17850770583511 
Si 0.56166291 15.79080924 34.1650228444878 
Si 1.9823952599999999 13.85158248 34.26583292495301 
Si 0.392390262 13.07140551 31.085072717861323 
Si 3.4841377799999997 15.004425779999998 31.471317186591392 
Si 2.6256873599999997 13.014602279999998 30.309842513767183 
Si 5.43949164 2.71397916 2.690231102437816 
Si 6.928055549999999 1.421292726 1.280397672573549 
Si 5.42988054 0.000509694552 5.429729619455129 
Si 5.42975022 2.7152009099999996 8.144680093765006 
Si 6.78794526 1.3574831669999998 6.787102059111293 
Si 4.072027589999999 1.3603974479999998 9.502223862585796 
Si 5.43005973 -0.0018141195599999998 10.864736177180701 
Si 6.78830364 1.363606578 12.261822717196885 
Si 5.25806991 2.76882759 13.693209355970946 
Si 6.429500099999999 3.69769968 17.289065863115518 
Si 5.15503566 1.5825897899999999 17.29304069973481 
Si 6.661518569999999 0.5439361319999999 20.945538628704327 
Si 4.81928247 2.06452944 21.085822948699086 
Si 7.7323254299999995 3.81748005 21.951000964221222 
Si 7.3891277099999995 3.3435224999999997 24.26966708075402 
Si 5.09477895 3.6568932299999997 24.56003574896007 
Si 8.04120012 1.048041585 24.568739270523007 
Si 7.4581484399999995 0.0780883956 26.613518584486652 
Si 4.659575309999999 3.8941896599999994 26.89319631282012 
Si 6.47646417 3.40847073 28.39791183405358 
Si 7.679350349999999 1.361850516 28.544261206476055 
Si 5.59035333 3.9911477399999997 30.502793418967595 
Si 4.957340219999999 2.04535611 31.766928527234963 
Si 4.8065925599999995 0.233531811 30.23480033966154 
Si 8.07812955 0.0367767927 32.299351039222884 
Si 6.05803923 0.617330727 33.39818776946027 
Si 4.21844211 4.07860875 1.1821986485772187 
Si 6.7893462 4.07191356 4.069718710663744 
Si 4.06947006 6.79042134 4.071466268142917 
Si 6.74977779 6.76300527 1.281946488221757 
Si 4.0726629 4.072516289999999 6.787444717440542 
Si 5.429212649999999 5.43015747 5.429832416953904 
Si 6.78713076 6.787831229999999 6.787890173268567 
Si 6.786397709999999 4.071473729999999 9.501264419263896 
Si 4.0723696799999995 6.787554299999999 9.501093090099271 
Si 5.43279645 5.430173759999999 10.860178821401682 
Si 6.7858275599999995 6.793027739999999 12.217928185220021 
Si 6.2172414 4.6092555 15.00367187035285 
Si 4.32815526 6.514941149999999 14.906322639013059 
Si 8.09999073 5.51836782 13.72435699809973 
Si 5.49839628 5.389676819999999 18.991974961986905 
Si 5.595061139999999 4.33514367 21.131910493983145 
Si 6.550925759999999 7.554015089999999 19.20267556864244 
Si 4.76651916 5.46615837 23.077969943290004 
Si 5.82312114 7.492634369999999 23.61388757023627 
Si 7.38187866 7.36327548 25.425796283641933 
Si 8.06374548 6.9835067099999995 29.028814349867815 
Si 4.10705109 8.0070237 27.15642644134961 
Si 6.4958981399999995 8.120239199999999 27.568850006434342 
Si 5.61311046 5.333508899999999 33.9481886537387 
Si 7.307498519999999 7.064386559999999 31.29854885698378 
Si 7.1451198 4.80172185 32.01888519673214 
Si 7.909919009999999 8.45393985 0.135808174239771 
Si 4.19511483 9.522172889999998 1.2913730188594117 
Si 5.42672028 8.1296874 2.7140766955702906 
Si 6.78913443 9.50249457 4.071260673145367 
Si 4.0732819199999994 12.217679189999998 4.074241800609838 
Si 6.8235877799999995 12.12085143 1.1832951552308173 
Si 4.0726140299999996 9.50220135 6.787890173268567 
Si 5.430613589999999 8.14491855 8.14498848626133 
Si 5.428202669999999 10.858979159999999 5.430038011951454 
Si 6.78861315 9.50138685 9.50164134342607 
Si 5.43129777 10.86064074 10.86154945471868 
Si 4.07219049 12.216913559999998 9.503183305907692 
Si 6.79092633 12.21673437 12.249898207339001 
Si 5.426101259999999 8.175983579999999 13.555563505111412 
Si 7.13829429 8.988007499999998 15.037492247449778 
Si 4.0845546 12.082830569999999 14.887682025901883 
Si 5.92876179 9.03896262 17.29156726891904 
Si 5.844737969999999 10.409472899999999 20.939919032104637 
Si 6.19037919 11.010915989999999 18.633108893763872 
Si 4.68550899 11.091193109999999 24.705973931387444 
Si 6.82024833 8.36387244 21.58716635022407 
Si 5.5091151 12.039922709999999 22.6416973584895 
Si 4.22376894 8.745628589999999 24.859107938729057 
Si 6.53830101 10.384435169999998 28.293195448634926 
Si 6.02760951 11.89859067 26.48066995023661 
Si 5.661654659999999 10.54507086 30.606584626897277 
Si 6.09022827 10.07117847 34.15224168880679 
Si 5.61240999 8.696123279999998 32.129289710416344 
Si 5.42035089 13.56502509 2.677306030258524 
Si 6.78763575 14.93305929 4.069924305661294 
Si 4.07197872 14.932880099999998 6.787444717440542 
Si 5.43009231 13.57507602 8.14512554959303 
Si 6.787554299999999 12.21686469 6.787273388275917 
Si 8.14496742 13.57395201 10.862783024703978 
Si 6.7875054299999995 14.931886409999999 9.501881204256545 
Si 5.518791359999999 13.59048636 13.78192359741365 
Si 7.184443859999999 14.79708666 15.341807109656285 
Si 6.14243772 15.69306924 17.288174951459464 
Si 4.36948299 14.266651679999999 19.62633832692656 
Si 6.63402105 15.035311619999998 19.45816161893089 
Si 5.04225999 12.930073469999998 17.830260428332224 
Si 6.85191609 15.845641379999998 23.0991119622047 
Si 4.6892231099999995 16.0625916 24.073015465597713 
Si 7.39170153 13.442279939999999 23.15681562485032 
Si 7.9677973799999995 12.79170621 25.377858383379923 
Si 6.7488003899999995 13.900859729999999 29.408205652012896 
Si 5.17767876 15.756469919999999 26.425056503399414 
Si 5.1021420299999996 13.69682748 27.606302561821316 
Si 7.08085575 16.08973074 30.1886099968787 
Si 6.08297922 12.774601709999999 31.363962332037516 
Si 4.95437544 14.75909838 33.3588163274295 
Si 8.14807881 -0.0168125832 2.6955902787072783 
Si 9.50622498 1.3565448629999999 4.07245997729774 
Si 10.86867171 2.70852201 2.709015632047275 
Si 9.61432542 3.9205143 1.147110435662067 
Si 8.145309509999999 -0.0001196687835 8.14498848626133 
Si 8.14519548 2.71529865 5.4285988469686055 
Si 10.860999119999999 0.000919562355 5.430449201946553 
Si 10.86008688 2.7147936599999998 8.144885688762555 
Si 9.5037489 1.3577421779999999 9.503320369239393 
Si 8.14074831 2.7183774599999997 10.863776733858801 
Si 12.184349849999998 3.58665075 17.082134498081725 
Si 8.296236359999998 0.06235062659999999 13.82328245775407 
Si 10.261217610000001 0.797840217 15.123876412253585 
Si 10.753061579999999 2.6334251099999997 13.619777676012772 
Si 10.51446195 1.8388640699999999 17.295987561366356 
Si 10.57862826 1.1947379219999998 20.715237965615717 
Si 8.38105839 2.0463660900000002 20.471436564354676 
Si 11.5830045 0.283446 18.788847104407782 
Si 8.578688669999998 3.25454652 18.348908075484314 
Si 11.08549161 3.31317423 21.654978433582556 
Si 11.22172488 2.81484684 23.969943840159452 
Si 10.35885987 0.693654264 24.439488548730083 
Si 10.485449459999998 3.92307183 27.781606563065377 
Si 11.176715609999999 0.27472922099999997 29.72300585909444 
Si 9.770595389999999 2.1445296299999996 29.23348416992856 
Si 8.8453071 2.2147395299999997 33.9254018748436 
Si 12.056212709999999 0.43064732699999997 31.898406528168007 
Si 10.686696119999999 0.583553412 34.005241265558745 
Si 9.133477199999998 3.26888172 31.464361222507627 
Si 10.8766701 8.12664117 2.6946102758856245 
Si 8.154040949999999 5.41644129 2.6762540691877272 
Si 9.504367919999998 6.784752419999999 4.066737583199273 
Si 9.50290182 4.0720927499999995 6.787239122442992 
Si 8.14442985 5.430336659999999 8.145296878757655 
Si 10.861292339999999 5.42947329 5.4308603919416525 
Si 12.215154239999999 6.80115645 12.262645097187084 
Si 9.5011425 6.788596859999999 9.501401482595595 
Si 9.48092661 4.0807916099999995 12.238624748306693 
Si 10.86283989 5.42875653 10.867306114650072 
Si 8.870540309999999 7.213391189999999 15.235103305927982 
Si 8.775683639999999 7.708818959999999 18.34654373301249 
Si 9.55237455 5.066727569999999 21.256432530832424 
Si 9.51112827 5.47471062 18.944893707548022 
Si 11.83136184 5.34232179 18.657848825135687 
Si 10.55862414 6.9273225 22.22128985433325 
Si 11.62835586 6.225972839999999 24.263430699161677 
Si 10.470478949999999 4.49981928 25.38813813325741 
Si 8.226417419999999 5.12603946 25.62398986127986 
Si 10.420240589999999 7.6333310999999995 29.292661263389956 
Si 11.40404256 7.97937957 25.719317408477078 
Si 8.28745605 4.87665585 27.99381486636961 
Si 10.90910349 7.034233769999999 31.556364983911124 
Si 11.107287629999998 4.665928409999999 31.805134930946284 
Si 11.54959371 4.69129194 34.18448583758917 
Si 9.531083520000001 9.517269599999999 1.3944891898804728 
Si 8.14040622 10.86479469 2.7143919412332003 
Si 10.656575909999999 11.12709627 0.168445352125801 
Si 9.49949721 12.218542559999998 4.070198432324693 
Si 12.21764661 9.50099589 4.0665319882017235 
Si 8.144185499999999 8.145716760000001 5.430414936113628 
Si 9.502038449999999 9.50259231 6.788095768266116 
Si 10.85994027 8.14534209 8.14546820792228 
Si 8.14496742 10.859744789999999 8.144817157096705 
Si 10.859533019999999 10.86117831 5.430038011951454 
Si 8.14680819 8.143990019999999 10.859013783082233 
Si 9.50808204 9.49296492 12.22961283424743 
Si 10.8579366 10.859321249999999 10.86024735306753 
Si 11.69591049 9.99226971 15.330773511454451 
Si 10.72523826 8.19263196 13.848433579120984 
Si 8.20232451 10.81333458 13.677481338658394 
Si 9.9968472 11.83839912 14.916568123057619 
Si 8.38607571 11.6429517 18.31001635511449 
Si 9.77396742 9.84644163 19.15624536502913 
Si 11.852978669999999 10.450360799999999 18.006009885404307 
Si 12.11848938 9.91124325 22.490927693619707 
Si 8.989962299999998 8.64979452 22.58515873416333 
Si 9.96762294 10.472922449999999 21.510959137798974 
Si 9.21758247 8.768906999999999 24.98410969723929 
Si 10.39569156 9.96131871 29.445418346569394 
Si 9.30805713 10.951815869999999 25.90921865454717 
Si 11.57976279 11.52137943 26.046967302905482 
Si 8.78632101 11.034194399999999 28.20653715716772 
Si 12.10594608 11.24340687 28.396849593232908 
Si 9.00716454 8.22183993 32.33718051877203 
Si 9.71048529 10.417764509999998 31.633634437156893 
Si 11.89217241 10.41018966 32.585025288318214 
Si 12.21448635 14.93200044 4.070986546481967 
Si 8.894046779999998 12.864652829999999 0.10500490373188451 
Si 9.595575629999999 14.973588809999999 1.2617022341296948 
Si 10.875937050000001 13.586299829999998 2.7059145741675668 
Si 8.14535838 13.57426152 5.429935214452678 
Si 9.50269005 14.93327106 6.787204856610067 
Si 10.86064074 13.574538449999999 8.144817157096705 
Si 9.50311359 12.217516289999999 9.501024558433421 
Si 9.49628808 14.93556795 12.241160419943137 
Si 10.86345891 16.28693748 10.862337568875954 
Si 12.07595619 15.166576439999998 15.020016672658052 
Si 10.93521636 13.59029088 13.594660820478783 
Si 8.818624080000001 13.21360092 16.482071231899948 
Si 10.424492279999999 14.39537526 18.179737658333817 
Si 8.6095908 13.63471371 19.52388348648095 
Si 12.14259858 12.79362843 18.629887905468927 
Si 11.85995079 13.471895159999999 24.74164466346232 
Si 11.12870898 13.686238979999999 22.44480588250272 
Si 11.177090279999998 16.04286441 22.488186426985713 
Si 9.12963276 12.74928705 21.687496709028334 
Si 8.91333414 13.36086252 28.723745639336958 
Si 11.08824462 15.35813055 26.01331825497318 
Si 8.95309803 14.53211352 26.695653786007764 
Si 8.24049198 12.284582219999999 32.116851213064585 
Si 9.411286859999999 14.31609183 32.44371299333571 
Si 10.42377552 14.355106379999999 30.290208191501186 
Si 12.32688735 1.47201327 1.296999468625689 
Si 14.93061579 1.3589215739999998 4.069924305661294 
Si 12.215431169999999 4.07378691 4.074652990604937 
Si 13.575010859999999 -0.000544441122 8.145159815425956 
Si 13.57357734 2.7140606099999998 5.4305862652782535 
Si 12.216783239999998 1.3575515849999997 6.787992970767341 
Si 14.93232624 1.3582373939999999 9.50123015343097 
Si 13.57240446 2.7147122099999996 10.858773922251759 
Si 12.22540065 1.3645302209999999 12.230640809235176 
Si 14.931185939999999 4.06248165 12.214433070261673 
Si 15.778770929999999 1.71911628 16.70555299423649 
Si 15.70916376 0.785823084 14.622361681563971 
Si 14.4570492 2.7521954999999996 19.79879826403785 
Si 13.938017219999999 0.413482554 19.384558609808092 
Si 14.45559939 3.4551741599999994 17.509532232154662 
Si 13.49015625 3.23206632 24.31722805685385 
Si 14.911409879999999 1.4780193929999998 23.59230009549355 
Si 15.872682779999998 0.840977766 25.67559420566484 
Si 15.647913359999999 1.9211448599999998 29.218167342611107 
Si 13.94992521 3.6129428099999994 26.612970331159854 
Si 14.28654177 1.404000891 27.342866838294277 
Si 13.36148154 2.96813574 34.12236188249623 
Si 13.71171654 2.23845777 31.817950352460215 
Si 14.90152185 4.1521581 1.2246471624046507 
Si 13.574799089999999 5.42776284 2.7173970547807182 
Si 12.29215707 6.694750169999999 1.2227008630945133 
Si 14.932244789999999 6.78879234 4.074344598108612 
Si 14.93227737 4.07300499 6.7876845782710165 
Si 13.575304079999999 5.4300760200000004 8.144474498767456 
Si 12.217679189999998 6.7873262400000005 6.787581780772243 
Si 16.28907147 5.43041811 10.860829872227256 
Si 12.21888465 4.07165292 9.50205253342117 
Si 14.9323914 6.78760317 9.50294344507722 
Si 15.57152955 6.14851389 15.005796351994197 
Si 12.289404059999999 4.0522515299999995 14.817539865904505 
Si 13.73391981 5.4718924499999995 13.649554684824556 
Si 13.70353896 6.71019309 18.38375642756899 
Si 12.407816069999999 7.99195545 21.12659928987978 
Si 12.83722047 4.29362046 20.529105961167375 
Si 15.76552716 5.9326551 20.212763791604207 
Si 15.381408959999998 5.6011698899999995 17.299722537155176 
Si 13.83967449 6.16822479 21.477412887365446 
Si 13.74779889 5.44573071 23.65867301386918 
Si 15.91523226 5.81152266 24.330386136697037 
Si 16.150915979999997 4.39575876 26.171318010590138 
Si 12.25965852 7.167746609999999 27.819024852619425 
Si 12.627356399999998 4.819070699999999 28.194132925648887 
Si 15.83642124 5.84190351 34.05023230418921 
Si 14.735054339999998 7.73175528 30.714761861441357 
Si 15.18882858 5.42525418 31.224123467870783 
Si 13.22425458 4.27047237 30.506117204761317 
Si 14.041295819999998 7.64760114 34.24403985521274 
Si 16.28571573 8.14444614 2.7164787304583298 
Si 15.009459389999998 9.439012439999999 1.2242976509088161 
Si 13.5900954 10.856698559999998 2.684388777924111 
Si 14.93289639 9.50192442 6.787478983273467 
Si 13.57448958 10.86062445 8.145091283760106 
Si 13.57628148 8.143973729999999 5.4306205311111775 
Si 12.218803199999998 9.503309069999998 9.501470014261445 
Si 13.57134561 8.1479322 10.863057151367379 
Si 14.919261659999998 9.496027439999999 12.259698235555538 
Si 16.28960904 10.86197652 10.863673936360028 
Si 13.37249358 10.88631378 13.757903248533259 
Si 16.02518976 11.000930219999999 16.281239185126797 
Si 15.45556104 9.19609596 17.748673480137914 
Si 15.319588409999998 9.86265018 20.330706788531895 
Si 13.4723187 8.96852466 19.05447584124202 
Si 12.59272386 9.77616657 24.856366672095064 
Si 15.574999319999998 11.119928669999998 23.3002866673071 
Si 13.89615192 11.15289963 21.706068790473662 
Si 14.94491841 9.869866649999999 25.105033821631444 
Si 14.37009318 8.245004309999999 28.43389095862478 
Si 15.612303419999998 11.42691372 26.793756865671906 
Si 14.35528557 10.58421573 28.56358713624573 
Si 12.9099879 8.211398039999999 32.21968297767236 
Si 13.452119099999999 12.15286128 31.831485356465574 
Si 15.28850709 11.20973544 30.64718963891335 
Si 12.299683049999999 12.29854275 1.286174892004696 
Si 14.935372469999999 12.21938964 4.073076762290389 
Si 14.96717055 14.87966067 1.1729263141877266 
Si 13.586886269999999 16.28441253 2.681150656712703 
Si 13.57551585 13.57496199 5.429421226958804 
Si 12.21720678 12.2181516 6.787753109936866 
Si 14.93234253 14.93261946 6.788130034099042 
Si 12.21670179 14.93123481 9.50123015343097 
Si 14.931528029999999 12.21833079 9.501675609258996 
Si 13.577063399999998 13.57318638 10.858054339760336 
Si 12.221246699999998 12.22056252 12.212685512782503 
Si 14.940259469999999 14.90984604 12.216797412733497 
Si 13.53231477 13.98685464 16.739407637166345 
Si 14.49953352 12.416335740000001 15.117126043167369 
Si 13.67866413 16.28912034 13.60613987450864 
Si 16.17961896 13.563901079999999 13.764996275948723 
Si 14.22185418 15.06999303 21.019552827822228 
Si 16.24777632 13.9862682 21.210344985548364 
Si 12.875094719999998 13.14611145 20.89342029682547 
Si 15.15202947 15.795598499999999 17.627920684910375 
Si 13.498056899999998 16.00236747 23.038804096256783 
Si 15.9270588 13.389337439999998 23.465002526177347 
Si 14.03336259 14.238160469999999 24.560823863117342 
Si 15.01359705 13.74530652 26.6892460752508 
Si 12.340701269999999 13.04442927 29.87860700640665 
Si 12.53821752 16.140685859999998 27.82889341250181 
Si 13.856013359999999 14.3783685 28.65545383431753 
Si 13.57349589 13.601416949999999 33.94472780461327 
Si 15.304878539999999 14.8512672 30.453690480386136 
Si 13.61816307 14.953894199999999 32.054179004644844 
