&CONTROL
  dt          = 30.D0,
  prefix = 'x.33_y2.00_z3.15_struc20-scf',
  pseudo_dir = './',
  outdir='./',
  wf_collect= .true.,
  verbosity= 'high',
/

&SYSTEM
ibrav= 6, celldm(1) =30.783621515, celldm(3) =2.1062332589269452, nat=  432, ntyp= 1,
  ecutwfc     = 12.D0, nbnd= 1728,
  degauss     = 0.05D0,
  occupations = "smearing",
  smearing    = "methfessel-paxton",
/
&ELECTRONS
  electron_maxstep=200,
  conv_thr    = 1.D-8,
  mixing_beta = 0.3D0,
  scf_must_converge=.false.,
/
&IONS
/
ATOMIC_SPECIES
Si  28.08  Si.pbe-hgh.UPF
K_POINTS {automatic}
1 1 1 0 0 0
ATOMIC_POSITIONS (angstrom)
Si 2.73220767 -0.017395439399999997 2.6826107259662657 
Si 4.02794685 4.0595168699999995 1.3727372484828464 
Si 1.376102637 1.408296564 1.3403206504912195 
Si 4.07564397 1.356064308 4.07111709853564 
Si -0.00274049928 -0.000400095432 5.429265505500663 
Si -0.000183068649 2.7156244499999995 8.14453300323707 
Si 2.71559187 -0.000369856305 8.144807487555374 
Si 2.71383255 2.71498914 5.429951716296421 
Si 1.356930936 1.3578105959999998 6.788031502181868 
Si 0.00309887928 -0.0036354392999999995 10.86223654929842 
Si 2.7162271799999997 2.71223613 10.85664393131299 
Si 1.371951945 1.359960876 12.22059081950217 
Si 1.0151716229999999 0.0986866119 16.174708977361004 
Si 0.10469550419999998 2.80561041 13.512245400358205 
Si 1.3472839979999998 4.057399169999999 15.049391893396805 
Si 2.93483898 2.11227543 20.745559087907697 
Si 0.796170492 3.01031055 20.616757321543844 
Si 3.15087696 0.494937441 17.4318128446506 
Si 0.46900050299999996 3.81676329 24.66866051779825 
Si 0.430337817 1.501778358 24.702971057586172 
Si 2.68291413 0.0410424921 21.83292871486646 
Si 2.1792110399999998 0.01138159494 24.146248238987383 
Si 4.02113763 0.1222924509 25.697427742799242 
Si 0.109035486 2.81429298 28.417155610708082 
Si 3.08892609 0.8413182269999999 27.72205838514461 
Si 2.3755706999999995 3.0944321099999996 27.911315322614776 
Si 0.1388095335 0.212726223 34.07643897494696 
Si 2.2643588699999997 3.28627944 34.201363650314775 
Si 1.3711863149999999 1.5894951210000001 31.848621315977528 
Si 3.06554994 3.20510637 31.934157491668813 
Si 1.356173451 4.07499237 4.0723522779680055 
Si 2.71169856 5.43422997 2.7169075415382706 
Si 1.492745553 6.662528549999999 1.1121830093333822 
Si -0.0008343102689999999 5.4307602 5.432833801638607 
Si 2.71446786 5.43002715 8.144601624316646 
Si 1.357823628 6.78577869 6.787722707323777 
Si 1.356929307 4.06990989 9.503779347475307 
Si 1.3501070549999998 6.788906369999999 12.22800189609636 
Si 3.7890702899999997 4.442869439999999 16.056886583729288 
Si 3.99508992 6.70898763 15.09749527017947 
Si 3.2322943799999995 8.0910801 16.860679599340887 
Si 2.66330097 5.44208175 13.639914918909055 
Si 1.110670119 6.829468469999999 16.668677818687687 
Si 2.76135048 4.40012448 18.1350759786836 
Si 1.503425277 7.42012758 20.441945121324395 
Si 3.3364037699999995 6.29953848 19.38768516526098 
Si 0.407570913 4.39360848 18.7244281206207 
Si 1.9833563699999999 6.4312431299999995 22.54947002779738 
Si 1.168036983 7.29102933 24.57550740227405 
Si 0.5846676479999999 4.542841169999999 22.434117993030387 
Si 2.39537934 4.30603344 25.900271654025428 
Si 3.6315134099999997 4.18227831 29.56518627201188 
Si 0.13674559049999999 7.013626919999999 28.813716829576858 
Si 2.69260668 6.60222297 26.207419606206884 
Si 2.36631798 7.511270129999999 28.313777954327076 
Si 0.440162316 4.915702979999999 34.24510958854437 
Si 0.5723833589999999 7.508256479999999 31.1948682908585 
Si 3.00934944 7.814361869999999 31.71302606273567 
Si 3.3249193200000002 7.439480099999999 34.09651064072289 
Si 4.03271982 9.27319653 1.2395574572420565 
Si 1.362725289 9.50296698 4.068303634273031 
Si 0.01615842567 10.05441606 0.2338060854361995 
Si 2.7110632499999996 10.84492089 2.6874588052382986 
Si 1.199999592 11.993642819999998 1.2685224149310184 
Si -0.000108771588 8.145228059999999 8.144738866475798 
Si 2.7146959199999996 8.14311036 5.430843790330908 
Si -0.0001448609427 10.86039639 5.428682226324268 
Si 2.71480995 10.86002172 8.144841798095163 
Si 1.35568638 9.503569709999999 9.501480541309517 
Si 2.7134253 8.14949604 10.865598982197637 
Si 2.7080170199999998 10.956214169999999 13.74607172901288 
Si 0.9802572659999998 9.82283742 14.89808241293208 
Si 0.380861829 10.77135525 17.027943480806996 
Si 2.08319778 9.719233019999999 20.417721880234122 
Si 2.9398074299999997 11.757160889999998 17.261255151364853 
Si 1.8726169499999998 9.44417637 24.178980493945055 
Si 0.9397000529999999 10.485563489999999 22.30298310996096 
Si 1.395073971 10.734539849999999 26.006874501146495 
Si 1.0969115849999997 10.683047160000001 29.787278396059087 
Si 2.43656046 9.87165855 27.953380044394766 
Si 2.33921142 11.613417929999999 31.938480619682093 
Si 4.03058583 14.663133989999999 1.162581761227858 
Si 1.360363239 14.928270029999998 4.069607434784971 
Si 0.00036720917999999995 13.575043439999998 8.145116282413465 
Si 2.71484253 13.574782799999998 5.430191890074936 
Si 1.357821999 12.217614029999998 6.787757017863565 
Si 4.08734019 14.91991326 12.206557808728911 
Si 1.359599238 14.933042999999998 9.50172071508803 
Si 2.71451673 13.57533666 10.857570315887264 
Si 1.362989187 12.20868711 12.220968235439837 
Si 2.78316279 16.25787612 13.560623261459172 
Si 3.3927997499999996 12.779244359999998 15.107788432115846 
Si 1.74913875 14.564351429999999 14.818104544686438 
Si 2.5333719299999995 14.94499986 19.084928962172373 
Si 2.95982784 14.02016769 21.20518307890667 
Si 0.24687169199999998 15.46781112 19.47160874558223 
Si 1.132145226 12.890521349999998 22.106246474817024 
Si 0.8074171079999999 14.30138196 23.98097436882897 
Si 1.9236535199999998 12.96104076 25.49129001975342 
Si 0.361535373 15.72752259 29.972006342277247 
Si 1.124977626 15.89265432 27.830788485732526 
Si 1.8094117499999998 13.658936939999998 27.696668585701552 
Si 2.7260500499999996 13.09009014 34.04055015032879 
Si 2.1767675399999997 15.628854059999998 31.47497953768708 
Si 1.047782574 14.522062589999999 33.20556885404997 
Si 6.785322569999999 4.07732184 4.0687496712902735 
Si 5.435565749999999 2.6906844599999995 2.6954462989009267 
Si 6.787407689999999 1.249343631 1.2774088447360896 
Si 5.429147489999999 -0.0001053614394 5.430226200614724 
Si 5.43041811 2.71453302 8.144567313776859 
Si 6.78794526 1.3569960959999998 6.787619775704413 
Si 4.06225359 4.06676592 12.243064223063259 
Si 4.07313531 1.3580956709999998 9.502441236423577 
Si 6.78993264 1.3405578569999999 12.231021223597699 
Si 7.645809239999999 3.57982524 15.232816039103026 
Si 5.502762 2.79303453 15.827246140928738 
Si 4.408416089999999 0.5696059139999999 15.233193455040693 
Si 5.18393412 2.3822821800000002 13.547688187959126 
Si 7.884669509999999 3.6379805399999996 19.257270803527096 
Si 6.38791173 1.8827819099999998 18.670045915056846 
Si 4.0581648 2.3435282699999997 18.678657860543613 
Si 5.9484238199999995 1.599164865 22.853049683840894 
Si 8.05082751 0.661789395 22.841795826790456 
Si 4.197297689999999 3.74450085 24.522463307761925 
Si 4.36905945 3.25112562 22.18121500425363 
Si 5.455178909999999 1.88056647 25.11490339827994 
Si 4.92977754 0.482415318 29.13465761875306 
Si 7.4995087499999995 2.46811419 26.1534148165807 
Si 7.21943478 3.69199818 28.156704303177982 
Si 5.4849896099999995 2.7621812699999997 29.437276579682514 
Si 6.083549369999999 0.345312162 32.21632737088466 
Si 8.01730269 2.6816598 34.103921717317085 
Si 5.37789915 2.59426395 31.792592204503855 
Si 4.07293983 6.78688641 4.072798314985248 
Si 5.20289568 5.65821747 0.052916802409511035 
Si 6.86620242 6.92725734 1.2470440170237804 
Si 4.072060169999999 4.073184179999999 6.787859949482929 
Si 5.427502199999999 5.4288216899999995 5.431907417064333 
Si 6.7870167299999995 6.787342529999999 6.787619775704413 
Si 6.78514338 4.0713922799999995 9.502612789122518 
Si 4.07178324 6.7850945099999995 9.503813658015096 
Si 5.43683637 5.42906604 10.859388774496022 
Si 6.772844429999999 6.7768029 12.234555209195854 
Si 5.43409965 8.07255837 13.738900826197204 
Si 8.13560067 5.41424214 13.653055855647828 
Si 4.80553371 5.07899394 20.787143462130658 
Si 7.043633099999999 5.53833936 20.34419439346861 
Si 7.070674499999999 7.40360952 18.898451178425027 
Si 4.78316754 7.97415048 18.624207033900184 
Si 4.38020181 6.481286009999999 22.549950375354406 
Si 7.879358969999999 5.47296759 24.225848691295358 
Si 5.5312695 5.662632059999999 24.444681314062713 
Si 4.8784803299999995 7.487470439999999 25.768107454762358 
Si 4.12154919 6.54343236 29.598639048305103 
Si 7.518844979999999 6.04547964 27.958560935902742 
Si 5.666720849999999 7.47924399 28.028108400052858 
Si 7.66319067 6.527060909999999 32.24696668291528 
Si 6.81218478 4.31911431 32.78873010616653 
Si 8.13569841 10.868394780000001 2.6912089472371186 
Si 5.43957309 8.13760434 2.715922829046357 
Si 6.7836447 9.504481949999999 4.071768998791611 
Si 6.68546487 12.12919191 1.2400103563672569 
Si 4.07276064 9.502657469999999 6.787276670306533 
Si 5.430255209999999 8.14521177 8.145013350794102 
Si 5.429261519999999 10.85964705 5.431015343029846 
Si 6.78797784 9.502250219999999 9.502647099662305 
Si 4.077615059999999 9.505948049999999 12.261248809150855 
Si 5.42843073 10.85876739 10.865221566259969 
Si 6.764634269999999 12.23299179 12.243475949540715 
Si 7.42002984 9.124924949999999 14.84658229271041 
Si 7.943069159999999 10.9037115 18.755993817225583 
Si 4.42021005 9.627715799999999 20.266412399769397 
Si 5.789840669999999 11.44802556 19.642612475885223 
Si 5.13799632 11.13146199 25.10097331912604 
Si 5.20371018 8.64682974 22.24904694141435 
Si 7.1304587999999995 11.68209657 23.906040149932156 
Si 4.21337592 9.22686777 24.259747504605823 
Si 7.56401715 8.62851978 22.260918388180972 
Si 7.6565932199999995 8.80060734 25.933072530062677 
Si 4.48227495 10.95570918 27.39363789829464 
Si 8.10098442 10.262292749999999 27.728268592846224 
Si 6.0048035099999995 9.764649539999999 28.674038622100237 
Si 4.13197479 10.018952729999999 32.30402511058259 
Si 7.75560384 8.632071 33.71120327890455 
Si 5.75494749 10.10457297 34.18376234340357 
Si 8.11250145 10.40502573 31.517455985944526 
Si 5.86604529 10.877549759999999 30.76475136407714 
Si 4.07707749 12.217109039999999 4.071734688251823 
Si 5.42248488 13.552139699999998 2.7036945526659424 
Si 6.7860393299999995 14.93675712 4.068337944812819 
Si 4.073021279999999 14.93177238 6.787722707323777 
Si 5.43032037 13.57562988 8.144807487555374 
Si 6.78709818 12.21746742 6.787482533545261 
Si 4.07166921 12.21890094 9.501857957247182 
Si 6.78574611 14.93257059 9.501446230769728 
Si 5.43396933 16.28801262 10.856575310233413 
Si 5.26285917 13.59281583 13.784053496558107 
Si 6.24874626 15.27998742 15.148069005826862 
Si 7.99215093 16.23081843 13.770020485784848 
Si 5.00502105 12.747429989999999 17.776565148439623 
Si 6.27277401 15.995672279999999 19.690441368349582 
Si 6.4255905 14.64795171 17.451610026108234 
Si 6.5834731799999995 12.44445228 21.720390144362078 
Si 4.90050441 13.851908279999998 22.487951229957638 
Si 4.106366909999999 13.15252971 24.609612078823243 
Si 5.029700399999999 16.06083228 21.777242708790663 
Si 7.34965704 13.60579896 25.266178568204875 
Si 7.5222333 13.826886839999998 28.9854410812154 
Si 5.25725541 14.43979809 26.308052419404852 
Si 6.612550829999999 15.68132415 27.902428892809702 
Si 4.14986121 13.18067883 28.072506238538427 
Si 7.79235408 13.80448809 34.22524378600717 
Si 5.49052821 13.18256847 30.02693751647771 
Si 4.52788695 15.239425319999999 30.907448899055098 
Si 5.967988109999999 15.576025589999999 34.30769201311754 
Si 9.50510097 1.3548018329999998 4.074376599815492 
Si 10.87347726 2.7016964999999997 2.6896409555688106 
Si 9.338763779999999 3.86423235 1.3500305332512008 
Si 8.144332109999999 5.6777654699999996e-06 8.145356456191982 
Si 8.14628691 2.71500543 5.429162573881299 
Si 10.858979159999999 0.001005514911 5.43111827464921 
Si 10.860363809999999 2.7151520399999995 8.145459387811345 
Si 9.50151717 1.3564275749999999 9.503607794776368 
Si 8.14275198 2.71997388 10.86275120739524 
Si 10.86453405 -0.001438421661 10.86474121870294 
Si 9.10694079 1.5313772879999998 15.190991491101551 
Si 10.76203737 2.58838326 13.667397661279178 
Si 11.132553419999999 3.9063582899999996 17.087849683276705 
Si 9.93251799 0.1471340493 17.306579374424697 
Si 10.08738702 0.73055763 19.714801851599006 
Si 12.043701989999999 0.094716576 20.844030337099028 
Si 9.78955695 2.9838555899999997 20.451140345987557 
Si 9.036698309999998 3.48131961 24.664028594926883 
Si 9.66703986 2.2839557399999997 22.740854218734395 
Si 11.49516882 0.814535838 23.022166334455548 
Si 10.46875221 3.15019278 28.440452467224077 
Si 10.85405958 3.9589098299999996 26.124662584238422 
Si 8.357633369999999 0.43412198399999996 26.809500958405305 
Si 10.087712819999998 0.82647315 28.380580575294157 
Si 9.94805865 0.0658195821 30.65458022081813 
Si 9.452370239999999 1.191722643 32.77106017817575 
Si 10.303115489999998 3.26643822 32.06213580507775 
Si 8.900399879999998 3.9020903099999997 30.15766067306968 
Si 10.82587788 8.16394527 2.703176463515145 
Si 8.1476064 5.434458029999999 2.681897066738677 
Si 9.506876579999998 6.78208086 4.070019161262427 
Si 9.50262489 4.07280951 6.787516844085049 
Si 8.14491855 5.42966877 8.145150592953254 
Si 10.8600543 5.43097197 5.432593627860091 
Si 9.5027715 6.78612078 9.502475546963366 
Si 9.511877609999999 4.07896713 12.236888325901432 
Si 10.863491489999998 5.42807235 10.855202888641898 
Si 8.14330584 8.14410405 10.862270859838208 
Si 12.212352359999999 6.76046403 12.229717423085757 
Si 8.90830053 7.22158506 14.993191229224193 
Si 10.727909819999999 8.01342567 13.56559828972842 
Si 8.6680719 6.6604271399999995 17.283831486545303 
Si 11.455128 4.71704643 20.44318030075676 
Si 12.18550644 5.49020241 18.362074509920475 
Si 8.77066632 4.33727766 17.163641665668223 
Si 10.827897839999999 7.33475169 18.028919168579773 
Si 8.33904648 6.4006668 22.14789947011956 
Si 11.731178339999998 7.408138139999999 23.73771264173262 
Si 10.65320388 6.64658064 21.69500034491902 
Si 11.01306627 6.295026149999999 25.83981648291911 
Si 10.462513139999999 7.59213369 29.67889140086905 
Si 8.70747741 6.736403699999999 26.031852574112097 
Si 11.90041515 6.84443898 27.95228210712155 
Si 8.61845256 6.2481924 30.042686054240363 
Si 9.37857654 9.49845465 1.1898106056035511 
Si 11.159106119999999 10.665453959999999 0.06673125504432124 
Si 8.14456017 8.14519548 5.4276872206704185 
Si 9.50262489 9.50332536 6.787928570562505 
Si 10.860347519999998 8.14529322 8.144979040254313 
Si 8.14513032 10.859598179999999 8.144670245396222 
Si 10.860673319999998 10.85963076 5.4331425964966975 
Si 9.49871529 9.52106517 12.22638930072633 
Si 10.86341004 10.85585148 10.859079979637933 
Si 9.50296698 12.215903579999999 9.503333310458064 
Si 9.22841532 10.38189393 16.582249568961917 
Si 11.595808439999999 9.230272379999999 16.843352776747988 
Si 8.17207398 10.93420638 13.614284945687478 
Si 11.82129462 10.45501974 20.43920027814136 
Si 8.29571508 9.0383436 20.077807362555202 
Si 10.55323215 8.44286265 20.100452318815226 
Si 8.53389117 9.79967304 24.04846320059181 
Si 10.899639 9.63560016 24.274501036714625 
Si 11.60752095 11.18253114 22.688667887716967 
Si 11.91620016 10.58990094 26.259056968587704 
Si 9.62077626 9.811971989999998 29.54250700521207 
Si 11.49575526 11.055322529999998 30.41979319704939 
Si 11.040824429999999 12.137874479999999 32.54045904026115 
Si 9.50410728 12.214600379999998 4.0709455458367 
Si 9.491792039999998 14.91471675 1.378532298653026 
Si 10.87157133 13.56267933 2.7110884739902392 
Si 8.152656299999999 16.2913032 2.7211037205543334 
Si 8.14493484 13.574473289999998 5.429883095216845 
Si 9.50298327 14.93252172 6.787482533545261 
Si 10.86007059 13.57499457 8.145081971873678 
Si 12.20142177 12.22134444 12.235515904309917 
Si 8.14240989 13.57862724 10.863197244412483 
Si 9.48418461 14.92955694 12.252019273947907 
Si 12.19330935 13.090399649999998 17.069527855029957 
Si 12.151769849999999 15.65065008 16.932766043435308 
Si 10.04957793 12.60790614 15.876275902285677 
Si 10.770605909999999 13.51415142 13.711726878685171 
Si 8.33815053 15.832690829999999 20.824953676976946 
Si 8.6118714 13.58134767 21.372515581452358 
Si 12.147176069999999 14.0475186 21.015136999021383 
Si 9.192968279999999 12.805340939999999 19.268044313020503 
Si 11.51049771 12.52657017 19.31968167540132 
Si 8.8241301 14.240962349999998 17.387037590227365 
Si 8.56521684 15.581156939999998 24.74177627808631 
Si 10.58892354 13.351267709999998 22.631506528430293 
Si 10.80188271 15.123652289999999 24.17850014638803 
Si 12.10850361 16.07739921 27.683870754360655 
Si 11.30273505 13.07541285 29.310156029768272 
Si 11.869480439999998 14.401141919999999 26.103939018206518 
Si 10.75069953 12.5670834 27.070981582129043 
Si 8.36574579 12.554605259999999 27.15514533622881 
Si 9.380547629999999 14.057015669999998 30.38006159197498 
Si 8.79182703 12.63155922 32.270743886988306 
Si 10.80209448 16.237432169999998 34.27389613142644 
Si 11.92064733 14.45128254 33.01274362044187 
Si 16.27849926 2.71414206 2.7111021982061545 
Si 12.347754839999999 1.322972802 1.210956191274846 
Si 14.93089272 1.359767025 4.07622936896404 
Si 14.930778689999999 4.00769838 1.2507152447810879 
Si 13.57463619 0.000310508577 8.145150592953254 
Si 13.57667244 2.71388142 5.429368437120027 
Si 12.21727194 1.357528779 6.787688396783989 
Si 14.93268462 1.3570042409999998 9.503436242077427 
Si 13.57198092 2.71601541 10.86161895958224 
Si 12.21551262 1.353948237 12.233834687860307 
Si 14.930029349999998 4.08093822 12.225806021549934 
Si 14.248700099999999 2.72898225 16.149284867378157 
Si 13.714876799999999 0.0629408133 13.586939445476506 
Si 15.47980056 1.14445395 14.828946675259422 
Si 12.36782412 3.7978831799999995 15.054572784904781 
Si 13.35395556 3.5995687199999997 21.309898846339404 
Si 15.85660455 0.990668205 20.877208629073944 
Si 13.741071119999999 1.511050626 20.009735251615968 
Si 13.746251339999999 0.9775189169999999 17.690171209253638 
Si 15.125998049999998 0.7900894350000001 23.166064738326085 
Si 13.28420178 2.28066516 23.33988193289169 
Si 13.07111229 3.24583137 25.497637469614183 
Si 12.75733431 2.94153417 28.966982010809495 
Si 15.85279269 1.094391522 26.852492064759566 
Si 13.537218059999999 1.5802684649999998 27.136102986646513 
Si 13.84842222 2.5047015299999997 34.07554690091247 
Si 15.834303539999999 1.6098152669999999 30.371243783249483 
Si 13.508221859999999 1.79284482 30.89022500808156 
Si 12.64721391 3.5677380599999995 32.247138235614216 
Si 12.5494902 7.3390685399999995 1.3599394171419523 
Si 12.2129388 4.075253009999999 4.066965523221302 
Si 13.57791048 5.44595877 2.67561137584953 
Si 14.943484889999999 6.776167589999999 4.0740678049574015 
Si 14.93359686 4.07259774 6.7884775391991115 
Si 13.57489683 5.4297828 8.145047661333889 
Si 12.21725565 6.78766833 6.788100123261444 
Si 13.57496199 8.147622689999999 10.862442412537147 
Si 16.28799633 5.430304079999999 10.86196206498012 
Si 12.21663663 4.0742593199999995 9.500897262133122 
Si 14.93170722 6.78730995 9.502852962901033 
Si 16.21087947 8.1096507 13.642419588313574 
Si 15.880290209999998 4.38880293 16.570412432735086 
Si 13.57628148 5.3898397199999994 13.699821121378763 
Si 14.46516162 7.206076979999999 15.008836835367486 
Si 15.252327 7.558722899999999 17.47113272324756 
Si 15.76697697 6.33391038 19.702278504576416 
Si 14.11676739 7.46399655 23.152374832950706 
Si 14.817758669999998 5.51805831 21.755832931963003 
Si 15.205086 7.10628444 25.22668713690898 
Si 13.313312009999999 5.23000224 29.09248996535371 
Si 14.915123999999999 4.81040442 25.82612657754373 
Si 15.44090004 4.95043326 28.131245882655342 
Si 12.27702366 7.760458259999999 31.423204933147108 
Si 13.54482549 5.626191329999999 31.463931543875372 
Si 15.76239948 5.775244829999999 32.27993911165147 
Si 14.513233409999998 9.11925603 1.5335679037387209 
Si 13.568625179999998 10.873933379999999 2.732662941408883 
Si 14.935649399999999 12.21507279 4.07046519827967 
Si 16.3082448 8.11650879 2.6998380479937802 
Si 12.207025530000001 9.511812449999999 4.079969217800923 
Si 13.575434399999999 8.145032579999999 5.427618599590843 
Si 14.931886409999999 9.50308101 6.787379601925897 
Si 13.57499457 10.859353829999998 8.145013350794102 
Si 12.21670179 9.502250219999999 9.501377609690152 
Si 14.9406993 9.49531068 12.207827298701066 
Si 16.2934209 10.8576108 10.860143606371357 
Si 12.630141989999998 8.88797061 14.706663911455275 
Si 13.584165839999999 10.8134649 13.555957028048015 
Si 14.30553591 11.825204219999998 17.00773457287191 
Si 15.339348179999998 11.69827254 14.850630936405386 
Si 13.7909511 9.48296286 17.705405088919477 
Si 14.087494259999998 10.05032727 19.96122014835585 
Si 15.40051713 11.81551167 19.13080215386882 
Si 13.898123009999999 11.39221602 23.164589385115203 
Si 14.97476169 9.54457164 22.100070577655202 
Si 13.93080075 11.696545799999999 25.515924987321146 
Si 13.243460489999999 9.5055408 29.971491684180428 
Si 15.576221069999999 10.812520079999999 26.91627535822531 
Si 15.1653384 8.46307854 27.242911697006306 
Si 12.91689486 8.918465489999999 27.711902465367388 
Si 15.51938526 9.50104476 30.75486992861822 
Si 16.23847473 11.02534893 32.45437389593325 
Si 12.3289236 8.702248319999999 33.742666043890075 
Si 12.35348892 12.283669979999999 1.3311151326661206 
Si 12.217174199999999 14.93213076 4.07128865123458 
Si 15.10446267 15.117527249999998 1.3496428241515974 
Si 13.583530529999999 16.289429849999998 2.7138264550653153 
Si 16.2978192 13.569749189999998 2.701183021153467 
Si 13.573984589999998 13.57388685 5.4295056792791785 
Si 12.216538889999999 12.217581449999999 6.78816874434102 
Si 14.932863809999999 14.932733489999999 6.787791328403353 
Si 12.21644115 14.93087643 9.50240692588379 
Si 14.93318961 12.21561036 9.502132441565486 
Si 13.574847959999998 13.57611858 10.86374621304909 
Si 14.93283123 14.927716169999998 12.217331318222318 
Si 12.459553109999998 14.775616439999999 14.77353515350193 
Si 16.27123392 13.521726269999998 13.598330544686096 
Si 15.784309529999998 13.587814799999999 20.603444832106135 
Si 15.46308702 15.60552678 17.400658874523174 
Si 14.097056489999998 13.526922779999998 22.18124931479342 
Si 14.79421962 14.866416899999999 23.98248403257964 
Si 14.17505301 13.99747572 26.105311439798037 
Si 12.961382849999998 14.72666499 29.480713723054023 
Si 16.28582976 12.398791409999998 28.64957520723145 
Si 13.82077809 13.704467489999999 34.19340360508398 
Si 15.124010669999999 13.955040269999998 30.08183438013838 
Si 12.258257579999999 16.0432065 31.29800577346099 
Si 15.34736286 13.19217957 32.34869743338646 
