&CONTROL
  dt          = 30.D0,
  prefix = 'x.33_y2.00_z3.16_struc31-scf',
  pseudo_dir = './',
  outdir='./',
  wf_collect= .true.,
  verbosity= 'high',
/

&SYSTEM
ibrav= 6, celldm(1) =30.783621515, celldm(3) =2.1115588181846787, nat=  432, ntyp= 1,
  ecutwfc     = 12.D0, nbnd= 1728,
  degauss     = 0.05D0,
  occupations = "smearing",
  smearing    = "methfessel-paxton",
/
&ELECTRONS
  electron_maxstep=200,
  conv_thr    = 1.D-8,
  mixing_beta = 0.3D0,
  scf_must_converge=.false.,
/
&IONS
/
ATOMIC_SPECIES
Si  28.08  Si.pbe-hgh.UPF
K_POINTS {automatic}
1 1 1 0 0 0
ATOMIC_POSITIONS (angstrom)
Si -0.024282199799999998 2.7156081599999995 2.7113150364693825 
Si 2.3214064499999996 3.26638935 0.3214750379257539 
Si 1.26873036 1.376786817 1.2921343171132005 
Si -0.00030021655499999996 2.71547784 8.145382209379934 
Si 2.71596654 -0.000815182551 8.145175825621044 
Si 2.7146633399999995 2.715543 5.431057409760081 
Si 1.3567354559999998 1.3578659819999999 6.787824240698803 
Si 2.7166995899999997 2.71441899 10.861117298018863 
Si 1.361158191 1.3546128689999999 12.245023593251538 
Si 1.3591577789999998 4.0742593199999995 9.50266499971588 
Si 2.51853174 3.10197438 16.679832201559478 
Si 2.76087807 0.06596782109999999 13.736627813331314 
Si 3.82218786 1.72665855 15.11702558466287 
Si 3.5104298399999996 2.38089753 20.154543563514064 
Si 2.13022701 1.4564612069999998 18.5161660935708 
Si 0.06509467709999998 1.86238683 22.16368945630209 
Si 3.4588882799999996 1.432910754 23.75384192125154 
Si 2.28543813 2.6970049799999996 22.19340871758216 
Si 2.77900884 1.7966078099999998 25.9466693594511 
Si 3.3889878899999997 1.7651843999999999 29.67069230214405 
Si 0.429806763 1.96107165 26.231031781907507 
Si 4.03446285 3.68611749 26.45306630917932 
Si 3.54716379 0.39384333 27.722773591159875 
Si 3.2521681799999995 3.90971403 28.62491139855846 
Si -0.01099322505 0.0683323146 34.11327469870349 
Si 1.83936906 1.374537168 31.408821922217182 
Si 2.4548378399999997 3.52631259 32.387287323111686 
Si 4.0703823 6.7897045799999995 4.072983481681726 
Si 1.360144953 4.07132712 4.07019730093672 
Si 2.7354493799999995 5.41828206 2.7282178663224217 
Si 1.489174785 6.70973697 1.2548854883629839 
Si 0.01555795998 8.139852359999999 2.685348519871785 
Si 3.35091816 7.53679656 0.009814304475638828 
Si 0.0006696476909999999 5.42971764 5.430644642242302 
Si 2.71595025 5.42997828 8.144178304119745 
Si 1.3578105959999998 6.787554299999999 6.787205089422134 
Si 2.71767699 8.1459774 5.429819107206744 
Si 4.067319779999999 4.07232081 12.227308987280198 
Si -0.00437697639 5.43085794 10.858296719980707 
Si 1.368970875 6.78263472 12.215510715730357 
Si 4.07686572 6.57031086 14.894199919648644 
Si 0.9018143999999999 4.32795978 15.215573829532543 
Si 2.54663199 5.2760052 13.632025644867552 
Si 3.65945076 7.64838306 16.937915092050638 
Si 0.263722068 5.58911529 20.959199442130572 
Si 4.06570707 4.55049747 19.38156759188708 
Si 0.7751189249999999 7.01318709 19.124826195828703 
Si 2.5414843499999997 5.67770031 17.90416945387752 
Si 0.08647204409999999 5.99791284 24.875228075176935 
Si 2.18833344 5.08306644 22.14380782086241 
Si 2.25023544 6.323273009999999 24.08340238690472 
Si 3.46595814 7.49955762 28.802642212255357 
Si 1.023570747 4.65462315 28.43761813736636 
Si 1.104220908 6.96500127 28.514771265897835 
Si 0.508583574 4.83068547 34.39798109409138 
Si 0.221633595 7.176266279999999 32.37139577367721 
Si 0.584955981 4.904267399999999 31.99828833489837 
Si 4.04277075 9.433408680000001 1.2212758932278498 
Si 1.3534790849999998 9.50400954 4.068855806503939 
Si 2.72139111 10.85327766 2.6895277909892945 
Si -0.000333992241 8.14478823 8.144900647275858 
Si 0.000826536681 10.86121089 5.43088542329434 
Si 2.71461447 10.86020091 8.145107031034748 
Si 1.358941122 9.50229909 9.504419261666436 
Si 2.72451879 8.135942759999999 10.857574376824594 
Si 2.1504429 10.3288374 13.53203271368565 
Si 0.34774263 8.413035659999998 13.566877171644807 
Si 2.67165774 12.02272047 17.131847030820346 
Si 1.235218572 9.281260080000001 20.05974462359755 
Si 3.7270705499999996 9.329967179999999 19.773834322949476 
Si 2.4438746699999996 11.479367519999998 19.519466340118324 
Si 0.36720266399999996 11.78781867 22.526993666533677 
Si 2.6291571300000003 8.65691325 23.786760130794395 
Si 0.846117261 9.49491972 22.412829050574707 
Si 3.33076743 11.73168333 25.00136294915149 
Si 2.75644719 9.66585069 25.908316377590825 
Si 0.643078701 9.85725819 26.970401598128678 
Si 0.929031732 11.59662294 30.61606750702996 
Si 3.59285724 8.91955692 30.68365818806623 
Si 2.2250836799999996 8.38342044 32.54420777445391 
Si 1.390169052 10.6679952 32.72414001491229 
Si 3.20352624 11.159383049999999 30.22699972423035 
Si 3.45905118 11.999490929999999 32.85519370180704 
Si 2.7196154999999997 16.297167599999998 2.6829819861031865 
Si 1.569662046 12.44635821 1.3101722576401313 
Si 1.355008716 14.93051805 4.074393770700804 
Si -0.0007406150759999999 13.57409862 8.144625468930672 
Si 2.7135719099999998 13.574880539999999 5.430163080138227 
Si 1.3575043439999999 12.21728823 6.787411473181024 
Si -0.00213076458 16.28724699 10.862630778917385 
Si 1.355745024 14.93331993 9.502561807836432 
Si 2.7173511899999996 13.57317009 10.862665176210534 
Si 1.3466796389999998 12.206096999999998 12.224694793000934 
Si 0.0683899812 13.533047819999998 13.75551192726969 
Si 1.1822907329999999 15.121632329999999 15.084829718276128 
Si 1.72882512 14.22848421 17.188361783462888 
Si 2.814912 12.372271289999999 14.817906723445873 
Si 1.91827782 15.0632001 21.17208428942496 
Si 1.045586682 12.96622098 20.673151552309907 
Si 2.72911257 15.47849736 18.974922792288723 
Si 3.07265238 15.46986366 23.265262769374104 
Si 1.236226923 12.611832029999999 24.521830285372037 
Si 1.4355334439999998 14.88301641 24.945467347785616 
Si 3.9850226999999996 13.031902259999999 26.860330260054347 
Si 2.3505492599999998 14.717379689999998 27.17651017867286 
Si 0.4388819219999999 14.66080452 28.52282023249452 
Si 2.69329086 13.828141169999999 34.11162362863238 
Si 1.516937832 15.321347729999998 32.615203787511845 
Si 0.594027882 13.97056464 30.7988203255265 
Si 6.7899163499999995 4.07176695 4.069578149660052 
Si 4.06930716 1.359620415 4.068855806503939 
Si 5.4479298599999995 2.69506647 2.690514993302649 
Si 6.82256151 1.242580023 1.2084869796353386 
Si 5.430466979999999 0.00019499455799999998 5.429887901793041 
Si 5.430466979999999 2.7148914 8.14486624998271 
Si 6.78794526 1.357554843 6.787652254233062 
Si 8.13807675 2.71849149 10.86060133862164 
Si 4.0726140299999996 1.3582357649999999 9.502011451146062 
Si 5.43307338 -0.0041473688399999995 10.862493189744791 
Si 6.78678867 1.3670747189999999 12.231849429975766 
Si 7.16326686 3.9341979 14.922543289202785 
Si 5.78487222 0.912767796 16.101476114565166 
Si 5.442032879999999 2.77242768 13.665597402980222 
Si 6.59762919 2.16292104 18.145397670726044 
Si 5.5198502099999995 1.027683972 19.992257134440724 
Si 5.652222749999999 2.24930691 23.63069961178088 
Si 6.866984339999999 1.081170558 21.957993643275685 
Si 7.181055539999999 2.61825912 29.386295482394498 
Si 7.22437065 1.3508303309999998 27.25861651741768 
Si 6.20152155 2.93407335 25.89166808770708 
Si 5.35186773 2.34996282 30.898090913552288 
Si 5.90909976 0.1472451471 31.925813238235055 
Si 8.15891166 2.67519267 34.28240618911333 
Si 4.2083586 4.1832394200000005 1.3320145387892564 
Si 6.8468173199999995 6.77310507 1.2326579575305985 
Si 5.4428636699999995 8.14366422 2.6906904194977046 
Si 8.148306869999999 5.4251890199999995 2.7004902083156352 
Si 4.0721742 4.0728258 6.787617856939913 
Si 5.429180069999999 5.43072762 5.42950953156841 
Si 6.78773349 6.7874728499999994 6.787858637991951 
Si 6.787391399999999 4.07297241 9.501392299869394 
Si 4.07204388 6.78867831 9.499190873107906 
Si 5.429147489999999 5.43102084 10.858778282084783 
Si 6.790095539999999 6.77976768 12.218675266699993 
Si 5.37690546 8.06980536 13.569594557803518 
Si 5.902420859999999 5.34139326 16.32041488545364 
Si 6.14465316 7.639342109999999 16.61451174187099 
Si 4.2707493 5.653330469999999 21.36003109918688 
Si 4.959425339999999 7.916874839999999 21.243114699776054 
Si 7.042623119999999 8.131674779999999 20.124789904940847 
Si 7.63139259 5.84356509 20.050904519258456 
Si 6.23356398 4.56533766 18.548052384319206 
Si 7.567470629999999 4.94131086 22.227393243212607 
Si 5.41945494 4.522087709999999 23.055301691997318 
Si 4.243154039999999 5.44244013 24.917295964697217 
Si 5.50701369 7.38298638 25.219957747108477 
Si 7.751270699999999 6.857340659999999 25.55725760372001 
Si 4.65980337 5.53975659 29.54545175779135 
Si 6.934376069999999 4.95514107 28.930118580662693 
Si 7.537464449999999 4.787810189999999 26.64782378298459 
Si 5.0510728799999995 5.78720169 34.111830012391266 
Si 4.65478605 4.463655479999999 31.828159322987233 
Si 6.785664659999999 9.502185059999999 4.07270830333654 
Si 4.0725814499999995 9.50246199 6.787445870474172 
Si 5.4299457 8.14407147 8.144556674344376 
Si 5.43095568 10.86042897 5.430919820587488 
Si 6.789574259999999 9.500328 9.503043369940508 
Si 4.05472761 9.50255973 12.232021416441505 
Si 5.42549853 10.86586983 10.864041067936462 
Si 6.7806962099999994 12.214404899999998 12.24612430663228 
Si 8.09950203 10.71852678 13.574100603205935 
Si 7.32263193 8.72078634 14.695280373372439 
Si 6.599095289999999 11.48914152 17.570481313046557 
Si 4.5134703 11.56316328 20.703868335091276 
Si 7.1991700199999995 9.13613247 17.98589742239771 
Si 4.7677083300000005 12.1406112 23.118489519510614 
Si 5.049199529999999 8.822973509999999 23.39236076755681 
Si 6.60606741 10.764432000000001 23.54081948478456 
Si 7.57512693 11.03561163 25.67940239168937 
Si 4.53813336 8.57113011 26.970676776473862 
Si 6.16827366 10.16864154 27.505520287635665 
Si 8.09125929 9.42192423 28.63891109686979 
Si 4.83044112 11.778093539999999 28.652876397887972 
Si 7.9162395299999995 8.33839488 30.66893614659879 
Si 5.15477502 11.058026669999999 34.25268692783326 
Si 7.27084602 9.453559409999999 32.572585541301194 
Si 5.58069336 11.12896962 31.890040053360895 
Si 7.943069159999999 13.84294878 -0.0017176907484844526 
Si 4.0768983 12.215496329999999 4.071985960180428 
Si 4.14158589 14.94622161 1.2250079995344325 
Si 5.419845899999999 13.574815379999999 2.7051132045147566 
Si 6.722768969999999 12.24403641 1.2565434378927285 
Si 6.7874728499999994 14.93408556 4.072054754766724 
Si 4.07269548 14.93213076 6.78748026776732 
Si 5.42984796 13.57519005 8.145554195845675 
Si 6.7877171999999995 12.217304519999999 6.787445870474172 
Si 4.07192985 12.2173371 9.503421740165138 
Si 6.7865280299999995 14.93309187 9.502561807836432 
Si 4.07732184 14.92812342 12.253863697590631 
Si 5.64305148 14.77579563 16.781407408226197 
Si 8.07549057 14.464037609999998 16.48424919271865 
Si 4.9334590799999996 12.54624849 16.07124089388787 
Si 5.495333759999999 13.58763561 13.773570506172511 
Si 6.791675669999999 15.381376379999999 14.693491714128731 
Si 7.8693243299999995 13.523811389999999 20.915927647350102 
Si 6.0052922099999995 12.97821042 19.485241033435837 
Si 5.06216637 15.18294789 18.948264890098848 
Si 7.325205749999999 15.115246649999998 22.69258223574925 
Si 5.22172692 14.42697786 23.672629912128574 
Si 5.768777699999999 14.269697909999998 26.032765784201118 
Si 6.31284741 14.9095854 29.962794115558804 
Si 7.94324835 13.366368539999998 26.118999798123728 
Si 5.7661713 15.869473649999998 27.732886395345453 
Si 6.496077329999999 12.53280924 30.146682044729236 
Si 5.9310586800000005 15.797146049999998 34.20494348494352 
Si 9.50044203 1.358866188 4.071573192662649 
Si 12.21890094 4.07028456 4.069543752366903 
Si 10.87478046 2.7067464 2.7007619469315056 
Si 8.145097739999999 4.37798637e-05 8.145313414793637 
Si 8.146417229999999 2.71555929 5.430610244949153 
Si 10.860787349999999 0.00173954394 5.430713436828598 
Si 10.85969592 2.7150543000000003 8.145003839155303 
Si 12.200965649999999 1.3541127659999999 12.24320053671468 
Si 9.50365116 1.357688421 9.503696918510323 
Si 10.86244893 -0.00302607927 10.85901906313682 
Si 9.520332119999999 4.07121309 12.223284503981857 
Si 8.40572145 0.351647343 13.65706687427946 
Si 8.98921296 2.26597158 15.293346109340686 
Si 10.79360739 2.7168462 13.707699689793653 
Si 12.02843826 2.2556763 20.489710787950408 
Si 9.89107623 3.08732967 19.868117303468768 
Si 8.99067906 1.81495035 17.81074640568693 
Si 8.49171636 2.77650018 21.80313702952236 
Si 11.794008869999999 1.4015166659999998 22.779641784707415 
Si 9.719102699999999 2.19551733 23.719788601034793 
Si 9.070711829999999 0.836989974 25.668567244347674 
Si 10.8121617 1.9002122099999998 29.416221127433456 
Si 10.52886231 2.1043421999999996 27.094507031807485 
Si 10.75895856 0.0880829622 34.32980565907159 
Si 11.75792652 3.92577597 30.158101946054447 
Si 8.9039511 1.6930522799999999 30.7376275410158 
Si 11.63607732 3.5918472599999998 32.629857034393 
Si 9.945810629999999 1.87853022 32.8724267456743 
Si 10.87554609 8.127357929999999 2.7117656410096243 
Si 12.15330111 6.7601871000000004 1.1956327111858456 
Si 9.52561008 4.079569859999999 1.3196727900076721 
Si 9.4993506 6.78980232 4.070919644092832 
Si 9.50251086 4.07204388 6.787514665060469 
Si 8.14464162 5.42966877 8.144728660810117 
Si 10.860380099999999 5.430206339999999 5.430025490965634 
Si 10.861227179999998 5.42453742 10.863215532900904 
Si 9.50137056 6.78905298 9.502080245732358 
Si 9.24351615 7.173024569999999 14.936886960445596 
Si 10.037735099999999 6.342983909999999 17.165281199760425 
Si 12.16007775 5.62762485 16.30913257330102 
Si 8.26339572 5.49574101 13.574616562603158 
Si 11.417530679999999 6.976453139999999 20.834543651761393 
Si 9.90713817 5.495806169999999 19.575568325243086 
Si 10.076994000000001 8.03445606 22.488984657604885 
Si 8.96694453 6.23309157 23.620139642784377 
Si 10.23103224 4.39038306 24.447016172774642 
Si 9.81974232 4.336544609999999 26.74778231687334 
Si 10.71297189 5.99382405 29.78158917525394 
Si 9.21652362 8.105903999999999 26.95457884328049 
Si 10.90555227 6.48820926 27.471191789073735 
Si 8.46094455 6.093746909999999 30.43627285574417 
Si 9.41226426 6.6966561 32.77535758441 
Si 11.50637634 7.30450116 31.57815979638591 
Si 10.77523227 5.30267193 34.066769558367085 
Si 9.642588570000001 9.55985166 1.3487694602817586 
Si 8.142947459999998 10.85901174 2.6905425111371675 
Si 10.95473178 11.103443189999998 0.007789335828002621 
Si 8.1445113 8.14542354 5.430919820587488 
Si 9.502315379999999 9.502380539999999 6.787583459646765 
Si 10.8600543 8.144674199999999 8.144935044569007 
Si 8.14498371 10.86026607 8.14524462020734 
Si 10.86033123 10.85950044 5.429853504499893 
Si 12.21719049 9.50420502 9.502493013250136 
Si 8.14644981 8.14480452 10.856852033668483 
Si 9.51275727 9.48934854 12.20632663845978 
Si 10.85928867 10.85863707 10.863731492298127 
Si 12.24216306 12.22404858 12.233190924408547 
Si 9.50490549 12.216848399999998 9.502286629491248 
Si 11.78299683 9.99360549 14.905379039921819 
Si 10.90120284 8.208384389999999 13.630993726073104 
Si 9.94818897 11.69191944 14.697722581185962 
Si 9.540401399999999 8.65722276 17.424327214459733 
Si 8.854559819999999 9.37934217 20.978289939827842 
Si 10.414490220000001 9.89773884 19.209443536973343 
Si 10.18729359 12.188047679999999 18.380331182928447 
Si 8.40564 11.43077445 22.01110306389655 
Si 10.704126419999998 11.69884269 22.735406865718794 
Si 11.10021777 9.655083 23.9002368008904 
Si 9.815311439999999 10.082874689999999 25.851148076378472 
Si 8.54193843 11.64454812 29.429498482588674 
Si 12.113846729999999 10.363307039999999 28.99729649418118 
Si 11.003259689999998 11.63782035 27.264945619356958 
Si 8.3253303 8.160703559999998 34.34944651345923 
Si 11.185447049999999 9.611653859999999 31.08036216994475 
Si 9.1727361 10.815582599999999 31.501488229958508 
Si 8.153780309999998 16.28843616 2.7113700721384193 
Si 12.21564294 14.93270091 4.072398727698206 
Si 9.49860126 12.21777693 4.069337368608014 
Si 9.500653799999998 14.96282112 1.3171239505853882 
Si 10.86130863 13.58959041 2.707593249350744 
Si 8.1459774 13.57618374 5.430231874724524 
Si 9.502103609999999 14.932668329999998 6.787377075887875 
Si 10.86033123 13.57540182 8.144831852689562 
Si 12.21821676 14.933499119999999 9.50084194317902 
Si 8.14371309 13.574473289999998 10.863181135607757 
Si 9.50089815 14.956370279999998 12.236837037482259 
Si 8.66108349 12.21981318 16.619912116895264 
Si 10.93801824 13.65310512 13.60798193695694 
Si 12.17218122 13.019831369999999 17.503853756218437 
Si 11.90088756 14.773857119999999 20.472752922428327 
Si 9.76313457 14.2117218 19.61199505868706 
Si 9.48824082 15.77306943 17.844490150265344 
Si 11.78531001 15.46575858 17.28071851556588 
Si 8.924981489999999 14.877266039999999 24.568094644656405 
Si 10.98309267 13.76845461 23.952383097303116 
Si 9.46572804 13.25035116 28.005450546252018 
Si 10.41895368 14.70928356 29.69318813186299 
Si 9.652476599999998 12.53976507 33.00791768338517 
Si 12.161071439999999 14.88282093 33.12142875077433 
Si 8.43188319 15.669904859999999 30.815571807289686 
Si 11.33842644 13.4097651 31.501763408303695 
Si 13.573903139999999 0.004592053259999999 2.7021275194694905 
Si 12.24771795 1.341471726 1.251308169875568 
Si 14.932375109999999 1.360136808 4.075563278667843 
Si 13.574685059999998 -0.00046522448099999995 8.144900647275858 
Si 13.574782799999998 2.71384884 5.430403861190265 
Si 12.21728823 1.3579865279999999 6.787549062353617 
Si 14.9335317 1.357813854 9.502768191595322 
Si 13.571606249999999 2.7184100399999997 10.86582972718017 
Si 16.27318872 2.79787266 13.60935782868287 
Si 15.286324229999998 3.36082248 16.798365273748274 
Si 13.617935009999998 0.17762941799999998 13.775703138347701 
Si 14.340396509999998 2.20688775 14.880234618630464 
Si 12.607564049999999 3.8860120799999995 14.756335568710545 
Si 15.639589169999999 3.4317328499999995 20.541960276242563 
Si 12.7896048 0.308493504 19.315455994456183 
Si 15.136374779999999 0.0836050041 19.02665632118366 
Si 16.17145767 2.16147123 18.625652677661613 
Si 13.287199139999998 2.43504549 24.26429775157125 
Si 15.44314806 1.494337086 24.315033758964887 
Si 12.78818757 2.15409186 26.519212303903362 
Si 12.25439685 0.05574747509999999 29.610772217479838 
Si 13.603469489999998 0.27326312099999994 27.665158125136593 
Si 15.91322859 0.592069824 28.110327893060965 
Si 13.42364418 2.7317515500000003 34.001036331160826 
Si 15.93328158 3.7969872299999996 30.136844418888842 
Si 15.994808909999998 1.487268855 30.34326257507136 
Si 14.82761412 1.2864766859999999 32.61073213940258 
Si 14.92655958 4.06055943 1.2270959152285301 
Si 13.572583649999999 5.43914955 2.681169248754275 
Si 14.93345025 6.786576899999999 4.069234176728569 
Si 14.93242398 4.07210904 6.787617856939913 
Si 13.575173759999998 5.43009231 8.144831852689562 
Si 12.217304519999999 6.78766833 6.787308281301579 
Si 12.218607719999998 4.0734774 9.501598683628282 
Si 14.934004109999998 6.786299969999999 9.502286629491248 
Si 14.933417669999999 4.094980199999999 12.22280294187778 
Si 12.23001072 6.79633461 12.24474841490635 
Si 13.78414188 5.6836461599999994 13.715473478045153 
Si 15.761145149999999 6.72542424 15.14939343751535 
Si 15.30077346 7.1013974399999995 17.48734305550729 
Si 13.46063877 4.14429003 20.15430278246203 
Si 13.87834695 5.080264559999999 17.87424380883856 
Si 12.49213311 4.6744806599999995 24.020902505254384 
Si 15.15861063 6.35371902 22.723986964393582 
Si 13.025190779999999 5.62630536 21.94815601743529 
Si 12.78501102 5.927165369999999 25.99719898308585 
Si 13.880969639999998 6.967754279999999 29.684795192334825 
Si 13.871032739999999 4.6250893799999995 29.417425032693647 
Si 13.88720871 7.98713361 26.245444247736614 
Si 16.13115621 4.21298496 26.463282305244345 
Si 16.18349598 7.681370309999999 26.551683348635294 
Si 13.86313209 4.17704922 27.137400456363324 
Si 15.984073799999999 7.88038524 30.188199577559146 
Si 16.12581309 11.410688879999999 0.11840270644776332 
Si 12.22028559 9.50109363 4.072605111457096 
Si 14.99365809 9.5496867 1.2657859905616573 
Si 13.58261829 10.85280525 2.708955382159414 
Si 13.57507602 10.86140637 8.144384687878635 
Si 13.57492941 8.14648239 5.430335066603968 
Si 14.932163339999999 9.5029344 6.78748026776732 
Si 13.572828 8.1448371 10.863834684177572 
Si 14.933238479999998 9.498324329999999 12.239760807399858 
Si 16.28130114 10.86727077 10.859535022534045 
Si 13.694090759999998 10.919284739999998 13.732328151687785 
Si 15.463201049999999 11.80257741 15.185063430510063 
Si 14.16412242 9.21979791 17.729293615511924 
Si 12.679109729999999 11.458874699999999 21.36474352834819 
Si 13.828939379999998 9.524111399999999 20.672222825394904 
Si 12.345995519999999 8.44903656 19.1549926219197 
Si 15.523685819999999 10.47655512 19.239265990132857 
Si 13.95772812 11.57674914 24.8166494849455 
Si 14.90517081 8.66597049 22.613674845267212 
Si 13.437751319999999 9.34943373 24.38599537472968 
Si 12.61297233 8.23454613 28.151123082734763 
Si 14.20237134 11.45276595 29.11662070411239 
Si 16.103512079999998 10.06350588 29.23223000638358 
Si 15.96133296 11.741962319999999 26.008068527720688 
Si 12.630190859999999 10.230348059999999 32.9200669966846 
Si 13.38669846 12.067599419999999 31.30862260727639 
Si 13.57290945 8.29393947 34.227336122783015 
Si 12.32690364 12.32125101 1.3980023059648177 
Si 14.93315703 12.21380217 4.070162903643572 
Si 15.019787249999998 15.030913319999998 1.3033615935967822 
Si 16.3067787 13.588189469999998 2.704328946230977 
Si 16.2911403 16.290325799999998 5.43030066931082 
Si 13.57597197 13.576134869999999 5.429234353223225 
Si 12.21785838 12.216978719999998 6.787377075887875 
Si 14.932668329999998 14.932798649999999 6.787789843405655 
Si 14.93345025 12.218868359999998 9.500979532351614 
Si 13.574342969999998 13.57370766 10.86080772238053 
Si 14.93626842 14.93648019 12.261775075014723 
Si 12.38587344 14.91214293 15.060407640140884 
Si 16.03116819 15.998083199999998 21.203145045137813 
Si 13.176182789999999 12.98058876 19.678519423635734 
Si 15.468462719999998 12.869686439999999 19.235929452697476 
Si 15.608654459999999 14.49394605 17.555140120302447 
Si 15.39155763 15.4468296 24.70530544702469 
Si 14.57381592 14.75263125 22.65584592666694 
Si 12.269709449999999 15.338077559999999 22.690827973798687 
Si 14.39783505 12.398921729999998 22.69216946823147 
Si 12.30413022 12.967507889999998 25.754526079925096 
Si 15.15131271 13.14511776 27.67936420720681 
Si 13.866927659999998 14.615990729999998 26.40064483442142 
Si 14.035626899999999 13.435666199999998 34.258052905564384 
Si 14.764229729999998 13.86575478 31.801295037038468 
Si 13.554061919999999 15.944407649999999 31.56591436002514 
