&CONTROL
  dt          = 30.D0,
  prefix = 'x.33_y2.00_z3.17_struc8-scf',
  pseudo_dir = './',
  outdir='./',
  wf_collect= .true.,
  verbosity= 'high',
/

&SYSTEM
ibrav= 6, celldm(1) =30.783621515, celldm(3) =2.1173634481158685, nat=  432, ntyp= 1,
  ecutwfc     = 12.D0, nbnd= 1728,
  degauss     = 0.05D0,
  occupations = "smearing",
  smearing    = "methfessel-paxton",
/
&ELECTRONS
  electron_maxstep=200,
  conv_thr    = 1.D-8,
  mixing_beta = 0.3D0,
  scf_must_converge=.false.,
/
&IONS
/
ATOMIC_SPECIES
Si  28.08  Si.pbe-hgh.UPF
K_POINTS {automatic}
1 1 1 0 0 0
ATOMIC_POSITIONS (angstrom)
Si 2.7340973099999997 -0.0022049981099999997 2.6877740064671922 
Si 1.277919549 1.2350442689999999 1.2760501561254272 
Si 3.96441585 3.9016178999999998 1.194404496641636 
Si 1.358532243 4.0728258 4.0677274132491075 
Si 4.0735262699999994 1.3545819179999998 4.071693976064635 
Si 0.001199714517 0.0008731619189999999 5.430465937411632 
Si 0.000189307719 2.7146796299999996 8.145078052807191 
Si 2.71459818 0.000271927341 8.1451815283589 
Si 2.7169439399999997 2.7153801 5.43081085591733 
Si 1.357957206 1.357589052 6.787375338827859 
Si 2.71394658 2.71761183 10.860931874823263 
Si 1.3406735159999998 1.3594607730000001 12.217185931078664 
Si 2.70855459 0.0383280894 13.575716449471672 
Si 1.597970808 3.78463941 15.041999509044759 
Si 3.52199574 1.85720661 14.86246942682891 
Si 0.633993768 2.73976623 17.45867101921832 
Si 2.143764 2.80313433 19.491137805894798 
Si 1.7646631199999998 0.483681051 19.3828333951056 
Si 2.8828087199999994 2.8875002399999996 23.428106613633762 
Si 2.49675201 0.5685584669999999 23.43272852161012 
Si 0.32031841499999997 0.211712985 24.253876008125527 
Si 1.589390865 3.84255036 21.689751836766035 
Si 2.39344083 3.9137050799999997 25.506102643062388 
Si 0.763774569 0.5209607159999999 29.570139428300525 
Si 0.056827827899999996 3.73088241 25.99430029602744 
Si 0.032762285099999996 1.401914142 26.254886227082338 
Si 1.85235219 1.449731808 27.72227302587366 
Si 3.14449128 3.36134376 27.69868060008391 
Si 2.73758337 2.21719932 34.17080042470373 
Si 3.96852093 0.7093382759999999 32.75801422536441 
Si 1.3254130439999998 3.46641426 32.760049244548036 
Si 2.71632492 5.425156439999999 2.6772367461181164 
Si 1.421968761 6.7952268899999995 1.1405109801263118 
Si -0.0016476846299999998 5.43087423 5.430086527055364 
Si 2.7152171999999997 5.42992941 8.145078052807191 
Si 1.357502715 6.787456559999999 6.787685765482987 
Si 1.358385633 4.07329821 9.501987454223418 
Si 0.000644539914 5.428137509999999 10.86310486140916 
Si 1.375314201 6.785664659999999 12.237363663662002 
Si 0.1440298269 5.36775048 16.470617467795616 
Si 2.8069298999999996 5.4537616799999995 13.70502639725788 
Si 2.8648408499999998 6.59036385 19.478444804885108 
Si 0.6006432509999999 6.67036404 18.616596934697327 
Si 0.38183922899999995 7.5757948200000005 22.417840310444102 
Si 4.0173909299999995 6.85688454 23.148412197363196 
Si 2.1974069700000003 6.190623539999999 21.726451165772314 
Si 3.63082923 5.8538277899999995 25.234341352422874 
Si 0.20349630900000001 4.49040366 29.975970542104882 
Si 2.4669087299999997 4.83337332 29.408200189875277 
Si 2.28846807 7.34133285 26.499674890576262 
Si 3.0237498 7.0532604899999995 28.739886093234688 
Si 0.237853548 5.25034845 33.968747164065796 
Si 3.28012182 4.189592520000001 31.517859738126983 
Si 1.3575271500000001 9.501777809999998 4.069383022076458 
Si 2.7166507199999996 10.87657236 2.7013637955916963 
Si 0.00011438528489999999 8.145374669999999 8.144664150600354 
Si 2.71446786 8.144397269999999 5.430362461859922 
Si -0.001361200545 10.860168329999999 5.429776100400236 
Si 2.7146959199999996 10.859549309999998 8.144974577255482 
Si 4.07189727 12.21613164 9.502573815683105 
Si 1.356637716 9.50172894 9.503850014154187 
Si 2.71458189 8.14508145 10.859069314892494 
Si 0.11095917209999999 8.227883519999999 13.626798880165557 
Si 2.85425235 10.974035429999999 13.592376013296889 
Si 2.29943124 9.17565201 15.302550948249085 
Si 0.0186494436 9.47087568 15.773054281871827 
Si 3.1474234799999996 10.31244966 20.917203367703486 
Si 3.82640697 8.73435591 19.2928096651184 
Si 2.9743911 10.18559943 17.568769006237147 
Si 1.0038859109999998 9.75414249 21.7468013576085 
Si 0.9951886799999999 10.65550077 23.898437488003662 
Si 2.5475931 9.36736902 25.246620451225727 
Si 2.89181709 10.39385079 29.471354768268597 
Si 2.38034367 10.647453509999998 27.17178309077953 
Si 0.0460068696 10.99441422 27.320167031930843 
Si 3.80459466 8.1619416 32.404783183679015 
Si 2.5114781699999997 8.63984133 34.381959533892086 
Si 0.701049924 10.38407679 34.2648597012076 
Si 1.4537016809999999 12.110572439999999 30.390735045206814 
Si 2.3146786799999997 8.379836639999999 30.499556833754557 
Si -0.0218992986 10.71259722 31.976359907751434 
Si 0.556914375 15.62204484 0.1651956140375417 
Si 1.338098067 12.23976843 1.2570072054258365 
Si 1.362029706 14.93004564 4.067658429547968 
Si 8.90457012e-05 13.57533666 8.144974577255482 
Si 2.71549413 13.57455474 5.431017807020749 
Si 1.357659099 12.21707646 6.787444322528998 
Si 1.35725022 14.93486748 9.501332109062592 
Si 2.7125945099999997 13.57654212 10.863622239167709 
Si 1.346399451 12.214453769999999 12.235294152627812 
Si 4.00367475 12.50022924 15.038515832137207 
Si 2.46627342 13.89318714 16.456475809061995 
Si 1.144605447 15.12909315 14.992055309419678 
Si 2.6387193599999996 15.80566572 21.326276715461407 
Si 1.566408933 13.71720627 21.38063587195942 
Si 2.8214117099999996 12.36298599 19.83315899614501 
Si 3.1758006599999997 15.831371339999999 17.691491010564523 
Si 1.3493691179999998 12.64113774 18.0983223880354 
Si 1.6448501699999998 12.92297103 23.61501795187155 
Si 3.71227923 13.37568642 24.613867452522605 
Si 0.36731669399999994 14.277875489999998 25.07043607851515 
Si 3.93292728 15.710043419999998 24.938470258235068 
Si 3.47089401 12.650944319999999 26.809411708693133 
Si 1.68935445 14.181161759999998 27.122563220016417 
Si 3.2057416799999996 15.994206179999999 27.147776762782946 
Si 0.187370838 13.063781789999998 28.57104848469548 
Si 2.38373199 14.02945299 34.2565126733697 
Si 2.82960558 13.59017685 31.792311393110946 
Si 2.6863839 15.676339409999999 30.617518962703297 
Si 6.78638142 4.07424303 4.070383285742983 
Si 8.14151394 0.008093686499999999 2.704116245267167 
Si 5.43300822 2.70586674 2.6792372734511645 
Si 6.918639929999999 1.3605017039999998 1.1714777635678848 
Si 5.429212649999999 0.001035936486 5.430052035204794 
Si 5.43004344 2.71531494 8.144836609853202 
Si 6.7872936600000005 1.357654212 6.787444322528998 
Si 6.786430289999999 4.07357514 9.501746011269429 
Si 4.0729887 1.3586055479999999 9.502401356430255 
Si 5.427502199999999 0.000629442342 10.862173581443775 
Si 6.78898782 1.3580728649999998 12.25029810762568 
Si 4.587964469999999 1.266544242 16.911457809928326 
Si 5.40197577 2.81901708 13.703922658039648 
Si 5.32254573 2.03773239 20.71083862574433 
Si 7.569669779999999 2.47681305 20.39006441544512 
Si 4.41033831 2.9051586 18.706655156535096 
Si 6.92372241 3.89316339 17.32963700623667 
Si 6.871806179999999 0.00228436299 17.248753616650472 
Si 6.554086019999999 2.18962035 24.141467067118526 
Si 5.07169602 3.34098126 22.683220608728202 
Si 6.701266169999999 3.36598641 26.265785651862398 
Si 5.809372379999999 1.489823127 29.864458389212693 
Si 5.428170089999999 3.16239399 28.231821134341423 
Si 5.04491526 2.57261454 31.79251834421436 
Si 6.85861128 3.8661057 32.708863338302436 
Si 4.073037569999999 6.78794526 4.067382494743409 
Si 6.670754999999999 6.730441559999999 1.2134164046757137 
Si 5.4216378 8.14954491 2.69086102709319 
Si 8.12628279 5.43908439 2.6964935462912396 
Si 4.072304519999999 4.07276064 6.787892716586406 
Si 5.43038553 5.43001086 5.4298105922508055 
Si 6.78709818 6.7875054299999995 6.787651273632417 
Si 4.0746177 6.788531699999999 9.503022209740513 
Si 4.07456883 4.08101967 12.225946861123397 
Si 5.43217743 5.4265248 10.858758888237366 
Si 6.80961096 6.78001203 12.241123275374111 
Si 6.48622188 4.6267998299999995 15.058417629915986 
Si 4.58798076 6.28266204 15.239603320959185 
Si 5.33777688 7.9782066899999995 13.66201505959733 
Si 7.17144444 6.53124744 20.538482848447 
Si 8.03220804 4.61606472 19.435571434626837 
Si 4.420991969999999 5.186475359999999 17.900339165764706 
Si 5.87847456 5.65059375 22.34647667161517 
Si 7.5195943199999995 5.936548409999999 24.008949377229325 
Si 5.958491039999999 5.49842886 25.730713573972974 
Si 5.71086675 5.077136879999999 29.684134994433737 
Si 5.33319939 7.260338969999999 28.97953547099371 
Si 6.56322471 7.301145419999999 27.03705792245386 
Si 5.48753085 5.150213819999999 34.31552822969464 
Si 7.863362189999999 8.053922609999999 34.06273745686852 
Si 7.8693243299999995 5.217784739999999 30.481759038860538 
Si 4.57242381 5.92563411 32.33621338474624 
Si 4.116075749999999 9.63745722 1.256565709738543 
Si 6.78900411 9.50223393 4.068348266559364 
Si 4.0689487799999995 12.21616422 4.069762432432726 
Si 4.07227194 9.50229909 6.787444322528998 
Si 5.43012489 8.145097739999999 8.144974577255482 
Si 5.42965248 10.860152040000001 5.429879575951945 
Si 6.79022586 9.50295069 9.499986926890369 
Si 4.08323511 9.495864540000001 12.22843027436442 
Si 5.433366599999999 10.855346489999999 10.861345777030103 
Si 4.966902449999999 11.23115679 16.915458864594424 
Si 7.0284834 9.11992392 14.756406986326754 
Si 6.51005415 9.444681359999999 16.98020006811395 
Si 6.89526378 10.12254084 21.04075317644454 
Si 6.215628689999999 8.48984301 19.427051947536093 
Si 6.46540326 9.10910736 25.553046051687897 
Si 5.00651973 10.64676933 22.380071734070164 
Si 4.57467183 9.0569142 24.063101582623922 
Si 6.461917199999999 8.987437349999999 30.17522996284666 
Si 5.14302993 10.987963379999998 29.858629266466394 
Si 7.068752279999999 11.191881599999999 26.633089368580276 
Si 6.160324139999999 9.075859470000001 32.63001496789986 
Si 5.47150149 11.001484079999999 34.013965980162816 
Si 4.269185459999999 15.00572898 1.1109963035937274 
Si 5.4373413600000005 13.574473289999998 2.6750672087172753 
Si 6.92039925 12.243824639999998 1.1488062701883504 
Si 6.78574611 14.93019225 4.069245054674179 
Si 4.0723370999999995 14.932538009999998 6.787375338827859 
Si 5.430173759999999 13.57507602 8.145112544657762 
Si 6.78763575 12.217809509999999 6.7874788143795675 
Si 6.787619459999999 14.932863809999999 9.502849750487663 
Si 4.091070599999999 14.93560053 12.236397891846048 
Si 6.780354119999999 12.23071119 12.237087728857443 
Si 5.58733968 13.72509063 13.73406853543766 
Si 7.409636819999999 14.83160517 15.284235775596517 
Si 8.125810379999999 13.91034051 21.45431046477653 
Si 4.90786749 15.94906659 20.71290813677852 
Si 7.173220049999999 12.25519506 19.982784643916833 
Si 5.051366099999999 12.73609215 18.916848493907505 
Si 5.17943808 15.05753118 18.54316378483421 
Si 7.485645959999999 12.71789622 24.833339097698293 
Si 6.172932599999999 14.829471179999999 22.33768124971987 
Si 5.556437549999999 12.755053709999999 23.385336718927206 
Si 6.135416729999999 16.169747219999998 24.295956065820693 
Si 7.860397409999999 15.04915812 25.41725163599456 
Si 5.53227948 12.42400833 27.98979181889309 
Si 4.5086973299999995 15.927449759999998 29.108259057320232 
Si 6.32755728 14.484791069999998 28.95480481413516 
Si 8.07575121 15.541637399999999 27.70009476595727 
Si 7.82778483 14.877314909999999 32.88901427382854 
Si 7.0431444 13.659898049999999 31.062705278007805 
Si 5.044231079999999 12.419707769999999 31.799623665431742 
Si 5.87262645 16.09261407 34.17383570755387 
Si 12.20044437 1.317777921 1.4353404204269122 
Si 9.503374229999999 1.3563070289999999 4.078316411374038 
Si 10.842623999999999 2.70280422 2.7309405574553063 
Si 9.40382604 3.9651651899999996 1.380353512248525 
Si 8.1448371 -0.00018118715399999998 8.144836609853202 
Si 8.14521177 2.7132949799999997 5.429983051503655 
Si 10.858262400000001 0.000420128874 5.4301210189059335 
Si 10.86008688 2.7151031699999995 8.144802118002634 
Si 9.508603319999999 4.06311696 12.232948706789065 
Si 9.501680069999999 1.356495993 9.502263389027977 
Si 8.14247505 2.71492398 10.863622239167709 
Si 8.34619779 0.0400747032 13.638319158255873 
Si 9.769911209999998 1.369099566 14.961667989067676 
Si 11.019093569999999 2.85446412 13.64601084093294 
Si 8.25318189 1.9559728799999998 16.64342163915035 
Si 12.0990717 0.486030069 17.508408267739984 
Si 10.245644369999999 1.9978707599999999 18.004228619680966 
Si 11.80461366 4.06681479 20.991429830129714 
Si 8.570071259999999 0.726266844 19.102587109225915 
Si 11.82987945 1.97690553 22.19078045814306 
Si 9.89645193 0.654957369 22.419875329627725 
Si 8.347370669999998 2.39803461 22.596611571947413 
Si 10.455198929999998 3.33971064 25.425874598637016 
Si 11.28732471 1.083337128 25.67535415380843 
Si 8.87453136 3.4879822199999997 27.139015832738213 
Si 11.3974614 0.905113125 28.071847931398654 
Si 9.091644480000001 1.399198599 28.181325065107224 
Si 8.50787604 2.66115069 34.103196397586906 
Si 10.40357592 1.549330497 32.930645937466295 
Si 8.16733359 1.389647772 30.279464335268617 
Si 10.85285412 8.15627268 2.685963184312277 
Si 9.50583402 6.78522483 4.067658429547968 
Si 11.20053159 4.98285036 0.33308952554515947 
Si 9.502250219999999 4.07228823 6.7874788143795675 
Si 8.144674199999999 5.42991312 8.14514703650833 
Si 10.85984253 5.4297828 5.430603904813911 
Si 10.85775741 5.43093939 10.862311548846055 
Si 8.14381083 8.145179189999999 10.862759942903464 
Si 9.50143572 6.78906927 9.50336712824621 
Si 8.33011956 5.413509089999999 13.766594350524986 
Si 10.357328609999998 6.226445249999999 15.258884265427708 
Si 10.87313517 8.137343699999999 13.721030615922272 
Si 12.13375311 4.4789355 14.994538722660703 
Si 10.95145749 6.3199172699999995 17.75768087180798 
Si 9.38074311 7.33097241 21.10014814312575 
Si 10.37844045 4.306733909999999 19.045882506889154 
Si 10.73118411 5.7064195799999995 22.348270247844802 
Si 9.26617554 4.32159039 23.56848844545288 
Si 11.7476964 6.27798681 24.42288607591758 
Si 10.2280023 7.7159214 25.632032389492757 
Si 11.71329192 5.31506862 29.226635088475813 
Si 8.85131811 7.257080969999999 27.5514348900014 
Si 9.37383615 5.269929029999999 28.612783623884948 
Si 10.24636113 5.03988165 32.720590567496174 
Si 8.88288813 6.81031143 32.08055978832282 
Si 9.41195475 9.54825318 1.1775172866026582 
Si 8.13854916 10.86319827 2.6928546560561246 
Si 12.13953606 12.118114709999999 1.3207929846845814 
Si 8.14495113 8.14488597 5.429638132997956 
Si 9.50278779 9.50270634 6.7874788143795675 
Si 10.8600543 8.145 8.145078052807191 
Si 8.14501629 10.85995656 8.144629658749784 
Si 10.86111315 10.86075477 5.430672888515051 
Si 9.498878190000001 9.48584619 12.228947652122967 
Si 10.86508791 10.856959199999999 10.859241774145342 
Si 11.651210729999999 10.15132527 14.931694570922513 
Si 8.14822542 10.851567209999999 13.595238836894184 
Si 9.94550112 11.826963539999998 14.79986671804471 
Si 8.424422369999998 9.55672398 18.23901464650965 
Si 10.724342309999999 11.76937839 20.047594831137502 
Si 11.9742903 9.908131860000001 19.269493174133217 
Si 10.25563014 8.210078549999999 19.053436222163942 
Si 8.957431169999998 11.867541929999998 18.484872557371233 
Si 10.3298148 10.96030296 22.241448986630107 
Si 8.299771289999999 8.224804709999999 24.31196028448508 
Si 8.76941199 9.240046379999999 22.260316028891793 
Si 11.820561569999999 9.31129884 26.34446156301213 
Si 8.75927961 8.71440066 29.436104096986252 
Si 10.786521239999999 11.12566275 27.365351356177293 
Si 8.732156759999999 10.782611639999999 28.360303277713957 
Si 10.794780269999999 10.96136181 34.27206849797668 
Si 10.54427265 8.25445251 31.07391512944299 
Si 12.139633799999999 9.63213039 32.851970026316565 
Si 12.21966657 14.92802568 4.072142370122043 
Si 9.50223393 12.21850998 4.0707626960992505 
Si 9.59930604 15.00409998 1.3756902140514873 
Si 10.871424719999998 13.571801729999999 2.7120976594890203 
Si 8.145602729999998 13.57533666 5.430258986308213 
Si 9.50283666 14.932033019999999 6.787927208436976 
Si 10.86007059 13.57502715 8.144871101703773 
Si 12.22914735 12.206422799999999 12.199629579138632 
Si 9.50435163 12.218004989999999 9.502573815683105 
Si 8.144609039999999 13.57374024 10.860586956317565 
Si 9.5040747 14.93030628 12.201492139069403 
Si 10.86007059 16.28910405 10.859241774145342 
Si 9.43298514 13.39394751 16.581336308124698 
Si 10.81484955 13.50476838 13.47406896584245 
Si 11.701318769999999 14.361589799999999 17.131998702471673 
Si 9.66708873 15.45178176 20.575044210050997 
Si 11.56195782 14.00770584 20.035315732334652 
Si 9.21451995 12.72260403 23.232917231259222 
Si 10.954259369999999 13.839886259999998 24.322100888552605 
Si 9.92686536 15.88534011 24.49521548656247 
Si 11.04786171 13.301762399999998 26.619154660950073 
Si 8.85423402 12.518832419999999 29.97924726790901 
Si 11.18772765 15.517837709999998 29.752187415607967 
Si 9.80516277 14.129001179999998 28.478575833317826 
Si 10.439234729999999 12.514466699999998 32.395366908473456 
Si 11.95084899 14.456560499999998 32.970104614518156 
Si 8.69822469 13.36286619 34.41282974015206 
Si 11.053889009999999 16.183756619999997 34.43238661942515 
Si 9.42466095 16.137020609999997 31.524585648988097 
Si 16.2807147 2.7156570299999996 2.686166686230639 
Si 13.60127034 -0.0172779885 2.708407031478051 
Si 12.975799499999999 3.26441826 0.31699528315078157 
Si 14.933417669999999 1.356585588 4.0712455820072275 
Si 12.215773259999999 4.07228823 4.067658429547968 
Si 13.57519005 -5.5851731099999996e-05 8.144836609853202 
Si 13.574473289999998 2.7146470499999995 5.4301210189059335 
Si 12.21692985 1.3574896829999998 6.787547798080707 
Si 14.93447652 1.357569504 9.501849486821138 
Si 13.57540182 2.71415835 10.862415024397766 
Si 12.21631083 1.363383405 12.229327062479237 
Si 16.2269577 2.6792162999999998 13.659911056712573 
Si 16.26779673 0.49302499499999997 16.43557374761669 
Si 13.552840169999998 0.0168824673 13.620141953005584 
Si 14.615388 1.614988971 15.084252025992773 
Si 14.72695821 3.07693665 18.45662373175456 
Si 13.515438329999999 0.618407496 21.22490516663674 
Si 14.00149935 0.8844541469999999 18.912847439241407 
Si 15.578908919999998 3.5194219199999996 22.33419757281232 
Si 14.93131626 1.3221501569999998 22.997820777775416 
Si 13.004111519999999 2.01521961 24.30219909077383 
Si 15.121990709999999 0.406311696 28.045841076069024 
Si 13.39464798 1.97772003 28.691942420942656 
Si 13.96263141 1.7969987699999999 30.985547008283145 
Si 12.59963082 2.7224336699999996 32.58990094568717 
Si 16.2683343 2.30886315 30.919115704085698 
Si 16.293257999999998 8.131495589999998 2.68262437317712 
Si 14.98867335 4.20006699 1.2263956880451323 
Si 13.599625049999998 5.44239126 2.715974543493067 
Si 12.33073179 6.85056402 1.347406896584245 
Si 14.933042999999998 6.786674639999999 4.075074177420476 
Si 14.932244789999999 4.0728583800000004 6.78716838772444 
Si 13.57486425 5.429701349999999 8.144871101703773 
Si 12.2178258 6.787554299999999 6.787513306230138 
Si 13.570889489999999 8.145667889999999 10.858793380087935 
Si 12.218102729999998 4.07181582 9.502780766786524 
Si 14.93268462 6.788564279999999 9.502056437924557 
Si 14.934883769999999 4.0786250399999995 12.23194844312254 
Si 12.216685499999999 6.81309702 12.22163537980217 
Si 13.952857409999998 4.46772798 16.66846272266403 
Si 13.64896746 5.583413789999999 13.578130879011558 
Si 15.10032501 6.79664412 15.007128248118683 
Si 14.181080309999999 4.1417325 20.516166621128338 
Si 14.746750559999999 6.25866687 19.764071819453687 
Si 13.375034819999998 6.4988955 17.8369431444174 
Si 14.38750719 7.66099152 21.609696251593512 
Si 13.56807132 7.598030669999999 23.833247890426723 
Si 15.04347291 4.6928883599999995 24.32120410043779 
Si 15.678652589999999 6.93543492 24.54029633525721 
Si 12.774080429999998 4.23750141 25.33343643910993 
Si 12.499561349999999 7.474959719999999 29.993009516286367 
Si 16.257485159999998 7.047998819999999 26.840247423102543 
Si 13.28084604 4.20800022 27.73144785812523 
Si 15.54194691 4.96952514 27.85834337637155 
Si 12.23089038 4.750229159999999 31.500406861738664 
Si 13.59138231 6.65210295 32.03451316781213 
Si 15.949799639999998 6.3496791 31.59553538561019 
Si 13.39653762 8.00974413 34.08798549148562 
Si 12.21943851 9.50124024 4.069900399835006 
Si 15.08059782 9.4411953 1.0831544818137788 
Si 13.589508959999998 10.84553991 2.6856286133617506 
Si 14.932472849999998 9.50233167 6.787409830678429 
Si 13.574685059999998 10.8600543 8.14500906910605 
Si 13.57548327 8.14436469 5.430603904813911 
Si 12.21808644 9.50420502 9.501194141660312 
Si 14.93589375 9.505329029999999 12.23943317469619 
Si 16.287344729999997 10.86112944 10.860448988915286 
Si 14.34055941 8.31514905 16.735549372022305 
Si 12.857452649999999 10.16458533 16.985339353848854 
Si 13.533471359999998 10.8916569 13.664291521734938 
Si 13.61438379 9.783936899999999 20.97925420687857 
Si 15.686406629999999 10.257519779999999 20.045456336402175 
Si 16.15197483 8.825498459999999 18.201039119032288 
Si 12.63206421 11.02704309 22.773899683876227 
Si 13.332338729999998 9.77447241 24.62238693961335 
Si 15.335943569999998 10.90856592 25.17760225823554 
Si 15.59624148 8.9233362 28.174116268338135 
Si 13.241847779999999 8.992910789999998 28.2798337903346 
Si 12.739887719999999 11.28207933 28.691976912793226 
Si 13.923779759999999 11.339501579999999 32.4832866355759 
Si 16.263561329999998 8.67090636 30.497004436812393 
Si 14.933629439999999 12.21686469 4.070590236846401 
Si 14.852097989999999 14.834293019999999 1.1426322289363549 
Si 16.26932799 13.577715 2.6926408065825918 
Si 13.57535295 13.57514118 5.431397217377016 
Si 12.21722307 12.217939829999999 6.788065175839255 
Si 14.93248914 14.932033019999999 6.787375338827859 
Si 16.29 16.2901629 10.856965312007736 
Si 12.21837966 14.93234253 9.501849486821138 
Si 14.932179629999998 12.21837966 9.502470340131396 
Si 13.573903139999999 13.574847959999998 10.860069578559019 
Si 14.937815969999999 14.934004109999998 12.227464502548468 
Si 12.46437495 14.550651539999999 14.821527600202549 
Si 14.25415725 12.77458542 14.894546847858832 
Si 13.705738109999999 12.427380359999999 17.218055869643344 
Si 16.21773756 13.54461372 13.690436344466852 
Si 13.47130872 14.565736079999999 21.379842559396316 
Si 15.642521369999999 14.15446245 20.411380379097263 
Si 15.474946139999998 12.33578169 18.97262181627888 
Si 15.95716272 15.888093119999999 18.787745497224712 
Si 13.051271069999999 13.32927621 23.34822348771409 
Si 14.593673429999999 13.1233869 25.137074333816017 
Si 13.326669809999999 13.07461464 27.15063958638024 
Si 14.550162839999999 14.46683949 28.55666538300787 
Si 13.555283669999998 13.22953254 34.330877103198205 
Si 12.60834597 12.30860997 30.817364744904765 
Si 13.19731092 14.55941556 30.51169796515513 
