&CONTROL
  dt          = 30.D0,
  prefix = 'x.33_y.66_z3.18_struc44-scf',
  pseudo_dir = './',
  outdir='./',
  wf_collect= .true.,
  verbosity= 'high',
/

&SYSTEM
ibrav= 6, celldm(1) =30.783621515, celldm(3) =2.1217994675793617, nat=  432, ntyp= 1,
  ecutwfc     = 12.D0, nbnd= 1728,
  degauss     = 0.05D0,
  occupations = "smearing",
  smearing    = "methfessel-paxton",
/
&ELECTRONS
  electron_maxstep=200,
  conv_thr    = 1.D-8,
  mixing_beta = 0.3D0,
  scf_must_converge=.false.,
/
ATOMIC_SPECIES
Si  28.08  Si.pbe-hgh.UPF
K_POINTS {automatic}
1 1 1 0 0 0
ATOMIC_POSITIONS (angstrom)
Si 2.7250237799999995 0.001365631425 2.687529175319273 
Si 1.375825707 1.411262973 1.263957778193565 
Si -1.4841428039999999e-05 2.7146959199999996 8.14489504902309 
Si 2.7148914 0.00025772409 8.144929613136416 
Si 2.71482624 2.7147122099999996 5.43157758875064 
Si 1.3576167449999998 1.3578627239999999 6.787631446903644 
Si 0.00237591279 -2.3352529499999998e-05 10.859802458508574 
Si 2.71707426 2.71345788 10.862844100481338 
Si 1.364970051 1.3347651329999999 12.229163500292422 
Si 3.9916201499999997 1.245776121 15.082189106632072 
Si 1.354137201 3.9394432799999994 14.963634197920914 
Si 1.75260852 1.9521284399999999 16.27368322123586 
Si 0.20849570999999997 3.4863857999999994 19.780627287606517 
Si 0.956333772 1.567840824 20.904997894129526 
Si 2.80394883 0.489701835 19.882833370714067 
Si 1.95168861 2.6769357 22.7633720112619 
Si 3.65866884 1.321988886 23.673341422818353 
Si 2.79516852 0.769396248 25.779332847824403 
Si 0.330222735 0.234193185 29.255203776314215 
Si 1.9378583999999999 1.9269441 29.364841143787036 
Si 2.1997038599999996 2.7788622299999997 27.16086045749931 
Si 0.01223300808 3.90437091 27.41304022833214 
Si 2.31572124 3.1391807399999996 34.50037710189306 
Si 3.6098477099999995 0.5959289249999999 30.271734349257393 
Si 1.7744371199999998 3.35275893 31.32189580446762 
Si 3.3119198999999995 1.433218635 32.92961097175355 
Si 4.07246742 6.78480129 4.070650190618547 
Si 1.3591789559999998 4.07031714 4.070581062391893 
Si 2.7250726499999995 5.43201453 2.698154183755952 
Si 1.261636065 6.648030449999999 1.2717450729261084 
Si 0.000449353134 5.42981538 5.429123536704432 
Si 2.71448415 5.43005973 8.145240690156358 
Si 1.3577258879999998 6.78716334 6.787735139243625 
Si 4.07554623 4.0701379499999994 12.22567252484641 
Si 1.3556814929999998 4.07279322 9.502193215255861 
Si -0.0008938469609999999 5.42940813 10.856553431855849 
Si 1.358918316 6.7811849099999995 12.212849238802141 
Si 2.7151194599999995 8.14356648 10.860597433115093 
Si 0.624697065 6.95121993 17.17079478263471 
Si 2.7089455499999997 5.4053477999999995 13.584698896745524 
Si 2.41657263 8.03007405 16.084721213677874 
Si 0.258419673 7.691404949999999 20.982144995075096 
Si 2.47065543 4.55160519 19.54863295895658 
Si 1.462596021 6.641612189999999 19.26226928004348 
Si 3.3864466499999994 8.01049347 19.038777723271956 
Si 3.0085023599999996 4.66469037 21.92747349456493 
Si 2.55230091 6.70998132 23.232337900880843 
Si 1.238799114 6.8232294 25.269235663346493 
Si 1.4868322829999998 6.656208029999999 29.302452919232042 
Si 3.7675837799999994 4.61753082 27.019320413425785 
Si 2.58973533 6.68543229 27.21948119370168 
Si 0.404971029 4.858508789999999 34.31908832749363 
Si 3.0379872599999995 5.22589716 30.466572256080948 
Si 1.87642881 7.006426739999999 32.30804452179648 
Si 2.61404001 7.9441117199999995 34.427827028019955 
Si 3.95910531 9.33993666 1.333742723000511 
Si -0.00611751402 8.13947769 2.68483663089111 
Si 1.3582194749999998 9.50585031 4.072447524511545 
Si 2.7070233299999997 10.84975902 2.695098716137857 
Si 1.3064384519999999 12.21028353 1.3208917856655817 
Si 0.0001554106725 8.14452759 8.14520612604303 
Si 2.7161294399999996 8.14527693 5.429711126630989 
Si -0.0014923643669999998 10.86039639 5.430333280670872 
Si 2.71544526 10.8598914 8.145136997816378 
Si 1.357668873 9.50285295 9.502366035822496 
Si 0.001419188058 10.858409009999999 10.862878664594666 
Si 1.3617462599999999 12.22644321 12.247309659789027 
Si 1.77116283 11.40011667 17.261905785364334 
Si 1.3418529119999998 9.562881599999999 14.764890546291424 
Si 2.8796810399999995 10.93392945 13.601980953408958 
Si 3.50813295 9.812607299999998 17.411568396069672 
Si 3.97620981 9.251237609999999 20.945610727288596 
Si 2.8152215099999998 11.09303388 24.90959606418043 
Si 1.9711225799999998 8.748446759999998 22.17004444189289 
Si 0.975915981 10.16131104 23.768427298580562 
Si 0.10646720459999999 8.95980951 25.61228448811565 
Si 4.0088061 10.29019752 28.543701503480637 
Si 2.3887330199999997 11.41730262 27.250865408602476 
Si 0.492037821 10.089586169999999 27.712987603782697 
Si 1.216815759 8.59690089 30.666214574656934 
Si 3.2191646400000002 9.90142038 30.71429325629461 
Si 3.72575106 12.135659039999998 33.55840132139593 
Si -9.243353249999999e-05 13.580956709999999 2.715138989044775 
Si 2.55832821 13.783783499999998 0.1339770704364717 
Si 1.356217434 14.931088199999998 4.071721678131681 
Si 0.000292416903 13.574847959999998 8.14510243370305 
Si 2.71404432 13.57553214 5.4304369730108535 
Si 1.356974919 12.21790725 6.787251241657049 
Si 4.08040065 14.925191219999999 12.249521763041948 
Si 1.358664192 14.93452539 9.502400599935823 
Si 2.7147936599999998 13.57317009 10.860424612548458 
Si 2.6218755 16.15606362 13.706088062749483 
Si 2.6395990199999995 13.48701228 16.365070736872095 
Si 1.117630836 14.95202085 15.21242668564771 
Si 4.0270671899999995 15.371520929999999 16.323040775066627 
Si 0.355825728 14.40262431 17.947726921996047 
Si 2.56499082 12.984547229999999 20.142478990025495 
Si 0.579836034 12.274172909999999 19.031726644153274 
Si 2.56113009 14.80622535 18.561931215814486 
Si 2.40486012 13.97041803 22.36470952814981 
Si 0.38886836399999997 14.78767104 23.233098311374036 
Si 3.90673296 12.862079009999999 23.82397182869684 
Si 3.62504628 15.921764549999999 21.928959751437986 
Si 0.783048897 15.93704457 25.359447999129618 
Si 0.526479768 14.97503862 27.47660363274025 
Si 2.1047494499999995 13.498187219999998 28.35453211124269 
Si 3.9484516499999995 14.929736129999998 28.862520884807665 
Si 3.24021132 12.20652054 31.3104205188431 
Si 1.132717005 15.387387389999999 31.20448151149625 
Si 1.192250439 13.07476125 30.487137903510433 
Si 6.7884828299999995 4.07515527 4.071894498698314 
Si 8.14407147 -0.0204654528 2.7034148418043014 
Si 4.0669939799999995 1.3601840490000001 4.06940588253878 
Si 5.42149119 2.72407896 2.703867631688883 
Si 6.65518176 1.221376959 1.3738751149843373 
Si 5.42992941 -0.00019724909399999999 5.428674203231183 
Si 5.42968506 2.71453302 8.145033305476396 
Si 6.7877171999999995 1.35751086 6.78745862633701 
Si 4.07228823 1.355873715 9.501709317669285 
Si 5.42975022 0.0034741683 10.861219587154975 
Si 6.78489903 1.3341428549999998 12.245235812989415 
Si 7.1541770399999995 3.6351623699999998 14.946006500124213 
Si 5.41790739 2.6939261699999997 13.632224552569966 
Si 5.876031059999999 0.31667759999999995 16.943362916943922 
Si 6.218968139999999 2.67480171 20.355912389818908 
Si 4.62015351 1.6566115499999998 18.901316244571003 
Si 7.56126414 3.54136455 18.604548767546515 
Si 7.981073729999999 1.4941986209999998 21.464729145344826 
Si 6.869704769999999 0.08334517859999999 22.916076263940003 
Si 5.93177544 1.8300511799999999 24.312881211705385 
Si 6.40964259 0.841992633 26.47175573010155 
Si 5.3097417899999995 2.23682877 30.073993056914382 
Si 6.860305439999999 1.092052278 28.767884342518702 
Si 7.17219378 2.78632305 31.587555579497923 
Si 7.2814345199999995 0.804750435 32.850943049821595 
Si 5.29657947 0.260897382 34.17440294910736 
Si 4.136764049999999 4.138116119999999 1.2229923910785614 
Si 6.94706598 6.85650987 1.1347951431023928 
Si 5.451432209999999 8.12999691 2.6939857516887318 
Si 8.13786498 5.4182006099999995 2.6855832157389705 
Si 4.0721253299999995 4.07238597 6.787700575130298 
Si 5.42797461 5.428544759999999 5.430713485917469 
Si 6.78773349 6.78730995 6.787389498110356 
Si 6.787554299999999 4.0739661 9.502884497522398 
Si 4.073184179999999 6.78807558 9.502262343482515 
Si 5.42888685 5.430206339999999 10.863086049274626 
Si 6.79185486 6.7889715299999995 12.238081041530755 
Si 6.013013669999999 4.1629095 16.99921852408014 
Si 5.91219486 6.35280678 16.30116169133072 
Si 4.081638689999999 6.87995118 14.874113144404326 
Si 7.849792619999999 7.72027083 16.182468526166254 
Si 6.406270559999999 6.16337037 20.58030261353693 
Si 5.3058159 6.711365969999999 18.563866806160792 
Si 5.40226899 4.39453701 21.76384698207554 
Si 5.82926247 8.03346237 21.930653392991 
Si 4.69945323 7.28681022 23.909345188614203 
Si 6.52844556 4.12079985 23.852832863324775 
Si 5.35400172 5.49598536 25.406697142047445 
Si 4.880304809999999 4.37189391 29.113560039900708 
Si 6.303122279999999 6.952962959999999 27.049771397266756 
Si 7.01536995 5.53366413 28.83148231104014 
Si 5.6604491999999995 5.53120434 34.178654335046566 
Si 7.57056573 4.955613479999999 32.71002515978795 
Si 4.21735068 6.9690411899999996 32.897950243946134 
Si 6.79134987 9.50099589 4.072343832171564 
Si 4.07137599 12.221377019999998 4.068472651478954 
Si 6.622389989999999 11.993577659999998 1.2755436689807311 
Si 4.07220678 9.50282037 6.787596882790317 
Si 5.42997828 8.14526064 8.145275254269684 
Si 5.43116745 10.859679629999999 5.429987639537604 
Si 6.78864573 9.503862929999999 9.502815369295744 
Si 4.088838869999999 9.49746096 12.212538161782199 
Si 5.42698092 10.85780628 10.862878664594666 
Si 5.54213493 10.917834929999998 16.747488086720562 
Si 5.53988691 8.30280123 13.62579562749117 
Si 6.913997279999999 9.67503825 15.22853356245803 
Si 4.34693763 12.17939769 15.116995168752227 
Si 7.914398759999999 9.84349314 19.438546258010508 
Si 4.47846309 11.52002736 20.25180528047838 
Si 6.432481169999999 11.638667429999998 18.8364739679698 
Si 7.2102797999999995 11.30076396 23.024296502766425 
Si 7.749918629999999 9.400730939999999 21.77297190799383 
Si 6.4334422799999995 10.290849119999999 25.056286161139656 
Si 4.33483416 9.26865162 25.13630208349136 
Si 7.703198909999999 8.452881 25.92460581613723 
Si 7.67558736 10.20982266 29.668452315250242 
Si 6.597987569999999 12.10369806 26.566703349410453 
Si 4.33950939 8.3074113 27.292929934521272 
Si 5.9503786199999995 11.598740639999999 28.798058813453057 
Si 5.24327859 10.54821483 34.351820542814174 
Si 7.19486946 8.422304669999999 31.145687954727244 
Si 5.10505794 9.09087885 32.15686109010476 
Si 4.19964345 15.02791596 1.248300234856494 
Si 5.43429513 13.56903243 2.691348509841892 
Si 6.793842239999999 14.928041969999999 4.073104242664755 
Si 4.07235339 14.93242398 6.787354933997029 
Si 5.42989683 13.57499457 8.14510243370305 
Si 6.78763575 12.21736968 6.787907959810259 
Si 4.07329821 12.218575139999999 9.50208952291588 
Si 6.78682125 14.93252172 9.503022753975705 
Si 6.80149854 12.22978266 12.258059099033684 
Si 5.636844989999999 13.717189979999999 13.821635893601202 
Si 7.1930124 14.940976229999999 15.573068644100248 
Si 8.093262959999999 16.190598419999997 13.78544726694797 
Si 8.08386363 13.259587589999999 19.196597464722434 
Si 5.7016629 14.92219386 21.441536625302497 
Si 6.7743594 15.20270766 19.333886122856754 
Si 5.46439905 12.57874704 22.09186041754751 
Si 7.46691246 14.62866435 24.323354138043427 
Si 5.44351527 13.87420929 25.36314635925559 
Si 5.55076863 13.62410892 29.969194665307317 
Si 7.40996262 15.204206339999999 29.558538434870805 
Si 4.5634806 15.68637405 26.69607682559292 
Si 8.64687861 1.8010224 0.08023021985432553 
Si 9.50127282 1.361907531 4.069025677292184 
Si 10.86285618 2.7128388599999997 2.7012027385513817 
Si 12.21593616 4.07162034 4.070200857145299 
Si 9.41760738 3.9172400099999996 1.2360472566821195 
Si 8.14465791 0.000288994374 8.144964177249742 
Si 8.14464162 2.71461447 5.430195024217565 
Si 10.859044319999999 -0.0010744525619999998 5.4283976903245685 
Si 10.8597285 2.7152009099999996 8.144791356683108 
Si 9.5032602 1.356715908 9.50174388178261 
Si 8.14933314 2.7106234199999997 10.863639075087855 
Si 10.85801805 0.00490271985 10.860459176661784 
Si 9.517839749999998 4.0812966 12.201719594310891 
Si 12.06092052 0.226693269 16.78910327916611 
Si 10.676351969999999 2.16072189 17.08645834611715 
Si 8.97678369 1.9057345199999998 15.046346121112109 
Si 10.90548711 2.8603936799999996 13.640347119201781 
Si 11.645150849999998 0.9267381 21.12707232225465 
Si 8.65298736 0.235458918 19.65239442716384 
Si 8.37942939 1.581499989 17.57702680656539 
Si 9.675054539999998 1.321470864 24.88941062199754 
Si 10.00445463 1.96105536 22.5833966731689 
Si 9.00613827 3.39346764 25.891424267343435 
Si 11.25246411 0.12024821879999999 28.064712020996904 
Si 10.772544420000001 1.400032647 30.01685857758507 
Si 8.6203422 2.30847219 29.764540550298936 
Si 11.71273806 1.086774318 25.95253361970534 
Si 8.61859917 3.94872858 28.09312372215159 
Si 10.618717949999999 0.231950052 34.367270701471284 
Si 12.03777243 3.28408029 30.830878010546133 
Si 10.861422659999999 8.13138156 2.723603740398525 
Si 12.07901871 6.73834221 1.2717139652241143 
Si 9.50583402 6.78726108 4.072412960398218 
Si 9.50264118 4.07276064 6.787389498110356 
Si 8.14527693 5.43058101 8.144825920796436 
Si 10.86000543 5.430646169999999 5.431197383504045 
Si 10.8567963 5.4305973 10.857486662915674 
Si 8.14514661 8.14377825 10.863016921047972 
Si 9.505215 6.78809187 9.501674753555957 
Si 8.191214729999999 5.3664147 13.599596029589403 
Si 9.610741619999999 6.76276092 14.998129183021128 
Si 11.32791939 6.59104803 16.714064589133482 
Si 11.99683566 4.391767709999999 17.107749839926505 
Si 11.15542458 7.40062845 20.94094457198947 
Si 10.65641301 5.1590104199999995 20.68071136275148 
Si 8.502663239999999 5.49095175 19.549600754129735 
Si 10.92933567 7.95528666 18.648272370905 
Si 8.55298305 7.5525326999999995 18.385965314867402 
Si 10.591741709999999 4.20653412 22.851372243792106 
Si 8.7697215 4.97597598 24.178703323770485 
Si 9.3299346 7.2708134399999995 24.652888394501783 
Si 10.96924617 6.92756685 26.387004524224068 
Si 10.55390004 6.94506231 30.168076573390117 
Si 11.94374655 5.20186941 29.362732732874097 
Si 10.86793866 4.70820096 27.29825280797361 
Si 8.278398809999999 6.368933879999999 30.705652227962894 
Si 8.85307743 7.56940914 34.28507723997999 
Si 12.06875601 4.306799069999999 33.05552803660333 
Si 10.50968898 5.54922108 34.484650430329324 
Si 9.522922229999999 9.32986944 1.2569032426635514 
Si 8.14620546 10.83926826 2.68594268251757 
Si 11.337905159999998 10.224239309999998 0.023009053728789277 
Si 12.217239359999999 12.129175619999998 1.2225741653073061 
Si 8.14263795 8.14284972 5.4304715371241805 
Si 9.50252715 9.502022160000001 6.78690560052378 
Si 10.85984253 8.14498371 8.144549407889821 
Si 8.14508145 10.86024978 8.144722228456454 
Si 10.85984253 10.85749677 5.430160460104238 
Si 9.495880829999999 9.5171067 12.237666272170832 
Si 10.85822982 10.860412679999998 10.860009843188536 
Si 11.262433589999999 11.10507219 16.590186806969985 
Si 10.864582919999998 8.20719522 13.613732751940093 
Si 8.27838252 10.96958826 13.7836844971683 
Si 9.754386839999999 12.21021837 15.161479182603905 
Si 11.06700246 11.410297919999998 20.87406301270198 
Si 10.280619 10.191919949999999 18.979949602389627 
Si 9.792912689999998 8.46389304 22.604549910524945 
Si 11.16536148 10.34465499 23.011196703815543 
Si 10.28293218 11.843644499999998 24.587078322727425 
Si 8.941809059999999 11.628730529999999 26.55979052674508 
Si 11.16431892 12.10969278 29.64142317862863 
Si 8.752649579999998 9.57226464 27.68094667072869 
Si 10.636636949999998 8.38138419 28.25764890158748 
Si 12.20507073 10.09046583 28.77683644787036 
Si 9.30898566 11.41788906 30.944663071618184 
Si 11.87966169 8.18179911 31.795355028819053 
Si 10.22252886 9.743993819999998 32.51881648486373 
Si 8.28225954 13.154028389999999 0.1333103286903964 
Si 9.50291811 12.21732081 4.064670599012999 
Si 9.52380189 14.864755319999999 1.276812171939827 
Si 10.87313517 13.56300513 2.69538559827847 
Si 8.14340358 13.575988259999999 5.430851742370776 
Si 9.50251086 14.932016729999999 6.787666011016971 
Si 10.859907689999998 13.574457 8.144791356683108 
Si 9.503374229999999 12.21790725 9.50174388178261 
Si 8.14498371 13.57181802 10.861150458928321 
Si 9.4957668 14.94012915 12.238841452023944 
Si 10.9099017 13.62715515 13.609170288980946 
Si 8.93856735 13.688405549999999 16.88014515366908 
Si 9.627585479999999 13.297673609999999 21.04028183369089 
Si 10.592311859999999 15.319979369999999 20.230133581422432 
Si 11.019794039999999 14.752924469999998 18.00226909282584 
Si 8.805543209999998 13.024588049999998 23.246716572024823 
Si 8.371268099999998 15.95196621 25.962868289590073 
Si 11.9685888 12.736662299999999 25.92502058549715 
Si 10.386520289999998 13.089813209999999 27.66736297419123 
Si 9.261353699999999 15.09309225 27.965478451635466 
Si 8.35150833 15.30937458 31.71844987666677 
Si 8.22500019 13.049919 32.39614844666667 
Si 10.78002153 15.855806339999999 31.754465682753366 
Si 16.2847872 2.70638802 2.7043411600414613 
Si 13.581070739999998 -0.00993953898 2.705450668079254 
Si 12.23335017 1.340974881 1.3131563371030288 
Si 14.934688289999999 1.3574961989999998 4.071687114018354 
Si 16.290325799999998 3.4068743100000004e-05 5.430091331877584 
Si 13.57514118 0.000328134357 8.144687664343127 
Si 13.574603609999999 2.71461447 5.431301075844025 
Si 12.21802128 1.357572762 6.787804267470278 
Si 14.93156061 1.356942339 9.502711676955764 
Si 13.577047109999999 2.71432125 10.860355484321804 
Si 12.20050953 1.360356723 12.235281348351279 
Si 14.94105768 4.066863659999999 12.200993747931024 
Si 16.27232535 2.6793629099999996 13.552899912484804 
Si 13.61109321 0.0167438394 13.608098801467813 
Si 14.53307463 1.7831034 14.838926877037574 
Si 12.86295867 3.5650013400000002 15.01897134335723 
Si 15.85220625 2.84931648 17.551345670363524 
Si 12.36054249 2.14135308 19.174061662833314 
Si 14.092430129999999 0.9766490309999999 17.970020775091875 
Si 14.230178369999999 2.9334869099999996 22.637731459318736 
Si 16.21356732 3.00715029 23.958771870671626 
Si 13.43475396 0.1026050085 24.673834247177865 
Si 13.6014984 0.617448015 22.37694522426752 
Si 15.38080623 1.261743579 25.377974363872816 
Si 14.40521442 0.961795809 29.190776269072927 
Si 12.507999569999999 3.2495780699999997 26.258633407328084 
Si 14.53351446 2.3928869699999997 27.277687160544122 
Si 16.185760289999997 0.193238496 34.372904651943564 
Si 13.418447669999999 2.85187401 34.46487975750636 
Si 14.157492389999998 2.23780617 31.150699751159642 
Si 14.310455489999999 0.994532193 33.185938436185594 
Si 15.743633399999998 4.05933768 31.335272116325115 
Si 14.965997669999998 4.0776476399999995 1.2851836001875947 
Si 13.574049749999999 5.43813957 2.6879681395585244 
Si 14.929589519999999 6.791496479999999 4.0700971648053175 
Si 14.9325543 4.07219049 6.787769703356952 
Si 13.57512489 5.43002715 8.144825920796436 
Si 12.21699501 6.78778236 6.787804267470278 
Si 13.577731290000001 8.144609039999999 10.858661842768788 
Si 12.2178258 4.073428529999999 9.502849933409072 
Si 14.9325543 6.7867723799999995 9.501882138235919 
Si 12.2072373 6.78919959 12.228679602705846 
Si 16.26502743 8.117355869999999 13.516331080584978 
Si 16.0316406 4.98224763 16.331647239285015 
Si 13.400023679999999 7.66325583 16.188620938338435 
Si 13.527297449999999 5.3260155000000005 13.539972934100557 
Si 14.994505169999998 6.570066509999999 14.882443095716102 
Si 13.346429579999999 8.05095783 21.52846537031957 
Si 14.557639949999999 4.47070905 20.8753764490084 
Si 12.60562554 4.459599269999999 19.452959493267812 
Si 14.88383091 6.42795255 22.214563019857895 
Si 12.699684 4.07829924 24.02503127591923 
Si 14.164513379999999 5.84595972 24.471979825348956 
Si 16.120795769999997 4.928164829999999 25.32274091077648 
Si 15.794327879999999 5.39635572 29.206399248296673 
Si 13.2998076 7.11095967 26.27871515717099 
Si 13.787856 6.6270326399999995 28.677568314395597 
Si 13.5799956 10.85790402 2.699529835466361 
Si 15.595850519999999 11.46084579 0.30110112555340957 
Si 12.217679189999998 9.50332536 4.0728622938714665 
Si 14.852097989999999 9.452239919999998 1.2171752508056497 
Si 13.573903139999999 8.14482081 5.431439332297333 
Si 14.93177238 9.503309069999998 6.787424062223683 
Si 13.57489683 10.86007059 8.145033305476396 
Si 12.216718079999998 9.501973289999999 9.502504292275802 
Si 14.92005987 9.50181039 12.206765954856612 
Si 12.213948779999999 12.22518888 12.215994573114887 
Si 16.07632407 10.37387925 16.320275646000475 
Si 12.245649119999998 9.462274560000001 15.06310971607564 
Si 13.51594332 10.800286289999999 13.553487502411361 
Si 14.776251749999998 11.968735409999999 15.140083996454575 
Si 15.18037407 11.197029239999999 20.3650373157372 
Si 14.834358179999999 8.924427629999999 19.903364454030225 
Si 15.09705072 8.51240466 17.584976552630568 
Si 13.445423909999999 9.68818428 23.240495031625983 
Si 15.339739139999999 11.10710844 22.732195181041067 
Si 14.03124489 9.15939459 25.46718434036946 
Si 13.54857219 8.66051334 30.1229012772719 
Si 13.205097539999999 10.906073549999999 26.833814817200487 
Si 15.08067927 11.77793064 27.923206541036706 
Si 15.34899186 11.97091827 30.299558460485525 
Si 15.45987789 9.73804797 31.056305157663967 
Si 12.995591849999999 8.47593135 34.42195112875439 
Si 12.21903126 14.929850159999999 4.0700971648053175 
Si 14.929899029999998 12.22000866 4.075247217691021 
Si 14.98587147 14.965704449999999 1.2871122777112338 
Si 13.57590681 13.57486425 5.430713485917469 
Si 12.217532579999999 12.2173371 6.787424062223683 
Si 14.93276607 14.9323914 6.787527754563664 
Si 12.216343409999999 14.93133255 9.502435164049148 
Si 14.932928969999999 12.218493689999999 9.502815369295744 
Si 13.57507602 13.57499457 10.861496100061592 
Si 14.94268668 14.92711344 12.23856493911733 
Si 12.982038569999999 12.868774199999999 16.403609723231554 
Si 12.41925165 14.841411749999999 15.045620274732245 
Si 16.19696781 13.517588609999999 13.769236697797671 
Si 13.33905021 13.75123608 18.565249370693863 
Si 15.6760299 16.140392639999998 21.508452748703313 
Si 13.14502002 12.43099674 20.469040732737742 
Si 14.969076479999998 15.44570559 19.261336048983654 
Si 13.16021859 14.18984433 22.069704820904995 
Si 14.87617461 13.30954902 23.41155282848065 
Si 13.715446949999999 14.12419563 25.25364724823607 
Si 14.70649797 14.03647398 27.383522475550993 
Si 13.18155849 15.246690659999999 28.784993578615502 
Si 14.02329537 13.17895209 34.52481393001515 
Si 14.127909749999999 13.30677972 31.995930578454868 
Si 15.461181089999998 15.245778419999999 32.410734502490605 
Si 12.23708058 14.046622649999998 30.615716405086385 
