&CONTROL
  dt          = 30.D0,
  prefix = 'x.33_y.66_z3.19_struc37-scf',
  pseudo_dir = './',
  outdir='./',
  wf_collect= .true.,
  verbosity= 'high',
/

&SYSTEM
ibrav= 6, celldm(1) =30.783621515, celldm(3) =2.1313050152026944, nat=  432, ntyp= 1,
  ecutwfc     = 12.D0, nbnd= 1728,
  degauss     = 0.05D0,
  occupations = "smearing",
  smearing    = "methfessel-paxton",
/
&ELECTRONS
  electron_maxstep=200,
  conv_thr    = 1.D-8,
  mixing_beta = 0.3D0,
  scf_must_converge=.false.,
/
ATOMIC_SPECIES
Si  28.08  Si.pbe-hgh.UPF
K_POINTS {automatic}
1 1 1 0 0 0
ATOMIC_POSITIONS (angstrom)
Si -0.018289923299999997 2.6940402 2.7006628088390294 
Si 2.3028521399999997 3.1699362599999996 0.2069972092720964 
Si 1.406286378 1.3084649279999998 1.3725272347149233 
Si -0.00046938494699999995 -0.001187663175 5.431364460743267 
Si 0.00031138172099999994 2.7151683299999996 8.144269174419088 
Si 2.71529865 -0.00038571136199999997 8.144824677758251 
Si 2.71446786 2.71383255 5.42969795072578 
Si 1.357476651 1.3575092309999999 6.787625863308341 
Si 2.71630863 2.71334385 10.860159718542908 
Si 1.362651984 1.3644031589999999 12.250410981672983 
Si 4.07323305 4.05415746 12.24468235348787 
Si 2.88015345 0.1100946618 13.71853686916189 
Si 1.4744078999999999 3.9608483399999996 15.28158438973018 
Si 0.922919724 1.322223462 19.173614378695653 
Si 3.2943429899999996 1.3414261140000001 19.713459467485443 
Si 1.7458970399999998 2.7616762799999997 22.794385143356372 
Si 0.288627849 1.86789285 24.456416415171667 
Si 2.98581039 0.8803148579999999 21.9630743962998 
Si 3.69981738 1.286517411 26.315894405100508 
Si 1.5579071820000001 2.6377908299999997 29.599474642889632 
Si 3.86923338 1.67154948 29.56180457270268 
Si 1.4858728019999998 2.24663535 26.455915965528135 
Si 0.227063052 1.97126919 31.539813087625305 
Si 1.470687264 0.22397121 32.64241777794533 
Si 3.34549359 1.447330662 33.620485563416885 
Si 1.359284841 4.07122938 4.06746488726471 
Si 2.72443734 5.43745539 2.700114249291606 
Si 1.270673757 6.64504938 1.2021300573227176 
Si 2.71480995 5.42986425 8.14468580192346 
Si 1.3574994569999999 6.787896389999999 6.787973052895317 
Si 4.071506309999999 6.78594159 9.5014332699103 
Si 1.358028882 4.07245113 9.503134498886485 
Si 1.352855178 6.78810816 12.25961150572786 
Si 4.07797344 6.701038109999999 15.160137472205792 
Si 2.0303041499999996 6.92204454 16.39977789250545 
Si 2.71446786 5.3552886299999996 13.70773927300692 
Si 0.7884115649999999 4.2945326999999995 21.30223373644869 
Si 1.400511573 7.933164839999999 20.20882957018354 
Si 2.1924710999999997 5.72163444 20.064016793455632 
Si 2.14467624 5.014925369999999 17.72159808804246 
Si 3.15147969 4.21593345 24.039198688501983 
Si 2.2544545499999997 4.51402416 26.269058529817375 
Si 3.5090126099999996 5.33225457 29.9001408252113 
Si 1.2500946 4.97050254 29.541598138740646 
Si 0.711434799 5.94456309 27.4294008484516 
Si 0.328533462 4.71768174 34.63486937968618 
Si 3.95589618 7.522217009999999 30.597922457116702 
Si 0.6499237589999999 7.90385913 32.169649717359405 
Si 2.47766013 8.091438479999999 34.31059430545011 
Si 3.94240806 9.49928544 1.2351686184194033 
Si 1.35698958 9.50633901 4.069756338538755 
Si 2.7067952699999998 10.85329395 2.708530124879917 
Si -0.000405024786 8.14552128 8.144928834634344 
Si 2.7159828299999997 8.14324068 5.430635362610616 
Si 2.7147773699999997 10.860510419999999 8.145241305262623 
Si 1.356701247 9.50394438 9.50275259034081 
Si 2.71490769 8.145032579999999 10.866131379438903 
Si 0.9326595149999999 10.023921179999999 15.147256738528963 
Si 2.6385401699999997 10.89962271 13.734750622873694 
Si 2.09697912 10.79306982 18.019417315750914 
Si 0.7121499299999999 11.694004559999998 21.5208937383265 
Si 3.37818762 8.990776799999999 20.838735637835036 
Si 2.7377136899999996 11.163813929999998 20.468944008746348 
Si 1.192139667 8.56350639 17.90015769262448 
Si 3.6040647599999995 8.330575679999999 23.046757254129606 
Si 0.6150094019999999 11.10631023 23.85088305652592 
Si 1.5581987729999998 8.87168061 24.21251573032066 
Si 3.47690502 11.19357576 26.224097478303918 
Si 1.90993734 8.713846799999999 30.141541745036072 
Si 1.88874405 11.154186539999998 29.929929691773886 
Si 2.5124067 8.98746993 26.37616651739963 
Si 0.9355477319999999 8.273234879999999 27.980112971313755 
Si 3.72211839 11.85755616 28.486905611423378 
Si 0.699930801 15.75855504 0.034138770178855436 
Si 2.72266173 16.3043352 2.7588934463667307 
Si 4.07191356 12.21868917 4.070728469382289 
Si 3.99895065 14.90461695 1.486891484664989 
Si -0.0209930859 13.599266669999999 2.734187435357482 
Si 2.2965641999999997 13.97533761 0.28699975860950866 
Si 1.2956251499999998 12.23496288 1.4245744256985735 
Si 1.3533455069999998 14.936007779999999 4.075380809847775 
Si 0.000661659075 13.57442442 8.144581645047367 
Si 2.71459818 13.57567875 5.430114578230151 
Si 1.357406604 12.217597739999999 6.7874869874735495 
Si 4.07256516 12.219748019999999 9.501467988868999 
Si 4.069404899999999 14.942474909999998 12.225170298699789 
Si 1.3576379219999999 14.930860139999998 9.501190237199417 
Si 2.71404432 13.574408129999998 10.859604215203746 
Si 1.354417389 12.22279425 12.232079371480621 
Si 3.6623178 12.694813289999999 15.071048624187616 
Si 0.10778115599999999 13.63968216 13.703191089417528 
Si 1.9366529399999999 14.66258013 15.12955006959316 
Si 0.8062898399999999 16.01818506 17.21865925234827 
Si 0.29943463499999995 12.271892309999998 17.382671613235978 
Si 0.496357929 13.89950766 20.710449085447213 
Si 3.6111509099999997 13.89180249 18.890515989475 
Si 1.264459122 14.10104754 18.471076249448664 
Si 1.5248287079999998 15.332327189999999 22.322762808407468 
Si 3.17009916 13.819751819999999 23.077657127370518 
Si 0.362744091 15.80027373 24.333858490968954 
Si 2.15966304 12.55385592 24.801592302543725 
Si 1.4256226079999998 14.432027759999999 26.03487915340171 
Si 3.81379851 15.54680133 30.013185754730856 
Si 3.6913139999999998 15.20230041 26.36904913086661 
Si 3.70876059 13.042637369999998 33.3702660280829 
Si 1.7262675899999997 14.78346822 30.914073295017523 
Si 1.8609858899999998 12.506745239999999 31.888773341495405 
Si 8.13709935 -0.0256196088 2.7234696928075164 
Si 4.069160549999999 1.359035604 4.075207215054286 
Si 4.95782892 0.191989053 0.09026929261389492 
Si 5.43551688 2.7144027 2.707051097239397 
Si 6.631333199999999 1.169788158 1.4219566162127704 
Si 5.430369239999999 -0.000962455554 5.430704800528011 
Si 5.42989683 2.7147284999999997 8.14513714838653 
Si 6.78770091 1.357196463 6.787764739143132 
Si 6.78812445 4.0713597 9.502301243877742 
Si 4.07284209 1.3573740239999998 9.502301243877742 
Si 6.790453919999999 1.366382394 12.24155764720508 
Si 4.719946049999999 0.8679882149999999 15.195446653201303 
Si 5.416750799999999 2.66533722 13.776934157691342 
Si 5.4119126699999995 2.7251703899999997 17.337918875474706 
Si 7.44943329 1.2786200189999999 18.064135334553487 
Si 7.0827779699999995 2.35603899 20.18400551471472 
Si 4.82449527 3.18319632 19.71498710166814 
Si 5.09968224 0.6735556619999999 23.08217059200121 
Si 4.73630121 2.48448564 24.50238431648736 
Si 7.27464159 0.841543029 22.08177851608707 
Si 6.61646043 3.79550484 25.081427109646796 
Si 6.06520683 3.96993816 27.315557382881998 
Si 7.48382148 0.1176028857 27.745100339889348 
Si 5.49772839 1.69999182 27.806136269279822 
Si 4.9614453 3.1245034499999997 33.04626870551642 
Si 6.985673279999999 1.78629624 33.06862771491771 
Si 4.7446254 3.52974978 30.788321226614627 
Si 4.16782908 4.148118179999999 1.2932777395916633 
Si 6.79050279 4.07284209 4.0720477898128 
Si 4.06718946 6.79099149 4.073019920656334 
Si 6.59634228 6.7214494799999995 1.227645020069622 
Si 4.07240226 4.07245113 6.787139797886573 
Si 5.4286425 5.42968506 5.428274473419175 
Si 6.787342529999999 6.787652039999999 6.787243954762666 
Si 8.14390857 8.14218183 5.430947833238895 
Si 5.43051585 5.4314769599999995 10.865193967554067 
Si 6.78253698 6.79855005 12.252563557112238 
Si 8.08845741 5.32318104 13.631183969078597 
Si 5.530455 5.619773069999999 16.802656689233004 
Si 6.555226319999999 4.204351259999999 15.144548659750546 
Si 4.42467351 5.354327519999999 20.645524632682605 
Si 8.11996227 6.03394632 19.772030350808382 
Si 5.875053659999999 6.518932199999999 19.167052495501796 
Si 4.33098972 5.99630013 22.941940717821392 
Si 6.39113715 5.90038461 24.07495921596057 
Si 6.056784899999999 7.76648556 25.404348144493657 
Si 4.33856457 7.55162046 26.981456843334495 
Si 4.07566026 5.24824704 27.591191195982656 
Si 7.89235839 4.96445895 28.398511142579153 
Si 7.63129485 7.31010492 28.655361999024382 
Si 5.6163033 5.49886869 34.05617377611372 
Si 7.46523459 5.6720802599999995 32.50996495051379 
Si 4.42330515 7.464420089999999 32.98967680283925 
Si 7.017536519999999 4.33230921 30.54983669932046 
Si 7.74591129 8.51224176 0.047333050771682775 
Si 8.134264889999999 10.88556444 2.692715639193137 
Si 5.40906192 8.151662609999999 2.6986768844015234 
Si 6.79025844 9.50110992 4.06732601142992 
Si 4.07241855 9.502250219999999 6.787139797886573 
Si 5.4300760200000004 8.14452759 8.145484337973505 
Si 5.42878911 10.85992398 5.429732669684477 
Si 8.14343616 8.143696799999999 10.864603745256206 
Si 6.787652039999999 9.502445699999999 9.502683152423415 
Si 4.07678427 9.50617611 12.264680473697718 
Si 5.43015747 10.8595656 10.864673183173602 
Si 5.49541521 8.2295451 13.834532910170745 
Si 7.08569388 9.38139471 15.39379606424099 
Si 4.22140689 11.888881829999999 17.350695452275442 
Si 7.93784007 11.55309606 18.399520475572807 
Si 6.905298419999999 9.34081632 21.582624046890928 
Si 7.71719202 11.396516579999998 20.78398383996884 
Si 5.468797349999999 8.80031412 19.728041430138454 
Si 6.119175599999999 10.26393804 17.62792633747619 
Si 5.64398001 9.364990679999998 23.715374960728983 
Si 5.6633814000000005 11.22827346 25.216414421063266 
Si 7.852529339999999 8.499014279999999 26.673187209058046 
Si 7.1089071299999995 10.73375793 27.081482163342432 
Si 5.44450896 8.26593696 28.972832157355715 
Si 5.6925405 10.61184357 29.05213025902115 
Si 5.011553339999999 11.1579984 34.57546524135449 
Si 5.947006589999999 9.411221699999999 33.23569534417081 
Si 6.84295659 10.68974235 31.31629243152982 
Si 5.43396933 13.57079175 2.711050721281367 
Si 6.672986729999999 12.26120607 1.1842254903223386 
Si 6.78998151 14.93491635 4.0774986663283315 
Si 4.0723370999999995 14.93276607 6.7877300201844335 
Si 5.42989683 13.57548327 8.144720520882156 
Si 6.7882059 12.21736968 6.787174516845271 
Si 8.14415292 13.5772263 10.859465339368954 
Si 6.788401379999999 14.933629439999999 9.501676302621183 
Si 6.7978821599999995 12.20855679 12.259889257397441 
Si 5.42890314 16.28758908 10.861062411469046 
Si 7.674039809999999 13.876815689999999 17.087734059099425 
Si 5.361755759999999 13.56168564 13.64107887230743 
Si 6.536737169999999 15.19826049 15.061848100132739 
Si 8.12063016 16.22967813 13.625316465058695 
Si 4.11547302 13.01735529 21.056666541580196 
Si 7.611583949999999 15.04938618 20.961467156831237 
Si 4.547206889999999 16.01303742 18.462639542485135 
Si 6.8818734 15.43187538 18.724108020437153 
Si 6.422137019999999 13.11278211 21.706917919028523 
Si 6.407182799999999 13.240951829999998 24.103012134588266 
Si 4.80418164 14.94001512 24.30462512774553 
Si 4.636655279999999 14.1030675 28.309526451437073 
Si 7.10675685 14.10663501 28.454478103999772 
Si 7.759578599999999 13.81470192 34.38010166076281 
Si 7.141487129999999 12.92086962 32.095733054292104 
Si 6.520854419999999 15.782680529999999 33.19983065983613 
Si 5.14048869 14.41704096 31.889363563793264 
Si 12.09635127 1.328739462 1.253389127943931 
Si 8.476094250000001 2.00943666 0.13919663796897386 
Si 9.50340681 1.361783727 4.072464417317172 
Si 10.85000337 2.7151194599999995 2.7091134033860373 
Si 9.353164139999999 3.9449492999999998 1.3138278912448034 
Si 8.14488597 -0.00017654776199999998 8.144546926088669 
Si 8.14372938 2.71350675 5.42983682656057 
Si 10.8597285 2.7152660699999998 8.144894115675646 
Si 9.50102847 1.3577584679999999 9.501016642405927 
Si 8.14716657 2.7128388599999997 10.857382201847095 
Si 10.85562342 0.00355351689 10.862242856064766 
Si 9.53999415 0.7375476689999999 17.050619492251634 
Si 9.926067149999998 0.9609389549999999 14.77840252132511 
Si 10.93536297 2.8294752599999997 13.652466690760258 
Si 12.21008805 2.5857768599999997 21.49697237578382 
Si 8.72490771 3.93872652 20.79905186804362 
Si 10.69003557 3.0109295699999996 19.79911113859255 
Si 11.241614969999999 1.0266462989999998 18.62258978520522 
Si 8.92305927 3.33708795 24.959042780237574 
Si 11.33199189 1.024636113 23.087552030599348 
Si 9.04823163 1.21305114 23.88608808064534 
Si 11.20993092 1.1474496809999999 28.72184880493039 
Si 8.926300979999999 0.926969418 29.483791072509057 
Si 11.81516958 3.3553001699999996 28.115412753358502 
Si 10.21518207 0.335178153 34.742914779153274 
Si 8.2140696 2.41981434 31.18769340851372 
Si 10.37255976 2.6743293 32.34977167508282 
Si 10.84586571 8.13828852 2.6964826462118316 
Si 12.15325224 6.716643929999999 1.3011867183829884 
Si 8.120174039999998 5.43735765 2.688139680436786 
Si 9.5037489 6.79068198 4.071110377927964 
Si 11.00681091 4.9951656 0.022457437649195663 
Si 9.50288553 4.07197872 6.787799458101828 
Si 8.14493484 5.43012489 8.145171867345228 
Si 10.85945157 5.4288542699999995 5.429524355932291 
Si 10.86081993 5.43204711 10.863249705866997 
Si 9.504058409999999 6.78867831 9.501849897414672 
Si 9.49855239 4.0591422 12.223573226599697 
Si 9.85716045 6.524145 14.83902182321121 
Si 9.029709899999999 8.11846359 16.500879500233015 
Si 11.68093998 4.84441794 14.908529178523908 
Si 9.50547564 6.13588914 17.805895719760354 
Si 8.64370206 7.72543476 21.350250056327543 
Si 10.98749097 8.08743114 21.183182427074442 
Si 12.17972349 6.1379253899999995 20.84123540286127 
Si 11.48285358 5.0503398299999995 18.85520680847949 
Si 11.89989387 4.60547622 22.58732127368358 
Si 9.57584844 4.51448028 23.026342506415386 
Si 8.5387293 6.5692194299999995 23.358325189482333 
Si 9.4745898 7.779045149999999 25.163815198636325 
Si 12.103323389999998 4.75682661 30.062660270875007 
Si 9.59099814 7.98916986 29.79567147849006 
Si 11.01031326 6.50596536 26.470671522974637 
Si 9.93194784 4.39408089 27.000205081031226 
Si 10.571411789999999 6.23257029 31.153703547948716 
Si 11.574321929999998 7.84479159 32.6341199468166 
Si 9.64630269 4.890046229999999 32.82427568360364 
Si 8.52771726 7.90034049 32.66567948027276 
Si 9.5259033 9.61152354 1.284719516272692 
Si 9.50288553 9.502347959999998 6.7874869874735495 
Si 10.86049413 8.14496742 8.144651082964762 
Si 8.14508145 10.86008688 8.145484337973505 
Si 10.85912577 10.85824611 5.430322891982337 
Si 9.493225559999999 9.522433529999999 12.24436988285959 
Si 10.85860449 10.857920309999999 10.86293723523872 
Si 11.611528289999999 11.11528602 16.331555138664566 
Si 10.93397832 8.193967739999998 13.537928846016706 
Si 8.283204360000001 10.96077537 13.907234409683626 
Si 11.812563179999998 11.023508159999999 21.69316921138425 
Si 9.74334222 12.07237239 21.692578989086392 
Si 11.64461328 9.81866718 19.653256793103715 
Si 10.001131469999999 10.174196429999999 17.856932589045904 
Si 12.007359 9.08211483 23.087690906434137 
Si 9.74052405 11.87741367 24.002361873323775 
Si 10.558721879999998 9.80050383 24.753194074119197 
Si 11.614672259999999 10.138211819999999 26.820846940399157 
Si 10.80732357 12.20422365 27.669135258258887 
Si 11.34707643 8.19851265 28.177733284220785 
Si 11.264192909999998 10.52553915 34.61021891901085 
Si 11.25692757 10.894458779999999 31.998763002649564 
Si 9.12487608 9.80503245 31.266401287881298 
Si 12.21666921 14.93245656 4.065347030784153 
Si 9.500832990000001 12.21818418 4.070936783134475 
Si 9.299651489999999 14.8180356 1.2577567729480956 
Si 10.86134121 13.569439679999999 2.674689555837316 
Si 8.14410405 13.57569504 5.430496486775826 
Si 9.502347959999998 14.932505429999999 6.787868896019224 
Si 10.85945157 13.575173759999998 8.144859396716948 
Si 10.85832756 16.29 5.429802107601873 
Si 12.21811902 14.93229366 9.503933034936532 
Si 12.23859555 12.21686469 12.23478745025904 
Si 9.502168769999999 12.21818418 9.502474838671231 
Si 9.48710052 14.92703199 12.213018663155612 
Si 11.6413227 15.51255975 14.79937277237849 
Si 9.970473689999999 14.52082455 16.94601126969561 
Si 9.97596342 12.44337714 15.214194890898035 
Si 10.928341979999999 13.675927409999998 13.532443250542475 
Si 9.89602839 14.297537519999999 20.93817073554511 
Si 11.16247815 14.925386699999999 19.013351665347294 
Si 11.360369069999999 15.04831104 22.57871097192656 
Si 11.006517689999999 13.72489515 24.47801160748161 
Si 8.52344928 13.73582574 25.108334302637477 
Si 9.011595419999999 16.03250397 25.793443514618243 
Si 8.599148909999998 13.336443809999999 30.279341292107052 
Si 10.863296010000001 12.498860879999999 30.01644933684843 
Si 12.02737941 13.911643709999998 26.579341863698293 
Si 11.32107759 16.19025633 26.66586150877284 
Si 8.48809998 12.62303955 27.15227412012694 
Si 8.95106178 15.4781064 31.03052068248945 
Si 10.614938669999999 16.2478089 32.48809200653427 
Si 14.93345025 1.360560348 4.073193515449822 
Si 12.21670179 4.070496329999999 4.072013070854102 
Si 14.81709078 4.01703255 1.2946803855230482 
Si 13.574913119999998 0.0005052799619999999 8.144789958799553 
Si 13.574342969999998 2.71410948 5.429454918014896 
Si 12.21694614 1.3581021869999998 6.7877300201844335 
Si 16.292606399999997 -0.00223459704 10.865332843388856 
Si 14.93346654 1.359555255 9.502092930125555 
Si 13.57281171 2.7152660699999998 10.860229156460303 
Si 12.21564294 1.386733491 12.21496292484268 
Si 14.921721449999998 4.088659679999999 12.243154719305172 
Si 16.27885764 2.7450116099999997 13.661875528567322 
Si 14.271457229999998 2.9611473299999997 16.624513712155352 
Si 13.50452403 0.0842520429 13.630697903656829 
Si 14.84150949 1.4288659469999998 14.987827280189347 
Si 13.526825039999999 1.2817020869999998 18.12780990480498 
Si 15.79382289 0.654146127 21.046702200433973 
Si 14.149282229999999 2.1230105399999997 20.19848332049164 
Si 15.999402689999998 3.36549771 19.459525003570814 
Si 12.81834036 0.766325583 24.9275874036575 
Si 14.34111327 2.60192025 25.052749249762535 
Si 16.08394779 1.99205523 28.133501330839977 
Si 15.20803449 0.713919024 29.943990870046434 
Si 14.21413272 3.30294411 27.31451581412107 
Si 12.811140179999999 3.29815485 34.71368141592985 
Si 12.90164742 0.952114662 30.44432578383829 
Si 12.698445959999999 3.12688179 31.78944240066142 
Si 15.3284013 3.9610763999999996 32.56739010819971 
Si 13.58002818 5.439768569999999 2.711283338304641 
Si 14.93183754 6.78980232 4.0718047571019165 
Si 13.57457103 5.430613589999999 8.145310743180017 
Si 13.57538553 8.145439829999999 5.430496486775826 
Si 16.28926695 5.430304079999999 5.429906264477966 
Si 14.932309949999999 4.07245113 6.787556425390945 
Si 12.21741855 6.78809187 6.787695301225736 
Si 13.57533666 8.14325697 10.85654894683835 
Si 16.28669313 5.4319656599999995 10.864152398793138 
Si 12.21821676 4.0718809799999995 9.502370681795137 
Si 14.93213076 6.788710889999999 9.502544276588626 
Si 12.22758351 6.78923217 12.206595655796544 
Si 12.87885771 4.80414906 17.011873134345056 
Si 16.173428759999997 4.38000633 17.337120339424658 
Si 13.56401511 5.60918457 13.723466961296957 
Si 14.34376854 7.656006779999999 15.095803241739043 
Si 14.45740758 6.58827873 20.566573720604147 
Si 14.64067008 6.132289049999999 18.164889752694076 
Si 15.46033401 5.52061584 22.50507206052884 
Si 15.924973679999999 7.65120123 23.526364949578966 
Si 13.75864803 4.633478729999999 23.98514126980974 
Si 13.23896445 6.254366309999999 25.61425896877966 
Si 14.03916183 6.06110175 29.609612578829346 
Si 14.6844576 5.5921940999999995 27.385863274244745 
Si 15.899919659999998 5.7156397199999995 31.070690517702634 
Si 12.330275669999999 12.2033277 1.2141671203031936 
Si 14.932733489999999 12.21714162 4.0723949793997765 
Si 16.28286498 8.135111969999999 2.676828243693091 
Si 15.634050569999998 11.501929169999999 0.2867817235488874 
Si 12.217662899999999 9.50368374 4.071978351895405 
Si 14.794757189999999 9.456703379999999 1.2288324084570819 
Si 13.57199721 10.85389668 2.7127484783616818 
Si 14.93214705 9.50272263 6.787591144349643 
Si 13.57556472 10.859598179999999 8.144581645047367 
Si 16.28838729 10.86059187 5.4306006436519185 
Si 12.21927561 9.50255973 9.502127649084255 
Si 14.944331969999999 9.49943205 12.207290034970498 
Si 16.28915292 10.8595656 10.857729391434072 
Si 12.504236579999999 9.32350005 14.915542408180833 
Si 13.71067398 10.870284419999999 13.623233327536836 
Si 13.777267499999999 12.13305264 17.237407490045 
Si 15.53354127 11.88360387 15.162498361397233 
Si 16.216352909999998 8.25603264 13.754818181000935 
Si 15.642309599999999 8.48801853 21.36035327330856 
Si 15.00012522 10.71616473 20.934490525923163 
Si 13.882582349999998 10.28144979 18.875829869945893 
Si 15.117087419999999 8.334729629999998 17.501896517403715 
Si 13.72678479 11.97976374 22.547498628057372 
Si 13.82677281 8.23091346 24.48592753006467 
Si 14.689963619999999 11.61323874 24.71052447387978 
Si 13.890157199999999 9.91974663 26.121815425980635 
Si 13.418740889999999 8.31049011 29.36574661293704 
Si 15.13836216 9.46931184 28.100761352788094 
Si 16.01298855 11.580381809999999 28.938217355534153 
Si 12.94242129 9.277350479999999 31.418262013224826 
Si 15.05020068 9.437823269999999 32.58832564029439 
Si 15.9712047 11.61535644 32.57294514159133 
Si 12.89439837 8.539771859999998 34.61994022744619 
Si 15.00980148 14.96754522 1.2290789130638353 
Si 13.577682419999999 16.292606399999997 2.681091731821163 
Si 13.575499559999999 13.57248591 5.430531205734523 
Si 12.21740226 12.21699501 6.787973052895317 
Si 14.93283123 14.932163339999999 6.788042490812712 
Si 14.93289639 12.21666921 9.502058211166858 
Si 13.576362929999998 13.572160109999999 10.861270725221232 
Si 14.925663629999999 14.936284709999999 12.253500968997074 
Si 14.7463596 15.857011799999999 17.131653541851954 
Si 14.72612742 14.914358369999999 20.499705006152467 
Si 13.45286844 14.28572727 18.589155427979378 
Si 14.367698549999998 15.3007083 24.405553140679604 
Si 13.584605669999998 14.325702929999999 22.40615774719923 
Si 14.324986169999999 13.59475434 26.02446346579242 
Si 15.949441259999999 14.74938954 29.7640772260752 
Si 16.09196247 13.658513399999999 27.63240259995677 
Si 14.02420761 13.253087879999999 34.70777919295125 
Si 12.76683138 13.57015644 30.891332377070565 
Si 14.935453919999999 12.76210728 30.727458892017644 
Si 12.822950429999999 15.57200196 32.1239248487546 
