&CONTROL
  dt          = 30.D0,
  prefix = 'x.33_y.66_z3.18_struc39-scf',
  pseudo_dir = './',
  outdir='./',
  wf_collect= .true.,
  verbosity= 'high',
/

&SYSTEM
ibrav= 6, celldm(1) =30.783621515, celldm(3) =2.1207375915848425, nat=  432, ntyp= 1,
  ecutwfc     = 12.D0, nbnd= 1728,
  degauss     = 0.05D0,
  occupations = "smearing",
  smearing    = "methfessel-paxton",
/
&ELECTRONS
  electron_maxstep=200,
  conv_thr    = 1.D-8,
  mixing_beta = 0.3D0,
  scf_must_converge=.false.,
/
ATOMIC_SPECIES
Si  28.08  Si.pbe-hgh.UPF
K_POINTS {automatic}
1 1 1 0 0 0
ATOMIC_POSITIONS (angstrom)
Si 2.69552259 -0.01055828205 2.6958158262973972 
Si 1.3942692449999998 1.392633729 1.2035626818418772 
Si 4.03423479 3.9639597299999996 1.3653108713897832 
Si -0.000242387055 2.7147122099999996 8.145413580396342 
Si 2.7146796299999996 0.00016717938299999998 8.144964471796573 
Si 2.7125456399999996 2.71448415 5.429826611664459 
Si 1.357176915 1.357416378 6.787723736476501 
Si 2.71674846 2.71578735 10.865180713787623 
Si 1.353651759 1.348825032 12.253720863830122 
Si 1.3558786019999998 4.07215791 9.502481581639579 
Si 1.370262672 1.9741525199999999 18.433075181695216 
Si 0.757942749 0.014705243639999999 21.338393260422208 
Si 4.04356896 3.87938205 21.51016002642652 
Si 0.720249318 2.36004633 20.86714015200209 
Si 0.524204055 4.0288428 17.493643631422636 
Si 3.76571043 1.90907397 17.361985718059316 
Si 2.0578831199999996 3.30196671 22.620011016904094 
Si 2.48609835 1.98724968 24.570282384812664 
Si 1.474692975 2.74294278 26.694807889431964 
Si 4.054320359999999 0.950817978 28.614125310771776 
Si 2.72388348 2.89852857 28.729097112312875 
Si 3.3516837899999996 2.09152197 34.506395592937785 
Si 1.69468128 2.33320041 30.82961258025217 
Si 3.63677508 2.10572685 32.17020175056538 
Si 0.28304363699999996 0.317645226 30.578940887949816 
Si 4.07271177 6.78830364 4.069165741623062 
Si 1.3573577339999998 4.07463399 4.074485951189567 
Si 2.7038141999999996 5.4117009 2.709537821361137 
Si 1.364093649 6.58629135 1.1750373763934139 
Si 0.0191252745 8.12304108 2.702013524974222 
Si -0.0006722964449999999 5.4293429699999995 5.430897562940833 
Si 2.7152497799999997 5.430304079999999 8.145379033580975 
Si 1.357655841 6.78713076 6.787585549215033 
Si 1.366871094 6.7851108 12.234271006778547 
Si 4.03397415 6.866479349999999 15.247996992126925 
Si 2.64350862 5.42888685 13.773608005897637 
Si 0.560804427 4.419884249999999 15.13309428421656 
Si 0.5496979049999999 6.57563769 21.04395075304997 
Si 2.50401735 6.6174867 19.602277600973157 
Si 0.5462900369999999 7.53278922 18.21418655953043 
Si 3.2671549799999995 4.41960732 19.32452120542314 
Si 1.351911987 5.543014589999999 22.98078340978081 
Si 3.4018732799999998 6.4919885399999995 23.753906590877047 
Si 3.28461786 5.34370644 25.837597759732652 
Si 0.923647887 7.99338897 29.051591633763046 
Si 1.011017673 5.02989588 26.50749505651254 
Si 0.061818758099999996 5.32044432 34.159234645315635 
Si 1.370813274 7.94640861 31.381117940769634 
Si 0.981824364 4.391832869999999 32.00506797311152 
Si 2.73745305 6.19428879 32.117414216684736 
Si 3.25405782 7.246655369999999 34.47357611833922 
Si 3.99764745 9.32426568 1.1598056854981402 
Si 1.3618391129999998 9.50099589 4.072274955006084 
Si -0.001110055986 10.73895444 0.26238997207480863 
Si 2.71940373 10.827409139999999 2.7085325090339594 
Si 1.3055734529999998 12.17312604 1.4505033180846008 
Si 0.000392367456 8.14482081 8.144619003642903 
Si 2.7123664499999998 8.145114029999998 5.429377503064688 
Si 4.01511033e-05 10.85889771 5.42993025211056 
Si 2.71531494 10.859533019999999 8.144826284535105 
Si 1.3588108019999998 9.50299956 9.501272443101737 
Si 2.71368594 8.144609039999999 10.8619678599585 
Si 0.001150846146 10.85883255 10.861311470466529 
Si 1.3456354499999998 12.22870752 12.252753552999849 
Si 2.07379845 8.32469499 16.602784903555946 
Si 1.116488907 9.53579133 14.903323415211194 
Si 2.68203447 10.84454622 13.648444893823298 
Si 4.03180758 12.162667859999999 15.200460574182047 
Si 0.00372034278 11.45411802 18.426304005883296 
Si 0.19979685 8.86088034 21.43650621606425 
Si 3.49047459 10.34419887 20.31007275421055 
Si 2.15462943 12.036713579999999 19.213764115356806 
Si 2.1953707199999997 9.943106489999998 22.223309936045787 
Si 1.500507738 12.12858918 22.881426768785555 
Si 3.3572712599999996 8.844003899999999 23.979082733438617 
Si 2.0599356600000003 9.287629469999999 25.88703425252271 
Si 3.8977083 9.91438722 29.44780905920622 
Si 1.94931027 11.55071772 26.608509944645405 
Si 2.9711331 8.35470117 27.91607235946785 
Si 3.8869568999999995 11.700325079999999 27.97538924145285 
Si 0.8906818139999999 11.85967386 31.23146113660015 
Si 2.49316821 10.10812419 31.36961385125245 
Si 3.87796482 14.714398619999999 1.3465484959640104 
Si 3.0284739 12.888468809999999 0.07833490384448448 
Si 1.356629571 14.938451279999999 4.074762325712503 
Si 5.45667759e-05 13.575369239999999 8.145482674027075 
Si 2.71388142 13.57476651 5.429653877587624 
Si 1.3575760199999998 12.217092749999999 6.787792830107234 
Si 4.0718809799999995 12.216604049999999 9.502239753932011 
Si 4.05682902 14.941399769999999 12.251578961277373 
Si 1.357730775 14.93248914 9.502067019855176 
Si 2.71290402 13.57743807 10.86466251155712 
Si 2.57264712 16.27199955 13.884123268256406 
Si 1.291507038 14.89078674 15.630326597792596 
Si 3.06807489 13.48885305 17.01713940706675 
Si 0.25418590199999996 16.290325799999998 17.39832896782531 
Si 2.7494262000000003 13.270909139999999 21.25209531563565 
Si 2.98128177 15.56977023 21.771748512384814 
Si 3.7109108699999998 16.237301849999998 23.971586074503993 
Si 2.0276977499999997 13.17562893 24.93530403597951 
Si 0.07911955259999999 14.56974342 25.014139868646815 
Si 3.8821676399999996 14.470602479999998 25.5457808103283 
Si 3.1866497999999996 15.227712809999998 27.798336812697396 
Si 0.923379102 15.150840299999999 28.759152841682095 
Si 0.33921970199999996 15.164051489999999 32.51387346983548 
Si 2.01666942 13.4824185 32.54185639028268 
Si 4.07492721 1.356085485 4.069269382069163 
Si 4.93279119 0.07128797220000001 0.05800306659659277 
Si 5.43730878 2.71091664 2.7189138270517184 
Si 6.652086659999999 1.2569380289999998 1.301057249488854 
Si 8.14359906 2.7152497799999997 5.431415765171336 
Si 5.430711329999999 -0.000977768154 5.42993025211056 
Si 5.43004344 2.71502172 8.144653550458269 
Si 6.787554299999999 1.3573886849999999 6.787447361953566 
Si 8.14718286 2.7116171099999997 10.86307335805024 
Si 4.07165292 1.355543028 9.501652458070772 
Si 6.7855506299999995 1.36117611 12.246811500756738 
Si 4.086607139999999 1.504282131 14.975698993404885 
Si 5.51190069 2.88059328 13.65715069129576 
Si 5.127130889999999 3.90337722 17.85925257845072 
Si 5.26931001 0.273766482 18.168308388723162 
Si 7.55947224 1.251539523 18.101045739203773 
Si 5.5884474 2.2333915799999997 21.063884265516684 
Si 4.89983652 0.06644886480000001 20.564820970726196 
Si 6.88361643 3.1983460200000002 19.30987335570757 
Si 6.8436407699999995 2.11251978 23.006520787229164 
Si 6.12029961 0.1343662731 23.97642262865536 
Si 6.14975193 3.96280314 24.26823957805971 
Si 4.32468549 3.1844669399999996 25.469501441998148 
Si 8.00651871 3.1733897399999997 29.75634666724816 
Si 7.00427646 0.399826647 26.108962994439786 
Si 5.5379809799999995 1.9221222599999999 27.116728145508123 
Si 6.50502054 3.79185588 28.089808293948074 
Si 4.881314789999999 0.5001518699999999 30.81949036334966 
Si 7.19755731 1.183999554 30.854866302285387 
Si 5.248963799999999 3.8791051199999997 32.81491441894279 
Si 7.40147553 2.90069514 32.7099611938581 
Si 6.7899978 4.07126196 4.073276812651725 
Si 5.0656035600000004 5.61130227 0.047603438766689724 
Si 6.78916701 6.70898763 1.2650836506472833 
Si 5.4415116 8.15079924 2.683448066396041 
Si 8.13416715 5.4222893999999995 2.70860505734623 
Si 4.07238597 4.07238597 6.787343721507465 
Si 5.429489579999999 5.42769768 5.430344813894962 
Si 6.787684619999999 6.787489139999999 6.787378268322832 
Si 8.14462533 8.145309509999999 5.430310267079595 
Si 6.78561579 4.07207646 9.502412488008845 
Si 4.07350998 6.78802671 9.502205207116644 
Si 4.057464329999999 4.08835017 12.2415258380056 
Si 5.43080907 5.42992941 10.859445942436714 
Si 6.77470149 6.790763429999999 12.229607186704014 
Si 5.79177918 5.73497595 16.505639258744175 
Si 6.99083721 4.2477804 15.02931565085434 
Si 5.2809899399999995 8.11070955 13.631966062893278 
Si 7.21200654 6.280560629999999 21.576317177854165 
Si 6.69561354 8.01199215 20.017875789837166 
Si 7.414458659999999 6.96920409 17.899672352430013 
Si 5.28390585 5.48821503 22.715705695470454 
Si 7.325857349999999 4.86417771 26.1062337960258 
Si 6.5547702 7.04250909 26.483450473017168 
Si 4.397143409999999 6.5510234999999994 27.450519475583274 
Si 7.816805369999999 8.01342567 28.185053863914668 
Si 4.4392530599999995 4.68420579 28.935341600053373 
Si 6.9203503799999995 6.537421349999999 31.937252574546267 
Si 4.84990767 5.58825192 31.179951834888072 
Si 8.13861432 10.858588199999998 2.666872504382994 
Si 6.787684619999999 9.503504549999999 4.068785726654026 
Si 4.0768983 12.212971379999999 4.069096647992328 
Si 4.07276064 9.502250219999999 6.787412815138199 
Si 5.4300760200000004 8.14469049 8.145068112242674 
Si 5.42992941 10.85963076 5.430517547971797 
Si 8.14019445 8.14514661 10.863038811234874 
Si 6.7877497799999995 9.503586 9.501617911255407 
Si 4.059468 9.51339258 12.21989953158591 
Si 5.43538656 10.85795289 10.860482346897722 
Si 6.79872924 12.202187399999998 12.224874272998747 
Si 7.878381569999999 10.91109087 16.922826601115066 
Si 6.952962959999999 9.33719994 14.804588616892545 
Si 5.50877301 10.57537026 16.255278487780124 
Si 4.218148889999999 8.82875646 17.294895802616765 
Si 4.846975469999999 12.119857739999999 21.03341397436306 
Si 7.73745678 10.047004109999998 20.78892616201139 
Si 4.3202709 8.26390071 19.627565869821737 
Si 6.36212466 11.1265587 22.50072086344213 
Si 5.45400603 9.8906364 24.31688149409633 
Si 7.28803197 8.49292182 24.680417632202396 
Si 5.63634 11.08316214 26.436846819087194 
Si 7.5948378299999995 11.74132701 29.458933133754364 
Si 7.690411259999999 10.345974479999999 27.503652477617596 
Si 4.881265920000001 11.22571593 34.47174513712477 
Si 6.06105288 10.221160499999998 30.420751020384703 
Si 7.3247822099999995 8.28028845 30.457025176519966 
Si 4.6614812400000005 11.17120959 32.06338299745088 
Si 5.439589379999999 13.573349279999999 2.691376560522748 
Si 6.74034588 12.28373514 1.0838372385062895 
Si 6.7899489299999995 14.93227737 4.071791299590948 
Si 4.07290725 14.93252172 6.787654642845768 
Si 5.430206339999999 13.57505973 8.144860831350472 
Si 6.787831229999999 12.21746742 6.7875164555843 
Si 8.14454388 13.577454359999999 10.856785837653463 
Si 6.788433959999999 14.931283679999998 9.50203247303981 
Si 5.4283167 16.292606399999997 10.86466251155712 
Si 5.358448889999999 13.443648299999998 13.604190423338276 
Si 7.0382574 14.269697909999998 15.200460574182047 
Si 8.01212247 16.07076918 13.65525061645058 
Si 5.521218569999999 14.35668651 17.320667726880483 
Si 6.949069649999999 15.13137375 20.770719990313026 
Si 6.36929226 13.19745753 19.549317333015672 
Si 7.692545249999999 14.943859559999998 22.988245521900065 
Si 7.51811193 12.73847049 23.718012449710823 
Si 6.081236189999999 13.22607906 25.58143312378696 
Si 6.85590714 13.98867912 29.129321968338612 
Si 4.47662232 13.736493629999998 29.078641790195345 
Si 7.467661799999999 14.5132497 26.964100315217085 
Si 7.812374489999999 15.100781129999998 32.50119478859582 
Si 4.09828707 13.464222569999999 31.47204515881536 
Si 5.44079484 15.18092793 32.46778801813601 
Si 12.218868359999998 4.071050189999999 4.070858535576041 
Si 8.14004784 -0.016623944999999998 2.678970799124489 
Si 8.45112168 2.30195619 0.19433309127013565 
Si 9.50125653 1.35726651 4.066574730470543 
Si 10.86096654 2.72117934 2.704196883705411 
Si 8.145032579999999 -0.000257181633 8.145171752688775 
Si 10.860233489999999 -0.00039862281599999994 5.430068439372026 
Si 10.86068961 2.71492398 8.145033565427306 
Si 9.50413986 1.358245539 9.502136113485909 
Si 10.861227179999998 0.000607876011 10.861346017281894 
Si 9.55763622 0.203649435 17.11563237767783 
Si 8.46697185 3.3072283799999997 16.751267116002953 
Si 10.76146722 2.37574989 16.948598525378785 
Si 10.01564586 0.45994977899999995 14.805003178676948 
Si 10.802175929999999 2.55168189 13.706863558608754 
Si 10.2684015 1.289061909 20.97347524970146 
Si 11.35043217 2.5948666799999995 19.279126690031013 
Si 8.97761448 2.69421939 22.348611235381597 
Si 11.53921698 0.13675406129999998 22.651172244365053 
Si 10.08702864 2.83726188 24.380067619402418 
Si 9.19878381 0.9961481609999999 25.575214697020918 
Si 10.46311587 1.0595374379999998 27.550014303839998 
Si 10.193679269999999 3.00034107 28.884903249617672 
Si 11.69196831 1.6989655499999998 32.92128406345753 
Si 11.723033339999999 3.56438232 30.618116976575905 
Si 10.871864549999998 8.14879557 2.6853792333750515 
Si 9.507968009999999 4.12207047 1.2951013785195977 
Si 9.504237599999998 6.78814074 4.068889367100127 
Si 9.50242941 4.0728583800000004 6.787136440615264 
Si 8.144332109999999 5.43038553 8.144895378165838 
Si 10.860233489999999 5.42906604 5.428962941280286 
Si 9.50246199 6.78682125 9.502861596608614 
Si 9.52632684 4.0479183899999995 12.223423306753336 
Si 10.86259554 5.42803977 10.861138736389693 
Si 11.0454345 6.335409059999999 16.542707991632877 
Si 8.27968572 5.5087078499999995 13.537687803756961 
Si 9.55208133 7.06710699 14.848912181008298 
Si 8.44569711 4.377302189999999 20.79238084354808 
Si 10.603698569999999 4.79408184 19.863796993300717 
Si 9.313595730000001 5.3160786 17.848335784794777 
Si 8.643995279999999 7.505047349999999 22.978330585889758 
Si 10.33483212 6.672139649999999 24.362103275411624 
Si 9.60614784 4.77626058 25.530407477490026 
Si 10.87191342 7.59035808 30.092556274398994 
Si 10.75122081 4.899510719999999 27.510596387506347 
Si 10.013300099999999 7.13832687 27.986996971416133 
Si 10.79315127 5.48554347 31.703025166358568 
Si 8.418737160000001 4.74558651 31.525212707665045 
Si 8.546320439999999 7.41996468 34.30381306762619 
Si 10.488414239999999 5.80704291 34.2954527383074 
Si 9.59503806 9.48100806 1.1617506712032977 
Si 9.502413119999998 9.50288553 6.787481908768933 
Si 10.86020091 8.14506516 8.144826284535105 
Si 8.14498371 10.86042897 8.144999018611939 
Si 10.859614469999999 10.85995656 5.431346671540602 
Si 9.52354125 9.513001619999999 12.221799606431091 
Si 10.85901174 10.8590769 10.858305897529608 
Si 12.194742869999999 12.22461873 12.22808712682787 
Si 9.502152480000001 12.2175 9.502723409347146 
Si 12.215773259999999 9.502380539999999 9.50234339437811 
Si 8.58305439 8.556371369999999 16.507401146327886 
Si 11.020771439999999 8.302459139999998 13.592789974267193 
Si 8.289883259999998 10.93637295 13.637493553351986 
Si 9.74834325 9.01307781 21.483593525409358 
Si 12.09473856 11.725965539999999 20.76574524890019 
Si 11.458744379999999 8.25194385 19.887530655457788 
Si 8.19553158 11.71526301 19.145534155007145 
Si 10.83153051 8.45312535 17.575865051995898 
Si 11.08058832 10.58667552 22.595482777993585 
Si 9.676830149999999 11.75124762 24.218733991638917 
Si 9.00534006 9.93382119 25.600710246761704 
Si 10.65354597 8.31223314 26.062601168217384 
Si 9.99529965 11.48777316 27.923499924771736 
Si 11.236467329999998 10.786390919999999 34.32523209315367 
Si 9.42798411 9.084476879999999 31.214084088470592 
Si 9.83955096 11.30894154 30.39076438464622 
Si 9.57739599 11.44976859 32.85187951138539 
Si 12.215708099999999 14.93591004 4.067818415823752 
Si 9.50296698 12.21908013 4.071514925068013 
Si 9.48604167 14.77089234 1.1339266661067826 
Si 10.84785309 13.570140149999999 2.7026180942431433 
Si 8.14355019 13.57370766 5.430793922494733 
Si 9.502038449999999 14.93252172 6.78717098743063 
Si 10.8597285 13.575043439999998 8.144619003642903 
Si 12.21688098 14.93325477 9.501825192147608 
Si 9.485699579999999 14.92950807 12.209293659268265 
Si 11.08221732 12.277039949999999 16.864235202252775 
Si 11.91002625 15.277918589999999 14.721123510966073 
Si 9.10011528 12.55657635 15.285411193169296 
Si 10.69159941 13.54075299 13.634833448568733 
Si 8.754360029999999 16.25755032 19.772351573024487 
Si 10.46006964 12.61606743 19.144774125069073 
Si 10.44599508 14.96075229 18.692107203316358 
Si 9.807345629999999 15.551492849999999 24.005061938594537 
Si 10.69933716 13.675096619999998 25.16165477026355 
Si 9.71669178 13.78143774 27.30214090358237 
Si 10.441824839999999 15.42540825 28.944116491156567 
Si 8.414094509999998 13.30650279 33.96494335569209 
Si 8.3965176 15.44265936 30.289093107021383 
Si 11.364441569999999 15.82107606 34.538385943967555 
Si 16.2958644 2.7186706800000002 2.6835309787529216 
Si 13.58965557 -0.000814330584 2.7221923198300386 
Si 12.241641779999998 1.331051013 1.3752258074000883 
Si 14.932033019999999 1.355435514 4.071756752775581 
Si 14.94630306 4.01201523 1.1337124758515076 
Si 13.574847959999998 0.00031671669599999996 8.145068112242674 
Si 13.57584165 2.7157384799999997 5.430759375679365 
Si 12.21785838 1.357587423 6.7872400810613644 
Si 16.28851761 0.000572774319 10.862347874927535 
Si 14.930273699999999 1.3575597299999997 9.501237896286371 
Si 13.575108599999998 2.7157547699999998 10.855473058669519 
Si 12.217662899999999 1.362818142 12.22024499973958 
Si 12.43575342 3.43113012 15.211688289176296 
Si 16.16378508 2.7200716199999997 13.625713089311867 
Si 13.640643269999998 0.15289517069999997 13.665994676029692 
Si 14.32014804 2.0147472 15.012698632662852 
Si 15.132106799999999 1.93461669 17.28515360068329 
Si 14.819892659999999 3.3405577199999996 21.136950780017713 
Si 13.71940542 2.1902393699999996 19.403598865798013 
Si 14.113085850000001 3.15434673 23.419182496786988 
Si 12.23993133 1.86318504 24.140761829355785 
Si 15.86590614 1.78965198 24.22163592412974 
Si 12.52523439 1.1256569189999999 26.424720886893407 
Si 13.88259864 2.98307367 29.8133143657882 
Si 15.723010259999999 1.72437795 26.56847018563515 
Si 13.842101699999999 2.7921874499999997 27.453386861258732 
Si 16.0692705 0.0823567014 34.436714666342716 
Si 13.341005009999998 2.72474685 34.47008688998716 
Si 14.1635034 0.7790073479999999 30.667622562996694 
Si 14.20465194 1.10123658 33.01715147610072 
Si 13.585110659999998 5.42079072 2.67867715119387 
Si 12.2885244 6.81058836 1.1689813196595935 
Si 14.93674083 6.78514338 4.069614850222832 
Si 14.93289639 4.07241855 6.787723736476501 
Si 13.575222629999999 5.42975022 8.145171752688775 
Si 12.21727194 6.7878801 6.787585549215033 
Si 16.28962533 5.43237291 10.861726032250932 
Si 12.2194548 4.0728258 9.502170660301278 
Si 14.933075579999999 6.787684619999999 9.502239753932011 
Si 14.92730892 4.06914426 12.201209704472408 
Si 12.218347080000001 6.78634884 12.232094557410433 
Si 16.20731196 8.04339927 13.607195996275198 
Si 13.292460809999998 5.40554328 16.389285584588396 
Si 13.45361778 5.24122605 13.577243907352083 
Si 15.23791035 6.1853944499999995 14.836751701999145 
Si 14.695893179999999 5.567824259999999 20.367731389057937 
Si 12.358180439999998 6.27127533 20.85121407011794 
Si 15.149862899999999 5.66834985 18.051505605967613 
Si 12.40134894 6.774066179999999 23.228518622776974 
Si 13.86627606 5.293728719999999 24.47455315943094 
Si 16.13892654 6.06106917 24.721010140258525 
Si 13.041187560000001 4.89882654 26.723585386632607 
Si 13.187764979999999 7.53348969 29.935990107156126 
Si 14.10862239 6.57759249 27.946508103806107 
Si 16.28231112 5.88011985 28.50627015319626 
Si 15.483302909999999 4.68585108 30.427764023904192 
Si 13.928194349999998 6.019774019999999 31.640080868760045 
Si 15.681666239999998 7.10726184 32.7518319340828 
Si 13.882028489999998 8.08557408 34.13543188952783 
Si 12.21161931 9.50171265 4.073104078574891 
Si 14.8382352 9.39283029 1.4208656051813224 
Si 13.57118271 10.86521823 2.7206031663231602 
Si 13.57562988 8.14674303 5.429826611664459 
Si 14.932309949999999 9.50233167 6.787792830107234 
Si 13.57489683 10.85998914 8.144964471796573 
Si 14.929296299999999 9.50327649 12.230263576195984 
Si 14.9323914 12.21523569 9.503241611577652 
Si 13.576362929999998 8.14570047 10.862727889896572 
Si 12.638547629999998 9.35871903 14.947543338880847 
Si 13.64846247 10.98185463 13.586951562470185 
Si 12.29051178 10.241050589999999 17.142129785064256 
Si 13.122523529999999 9.941542649999999 19.480396436358674 
Si 15.523620659999999 9.40903884 19.32379572230044 
Si 15.15238785 9.52214031 23.229796854945548 
Si 12.820620959999998 9.17457687 23.57011753312505 
Si 15.39479934 11.87550774 23.127192813305804 
Si 16.20516168 8.42751747 25.120854981315222 
Si 13.85358615 9.77372307 30.15916253442641 
Si 12.46367448 11.58342804 29.615119286028197 
Si 12.6449496 9.521537579999999 25.937299868881574 
Si 14.561207459999999 8.52022386 26.78307500269444 
Si 16.04822382 11.764540259999999 27.41099791880352 
Si 12.29215707 11.502271259999999 27.235327362662748 
Si 15.58312803 9.70869339 28.507721119441673 
Si 13.54137201 9.981925559999999 32.68070004124232 
Si 15.400403099999998 11.470831559999999 32.816330838372835 
Si 12.245746859999999 12.247294409999999 1.3253505700548702 
Si 14.93377605 12.21650631 4.071860393221682 
Si 14.91028587 14.90528484 1.3593584551020634 
Si 16.28402157 13.582015559999999 2.7248835167471217 
Si 16.289006309999998 16.28905518 5.431346671540602 
Si 13.57439184 13.574310389999999 5.429308409433954 
Si 12.216913559999998 12.21738597 6.787723736476501 
Si 14.932033019999999 14.933303639999998 6.787689189661134 
Si 13.57123158 13.57681905 10.868082646278443 
Si 14.942670389999998 14.943989879999998 12.252580818923013 
Si 14.58282429 12.515786189999998 15.186641848035281 
Si 12.84098346 13.81892103 16.24999282502899 
Si 16.22089782 13.66809192 13.930761469001745 
Si 13.963152689999998 12.99647151 21.49261024422012 
Si 13.903873379999999 16.20387477 19.87315918026515 
Si 16.04486808 15.267509279999999 19.448889740744043 
Si 14.9343462 13.17880548 19.304207677987392 
Si 12.91738356 14.48922195 18.488419179913016 
Si 13.55411079 15.30165312 22.033440638789212 
Si 15.58597878 15.95673918 23.205959552342378 
Si 14.992289729999998 12.689877419999998 25.339329041695606 
Si 12.85856037 15.36697602 29.489334331277252 
Si 16.18751961 13.0782636 29.373671593428817 
Si 12.871641239999999 13.434216389999998 26.02173228563832 
Si 15.816759209999999 15.72854886 26.981926471946412 
Si 13.488364349999998 15.39748719 27.20527163329353 
Si 13.18020642 14.089774859999999 34.492162305006616 
Si 13.916498129999999 13.388131979999999 30.25565178974621 
Si 14.59183266 13.68573399 32.52202651826207 
