&CONTROL
  dt          = 30.D0,
  prefix = 'x.33_y.66_z3.18_struc16-scf',
  pseudo_dir = './',
  outdir='./',
  wf_collect= .true.,
  verbosity= 'high',
/

&SYSTEM
ibrav= 6, celldm(1) =30.783621515, celldm(3) =2.1249479012156414, nat=  432, ntyp= 1,
  ecutwfc     = 12.D0, nbnd= 1728,
  degauss     = 0.05D0,
  occupations = "smearing",
  smearing    = "methfessel-paxton",
/
&ELECTRONS
  electron_maxstep=200,
  conv_thr    = 1.D-8,
  mixing_beta = 0.3D0,
  scf_must_converge=.false.,
/
ATOMIC_SPECIES
Si  28.08  Si.pbe-hgh.UPF
K_POINTS {automatic}
1 1 1 0 0 0
ATOMIC_POSITIONS (angstrom)
Si 2.7020874599999996 -0.01389212829 2.68654975729324 
Si 3.1864869 2.0370807899999996 0.004856125419089903 
Si 1.2879167219999998 1.3223961359999998 1.2173613563785748 
Si 3.94765344 3.8486102399999997 1.3082890925417918 
Si 1.3582390229999999 4.07235339 4.069282731894044 
Si 4.0757254199999995 1.3555642049999999 4.070044270722882 
Si -0.001402857333 -0.00210465171 5.431018004059716 
Si -0.000176823063 2.7150380100000002 8.14503854383321 
Si 2.71528236 -0.000191339082 8.144519312813546 
Si 2.7153801 2.71433754 5.430048772823013 
Si 1.357295832 1.357326783 6.787491735226145 
Si 2.7168462 2.72021823 10.86072062286962 
Si 1.362045996 1.348807113 12.244713598078137 
Si 0.424123182 3.12430797 16.22995013558955 
Si 0.33225735599999995 1.8116109 21.321944899211267 
Si 2.3954607899999996 2.87650449 20.894133154411055 
Si 3.4608756599999997 1.1314349819999998 19.570163285075466 
Si 1.4949609929999998 3.0239289899999995 18.402481952658157 
Si 2.65724109 2.2527278099999997 24.8060888873475 
Si 3.1500950399999996 3.80006604 23.04655342331808 
Si 4.01807511 1.5629391629999998 28.580933015691855 
Si 1.5150547079999999 3.93295986 29.639714295585378 
Si 1.7973734399999999 1.6306289999999999 29.294598744516676 
Si 0.758460771 2.8289214 26.1333126044063 
Si 0.455217534 0.9089054369999999 27.517582502825302 
Si 1.7574303599999999 0.5163490169999999 31.32742280189488 
Si 0.443456154 4.813662419999999 0.011575840198549495 
Si 2.7191268 5.417092889999999 2.700894379596437 
Si 1.2739741109999998 6.730099469999999 1.3900679781385632 
Si -0.0302712183 8.14969152 2.7167240026158668 
Si -0.001280224584 5.429212649999999 5.429321849395485 
Si 2.71544526 5.429326679999999 8.145488544050249 
Si 1.357294203 6.787554299999999 6.787803273837941 
Si 2.71334385 8.143354709999999 5.430325696033499 
Si 4.049677709999999 4.07015424 12.238240518033017 
Si 1.357219269 4.071082769999999 9.502343044631097 
Si 1.360402335 6.7927671 12.244713598078137 
Si 2.7127737 8.145472409999998 10.862797546948268 
Si 2.70633915 5.464594529999999 13.728018159647348 
Si 2.51502939 4.71219201 16.887261991080386 
Si 0.21196059299999997 5.07268971 14.995634155648947 
Si 3.5267361299999997 6.46183575 20.935637020582707 
Si 0.18423664199999998 6.74086716 22.40260311273322 
Si 2.3720520599999997 6.16363101 22.95461491743659 
Si 3.12267897 8.06780169 24.250857850322223 
Si 3.6150279299999997 5.1141966299999995 26.9520014608081 
Si 2.228472 7.72861131 29.373383397900064 
Si 1.330607925 4.77178083 27.352467038572776 
Si 4.039366139999999 6.21497709 29.00067937198665 
Si 3.7512937799999997 4.522104 30.553214736177466 
Si 0.8406454499999999 6.82052526 31.084007299877314 
Si 2.45151468 6.7592097 32.840219685380895 
Si 4.03185645 9.42158214 1.2738398451572808 
Si 1.357211124 9.50754447 4.070321193933368 
Si 2.73005739 10.840669199999999 2.717894003180172 
Si 1.495514853 12.087277740000001 1.1869863417283455 
Si 0.00029091985199999995 8.145179189999999 8.144830851425343 
Si -0.0012799362509999998 10.85920722 5.430221849829567 
Si 2.7146796299999996 10.86024978 8.144519312813546 
Si 1.3569879509999998 9.504563399999999 9.501685352006191 
Si 1.063078884e-05 10.85958189 10.858159083172621 
Si 1.089512667 9.80374554 15.045238025727327 
Si 2.72666907 10.9268433 13.678414289568968 
Si 3.20416155 8.34165288 17.110219790923267 
Si 0.522070065 8.80570611 21.169740979647663 
Si 2.70422145 9.79983594 20.942075485226514 
Si 2.3455971 12.096725939999999 20.48923680527859 
Si 3.7307195099999997 8.29799568 19.480094010864757 
Si 1.5535170269999998 11.9115738 18.22268955824985 
Si 1.0998845099999999 9.68963409 17.40964301226171 
Si 3.92924574 9.950225219999998 22.95115337730551 
Si 3.108132 12.206487959999999 23.7932076295921 
Si 1.624476267 9.36834642 25.588846957188682 
Si 3.1813555499999997 9.85074219 29.773675898658187 
Si 2.6282286 11.493262889999999 26.000354847971508 
Si 0.825867162 8.50766427 27.623505630836362 
Si 4.048097579999999 10.55098413 27.68079412000574 
Si 2.3674419899999997 8.316549989999999 34.60986284659307 
Si 0.667648908 10.13397642 34.5788820624199 
Si 1.94658984 11.585545739999999 30.855718728232574 
Si 0.189763839 10.60233021 32.333934825809095 
Si 4.070871 12.215854709999999 4.069732732111085 
Si 1.359444483 14.93200044 4.072467348814638 
Si -1.1663249039999999e-05 13.574799089999999 8.144519312813546 
Si 2.71370223 13.575499559999999 5.429806465013837 
Si 1.3578741269999999 12.21714162 6.787491735226145 
Si -0.001143445599 16.289299529999997 10.864632163217742 
Si 4.058018189999999 14.94227943 12.222386664232669 
Si 1.3583628269999999 14.932114469999998 9.501131505585219 
Si 2.71534752 13.575743909999998 10.861586007902389 
Si 1.3505713199999998 12.208100669999999 12.220690509568442 
Si 2.5891325999999997 16.166342609999997 13.73930278047467 
Si 3.67833087 12.310711379999999 17.076296697638682 
Si 3.35293812 12.936556889999999 14.83969177274378 
Si 1.517385807 14.540519159999999 15.12381498670285 
Si 0.512405208 15.236770049999999 17.87480477507628 
Si 3.9548373299999997 13.85780526 20.256067462049025 
Si 2.17284165 15.45849324 19.87121343027552 
Si 1.0622611259999999 12.46248531 22.478653149413052 
Si 3.9407301899999996 14.57005293 23.821038412245983 
Si 2.31842538 16.24254723 24.16155011494035 
Si 1.217064996 16.07055741 22.032979857536464 
Si 1.049274738 15.38917929 26.048262563385656 
Si 0.7058668770000001 12.446944649999999 29.030587078719183 
Si 1.9583837999999998 13.43786535 27.210647739402418 
Si 3.30450795 13.06151748 34.45149738559614 
Si 3.82420782 15.48700074 31.39689591232566 
Si 3.3661004399999994 13.254928649999998 32.01713467301263 
Si 0.6651630539999999 14.1356475 33.330373767941865 
Si 6.78818961 4.07421045 4.0759981197483395 
Si 4.9843164600000005 0.366380019 0.163980079089535 
Si 5.43774861 2.71134018 2.718371695718261 
Si 6.742707929999999 1.4148646919999999 1.257338683352421 
Si 5.42872395 -5.80458312e-05 5.430429542237431 
Si 5.430434399999999 2.7150705900000003 8.144969313030588 
Si 6.787652039999999 1.357548327 6.787457119824834 
Si 4.0720927499999995 1.3564992509999998 9.502204583025852 
Si 6.78662577 1.3690865339999998 12.226159742975549 
Si 8.11543365 0.15917773500000001 13.733072008238725 
Si 4.43412171 0.759599442 15.005499545022525 
Si 5.2797519 2.59066386 13.618668106906522 
Si 5.55192522 0.6137599589999999 20.56279453306405 
Si 7.27213293 0.1114250661 18.990113005310345 
Si 8.00472681 2.1595327199999996 18.175266458454047 
Si 5.891946389999999 3.15149598 17.444916106197418 
Si 6.06447378 2.89628055 20.833521586715836 
Si 4.557502169999999 1.23970158 17.353289138927725 
Si 7.04961153 3.99562749 24.612796486427975 
Si 7.012405169999999 0.1456904295 25.776185509082747 
Si 5.51914974 3.9437112599999997 22.808641770108935 
Si 5.38674462 2.93418738 29.92909905054369 
Si 6.51911139 2.4411868199999995 26.266893438064688 
Si 4.219973369999999 2.7702774 26.531008950066113 
Si 7.14358854 3.4738425 28.3304905872082 
Si 6.561758609999999 1.8871802099999997 31.889853842392807 
Si 7.22471274 3.3506901 33.98463946811735 
Si 4.07435706 6.785697239999999 4.07039042473599 
Si 6.643681019999999 6.60052881 1.3701710454651137 
Si 5.4288216899999995 8.13988494 2.7036913040223496 
Si 8.14361535 8.143289549999999 5.4303949268361205 
Si 4.07267919 4.07259774 6.787664812232699 
Si 5.43110229 5.42891943 5.431398773474134 
Si 6.78791268 6.78703302 6.787837889239253 
Si 6.78818961 4.07336337 9.502204583025852 
Si 4.07287467 6.78770091 9.504489199512367 
Si 8.14330584 8.14273569 10.86328216256662 
Si 5.43463722 5.427257849999999 10.861309084691905 
Si 6.779898 6.78196683 12.23059051434333 
Si 5.79850695 4.24466901 15.381388187856533 
Si 4.3851051 6.388872839999999 15.149811153087263 
Si 5.4348652799999995 8.034716699999999 13.723448926674322 
Si 5.09443686 4.41810864 19.2398977411691 
Si 6.61263228 6.19546167 19.696890269274316 
Si 6.944915699999999 7.357557689999999 23.37584973598775 
Si 5.708016 6.0699472199999995 21.858864388943125 
Si 6.6569085 6.164136 25.43941226972995 
Si 4.499314289999999 6.9670863899999995 25.78923551537692 
Si 7.4840332499999995 5.79897936 27.704540285304947 
Si 6.10780518 7.304142779999999 28.881775468484044 
Si 5.45583051 4.9733532899999995 34.57230513617085 
Si 4.59311211 5.73631173 32.485827206760895 
Si 6.84979839 6.85142739 32.54955416057408 
Si 6.79105665 9.50576886 4.070009655321571 
Si 6.61183407 12.193765469999999 1.1728286425922272 
Si 4.07227194 9.502738919999999 6.787837889239253 
Si 5.43080907 8.14456017 8.145142390037142 
Si 5.4295547399999995 10.85933754 5.430325696033499 
Si 6.7886945999999995 9.50308101 9.501858429012746 
Si 4.08014001 9.499138829999998 12.247275137775137 
Si 5.43009231 10.860380099999999 10.863489854974485 
Si 6.76282608 12.22812108 12.236059747750438 
Si 8.114488829999999 10.87883667 13.618252722090793 
Si 6.560536859999999 9.515884949999998 17.00125050759686 
Si 4.40711289 10.2351699 16.24061167919328 
Si 7.29120852 8.99193339 14.84142254280932 
Si 6.042612599999999 8.43478281 19.209816957430014 
Si 7.106545079999999 10.071031859999998 20.510490661683423 
Si 7.194788009999999 10.76526279 24.488734888130057 
Si 6.27471252 9.6024663 22.728541731475737 
Si 7.37156709 9.76403052 26.631670537077927 
Si 5.37392439 8.68204872 27.16339771661317 
Si 7.574768549999999 11.73617937 27.90513653590105 
Si 6.82554258 8.430645149999998 30.799053316286788 
Si 4.942060199999999 11.13336792 34.420931986238706 
Si 5.082349679999999 9.99433854 31.15154194783469 
Si 4.09361184 14.80757742 1.261222531379493 
Si 5.4409414499999995 13.573756529999999 2.706623228513375 
Si 6.78830364 14.932228499999999 4.068625039269139 
Si 4.07259774 14.9320656 6.78769942763401 
Si 5.429701349999999 13.575010859999999 8.145142390037142 
Si 6.787456559999999 12.21756516 6.787214812015658 
Si 8.1438597 13.576835339999999 10.869028319184213 
Si 4.070072789999999 12.21692985 9.502308429229787 
Si 6.7860393299999995 14.931967859999999 9.5020315060193 
Si 5.42859363 16.2913032 10.861170623086661 
Si 6.89203836 14.77597482 17.302716037612644 
Si 5.33038122 13.646556539999999 13.702921993697016 
Si 6.33589776 15.4629567 15.072791885170725 
Si 7.31468241 12.23510949 19.405082436224248 
Si 5.35408317 13.273841339999999 18.439485816659403 
Si 6.85725921 13.040144999999999 24.785631185172814 
Si 7.38798741 14.19717483 22.823699469679134 
Si 5.29126893 14.965411229999999 21.932941347748248 
Si 5.364801989999999 14.6619774 25.65288544961367 
Si 5.37550452 12.280493429999998 28.51810606231275 
Si 7.21673064 15.352038089999999 29.519806545444762 
Si 4.82358303 15.724965059999999 29.239144871616773 
Si 4.22745048 14.118542999999999 27.664524881389664 
Si 5.82981633 16.00945362 32.67434268229953 
Si 7.86940578 14.60856249 32.8793350888621 
Si 5.44473702 12.307306769999999 30.887945666852925 
Si 7.523129249999999 13.433336729999999 30.936407228688054 
Si 12.176432909999999 1.218081492 1.2055401968309358 
Si 9.50291811 1.358923203 4.0689711932822465 
Si 10.86674949 2.70391194 2.687743988638463 
Si 9.385744139999998 4.03254063 1.3177044816983299 
Si 8.14429953 0.000484083414 8.145453928648937 
Si 8.14249134 2.71480995 5.429944926619081 
Si 10.85992398 -0.001280708397 5.430014157421702 
Si 10.8597285 2.7156733199999996 8.145488544050249 
Si 9.503928089999999 1.357864353 9.502204583025852 
Si 8.14169313 2.71588509 10.862901393152201 
Si 10.85839272 0.0009829956149999999 10.862901393152201 
Si 9.523068839999999 4.08730761 12.235540516730774 
Si 11.318976179999998 3.52947285 17.136354418912923 
Si 9.19772496 1.91392839 14.988884152393341 
Si 10.969229879999999 2.76135048 13.662595051169932 
Si 10.091524680000001 1.4584094909999998 17.162731354711756 
Si 11.8078065 3.82378428 21.371998769506686 
Si 8.287749269999999 3.31525935 20.223113600001142 
Si 9.708449039999998 3.10821345 22.055860637802905 
Si 9.392993189999999 0.803000889 22.162752997050664 
Si 12.00173895 1.3458293009999998 24.34345404882862 
Si 11.146041539999999 3.24938259 25.6094085055673 
Si 9.15326955 2.6581370399999997 29.380894939984508 
Si 10.93979385 2.11175415 27.83504034824668 
Si 8.28274824 0.85875993 30.701922500208674 
Si 12.0976056 6.8885523 1.2717386902977148 
Si 8.14136733 5.416881119999999 2.7229686210123356 
Si 9.50102847 6.79102407 4.072051963998908 
Si 9.50145201 4.073119019999999 6.78728404281828 
Si 8.14508145 5.4296199 8.144934697629276 
Si 10.85933754 5.42947329 5.429287233994176 
Si 12.21670179 4.073184179999999 9.50161612120357 
Si 12.21756516 6.77820384 12.247102060768583 
Si 9.5034231 6.78719592 9.501166120986529 
Si 10.860168329999999 5.42769768 10.860201391849959 
Si 8.15923746 4.20785361 15.426249747955334 
Si 9.56187162 5.13972306 17.194854447128183 
Si 10.499149349999998 7.279235369999999 16.965942798259842 
Si 8.34235335 5.6543730299999995 13.606795024256918 
Si 9.235501469999999 7.51092804 14.888187949980216 
Si 9.86354613 6.956514179999999 21.024183217135743 
Si 8.811456479999999 5.47330968 19.475940162707463 
Si 12.15937728 7.447722839999999 20.85996775331729 
Si 9.20458305 6.63626907 23.29578431275586 
Si 9.360022229999998 4.29368562 24.090415465246654 
Si 10.808480159999998 7.9021161 28.563659930437765 
Si 9.586811609999998 5.951535209999999 28.693883070169 
Si 12.07245384 5.066694989999999 30.9932803330417 
Si 11.61165861 7.0363188899999995 32.15788089474235 
Si 8.48098125 5.052131729999999 32.713423470379425 
Si 9.73158084 4.64185179 30.607180146821005 
Si 8.36564805 7.61285457 34.60335515114664 
Si 10.178203769999998 5.93625519 34.487151248946276 
Si 9.38326806 9.518442480000001 1.1565559424360186 
Si 10.8351306 8.17803612 2.7092609220932578 
Si 8.11720926 10.85756193 2.6831228325634706 
Si 9.50255973 9.50239683 6.7873532736209015 
Si 10.859614469999999 8.14539096 8.144830851425343 
Si 8.14529322 10.86002172 8.144588543616168 
Si 10.86098283 10.85945157 5.430706465447918 
Si 12.21696243 9.50355342 9.501685352006191 
Si 9.50848929 9.52569153 12.216225122799345 
Si 10.858083209999998 10.86000543 10.857051390330675 
Si 9.50471001 12.216473729999999 9.502135352223231 
Si 10.9996596 8.32818105 13.595406557225662 
Si 8.32394565 10.929221639999998 17.524427683008334 
Si 9.23069592 9.082294019999999 20.263786696541334 
Si 10.11322296 9.3724515 18.04258562522974 
Si 9.455449049999999 10.582293509999998 23.869949974298148 
Si 10.01318607 8.414029349999998 24.663334972341747 
Si 10.40090436 10.44312804 21.729125864830237 
Si 10.4014908 12.20564088 25.32493913759512 
Si 8.819878410000001 11.74139217 29.917606737308503 
Si 11.0578149 12.143315340000001 29.16887560695584 
Si 9.56949534 8.98908264 26.89737835753965 
Si 11.033379899999998 10.87566012 27.114832308574115 
Si 10.33033608 11.30221377 34.47292431900753 
Si 12.12156819 10.23829758 33.07203902795934 
Si 10.94712435 8.91098838 30.713068659430753 
Si 8.783274780000001 9.6479154 30.988884177075228 
Si 12.13064172 12.207106979999999 1.3114806325426478 
Si 12.21828192 14.93265204 4.074232734281489 
Si 8.44493148 13.14713772 0.03753071040919861 
Si 9.503357939999999 12.21837966 4.0675865772298145 
Si 9.54281232 14.89510359 1.3084933234095253 
Si 10.86518565 13.582830060000001 2.7190190037227735 
Si 8.14281714 16.297167599999998 2.684008986837027 
Si 8.144332109999999 13.574457 5.430948773257094 
Si 9.50282037 14.93248914 6.787837889239253 
Si 10.86000543 13.57525521 8.144969313030588 
Si 9.51324597 14.939705609999999 12.263890530404321 
Si 9.36073899 12.334771709999998 15.110661134204744 
Si 10.974002849999998 13.567989869999998 13.788975881355672 
Si 9.00263592 13.23256248 17.27498910116269 
Si 10.71794034 12.57534243 20.873640836835058 
Si 8.622297 13.599901979999999 20.93570625138533 
Si 9.24889185 15.77329749 20.204663591102484 
Si 11.34231975 16.19931357 19.0104668612811 
Si 11.072866859999998 12.56524263 18.49701661363796 
Si 10.781357309999999 15.67471041 24.91003893748384 
Si 8.537246909999999 15.925739309999999 23.976184640921 
Si 12.05116281 13.65533685 24.502511817851758 
Si 11.60991558 14.549706719999998 28.9601447370517 
Si 8.53999992 13.246685909999998 26.379220415318244 
Si 10.565009819999998 16.03597374 27.326505487589674 
Si 8.326047059999999 15.36634071 27.420555532951123 
Si 9.62328492 16.118678069999998 32.3461194470705 
Si 11.53581237 15.70836555 31.094772689684977 
Si 10.942628309999998 16.06164678 34.43238968407258 
Si 16.2945612 2.71036278 2.71029246105232 
Si 14.93447652 1.355906295 4.071428886775314 
Si 14.907940109999998 3.96283572 1.3191340977724662 
Si 13.574847959999998 7.07450265e-05 8.144900082227965 
Si 13.575874229999998 2.71495656 5.429460311000729 
Si 12.218004989999999 1.356932565 6.78773404303532 
Si 14.93331993 1.357823628 9.50248150623634 
Si 13.572925739999999 2.71630863 10.862624469941714 
Si 12.2183145 1.3394794589999999 12.245475136906975 
Si 14.932049309999998 4.08413106 12.25087513951146 
Si 16.219203659999998 2.6576646299999998 13.671075824491078 
Si 14.63389344 1.6803135 15.189376556785511 
Si 12.786688889999999 3.50920809 15.135341915339346 
Si 15.91182765 1.217249073 17.336327592285432 
Si 13.22697501 0.5253166619999999 20.475459875556894 
Si 15.11045739 1.6685846999999998 19.479747856851652 
Si 14.73653673 3.9652466399999997 19.41975936638003 
Si 15.131829869999999 3.00614031 22.692126329296773 
Si 12.98878263 2.02890321 22.263795353476898 
Si 14.99041638 3.0188953799999996 25.017173604540773 
Si 14.096698109999998 0.851351238 25.34418530072393 
Si 14.37294393 0.67235346 27.679097965341512 
Si 13.1413059 2.2875884099999997 28.941694728153042 
Si 13.75053561 2.35923183 34.577047446150424 
Si 12.942975149999999 3.31483581 32.557792626086055 
Si 14.48845632 0.316099305 33.04957363250863 
Si 12.89016297 1.405001097 31.147907330697056 
Si 12.218102729999998 4.07166921 4.06865965467045 
Si 13.56577443 5.437976669999999 2.686927065167528 
Si 14.933108159999998 6.78867831 4.0731250414395435 
Si 14.93248914 4.07267919 6.78773404303532 
Si 13.57519005 5.42953845 8.145453928648937 
Si 12.21732081 6.787896389999999 6.787803273837941 
Si 13.576623569999999 8.143696799999999 10.863316777967931 
Si 16.28767053 5.42803977 10.862278315928606 
Si 14.932977839999998 6.78864573 9.503243045065178 
Si 14.486680709999998 7.48504323 15.193599635745427 
Si 13.63508838 5.499455129999999 13.917606712626615 
Si 15.765755219999999 5.03121537 17.67154313857925 
Si 15.092685 5.03724267 21.507137296224062 
Si 12.432088169999998 4.256397809999999 19.128505379750937 
Si 12.6278451 6.6110684399999995 18.70917440827187 
Si 14.78162745 7.15201047 17.635335428808144 
Si 12.95915112 5.71577004 22.124018362983875 
Si 15.454257839999999 7.26178878 24.50908874410081 
Si 13.26910095 6.39657801 24.29329633232927 
Si 13.19307552 4.55593833 25.72845087067515 
Si 13.86842634 4.56154209 29.452479589895248 
Si 16.12933173 6.54445863 26.734616740576257 
Si 14.00496912 5.8835896199999995 27.524920967903192 
Si 13.104099539999998 8.03175192 28.00032888950576 
Si 13.962843179999998 7.234698509999999 32.666208062991494 
Si 14.883358499999998 4.886495009999999 32.984704370452185 
Si 15.8944788 4.73584509 30.783787924308722 
Si 14.93478603 12.216457440000001 4.070771194150408 
Si 12.21616422 9.50027913 4.071221194367449 
Si 14.95485531 9.50220135 1.2202344346873717 
Si 13.58092413 10.86068961 2.690353989897297 
Si 13.57535295 10.859972849999998 8.144900082227965 
Si 13.57426152 8.14384341 5.430083388224324 
Si 14.93242398 9.50262489 6.787422504423523 
Si 14.932309949999999 9.52082082 12.224878973127048 
Si 12.20938758 12.2150565 12.23789436401991 
Si 12.77984709 9.30854583 15.21184195223622 
Si 13.622463629999999 10.939744979999999 13.676683519503428 
Si 16.275453029999998 8.245623329999999 13.659375818848027 
Si 15.412978979999998 12.16815759 18.338028075417444 
Si 14.05056483 10.52039151 19.353955488488193 
Si 15.73094349 8.8658325 19.01572840228034 
Si 12.224032289999998 10.45163142 17.706781617113645 
Si 12.423275279999999 9.35358768 22.218068408345328 
Si 15.94101933 10.568903129999999 22.480037765465482 
Si 12.295903769999999 8.51172048 24.430338706118732 
Si 15.80706666 9.651091949999998 24.60306955865964 
Si 13.82024052 11.123333279999999 21.670695067417604 
Si 14.76147672 11.1464325 26.152801075344282 
Si 14.25992391 9.47949309 29.565706567582883 
Si 12.92450229 9.72322407 26.346370399474292 
Si 15.853053329999998 10.528536509999999 28.16945974031034 
Si 12.58698978 10.91014605 30.645949396289105 
Si 15.5364246 8.54780283 31.402226684127523 
Si 13.27110462 8.50996116 34.46489354590342 
Si 16.2934209 15.96014379 0.036762940808125 
Si 14.87966067 14.82582222 1.4217099164767681 
Si 13.568120189999998 16.28447769 2.7089182296202807 
Si 16.3137834 13.54684545 2.7062286129384314 
Si 13.57450587 13.57603713 5.430498773040053 
Si 12.217516289999999 12.21785838 6.787595581430077 
Si 14.93200044 14.932847519999997 6.787837889239253 
Si 12.217092749999999 14.93315703 9.501754582808813 
Si 14.93367831 12.216490019999998 9.50199689061799 
Si 13.574245229999999 13.575743909999998 10.862555239139093 
Si 14.94126945 14.935991489999997 12.242048212177206 
Si 12.84241698 14.365320209999998 15.281765062884043 
Si 14.60005911 12.536783999999999 15.229565037707351 
Si 13.59915264 16.20846855 13.779629723001754 
Si 16.23761136 13.49611839 13.682533522324952 
Si 12.50229807 14.394544469999998 17.785254731885235 
Si 14.097382289999999 14.69610495 21.19154868247347 
Si 14.630912369999999 14.253310169999999 18.925070666247347 
Si 15.32224368 15.08172183 24.854135064366893 
Si 12.605250869999999 13.165578 22.172133770805893 
Si 15.95892204 14.46384213 22.64750707700715 
Si 13.826675069999999 14.673820229999999 28.11116740450295 
Si 15.352119539999999 13.973529419999998 29.7897374448664 
Si 13.97398554 13.48766388 25.962693291345353 
Si 15.248449979999998 12.50694072 33.076919799544164 
Si 13.61047419 13.415792399999999 34.5933166847665 
Si 13.77961326 13.060132829999999 31.345215118168635 
Si 12.633269669999999 14.98119624 33.10803904532258 
Si 16.06278708 15.5264877 31.512130583289323 
