&CONTROL
  dt          = 30.D0,
  prefix = 'x.33_y2.00_z3.16_struc25-scf',
  pseudo_dir = './',
  outdir='./',
  wf_collect= .true.,
  verbosity= 'high',
/

&SYSTEM
ibrav= 6, celldm(1) =30.783621515, celldm(3) =2.110832797198731, nat=  432, ntyp= 1,
  ecutwfc     = 12.D0, nbnd= 1728,
  degauss     = 0.05D0,
  occupations = "smearing",
  smearing    = "methfessel-paxton",
/
&ELECTRONS
  electron_maxstep=200,
  conv_thr    = 1.D-8,
  mixing_beta = 0.3D0,
  scf_must_converge=.false.,
/
&IONS
/
ATOMIC_SPECIES
Si  28.08  Si.pbe-hgh.UPF
K_POINTS {automatic}
1 1 1 0 0 0
ATOMIC_POSITIONS (angstrom)
Si 0.0200389806 2.7135719099999998 2.7036088633925304 
Si 2.7447835499999997 -0.010758632760000001 2.6906799280763765 
Si 1.9976426999999999 1.9065164399999999 1.528344573327735 
Si 3.79954476 3.84043266 1.3869412204005527 
Si -0.0013300377749999998 0.001607919111 5.429637050790732 
Si 0.000186207732 2.71484253 8.144816623581896 
Si 2.7151357499999995 -3.9670874099999994e-05 8.14505732184576 
Si 2.71336014 2.7151683299999996 5.428846185066606 
Si 1.358009334 1.3577014529999998 6.787759811913443 
Si 2.7146633399999995 2.71492398 10.863469128465962 
Si 1.3266510839999999 1.366395426 12.217740717366839 
Si 2.6147893499999997 0.01356220692 13.590030290591292 
Si 1.7506537199999999 3.7531019699999995 14.767629353815574 
Si 3.39980445 1.8636737399999999 14.968990644271422 
Si 2.59838532 1.4932472849999998 17.197443942062154 
Si 2.66235615 3.4024923 21.36991396068823 
Si 0.18137286 0.301254228 20.70452080296776 
Si 0.313229007 2.62360224 20.03634242247971 
Si 0.538524594 2.58740586 17.72849308307993 
Si 3.25878192 1.6758826199999999 24.70114354710763 
Si 0.48410296199999997 0.401111928 23.021619832793185 
Si 1.588351563 2.5093604700000003 23.321117243973244 
Si 2.82672225 2.50142724 28.02429254895443 
Si 3.10088295 0.5158456559999999 26.777338000270888 
Si 1.218518064 3.8920068 26.85401759004489 
Si 0.796984992 3.52520487 32.92611269255643 
Si 3.06585945 0.9929308859999999 31.724306261080624 
Si 1.76555907 2.14876503 30.10787987736496 
Si 1.5247097909999998 1.375260444 33.598211016198846 
Si 1.3490465759999999 4.08121515 4.079079092246623 
Si 0.271992501 5.33100024 0.05580211007571154 
Si 2.7132624 5.429359259999999 2.7238825343031805 
Si 1.5275328479999999 6.88412142 1.3131328170597953 
Si 0.00543540285 8.15677767 2.695511086086801 
Si 2.7152497799999997 5.429733929999999 8.145263634643358 
Si 1.3575076019999999 6.78753801 6.789169616030364 
Si 1.3557776039999998 4.073461109999999 9.501804664317817 
Si -1.3231096379999999e-05 5.42975022 10.85562924215723 
Si 1.322798499 6.78678867 12.20182024648551 
Si 3.5027898299999998 7.3046966399999995 14.623244780963097 
Si 0.929368935 4.72877523 16.832167133914535 
Si 2.68842015 5.4411532199999995 13.468924678401146 
Si 1.435267917 7.3414143 20.568595054816804 
Si 2.8997829 5.53991949 20.152324600196163 
Si 3.05820315 4.860984869999999 17.949901100369072 
Si 2.26237149 7.82509698 22.736805015708864 
Si 2.86826175 5.871192929999999 23.968733115634006 
Si 1.0467383849999998 4.42864827 24.53571506890014 
Si 2.63261061 7.7465466 26.990149650993438 
Si 0.5237430479999999 5.810528969999999 30.002041412197084 
Si 1.0311439679999999 6.122857139999999 27.691406850029733 
Si 0.6300971999999999 7.832622959999999 31.18772105999396 
Si 2.11960593 4.40300781 31.08305170067914 
Si 3.2340862799999996 7.823989259999999 34.23148814842653 
Si 1.36321236 9.494105219999998 4.075812472951318 
Si 2.71909422 10.84216788 2.684559315080963 
Si 0.9713857319999999 11.614639679999998 1.22757489989582 
Si 0.000263419074 8.14480452 8.144644696250563 
Si 2.71370223 8.14506516 5.431872106098046 
Si 2.71529865 10.85977737 8.144782238115628 
Si 4.07539962 9.50308101 12.189957260623615 
Si 1.357427781 9.50319504 9.502148518980478 
Si 2.71686249 8.146042559999998 10.861646698753844 
Si 0.0036967385699999997 10.85542794 10.857107817206684 
Si 1.65972294 8.984505149999999 14.717082718404015 
Si 2.63274093 10.744118369999999 13.504410479588037 
Si 3.29457105 10.86448518 16.68513488015955 
Si 3.69642906 8.46483786 17.212676703618154 
Si 1.9868587199999999 8.90491221 18.816724319477924 
Si 2.19792825 11.202551549999999 18.549102235526785 
Si 0.9254805119999999 9.264986369999999 24.03231184276052 
Si 0.655983639 11.30382648 22.960585630170385 
Si 3.3694235999999997 11.813654609999999 25.485579189042266 
Si 2.84965857 11.785195980000001 29.12026051526236 
Si 2.1361076999999997 9.78787908 25.9449002474284 
Si 1.0828011869999998 10.635121980000001 27.899748390137653 
Si 1.553116293 12.15714555 33.18764854897842 
Si 3.13046559 10.943117009999998 31.480169450589415 
Si 2.84698701 8.55482382 31.69868908871218 
Si 4.06665189 14.910970049999998 1.0409168348154716 
Si 1.3551879059999998 14.935128119999998 4.065393676672609 
Si -0.00013621698 13.57507602 8.144851009048162 
Si 2.7157547699999998 13.574685059999998 5.428296017606344 
Si 1.3565383469999999 12.217809509999999 6.787381571784513 
Si 4.063328729999999 14.93325477 12.23826884072786 
Si 1.355736879 14.93100675 9.502561144575674 
Si 2.7157221899999997 13.57716114 10.858964632385067 
Si 1.3622251859999999 12.21215688 12.197246979472084 
Si 0.0475674516 15.28537941 16.752255310311497 
Si 3.0583008899999995 13.992507269999999 16.164298222622882 
Si 1.3422129209999998 14.79325851 14.817969676429536 
Si 3.87876303 15.8785146 20.90591647888987 
Si 1.229671827 12.79028898 19.873148999579527 
Si 1.85329701 15.112493639999999 19.875315283954308 
Si 2.25458487 15.54386913 17.681694463491407 
Si 2.30182587 12.82865193 22.156481501531385 
Si 3.70812528 16.16806935 23.25217438410918 
Si 1.8797682599999999 14.787214919999998 23.499165188300495 
Si 1.7319528 13.59706752 25.491184020043686 
Si 1.90342134 13.92734727 29.48137668199175 
Si 1.61544672 15.06145707 27.357420816184508 
Si 0.186219135 15.672771899999999 33.49849316402638 
Si 2.3858985600000002 14.37030495 33.442479239478466 
Si 3.3114311999999995 14.91326694 31.216536080725177 
Si 8.1554256 -0.00401400261 2.7040833828270063 
Si 4.08217626 1.3471976609999998 4.075399847356121 
Si 5.45164398 2.7094179599999997 2.6847312424122944 
Si 7.0473960899999994 1.414408572 1.1593816431963604 
Si 5.42940813 0.00167928723 5.432731742754705 
Si 5.430238919999999 2.71494027 8.145676260238554 
Si 6.78760317 1.3562809649999998 6.788172437508639 
Si 4.07171808 1.356149016 9.502973770170872 
Si 5.43362724 -0.000169702704 10.867217144288995 
Si 6.7826673 1.364834844 12.260103611807002 
Si 6.286604219999999 2.2372685999999997 17.139607587802125 
Si 5.351183549999999 2.83929813 13.834167101082501 
Si 6.51098268 1.9656165599999997 21.44150450145481 
Si 7.80488109 3.90818277 21.12749642351034 
Si 4.29969663 1.91622528 20.457977009837904 
Si 7.326329759999999 0.022652711099999997 20.463169215244122 
Si 4.247519759999999 2.77366572 18.229489326580904 
Si 7.4218869 0.349400952 18.10497955323039 
Si 5.1306495299999995 3.15441189 24.696570280094203 
Si 6.59639115 1.575238113 23.77758430865927 
Si 5.12654445 3.1853628899999995 28.26468134362261 
Si 6.509874959999999 1.1967904619999998 27.9860902959325 
Si 5.76643194 3.83886882 30.464972944541188 
Si 5.35678731 1.70087148 31.728845142627783 
Si 6.54879177 0.264689694 30.231839483255214 
Si 6.79007925 4.070952449999999 4.068350826771517 
Si 4.07530188 6.78814074 4.0767064950742435 
Si 6.55504713 6.652151819999999 1.2550488874426475 
Si 5.43533769 8.13345039 2.7234767858012376 
Si 4.07241855 4.0728258 6.787794197379709 
Si 5.430190049999999 5.43193308 5.42984336358833 
Si 6.78711447 6.78776607 6.787656655514643 
Si 6.78822219 4.07388465 9.501598351520217 
Si 4.07220678 6.787489139999999 9.50221728991301 
Si 4.088871449999999 4.0789019699999995 12.220113314539217 
Si 5.4310534200000005 5.42654109 10.861577927821312 
Si 6.7970025 6.79682331 12.248068698613775 
Si 4.244066279999999 6.27676506 16.5871363013004 
Si 6.536672009999999 6.10067016 16.94464199407182 
Si 6.921800189999999 4.24141101 15.025657892678394 
Si 4.9171365 6.8929994699999995 20.48923339867403 
Si 6.481139399999999 7.64002629 18.77945047404518 
Si 7.638576479999999 4.0871121299999995 17.32800555747555 
Si 6.22020618 5.47749621 21.808534968382013 
Si 4.38310143 4.43404026 22.88321833107106 
Si 7.4213982 6.79754007 23.334286877553264 
Si 5.69662929 7.93679751 24.35422857794625 
Si 4.36563855 6.56092782 25.7842857344982 
Si 5.624269109999999 4.67257473 26.489875502284058 
Si 7.83236232 5.57463348 26.811826622936056 
Si 4.65473718 8.074268819999999 27.937675559429454 
Si 4.6993880699999995 5.804615699999999 34.165192969464975 
Si 8.07698925 4.35118932 30.266396876852916 
Si 4.42177389 5.3932280399999994 31.66268750553129 
Si 4.557371849999999 7.51081401 30.276987600462956 
Si 8.15058747 10.85065497 2.717662203455595 
Si 4.219908209999999 9.47757087 1.2738095978375776 
Si 6.78955797 9.50174523 4.07285532285241 
Si 4.07259774 12.220383329999999 4.067972586642586 
Si 4.07269548 9.50117508 6.7879661247110405 
Si 5.42999457 8.14521177 8.144988550913228 
Si 5.42908233 10.85648679 5.428983726931671 
Si 6.78779865 9.50306472 9.502973770170872 
Si 5.4305321399999995 10.859972849999998 10.857245359071749 
Si 8.05620321 10.866195629999998 13.716087409923796 
Si 5.42142603 8.267077259999999 13.636966452044884 
Si 6.26327694 9.99523449 15.06441031316059 
Si 4.41516015 11.52693432 14.856034387586403 
Si 5.71622616 9.63201636 17.606252750502996 
Si 4.91747859 11.11316832 19.44917620051522 
Si 4.493808270000001 8.42940711 22.32813374913309 
Si 7.37858808 10.41095529 22.804372456922273 
Si 4.308998219999999 12.192527429999998 23.30110490260622 
Si 5.23878255 10.59319152 21.80430555603125 
Si 7.00562853 9.7541262 25.13137450103242 
Si 7.47658872 9.6034437 28.91559822004494 
Si 5.87790441 10.01919708 27.264442515400248 
Si 4.604661719999999 11.97751572 27.494481284722244 
Si 6.461461079999999 8.85923505 30.925806963443044 
Si 7.67017908 8.40116025 34.28255056583208 
Si 6.04233567 10.32950529 34.37064613040652 
Si 5.4607338 10.80199674 32.11097082924593 
Si 5.42072556 13.57261623 2.6740201696703214 
Si 6.90697629 12.238481519999999 1.3227951330806444 
Si 6.784280009999999 14.9345091 4.069004150630577 
Si 4.07293983 14.933303639999998 6.7864875496615875 
Si 5.430206339999999 13.574880539999999 8.144713467183095 
Si 6.78776607 12.21732081 6.787381571784513 
Si 8.14456017 13.57750323 10.859170945182665 
Si 4.0729887 12.216815819999999 9.501839049784081 
Si 6.7882059 14.930648369999998 9.50252675910941 
Si 6.7841334 12.22176798 12.230257027087797 
Si 5.27804145 13.41898524 13.656187927687784 
Si 6.5251224 14.95767348 14.928587721408439 
Si 6.93378963 14.47140069 17.215633853717065 
Si 5.883296399999999 14.54245767 21.02574982882816 
Si 6.184808009999999 13.07373498 19.174986492507205 
Si 6.12166797 13.758208199999999 23.325931209250538 
Si 5.676071309999999 15.78202893 24.3674669824588 
Si 5.30648379 15.904431989999999 26.68986137408925 
Si 5.869743119999999 13.93814754 27.862990326698903 
Si 6.64721595 12.71703285 31.344071775107132 
Si 7.5038256 14.35305384 32.90847294836178 
Si 5.46452937 14.413636349999999 30.139823975526415 
Si 5.995746269999999 16.20519426 33.92690168823905 
Si 9.5027715 1.3573316699999998 4.072477082723481 
Si 10.85591664 2.71699281 2.703337218209026 
Si 8.145048869999998 -0.00015657524459999997 8.145194863710826 
Si 8.145309509999999 2.7142072199999996 5.430668614778723 
Si 10.86031494 0.00020533219199999998 5.431150011306452 
Si 10.860380099999999 2.71487511 8.145022936379494 
Si 12.21720678 1.3584426479999998 12.22076663839828 
Si 9.50296698 1.3570254179999999 9.503145697502204 
Si 8.14187232 2.7150705900000003 10.865325943644345 
Si 10.02569679 0.7520213339999999 15.0135885940189 
Si 10.886721029999999 2.65797414 13.726196737006106 
Si 9.66365154 0.7513078320000001 17.454440916936985 
Si 11.293368300000001 1.6618243499999998 21.408116213710166 
Si 10.473688079999999 2.1598911000000003 19.212397879805014 
Si 8.67338244 1.25015976 24.745294485793643 
Si 10.33818786 2.27393739 23.51075309043226 
Si 11.99911626 2.8046981699999995 25.05032795704259 
Si 10.606256099999998 0.773379153 28.14594832860484 
Si 11.99424555 2.2689852299999997 29.403012204370697 
Si 12.149261189999999 0.8160231149999999 26.35879810487667 
Si 8.668381409999999 1.72976994 27.123737187438273 
Si 8.865946529999999 3.88570257 28.06871857137058 
Si 8.69596038 2.6314865999999997 34.144286605975026 
Si 11.64317976 2.45544057 31.87209499509347 
Si 9.15696738 3.6162170999999996 32.134559259104655 
Si 9.99354033 0.9100457369999999 32.749233854082235 
Si 10.871261819999999 8.14591224 2.684150128032393 
Si 12.21608277 4.06971441 4.068522754102848 
Si 9.72944685 4.21202385 1.2447091777363508 
Si 8.1464661 5.43038553 2.680563723900811 
Si 9.50120766 6.78693528 4.0669410226545955 
Si 11.59914789 5.08814892 0.07510026530838489 
Si 9.502445699999999 4.0721742 6.78731280085198 
Si 8.14506516 5.43005973 8.144919779980695 
Si 10.85994027 5.429294099999999 5.4292588106618025 
Si 12.212710739999999 6.77949075 12.224583425153845 
Si 9.50272263 6.787489139999999 9.50252675910941 
Si 9.5141745 4.06593513 12.23864708085679 
Si 10.863719549999999 5.42768139 10.86243756447797 
Si 11.8783422 6.03997362 16.228048877080727 
Si 8.35810578 5.56588575 13.669632644997932 
Si 9.84621357 6.881270669999999 15.262401827922332 
Si 8.54283438 7.865593919999999 19.92620577402853 
Si 10.31842809 6.19016742 19.736019760109254 
Si 9.160323120000001 4.152646799999999 19.182069898558076 
Si 9.37943991 4.26077982 22.878988918720292 
Si 12.057532199999999 7.07207544 23.0735418868554 
Si 11.19036663 5.3166161700000005 21.772258301470995 
Si 10.96501077 6.6736872 25.19344026764321 
Si 8.893053089999999 5.678237879999999 24.707573629299443 
Si 11.13085926 4.27662999 28.454695430210553 
Si 11.21726142 5.9696334 30.056679918094343 
Si 11.94195465 4.8192336 26.307529374673514 
Si 8.5812462 7.56918108 28.14787391471576 
Si 8.96256252 6.606132569999999 30.278603717377475 
Si 11.099028599999999 4.844922929999999 32.16973559109515 
Si 9.45582372 9.49563648 1.2795726019838207 
Si 8.145602729999998 8.14770414 5.431012469441387 
Si 9.50233167 9.50269005 6.787931739244774 
Si 10.860233489999999 8.14464162 8.144851009048162 
Si 8.14441356 10.860380099999999 8.144713467183095 
Si 10.86007059 10.862953919999999 5.4307373857112555 
Si 8.14298004 8.14469049 10.861337229557446 
Si 9.49975785 9.504693719999999 12.251782328970542 
Si 10.86008688 10.85886513 10.865291558178079 
Si 10.11920139 9.863301779999999 16.473114095161126 
Si 10.97185257 8.18766351 13.677334989441597 
Si 9.56017746 11.94689052 15.244968396525286 
Si 11.27958696 10.24020351 20.201323889625737 
Si 8.32438548 11.993675399999999 19.01279024812875 
Si 9.33532659 9.823358699999998 18.861391040157937 
Si 10.91931732 8.97557823 22.247706143536053 
Si 9.18277074 11.910042540000001 22.83253415379443 
Si 10.7966862 10.61221824 23.871250318768855 
Si 8.57187945 8.472836249999999 22.171370408424718 
Si 9.34435125 10.050050339999999 25.693267405291127 
Si 8.2880262 11.751491969999998 29.67702998504738 
Si 10.468996559999999 8.306417609999999 26.858040689598052 
Si 10.41595632 11.172871169999999 34.269965485178595 
Si 8.59690089 8.35466859 32.01637641154715 
Si 10.48483044 11.80880019 30.577550961097273 
Si 10.82002977 9.953369189999998 32.16454338568892 
Si 11.2409145 15.964053389999998 0.08488980755441966 
Si 12.186402389999998 12.23608689 1.1599352492032489 
Si 8.76424806 13.11851619 0.13045914672392295 
Si 9.50384664 12.215203110000001 4.075124763625991 
Si 9.602238239999998 14.90117976 1.415023830700295 
Si 10.89276462 13.542105059999999 2.7307011722638013 
Si 8.14721544 13.57421265 5.430874927576322 
Si 9.502657469999999 14.93274978 6.78720964445318 
Si 10.859467859999999 13.57561359 8.144782238115628 
Si 9.50127282 12.218575139999999 9.50252675910941 
Si 9.49915512 14.91227325 12.229913172425134 
Si 10.86158556 16.2909774 10.862231251680372 
Si 11.80656846 15.29974719 14.859060308617845 
Si 8.952022889999999 13.27954284 17.14201457044077 
Si 10.797142319999999 13.463961929999998 13.689954455561354 
Si 8.172139139999999 16.239843089999997 13.681186161663431 
Si 9.252915479999999 13.060067669999999 20.867060902008873 
Si 11.073876839999999 14.582661389999998 20.21937625941558 
Si 10.47455145 14.92478397 17.955918556965685 
Si 9.1595412 15.322764959999999 21.53303861265588 
Si 9.32762142 15.40768473 23.969420824959336 
Si 8.249565509999998 13.375556099999999 24.325963724675297 
Si 11.403700469999999 15.27433479 25.10022126859509 
Si 9.68813541 15.134696909999999 29.233698168475108 
Si 11.449866329999999 13.18457214 26.222494116596785 
Si 9.1988001 12.404118239999999 26.27224988628422 
Si 8.230245570000001 13.50009315 28.11293828098913 
Si 11.49481044 13.967567279999999 30.18383737234737 
Si 8.59650993 15.811074 31.34506895362886 
Si 12.238791029999998 1.417619331 1.2938666403107497 
Si 14.935128119999998 1.3498578179999998 4.069623089023372 
Si 13.57435926 0.00038649328199999997 8.144679081716829 
Si 13.577991929999998 2.71770957 5.429121268796737 
Si 12.21728823 1.3572697679999999 6.787656655514643 
Si 16.291466099999997 0.0019658446199999997 10.857829911998277 
Si 14.931902699999998 1.356730569 9.502389217244344 
Si 13.572990899999999 2.71389771 10.860958989428516 
Si 16.23489093 2.74781349 13.662583624413328 
Si 15.20448327 1.065833523 16.887699661934718 
Si 13.571101259999999 0.0368636184 13.620977210231022 
Si 14.37817302 1.9358058599999999 14.88873496600572 
Si 12.58524675 3.8082110399999998 15.06289735264487 
Si 14.297700419999998 3.51650601 19.788904607226925 
Si 12.75026445 2.2191867 18.48717401078106 
Si 13.747717439999999 0.0857818368 18.424145451114807 
Si 13.838534189999999 3.0184881299999997 23.566870171378973 
Si 14.68173717 0.820903599 23.964503703283246 
Si 12.758490899999998 3.49927119 21.55906841061952 
Si 14.566566869999999 0.997503489 26.292571696847645 
Si 15.898632749999999 0.9104497289999999 29.778467110533164 
Si 14.37988347 2.6829792899999996 29.244357663017677 
Si 15.25025817 3.1247152199999997 27.117513418044062 
Si 13.18701564 3.2766357599999996 34.31824267981658 
Si 15.00642945 4.16286063 1.3837846345973002 
Si 13.582097009999998 5.456873069999999 2.708776998972365 
Si 12.502982249999999 7.03615599 1.1950496873544632 
Si 14.93030628 6.782862779999999 4.073955657772935 
Si 16.2921177 5.43102084 5.433109982883636 
Si 14.93281494 4.073151599999999 6.788275593907438 
Si 13.574750219999999 5.42988054 8.144747852649362 
Si 12.21769548 6.78770091 6.787415957250779 
Si 12.21844482 4.07432448 9.501770278851549 
Si 14.93374347 6.78683754 9.501735893385284 
Si 14.94534195 4.084880399999999 12.222313984380264 
Si 16.133339069999998 8.01463113 13.59185272030341 
Si 15.555695669999999 6.534261089999999 17.140983006452778 
Si 13.56878808 5.4041586299999995 13.624931538851655 
Si 14.42533257 7.12467585 15.05447291340961 
Si 15.34685787 7.35392502 20.750528556832155 
Si 14.33998926 5.84605746 19.157965686705353 
Si 12.29070726 6.96741219 18.591018118905488 
Si 14.43771297 7.0423624799999995 23.01845636989668 
Si 15.06702825 4.9741515 24.08248023804315 
Si 14.24733174 5.09269383 26.26533840756468 
Si 13.385476709999999 6.7911380999999995 30.01837450867361 
Si 15.35444901 7.069794839999999 26.772730347791196 
Si 14.661032579999999 4.79551536 30.339018981607484 
Si 14.84628246 4.15601883 32.62242025449187 
Si 15.56372664 6.89444928 32.97824105941624 
Si 12.21398136 9.502168769999999 4.067388033716058 
Si 15.2492319 9.88596117 1.3443307506032705 
Si 13.57009128 10.877142509999999 2.6963397758238203 
Si 16.2909774 10.860282360000001 5.4294651234594005 
Si 13.577486939999998 8.1456516 5.429293196128069 
Si 14.93248914 9.502543439999998 6.7879661247110405 
Si 13.574782799999998 10.859744789999999 8.144885394514429 
Si 14.943484889999999 9.50493807 12.206599826296536 
Si 12.21965028 12.21613164 12.234142584775896 
Si 12.216815819999999 9.501158789999998 9.503214468434736 
Si 13.57496199 8.14591224 10.860924603962252 
Si 12.89192229 9.07810749 14.845959445970358 
Si 13.697870039999998 10.91205198 13.58408160492721 
Si 15.30018702 11.96787204 15.015823649326213 
Si 12.40977087 10.390478759999999 16.784199408472954 
Si 15.20168139 9.86524029 15.949148360194222 
Si 15.82391052 11.41841034 20.874728860986274 
Si 15.016219739999999 9.48221352 19.681725108874662 
Si 12.84891669 9.301215329999998 18.773398631982303 
Si 16.245756359999998 8.88956703 17.735198249001872 
Si 15.142483529999998 8.463599819999999 24.824002818077364 
Si 12.63584349 11.805965729999999 24.684810450631105 
Si 14.356865699999998 8.25802002 28.50080634047375 
Si 16.079891579999998 9.51018345 29.57263570946269 
Si 12.306313079999999 10.99724868 29.318974124815696 
Si 13.84529454 10.21743009 25.916050841230923 
Si 15.51941784 11.680174349999998 26.808835087370884 
Si 12.46683474 9.342608219999999 27.65110708356555 
Si 14.361084809999998 10.73629917 30.81346964515082 
Si 13.056174359999998 8.87790339 31.91260107435525 
Si 14.08263984 8.45071443 34.05457492448607 
Si 12.21865659 14.930094509999998 4.071961300729485 
Si 14.92597314 12.22588935 4.07361180311027 
Si 14.96462931 14.8493124 1.0586666125021704 
Si 13.5969372 16.2958644 2.6779641826510736 
Si 16.28727957 13.54629159 2.667710436610443 
Si 13.57602084 13.57505973 5.431459480502849 
Si 12.21738597 12.218607719999998 6.788413135772504 
Si 14.93193528 14.93177238 6.78720964445318 
Si 12.21696243 14.932863809999999 9.502148518980478 
Si 14.93248914 12.21606648 9.504074105091394 
Si 13.571866889999999 13.5782037 10.862024938882774 
Si 14.931528029999999 14.929768709999998 12.228400211909413 
Si 12.600705959999999 14.7869217 17.06684794118249 
Si 15.1163055 13.229125289999999 16.948390009894855 
Si 16.27160859 13.4719929 13.52916801529982 
Si 12.553073999999999 15.96825621 21.409079006765623 
Si 14.21830296 13.0536657 21.238389552219374 
Si 14.54196897 15.29466471 20.351863460939892 
Si 12.233382749999999 12.47708115 20.103359696232857 
Si 13.056858539999999 12.56048595 17.795785440563215 
Si 16.051758749999998 12.577183199999999 24.721465357671054 
Si 14.11075638 13.290343109999998 23.571546594791197 
Si 13.12910469 15.395695289999999 23.572268689582792 
Si 12.58992198 13.1198031 28.302299043718012 
Si 15.935822819999999 13.41973458 30.071912679650342 
Si 15.71942646 15.85075644 27.725482847099702 
Si 14.82678333 13.63025025 28.008991016465902 
Si 15.58788471 12.28124277 32.135453281227576 
Si 12.94449012 14.16309615 34.21474242635481 
Si 15.335129069999999 15.50819403 31.380245285619353 
Si 13.387366349999999 14.0364414 31.849434972823936 
