&CONTROL
  dt          = 30.D0,
  prefix = 'x.33_y.66_z3.17_struc3-scf',
  pseudo_dir = './',
  outdir='./',
  wf_collect= .true.,
  verbosity= 'high',
/

&SYSTEM
ibrav= 6, celldm(1) =30.783621515, celldm(3) =2.1190173891003106, nat=  432, ntyp= 1,
  ecutwfc     = 12.D0, nbnd= 1728,
  degauss     = 0.05D0,
  occupations = "smearing",
  smearing    = "methfessel-paxton",
/
&ELECTRONS
  electron_maxstep=200,
  conv_thr    = 1.D-8,
  mixing_beta = 0.3D0,
  scf_must_converge=.false.,
/
ATOMIC_SPECIES
Si  28.08  Si.pbe-hgh.UPF
K_POINTS {automatic}
1 1 1 0 0 0
ATOMIC_POSITIONS (angstrom)
Si 1.318005981 1.335988512 1.3035193826789455 
Si 4.04215173 4.0523004 1.1570630465995912 
Si 1.360487043 4.071017609999999 4.071146478080292 
Si 4.072027589999999 1.355534883 4.070145433075507 
Si 0.001073312262 -6.08568336e-06 5.430289444232009 
Si -0.00022268592899999997 2.7156733199999996 8.145365128761476 
Si 2.71581993 -0.000559813995 8.144916384448987 
Si 2.71551042 2.7152660699999998 5.43025492543874 
Si 1.357455474 1.357766613 6.787430320374155 
Si 2.7183122999999996 2.7162271799999997 10.86492825641584 
Si 1.347876954 1.351475415 12.250374543038111 
Si 3.81407544 1.5577377659999998 15.138561975808825 
Si 2.76920226 0.0167777226 13.688013245082269 
Si 2.2680567 2.38775562 16.772094829651405 
Si 0.232226982 3.4041375899999995 15.962560089919853 
Si 3.16262205 1.82619045 20.69163476769669 
Si 2.14542558 0.767117277 18.771009110240463 
Si 1.75226643 2.1927969 22.601697674412776 
Si 0.10744281269999999 0.563948397 23.143470134761 
Si 3.1518217799999997 2.6813502899999997 24.46264033830786 
Si 1.587608739 3.60606843 25.983641926095313 
Si 1.9932606899999998 3.1603577400000002 29.650055553103098 
Si 0.18874734299999998 1.7927144999999998 26.759900549116082 
Si 1.141671618 1.083682476 28.804793862338705 
Si 2.53431675 2.73852819 34.3630789920101 
Si 4.0358475 2.53366515 30.636671702301765 
Si 3.9458126699999996 1.425796911 32.88553656494763 
Si 0.562850451 3.63819231 33.25285104411714 
Si 2.71588509 5.42422791 2.6876021769671126 
Si 1.296050319 6.7306370399999995 1.2751069639396893 
Si -0.0051257625299999995 8.1513531 2.680346326622086 
Si 0.000920570706 5.43009231 5.429668105953176 
Si 2.7147284999999997 5.43012489 8.145330609968207 
Si 1.3573821689999999 6.787423979999999 6.787430320374155 
Si 1.3576395509999999 4.07357514 9.502954749216112 
Si -0.0025035449399999996 5.43305709 10.859819475012111 
Si 1.352431638 6.798338279999999 12.239017860052794 
Si 2.71402803 8.14508145 10.86316779795915 
Si 3.8011900499999998 6.95584629 14.731757997140212 
Si 4.06658673 6.36404688 16.97806846908421 
Si 2.50818759 5.28931413 13.61279679455033 
Si 0.061785689399999996 6.497201339999999 19.389275216471564 
Si 1.70676846 5.68002978 20.91686989377329 
Si 3.34722033 4.1384582100000005 20.10881946215228 
Si 3.6947349 4.106350620000001 17.72326017816338 
Si 3.08420199 7.29389637 21.94152575315378 
Si 0.551348082 4.26649761 22.395793072566505 
Si 0.179235612 4.94442225 24.643518815034508 
Si 2.74173732 4.5278380799999995 27.844204883264446 
Si 2.5131234599999996 6.91059267 28.231850931669072 
Si 0.23748213599999998 7.4242326599999995 28.7036192792689 
Si 0.72146781 4.4922118499999995 31.070952640412056 
Si 2.3757010199999997 6.00545511 31.947868064603615 
Si 1.023041322 7.8228326699999995 32.734689438364526 
Si 3.47912046 7.34154462 30.32313750304449 
Si 2.7847103399999997 7.93187793 34.45400149347919 
Si 3.9915224099999995 9.6128919 1.2251099437696749 
Si 1.355391531 9.50614353 4.069247944450527 
Si 2.69402391 10.87893441 2.700287833493266 
Si -0.000245231289 8.14436469 8.145227053588401 
Si 2.7151520399999995 8.145 5.430669150957961 
Si -0.0007979998589999999 10.86007059 5.431083376477183 
Si 2.7147610799999997 10.860217200000001 8.145813873073966 
Si 4.075253009999999 9.502038449999999 12.229490673110703 
Si 1.356440607 9.501354269999998 9.50278215524977 
Si -0.000372088035 10.8620091 10.863098760372614 
Si 0.08681380829999999 8.19279486 13.820461854853288 
Si 1.0252339560000001 10.113255539999999 15.102835024775986 
Si 2.8300617 10.95479694 13.732059225292804 
Si 1.1943599939999998 11.584291409999999 17.322911213835965 
Si 1.150359075 10.71549684 21.3133872720479 
Si 2.94503652 12.20643909 20.721666117840236 
Si 3.09435066 8.275417739999998 18.041281820545553 
Si 0.776601315 8.41922586 18.188608030215274 
Si 2.43006075 9.307177470000001 22.913402377626824 
Si 1.65763782 8.81082117 25.01618370716063 
Si 0.5939724959999999 9.73698912 29.32761550518256 
Si 0.606045015 10.681418159999998 26.0158134414215 
Si 3.4603869599999997 8.31133719 26.522066063496503 
Si 3.98448513 10.595032289999999 27.097977610387222 
Si 1.8599107499999998 11.208855779999999 27.93347048265664 
Si 1.6380898199999998 9.728273969999998 31.425564203658787 
Si 3.91882014 9.295383509999999 31.550280603737672 
Si 0.6064538939999999 11.64225123 32.22833325990972 
Si 2.71551042 16.2958644 2.695966080576057 
Si 0.00297567801 13.592082779999998 2.6968014353731533 
Si 1.520407602 12.458119589999999 1.2506573026676502 
Si 1.356756633 14.931023039999998 4.071664259979319 
Si 0.00035322584399999997 13.574668769999999 8.145192534795134 
Si 2.7146959199999996 13.57602084 5.430151369058935 
Si 1.357548327 12.21720678 6.7874648391674235 
Si 1.357707969 14.93227737 9.501504959898837 
Si 2.7106397099999997 13.576428089999999 10.860993113983238 
Si 1.380290796 12.208801139999998 12.234150710201943 
Si 0.397290294 13.52501685 16.20287992865476 
Si 3.98305161 12.7193949 15.034349738931393 
Si 2.44696977 14.62978836 15.513815777430082 
Si 3.3421867199999995 15.1497 17.789052998133034 
Si 0.20136231899999998 15.98001759 19.49452301714705 
Si 3.08420199 12.80014443 18.39723961672975 
Si 2.79205713 14.080847939999998 22.169694976658196 
Si 2.56710852 13.424719319999998 24.46129410537039 
Si 0.361203057 12.58185843 24.67033991740409 
Si 0.596052729 15.09258726 21.642834635001932 
Si 0.38468835 16.19687007 25.373004473176533 
Si 2.53210131 15.42459375 25.80614629110897 
Si 2.5065423 15.32489895 28.137200400527 
Si 1.26592848 13.397808239999998 28.690433100240348 
Si 0.0614962161 16.17818544 34.3397788065539 
Si 3.25513296 13.44232881 34.39383523681229 
Si 3.88350342 13.936420799999999 31.06743172349868 
Si 0.703892529 15.39409887 32.05853531582224 
Si 2.99252187 15.501694319999999 32.62657657784776 
Si 1.5599385449999998 13.37974263 30.998014430235838 
Si 5.42465145 2.72793969 2.692631565146325 
Si 6.912400859999999 1.484704809 1.3485042740663817 
Si 5.43090681 -0.001039225437 5.431152414063719 
Si 5.42996199 2.71485882 8.144950903242254 
Si 6.78727737 1.357571133 6.787913583479914 
Si 4.07248371 1.3564911059999998 9.501712072658448 
Si 6.776200169999999 1.356807132 12.204533585577618 
Si 7.1660198699999995 3.4749339299999997 15.061446991647122 
Si 5.63516712 0.8459006039999999 16.625873221366273 
Si 5.43326886 2.63233368 13.674136690188355 
Si 5.235801479999999 0.599499693 20.696156729614856 
Si 7.15363947 3.9104959499999996 19.837570784648847 
Si 6.24068271 3.16545651 17.38031596704139 
Si 7.15903146 1.92875229 21.151425094032366 
Si 7.50131694 0.842157162 24.437510656808435 
Si 4.16071035 0.797061555 25.50510789501487 
Si 6.920040869999999 2.88934101 23.272294271238835 
Si 5.24757915 0.835848045 29.528169694072222 
Si 7.789894289999999 1.231494678 26.724518786015924 
Si 5.5174392899999996 1.66879647 27.323523405603236 
Si 5.04872712 3.9654747 27.675407984181756 
Si 7.23702798 1.1814957809999997 30.780649589024446 
Si 7.63285869 3.4888293 30.849169393662308 
Si 5.556779639999999 0.32209891199999996 34.333565423765585 
Si 6.78398679 4.07585574 4.070939365320681 
Si 4.07232081 6.7894602299999995 4.068108824272669 
Si 6.80285061 6.769065149999999 1.1428999857215485 
Si 4.07228823 4.07279322 6.787223207614544 
Si 5.430222629999999 5.43005973 5.4308072261310345 
Si 6.787391399999999 6.787440269999999 6.78732676399435 
Si 6.7879615499999995 4.07232081 9.501677553865179 
Si 4.073216759999999 6.78895524 9.50212629817767 
Si 4.07372175 4.07088729 12.243298190418079 
Si 5.42947329 5.43264984 10.863305873132225 
Si 6.80387688 6.76316817 12.23442686054809 
Si 8.146042559999998 8.14472307 10.86182156502168 
Si 8.10846153 5.351313869999999 13.84241580737202 
Si 5.951225699999999 7.93611333 17.324706191085923 
Si 5.34562866 5.22959499 20.53899266386363 
Si 7.845654959999999 7.604009099999999 20.68345381369207 
Si 5.87145357 7.33449105 19.53380540388654 
Si 4.93054317 6.035966279999999 22.689755116040573 
Si 7.05472659 7.02683811 22.867457863786527 
Si 5.0119443 4.10213151 24.040751646980937 
Si 6.017623739999999 5.1520220100000005 25.94218485537991 
Si 7.484456789999999 7.318689749999999 30.133042508515164 
Si 5.60900538 4.177586789999999 29.93921948431285 
Si 5.69151423 7.513452989999999 26.125824835568032 
Si 5.570968229999999 5.25798846 34.25914290547882 
Si 5.48264385 6.3242667 30.71975843769891 
Si 4.4530344 6.86936268 32.91166729145184 
Si 7.5873607199999995 4.27544082 33.13852480081206 
Si 8.146433519999999 10.86024978 2.6705913156444234 
Si 5.4325521 8.15071779 2.6736048062967583 
Si 6.78672351 9.50159862 4.067349410820763 
Si 4.0723696799999995 9.50288553 6.787223207614544 
Si 5.43009231 8.14486968 8.14505445962206 
Si 5.431656149999999 10.860445259999999 5.429633587159907 
Si 6.78716334 9.50278779 9.502644080076696 
Si 5.426182709999999 10.8623349 10.862995203992806 
Si 6.78929733 12.23072748 12.22179298221184 
Si 7.95268026 8.74535166 16.320312863354008 
Si 4.4578725299999995 9.6304851 16.426147483515056 
Si 4.93059204 11.89124388 17.12156309270113 
Si 5.48503848 8.1554256 13.558395176359262 
Si 6.455319749999999 9.84479634 14.839042406618537 
Si 4.745896019999999 10.72404909 21.128573652888655 
Si 6.89117499 11.44445805 20.635403653462394 
Si 4.09265073 8.60302593 20.254212619398967 
Si 7.01844876 12.075825870000001 18.346496990625138 
Si 4.607528759999999 10.20754206 23.412475090701985 
Si 6.47123508 8.87288607 24.265745141504656 
Si 4.32137862 11.92159215 25.069756874313256 
Si 6.96184101 8.26704468 28.00803107611648 
Si 7.73141319 11.93139873 28.072477663148664 
Si 5.984555039999999 10.40077404 28.387979433622245 
Si 4.85544627 11.51755128 34.25786571012789 
Si 7.756271729999999 9.25749297 31.687699919739348 
Si 5.75950869 10.59478794 30.730459263612126 
Si 4.0721742 12.216815819999999 4.067314892027495 
Si 4.2373548 15.102621899999999 1.2463251941124605 
Si 5.44921677 13.590600389999999 2.686459604909927 
Si 6.82647111 12.298933709999998 1.0788331054153162 
Si 6.78589272 14.930827559999999 4.075116139306163 
Si 4.072516289999999 14.932863809999999 6.7876719519270345 
Si 5.42966877 13.57554843 8.144985422035523 
Si 6.787375109999999 12.21764661 6.787257726407812 
Si 8.14063428 13.57694937 10.859957550185184 
Si 4.07297241 12.218558849999999 9.502609561283426 
Si 6.787863809999999 14.933792339999998 9.5001242081681 
Si 4.07922777 14.942165399999999 12.226832726029034 
Si 5.4291312000000005 16.290325799999998 10.857127009137171 
Si 5.5426236300000005 13.71069027 13.616593861809859 
Si 6.7344814799999995 15.39533691 15.023407281465296 
Si 7.41887325 14.40762534 18.43203456034434 
Si 5.47492239 15.79709718 18.586851348153314 
Si 5.0316877799999995 15.01799535 22.12413016954385 
Si 7.8068684699999995 12.82501926 23.969573895261405 
Si 5.62321026 15.71677119 24.2847304778023 
Si 6.97124034 13.50820557 21.831548877800515 
Si 6.03621063 13.60759086 25.341695927682057 
Si 4.69065663 14.89326282 29.048703655573533 
Si 6.59955141 13.9681863 27.605541946606422 
Si 7.30269297 16.17753384 32.7898504700075 
Si 7.7415129899999995 13.902602759999999 31.87165056906689 
Si 5.5938719699999995 12.60999126 31.94655635045941 
Si 12.12554295 1.285119729 1.3521321992388953 
Si 8.14166055 -0.0174669525 2.6994352192995357 
Si 9.50773995 1.355300307 4.069593132383212 
Si 10.867922369999999 2.7150380100000002 2.723128918998995 
Si 9.49516407 4.0353099299999995 1.4114700048673505 
Si 8.144739359999999 0.000443720052 8.144536677723032 
Si 8.14407147 2.71402803 5.428977730087808 
Si 10.85976108 2.71494027 8.144674752896107 
Si 12.19899456 1.352358333 12.224589004466583 
Si 9.501680069999999 1.355386644 9.503161861975723 
Si 8.14154652 2.71842633 10.863133279165881 
Si 10.86127605 0.0008878620149999999 10.859819475012111 
Si 8.18999298 0.15220952459999998 13.559948522056342 
Si 9.109547189999999 1.80278172 14.998174043586063 
Si 10.811982509999998 2.68152948 13.64828211403029 
Si 9.14758434 0.5939089649999999 21.258536909544347 
Si 11.15013033 1.87484868 20.91901005895593 
Si 11.88588447 3.6442684799999996 19.420721837139116 
Si 10.82463984 1.6862430599999998 24.735856587027595 
Si 11.27383659 3.16325736 22.960175342505565 
Si 9.52629426 0.040591096199999996 23.56618727712637 
Si 10.82151216 3.66169878 28.198333183405413 
Si 9.4770333 2.84361498 26.427967833046726 
Si 8.536188059999999 2.4330255299999997 34.45562387676281 
Si 10.402565939999999 0.409012578 34.48247949792565 
Si 10.870007489999999 2.21369697 31.659152877706347 
Si 10.619825669999999 0.0631553526 30.652791978758128 
Si 12.125836169999998 3.7327068899999998 33.04649769795838 
Si 10.87668639 8.114000129999999 2.724872118059052 
Si 8.13143043 5.4431405999999996 2.7017652378451555 
Si 9.50365116 6.787391399999999 4.073286643262936 
Si 8.1456516 8.145162899999999 5.429978775092592 
Si 9.502103609999999 4.07223936 6.78777550830684 
Si 8.14475565 5.430141180000001 8.145330609968207 
Si 10.859418989999998 5.428447019999999 5.43135952682333 
Si 9.50340681 6.78822219 9.502264373350744 
Si 9.50477517 4.08515733 12.247682077163173 
Si 10.85805063 5.42940813 10.863512985891836 
Si 9.212581440000001 6.9513339599999995 15.301663274002223 
Si 11.827093859999998 4.32396873 17.13733818122481 
Si 10.13949873 6.0092181 17.28041857932251 
Si 10.96820361 5.59240587 20.448415350327235 
Si 8.811733409999999 5.692882589999999 19.577161008231705 
Si 8.16743133 4.94634447 23.378094372606615 
Si 10.56479805 7.35946362 23.88289720536434 
Si 10.360032749999998 5.29884378 22.68657938705988 
Si 8.36245521 4.86179937 25.70369451268823 
Si 10.79404722 7.6081467599999995 29.02305619217508 
Si 9.738601829999999 6.74011782 26.011256960710064 
Si 11.428982549999999 5.87117664 27.54768844908851 
Si 9.82993986 4.10623659 30.326727457544408 
Si 9.65827584 6.46923141 30.77712867211106 
Si 9.09988722 6.30286164 33.119435908134605 
Si 10.8497916 5.26738779 34.42369399298949 
Si 9.60868908 9.42348807 1.287827139259111 
Si 11.36712942 10.451419649999998 0.1433914124250493 
Si 9.50311359 9.502413119999998 6.787568395547229 
Si 10.860217200000001 8.145114029999998 8.14526157238167 
Si 8.14527693 10.860038009999998 8.144640234102837 
Si 10.86031494 10.860347519999998 5.430496556991619 
Si 9.50962959 9.48710052 12.231941507432762 
Si 10.86297021 10.85950044 10.862442903300513 
Si 9.50213619 12.21790725 9.503299937148796 
Si 11.60561502 10.15301943 15.037318355152479 
Si 10.73776527 8.1974538 13.87479443545782 
Si 8.188836389999999 10.93015017 13.548591839071024 
Si 9.46491354 12.13525179 15.183229294298194 
Si 8.66210976 9.82591623 20.998092614333935 
Si 12.13518663 9.88390863 20.168571493299954 
Si 10.11428181 10.94976333 19.490173649195228 
Si 8.822664 10.82379276 17.37513814805112 
Si 11.924165969999999 10.72088883 22.38208911163893 
Si 9.91217178 9.55403613 23.028039290071327 
Si 8.2756458 10.5081903 24.46978572851443 
Si 11.50860807 11.404319489999999 26.358516020990614 
Si 11.8299609 9.48048678 29.989064621792483 
Si 9.247099949999999 10.7491194 26.59603983747078 
Si 9.21600234 8.54159634 27.444235625662984 
Si 8.17293735 8.28972036 34.07256882786288 
Si 9.79620327 10.27239255 30.996909828851248 
Si 10.37990655 11.7652896 32.91453235129312 
Si 9.501973289999999 12.21500763 4.068177861859206 
Si 9.41180814 14.842747529999999 1.2013403027250242 
Si 10.86378471 13.577829029999998 2.684599041952758 
Si 8.14576563 13.577877899999999 5.429978775092592 
Si 9.50246199 14.93263575 6.787706470720303 
Si 10.860298649999999 13.57476651 8.144571196516301 
Si 10.8598914 16.290325799999998 5.430600113371424 
Si 12.20645538 12.238791029999998 12.227454064307864 
Si 9.49521294 14.94087849 12.231182093980856 
Si 12.07266561 14.9696955 15.068972088579642 
Si 8.511671609999999 14.32905867 16.20363934210667 
Si 10.77774093 13.56556266 13.679694215904576 
Si 10.06557471 16.11861291 15.968738953914906 
Si 12.00838527 15.97460931 17.262261694063312 
Si 8.571960899999999 14.67686646 20.46981700215367 
Si 10.442313539999999 13.296728789999998 20.166258734150972 
Si 12.07362672 14.81590161 19.343158108664923 
Si 9.888958529999998 13.96992933 23.980827021866915 
Si 11.35171908 13.05311184 22.320438546861492 
Si 11.3976243 13.68136827 25.7580961308793 
Si 8.45954361 15.67848969 30.01360748380635 
Si 8.941206329999998 12.23071119 30.058965178161085 
Si 11.012528699999999 13.14555759 29.49068228458269 
Si 10.73256876 14.74525188 27.731949767555463 
Si 8.44206444 15.46818579 27.686005253715166 
Si 12.20997402 16.19024004 28.90607200178832 
Si 8.52932997 13.299498089999998 34.103704779391016 
Si 11.55136932 13.57437555 31.82950312248612 
Si 11.666588489999999 15.80068098 32.69930767526437 
Si 16.288370999999998 2.71397916 2.709704560296897 
Si 14.934671999999999 1.358023995 4.069386019623601 
Si 14.83541703 4.02496578 1.388611659964987 
Si 13.57492941 -0.00017726126399999998 8.144778309275912 
Si 13.57387056 2.7156244499999995 5.430393000611814 
Si 12.21712533 1.3576085999999998 6.78777550830684 
Si 16.2917919 -0.0015120035909999999 10.864168842963934 
Si 14.93175609 1.3571899469999997 9.503127343182454 
Si 13.57545069 2.71482624 10.861752527435144 
Si 16.13561967 2.65453695 13.674965141226798 
Si 14.213725469999998 0.48600726299999997 17.023702313785094 
Si 14.26510413 1.80926514 14.973216956052978 
Si 12.577916249999998 3.6390393899999998 14.928549637563613 
Si 12.92357376 0.23719543199999998 21.062642757745927 
Si 14.24760867 3.3502991399999997 19.469289779267815 
Si 14.515872389999998 0.999710784 19.346920657131182 
Si 14.14810935 1.334410011 22.991518406793315 
Si 13.53420441 3.58463079 23.210125924562366 
Si 13.07080278 0.8982452609999999 25.092573796663697 
Si 14.166549629999999 2.34377262 26.668149596608554 
Si 12.71240649 2.22988923 28.587394502334046 
Si 13.571899469999998 2.59315623 34.493801662117704 
Si 13.12193709 2.95300233 30.88827918643545 
Si 15.322976729999999 1.7175035699999999 33.131793636124705 
Si 15.84735183 0.4265389889999999 30.45972836800772 
Si 12.215463749999998 4.074128999999999 4.074046056714842 
Si 13.562728199999999 5.44879323 2.708165022117125 
Si 12.248825669999999 6.87635109 1.2254068053917835 
Si 14.93072982 6.78662577 4.069420538416869 
Si 13.57520634 5.4298316699999996 8.144709271689376 
Si 14.93289639 4.0723696799999995 6.787637433133765 
Si 12.21732081 6.787684619999999 6.787361282787618 
Si 12.217614029999998 4.07191356 9.502195335764206 
Si 14.93030628 6.784377749999999 9.50122880955269 
Si 14.931055619999999 4.0782340800000005 12.224899673606 
Si 12.20160096 6.806352959999999 12.249960317518891 
Si 13.8409614 5.69887731 16.84140856653444 
Si 13.614269759999999 5.4433035 13.621253898901099 
Si 15.43723479 6.17796621 14.987404180086308 
Si 12.222077489999998 7.375965389999999 17.487048075827417 
Si 14.67601938 4.511043089999999 21.453430016337983 
Si 14.45050062 6.80977386 20.860293591606307 
Si 12.31857945 7.49097279 19.868430585830833 
Si 15.56243973 4.6870565399999995 18.053466954569316 
Si 16.19561574 7.294727159999999 24.739964323426538 
Si 14.59194669 7.922152799999999 23.021860426076273 
Si 12.758051069999999 7.7192608499999995 24.554322253228847 
Si 14.273917019999999 4.30621263 25.31259658495676 
Si 13.34962242 6.23690343 26.282816307352917 
Si 15.1487226 7.60902642 26.84260757778727 
Si 12.944718179999999 5.259861809999999 30.03062524888769 
Si 16.06039245 5.557789619999999 34.372537141365655 
Si 15.29686386 5.98310523 30.246229631642393 
Si 15.007048469999999 7.1108293499999995 32.415528675804495 
Si 12.2183145 9.5044005 4.072492711017762 
Si 14.977791629999999 9.60386724 1.1462414049099339 
Si 13.592978729999999 10.85704065 2.7067877222657137 
Si 13.574717639999998 8.14480452 5.430082331472398 
Si 14.9325543 9.502804079999999 6.7874648391674235 
Si 13.57533666 10.85977737 8.144916384448987 
Si 12.217809509999999 9.502673759999999 9.502264373350744 
Si 13.5782037 8.14506516 10.861165707949581 
Si 14.92365996 9.48846888 12.253377678052466 
Si 14.931918989999998 12.21745113 9.50254052369689 
Si 13.0683267 9.610676459999999 16.806026803434285 
Si 13.383277559999998 10.770882839999999 13.61234805023784 
Si 15.328661939999998 11.476223549999998 14.826166896729408 
Si 16.25737113 10.372038479999999 19.150853911366422 
Si 13.860900359999999 10.880433089999999 18.860619897565343 
Si 14.06877705 10.238900309999998 23.2126112776777 
Si 15.77538261 11.76444252 22.64878130843093 
Si 13.09173543 9.97998705 25.328854936586197 
Si 14.84421363 9.928478069999999 26.867806296873237 
Si 12.290234850000001 11.360417939999998 28.597922734280925 
Si 14.67212607 11.43328311 28.73354707303264 
Si 13.15959957 8.79379812 34.28496296284362 
Si 13.628051099999999 9.18596358 31.780624511218 
Si 14.78451078 11.2839201 31.191768416851612 
Si 16.133844059999998 11.506799879999999 34.465151063704894 
Si 12.33978903 12.23310582 1.2877442941552666 
Si 12.21930819 14.93289639 4.070732252561071 
Si 14.933694599999999 12.21240123 4.071388109633171 
Si 14.865716429999999 14.848041779999999 1.1914541203329418 
Si 13.57056369 16.2725697 2.6926902470948817 
Si 13.57520634 13.574799089999999 5.429840699919518 
Si 12.218004989999999 12.21666921 6.787568395547229 
Si 14.932994129999999 14.93235882 6.787292245201081 
Si 12.216213089999998 14.931951569999999 9.501194290759422 
Si 13.5757602 13.574310389999999 10.861338301915922 
Si 14.93375976 14.92553331 12.2572783016918 
Si 13.463603549999998 16.27507836 13.652838594741725 
Si 16.2334737 13.35086046 13.70440967188478 
Si 15.265114649999997 14.63962752 17.80986783047391 
Si 14.986946609999999 13.625672759999999 21.52460776805751 
Si 13.94559207 13.290880679999999 19.352788851986816 
Si 13.13066853 14.58174915 22.586371330201587 
Si 13.258137779999998 14.83867503 24.940691106282543 
Si 15.364125269999999 14.260005360000001 25.790578315344902 
Si 14.23016208 15.09591042 29.673700926491982 
Si 15.306768179999999 13.643852399999998 28.083178489061883 
Si 14.11722351 13.033661579999999 34.331183627030065 
Si 13.87432332 13.432782869999999 31.743896515180374 
