&CONTROL
  dt          = 30.D0,
  prefix = 'x.33_y2.00_z3.19_struc38-scf',
  pseudo_dir = './',
  outdir='./',
  wf_collect= .true.,
  verbosity= 'high',
/

&SYSTEM
ibrav= 6, celldm(1) =30.783621515, celldm(3) =2.1298470991719882, nat=  432, ntyp= 1,
  ecutwfc     = 12.D0, nbnd= 1728,
  degauss     = 0.05D0,
  occupations = "smearing",
  smearing    = "methfessel-paxton",
/
&ELECTRONS
  electron_maxstep=200,
  conv_thr    = 1.D-8,
  mixing_beta = 0.3D0,
  scf_must_converge=.false.,
/
&IONS
/
ATOMIC_SPECIES
Si  28.08  Si.pbe-hgh.UPF
K_POINTS {automatic}
1 1 1 0 0 0
ATOMIC_POSITIONS (angstrom)
Si 2.04366195 3.1397020199999996 0.17780739614976812 
Si 1.249653141 1.2002472 1.2081739239518305 
Si -0.00264380184 -0.0009622356389999999 5.429800246922579 
Si -0.0005645771909999999 2.71534752 8.145116712894813 
Si 2.71461447 0.00020096158499999998 8.145220798522551 
Si 2.71322982 2.7143049599999998 5.430841103199944 
Si 1.3574913119999998 1.35767376 6.787527870327187 
Si 0.0021867695999999996 0.000809663499 10.860676045331768 
Si 2.71805166 2.71459818 10.863694528536127 
Si 1.3671952649999999 1.324916199 12.223122217193767 
Si 0.1139382873 3.59043003 17.01546738464856 
Si 1.5269252309999999 3.5186725799999996 14.976256461243608 
Si 3.61835109 1.9067119199999998 14.975978899569647 
Si 2.2047863399999996 3.2921438399999996 20.508442270649695 
Si 2.8054963799999997 1.15989687 19.66201794589619 
Si 0.6783302609999999 0.08419095539999999 19.49326044812602 
Si 0.78951114 2.2109928299999995 22.193276326820985 
Si 1.9699985699999998 0.49311133199999996 23.30962937950457 
Si 3.73718664 0.512936262 21.77759302485051 
Si 2.6080289999999997 1.496373336 25.354773183690504 
Si 0.600895746 2.75092488 25.70758876650811 
Si 2.2670630099999998 0.304852689 27.39613521006867 
Si 3.5760622499999997 3.70191879 28.711638763821494 
Si 1.87310565 2.08204119 28.97341411757888 
Si 2.2761854099999996 3.0370913099999997 32.54473078605638 
Si 2.67022422 1.230255009 31.031638015650366 
Si 3.92935977 4.124057849999999 1.2742058461878885 
Si 1.360848681 4.07337966 4.069782739707766 
Si 2.69303022 5.438546819999999 2.722578173267321 
Si 1.1818395 6.56638497 1.2632803247964768 
Si -7.062008219999999e-05 5.42953845 5.430355370270506 
Si 2.7164878199999998 5.430238919999999 8.144873846430094 
Si 1.3580858969999998 6.787407689999999 6.787493175117942 
Si 1.358659305 4.0718483999999995 9.504301535087734 
Si -0.004317729659999999 5.4334317599999995 10.866990573414451 
Si 1.364984712 6.793663049999999 12.247651730130343 
Si 2.7254799 8.13665952 10.854188041202857 
Si 2.60934849 5.36551875 13.820003917927687 
Si 0.1261653984 7.65853173 15.886034238079416 
Si 1.87870941 6.77163897 17.703438688777812 
Si 3.3158295 7.93191051 21.313822162865755 
Si 1.134420939 4.6791558900000005 18.87245906909608 
Si 3.49073523 6.06159045 22.724945713299206 
Si 1.472272281 6.11539632 24.002562098555927 
Si 1.3650987419999998 4.93802028 26.099679326191637 
Si 3.1791238199999996 5.350092119999999 30.335790899022385 
Si 1.2949507439999999 6.6382075799999996 29.67460429643067 
Si 3.51551232 5.2751255399999994 26.93777680072622 
Si 3.56808015 7.618979609999999 27.583177083111227 
Si 0.14421618449999998 5.25966633 28.115575068983606 
Si 0.240722217 4.71751884 34.68785386115164 
Si 2.9168874 7.698132719999999 34.64091124304246 
Si -0.001049784615 6.398304749999999 31.596406631748806 
Si 0.13564210589999998 4.139289 32.36219929021574 
Si 3.89353806 9.2854629 1.4191381437691646 
Si -0.01577557809 8.14037364 2.682782768262719 
Si 4.073428529999999 12.22165395 4.073807383980245 
Si 1.359258777 9.50479146 4.070268472637204 
Si 2.70404226 10.8527238 2.704394414101748 
Si 1.3087385999999999 12.0853881 1.2088608890948918 
Si -0.000405741546 8.1454887 8.145116712894813 
Si 2.7146633399999995 8.14464162 5.430355370270506 
Si -0.0024757867799999997 10.859418989999998 5.430979884036926 
Si 2.7146633399999995 10.860168329999999 8.144873846430094 
Si 4.07502495 9.47346579 12.221630323196209 
Si 1.356409656 9.50086557 9.504752572807927 
Si -0.00790297947 10.869307019999999 10.859461713008175 
Si 1.350895491 12.204028169999999 12.236826824845743 
Si 0.492668244 8.57572389 13.607912103809873 
Si 3.89829474 11.46842064 14.89694321290837 
Si 2.32738488 10.37928753 13.508753195786202 
Si 0.574636266 9.98748045 18.52654783291833 
Si 2.9552992199999997 11.37561651 21.298001147449803 
Si 1.8313706699999999 8.308486440000001 19.490380745758646 
Si 0.013681840679999998 12.07991466 19.269129396400015 
Si 2.73709467 9.610676459999999 22.85827940242971 
Si 0.9442368179999999 8.45104023 23.913464801213454 
Si 0.11761884989999999 9.405341009999999 25.955937074287483 
Si 0.5457394349999999 9.72646578 29.733412676101814 
Si 3.34358766 11.403700469999999 27.723935547020265 
Si 1.82754252 9.46387098 27.716163820149273 
Si 1.090911978 8.44833609 33.28543880823881 
Si 0.0784935279 10.57276386 34.37760930007827 
Si 2.06702181 9.77615028 31.632073306853194 
Si 3.2305187699999998 11.57077071 33.06255678404564 
Si 2.7198109799999997 16.2872307 2.6811659715118785 
Si 4.0550697 14.889450959999998 1.1887029725232494 
Si -0.01270183428 13.559942609999998 2.6771309186766254 
Si 1.356966774 14.93289639 4.063815163717538 
Si -0.0007026561179999999 13.575222629999999 8.144388113500659 
Si 2.71311579 13.57095465 5.430598236735225 
Si 1.357431039 12.21740226 6.787527870327187 
Si 1.3531532849999999 14.929784999999999 9.501491223138848 
Si 2.71337643 13.57962093 10.862237329747817 
Si 2.73797433 16.28354916 13.762375175370892 
Si 1.180265886 14.831279369999999 15.353150519277603 
Si 2.76239304 13.95616428 17.48312411006881 
Si 2.28898935 13.63235166 21.652204538637232 
Si 1.418671665 14.089351319999999 19.464185862778283 
Si 0.849326391 14.64011622 23.287216274331968 
Si 1.086109686 13.29896052 25.29672809862276 
Si 3.3957645299999997 12.37113099 25.4974051888988 
Si 1.108141911 13.976119529999998 29.35658800848631 
Si 3.2885437499999997 13.35947787 29.087700136833593 
Si 0.6425492759999999 14.84194932 27.21977946147374 
Si 2.5523986499999998 13.497128369999999 34.44307915992455 
Si 1.187721819 15.67378188 31.036391259317003 
Si 0.8570331899999999 14.475000779999998 33.05339724880483 
Si 4.07241855 1.359837072 4.067492855897562 
Si 5.42774655 2.7111609899999998 2.6725129863260473 
Si 6.78700044 1.187876574 1.1779648052617635 
Si 5.428300409999999 -0.0029510475299999997 5.4301125038057885 
Si 5.42971764 2.7152660699999998 8.145324884150288 
Si 6.78791268 1.356984693 6.787631955954924 
Si 4.06872072 4.0878451799999995 12.249941613940548 
Si 8.142377309999999 2.72116305 10.864180261465565 
Si 4.06901394 1.354049235 9.502358603369984 
Si 5.4291312000000005 0.00425944404 10.86081482616875 
Si 6.778057229999999 1.337306373 12.224336549517359 
Si 7.1311592699999995 3.10912569 15.600943703709046 
Si 5.50632951 2.74602159 13.643509388495769 
Si 4.179313529999999 1.3267341629999998 17.373626029689976 
Si 6.14025486 2.5859397599999996 17.896344052182858 
Si 7.11095967 1.82816154 21.41967724627381 
Si 8.05118589 3.96650097 20.968466050035932 
Si 7.23310209 0.9251661149999999 19.20386770780921 
Si 4.79962044 2.56236813 24.86609116146747 
Si 5.06299716 2.27416545 22.52440740386015 
Si 6.532452899999999 1.340624646 25.971688699284943 
Si 4.78981386 0.534680154 30.20280416198434 
Si 5.62104369 2.6823439799999997 29.419316946802198 
Si 7.32435867 2.82357828 27.689309728193248 
Si 6.13292436 3.95682471 31.408358597638134 
Si 6.7924413 4.07061036 4.068741883430401 
Si 4.072304519999999 6.78779865 4.073113479795335 
Si 6.62066325 6.680203199999999 1.2342785993881535 
Si 5.442000299999999 8.13582873 2.716541206858602 
Si 8.13019239 5.421035069999999 2.6872272245670694 
Si 4.071995009999999 4.07279322 6.787805432001152 
Si 5.4283655699999995 5.4288054 5.429696161294842 
Si 6.7874728499999994 6.78776607 6.787458479908696 
Si 6.78599046 4.07124567 9.502670860253195 
Si 4.07253258 6.79029102 9.5003115860245 
Si 5.427828 5.42789316 10.867025268623696 
Si 6.79410288 6.79631832 12.238457499680283 
Si 4.19356728 7.013594339999999 17.16458739398577 
Si 4.548151709999999 6.214651289999999 15.014317105785935 
Si 5.352063209999999 7.995083129999999 13.731496439142386 
Si 4.21554249 4.156523819999999 21.392059859714383 
Si 5.53978917 7.957404359999999 20.548064199608067 
Si 5.99542047 4.26853386 19.716454729202397 
Si 5.92898985 6.40602621 18.819479484578185 
Si 6.89731632 7.40981601 22.535613956446447 
Si 5.233976999999999 6.8286051 24.146928864226503 
Si 5.31106128 4.863851909999999 25.45327288273851 
Si 4.76730108 6.89036049 29.582904858394784 
Si 7.4430964799999995 4.9360329 26.469009828610112 
Si 8.01707463 7.01248662 27.496092107904992 
Si 4.60930437 5.970024359999999 34.482492917627454 
Si 6.84100179 6.077326589999999 30.57955943918135 
Si 7.22116152 7.85800278 32.403833541310355 
Si 4.08743793 4.57460667 32.4464045630546 
Si 6.79025844 9.5029344 4.070719510357395 
Si 6.51854124 12.00113622 1.3066736229998384 
Si 4.0725814499999995 9.502347959999998 6.787874822419643 
Si 5.43045069 8.14485339 8.143624818897257 
Si 5.428104929999999 10.85876739 5.430737017572207 
Si 8.1376695 8.15088069 10.854292126830593 
Si 6.7873262400000005 9.4998393 9.498958472863926 
Si 5.43664089 10.85963076 10.860884216587241 
Si 8.03258271 10.684757609999998 13.627792458707553 
Si 5.968867769999999 10.873021139999999 17.2064645115451 
Si 6.010407269999999 9.934766009999999 14.894410462633447 
Si 5.3482676399999995 11.55247704 21.034005300300702 
Si 6.19914321 9.9919602 19.469979962722284 
Si 7.904103479999999 9.450350279999999 23.193088171648895 
Si 6.14413188 11.001207149999999 23.22202397615965 
Si 4.23854397 10.35481995 24.47001065272071 
Si 4.95268128 8.56111176 25.866874472154255 
Si 4.71908268 10.49781357 29.562469380149174 
Si 7.00702947 10.353451589999999 29.08915733562191 
Si 7.019035199999999 9.124859789999999 26.988848148735613 
Si 5.1212501999999995 8.64995742 33.162617767509694 
Si 4.959523079999999 10.6101657 34.52221893221356 
Si 4.11749298 8.6933214 30.940389615334674 
Si 7.46761293 13.774823999999999 0.03787086174775337 
Si 5.41060947 13.5713619 2.698319282962859 
Si 6.789443939999999 14.93540505 4.074189031281946 
Si 4.07240226 14.932538009999998 6.787493175117942 
Si 5.43009231 13.574880539999999 8.144526894337641 
Si 6.787423979999999 12.2175 6.7877013463734155 
Si 4.071506309999999 12.21738597 9.503295374019613 
Si 6.78678867 14.932114469999998 9.502358603369984 
Si 4.064794829999999 14.92219386 12.23863097572651 
Si 6.796921049999999 12.203132219999999 12.22912448839324 
Si 7.365604949999999 12.636918629999998 16.276043085208215 
Si 4.78934145 15.323628329999998 17.0518626591471 
Si 5.06648322 13.172778179999998 13.52807842733595 
Si 6.18762618 14.468843159999999 15.199311961483003 
Si 7.76399319 15.94722582 13.589176690817297 
Si 4.3908391799999995 12.5371098 16.856840887978077 
Si 5.91226002 13.82502978 20.77639337165278 
Si 6.370790939999999 15.028225469999999 18.777984014320552 
Si 7.807063949999999 14.079284099999999 22.11260996532517 
Si 4.331364389999999 14.64383034 22.32463238902449 
Si 6.876481409999999 13.078442789999999 24.02247714866285 
Si 4.88750499 14.13383931 24.696986711604843 
Si 5.71956561 15.465937769999998 26.58843073883316 
Si 7.3656538199999995 12.685251059999999 29.410192106770626 
Si 7.510357889999999 14.25314727 27.59396729318658 
Si 4.14020124 15.47846478 28.328811825006518 
Si 4.170256289999999 12.31054848 31.00974533861645 
Si 6.31574703 13.34613636 31.552690668099466 
Si 6.11995752 15.791135039999999 31.97576404963923 
Si 5.8075804799999995 15.748895069999998 34.43971372462774 
Si 12.026792969999999 1.2254282819999998 1.3010495295811408 
Si 9.50236425 1.3601840490000001 4.073668603143264 
Si 10.32709437 0.1390209777 0.043590366991875976 
Si 10.854287639999999 2.7104116499999997 2.7134776198822235 
Si 9.507381569999998 3.9950410499999998 1.2683701119927935 
Si 8.1445113 9.80630307e-05 8.144977932057833 
Si 8.14377825 2.71270854 5.43132683612938 
Si 10.85886513 -0.000205778538 5.4315697025941 
Si 10.86064074 2.7157547699999998 8.144769760802358 
Si 9.502168769999999 1.356007293 9.501942260859039 
Si 10.86077106 0.00474956127 10.861543425562905 
Si 9.500018489999999 4.0833002700000005 12.221109895057527 
Si 8.855748989999999 1.361308059 14.892502226124945 
Si 10.56124683 2.43854784 13.542407548754348 
Si 11.63550717 4.012650539999999 14.88063646456298 
Si 10.4832666 2.83791348 17.621211042865944 
Si 10.42990056 0.23908181399999998 21.574834222019742 
Si 11.40959745 2.32626087 21.151379193178272 
Si 10.105257149999998 3.7770971399999995 19.765270888610836 
Si 9.482783669999998 0.806910489 18.307586367369908 
Si 8.26103367 0.1276065747 22.438640846605242 
Si 11.74829913 3.3277700699999997 23.198743490755916 
Si 8.45281584 0.948022614 24.614724370483735 
Si 10.032636329999999 2.73877254 24.76172797205697 
Si 11.04745446 1.7536184999999997 26.745426560669102 
Si 9.54453906 0.611855658 30.070268462666483 
Si 9.5185728 2.3809952699999997 28.45659428065774 
Si 8.299771289999999 0.623959128 32.07287594031742 
Si 8.3683359 3.04953687 32.387561488174214 
Si 8.65733679 2.1224892599999996 34.63976630113736 
Si 11.791483920000001 0.1078932312 30.871172672889877 
Si 12.21688098 4.07176695 4.07144810975155 
Si 12.200737590000001 6.741649079999999 1.2971359099782471 
Si 9.5047263 6.78779865 4.070858291194377 
Si 11.26334583 5.0043694499999996 0.0072998026348371665 
Si 9.50312988 4.07207646 6.787250308653223 
Si 8.145114029999998 5.4297990899999995 8.14553305540576 
Si 10.85783886 5.42875653 5.430702322362962 
Si 10.86748254 5.4244885499999995 10.855541154363433 
Si 9.50075154 6.784508069999999 9.502670860253195 
Si 9.77696478 6.560536859999999 16.931504978274422 
Si 10.34230923 7.73177157 13.589141995608053 
Si 8.97406326 4.77376821 15.619262774190677 
Si 8.679768119999999 5.96402964 13.502820315005218 
Si 10.40662215 6.10586667 19.51831038920128 
Si 8.29118646 7.05049119 18.718898072975446 
Si 9.2346381 4.967277119999999 24.817240306849786 
Si 8.65893321 5.7752937 22.554522845485252 
Si 10.682867969999998 6.89808195 21.718507083505404 
Si 11.21532291 6.25065219 25.60964419080803 
Si 10.47732075 4.48584246 28.965954647591094 
Si 8.948878919999999 6.25781979 29.482531618047517 
Si 9.979547219999999 7.95678534 26.577536443130068 
Si 11.0056869 4.053831659999999 31.204003815182073 
Si 10.69392888 5.809681889999999 32.59587152448426 
Si 8.33515317 7.61945202 34.52860285071474 
Si 12.113716409999999 7.16751855 31.34476227909111 
Si 9.3672387 9.353164139999999 1.2041805053676722 
Si 10.841369669999999 8.13437892 2.694284230127606 
Si 8.13491649 10.846272959999999 2.6851524510541878 
Si 11.105593469999999 10.49370849 0.10784658841874852 
Si 8.14350132 8.14275198 5.429973722968806 
Si 9.50246199 9.50229909 6.787527870327187 
Si 10.860445259999999 8.14442985 8.145012627267077 
Si 8.14400631 10.8600543 8.14421463745443 
Si 10.85860449 10.85860449 5.430459455898243 
Si 9.49824288 9.47946051 12.2209364190113 
Si 10.865006459999998 10.86222087 10.864665994395 
Si 9.88742727 10.165448699999999 17.196298815236165 
Si 9.319085459999998 11.70223101 15.322202392630606 
Si 10.813481190000001 8.36659287 15.848771583349738 
Si 11.43404874 9.244542419999998 21.669066410330547 
Si 9.3203235 10.24867431 21.439973943682435 
Si 8.48915883 9.40723065 19.302922530205144 
Si 11.54210031 11.536089299999999 18.325350314503606 
Si 11.87969427 11.88511884 24.44527296852866 
Si 8.78423589 9.61813728 25.407926244254625 
Si 9.951023430000001 11.6322003 25.810425366711808 
Si 10.154127149999999 8.133597 30.27399873135613 
Si 10.70440335 11.51088867 28.045247879842954 
Si 11.00806524 9.16107246 28.350392245157227 
Si 12.17035674 9.03792006 32.707902355138025 
Si 8.3396655 9.47460609 30.98455661670421 
Si 10.25929539 10.70588574 32.54806152614395 
Si 8.13353184 16.286448779999997 2.717769417265893 
Si 9.50598063 12.21735339 4.068950054685874 
Si 9.25596171 14.748656489999998 1.3594068715320915 
Si 10.84843953 13.573056059999999 2.7039156202141603 
Si 8.143485029999999 13.57546698 5.430841103199944 
Si 9.50252715 14.932928969999999 6.7877013463734155 
Si 10.86039639 13.57496199 8.145428969778024 
Si 9.49765644 12.21425829 9.502774945880931 
Si 8.14620546 13.577991929999998 10.860537264494786 
Si 9.49231332 14.908819770000001 12.251051860636403 
Si 11.69332038 15.122951819999999 15.251562946606745 
Si 9.580425929999999 15.884558189999998 16.300607293354037 
Si 10.715692319999999 13.39753131 13.852652109827712 
Si 9.98005221 13.26304107 19.11341729730616 
Si 9.593865179999998 12.65464215 21.361354599532106 
Si 10.69663302 15.500798369999998 19.5100182341916 
Si 8.30798145 14.168585879999998 17.677625453099147 
Si 11.64721968 13.26550086 22.474411607337366 
Si 11.326420709999999 15.395499809999999 23.37867284590314 
Si 9.74128968 15.337572569999999 25.12023356919084 
Si 8.490445739999998 13.41470097 25.642222992289568 
Si 9.703871549999999 12.970945079999998 29.605317963567384 
Si 11.14294644 15.686276309999998 26.921955785310264 
Si 9.531718829999999 15.09542172 28.580074530362513 
Si 10.91324115 12.82975965 31.65622117248807 
Si 11.43178443 15.0107463 32.91048768192256 
Si 16.26765012 2.69821044 2.6829631833507954 
Si 14.933971529999999 1.361777211 4.07207262351797 
Si 14.69660994 3.9079221299999998 1.1796579314729445 
Si 13.57514118 -0.000271601541 8.145012627267077 
Si 13.574473289999998 2.71350675 5.429834942131824 
Si 12.2170113 1.358326989 6.7877013463734155 
Si 14.930843849999999 1.3549191209999998 9.502289212951494 
Si 13.57561359 2.7188987399999998 10.860780130959503 
Si 12.19280436 1.3585892579999999 12.20962578079726 
Si 14.92975242 4.065495299999999 12.226661128536808 
Si 16.16148819 2.52898992 13.542095291871139 
Si 12.73612473 2.81551473 16.69047735964585 
Si 14.557444469999998 1.4488342289999998 14.935628371217115 
Si 15.456766499999999 0.910207008 21.167408379849697 
Si 13.652355779999999 2.42108496 20.427498347479915 
Si 13.73395239 1.31841486 18.435750470322827 
Si 15.96393936 1.283757885 17.711106330021067 
Si 15.66249291 3.1599504899999995 23.761326308671887 
Si 13.53720177 2.30482323 24.27904822103341 
Si 13.108432679999998 2.84791554 26.558419382835794 
Si 16.02331641 3.11007051 29.089330811668134 
Si 15.17553594 1.9569665699999998 27.273522340595036 
Si 12.71007702 3.0130635599999995 34.51555745203842 
Si 14.836117499999999 2.60402166 31.112928890912606 
Si 15.291292679999998 0.265404825 31.249246368038218 
Si 12.58166295 2.47060656 32.01326957083363 
Si 13.58713062 5.4305973 2.692275377512291 
Si 14.93460684 6.786365129999999 4.072384880401179 
Si 14.9325543 4.07220678 6.787319699071714 
Si 13.57492941 5.42872395 8.144318723082167 
Si 12.21692985 6.78753801 6.787146223025486 
Si 12.19787055 6.78498048 12.240573907444258 
Si 13.579506899999998 8.14249134 10.864457823139528 
Si 12.21525198 4.0723370999999995 9.499791157885818 
Si 14.930843849999999 6.78590901 9.502566774625459 
Si 14.327511119999999 6.39716445 15.416365190522924 
Si 14.13339948 4.70502441 17.134576037988403 
Si 13.35317364 5.21548785 13.59812805480264 
Si 15.817345649999998 5.5472337 20.42690852892274 
Si 13.588841069999999 4.82368077 20.230464254174656 
Si 15.87748833 7.905976829999999 20.169608857158025 
Si 12.65809563 6.370220789999999 18.453687893502757 
Si 15.917024159999999 5.2785464399999995 22.830072197313108 
Si 12.97255779 7.76151711 24.87528539191753 
Si 14.156058869999999 6.779344139999999 23.14930281758106 
Si 12.45318372 5.451155279999999 22.23962912637299 
Si 14.288382539999999 6.16923477 27.928082158220857 
Si 14.26647249 6.53290902 30.28399095161884 
Si 12.30062787 4.97525922 27.3302143125022 
Si 12.887426249999999 8.68186953 0.2037555961923938 
Si 12.21616422 9.50176152 4.068013284036245 
Si 14.84818839 9.549898469999999 1.2664549364424411 
Si 13.575043439999998 10.88527122 2.7077459713148646 
Si 13.575988259999999 10.860787349999999 8.145186103313305 
Si 13.57505973 8.14366422 5.430251284642771 
Si 14.932733489999999 9.50306472 6.787215613443977 
Si 12.215496329999999 9.501777809999998 9.504232144669242 
Si 14.95133667 9.49654872 12.22943674527645 
Si 14.932049309999998 12.21481215 9.499825853095063 
Si 12.206487959999999 12.199418099999999 12.261286947363828 
Si 14.91616656 9.231347519999998 16.9015283174863 
Si 15.263518229999999 11.491682759999998 17.15133382405398 
Si 13.14168057 8.632901789999998 15.31241834362337 
Si 13.423693049999999 10.43159472 13.706481193276373 
Si 14.810835419999998 11.90785968 14.846704549920869 
Si 14.516996399999998 11.741001209999999 20.77500556328296 
Si 12.82355316 10.20299715 19.89666164602359 
Si 13.96408122 8.39275461 18.8088974457583 
Si 15.463249919999999 8.58913056 22.362970595240782 
Si 14.74062552 10.73857977 22.93773143160193 
Si 12.6200259 9.81136926 23.644195282259037 
Si 15.659788769999999 11.588852609999998 25.054243281205878 
Si 16.16223753 12.103453709999998 30.105484100050678 
Si 14.634137789999999 8.854918199999998 30.043553151547442 
Si 14.418002069999998 8.20375803 26.668264415307082 
Si 13.039395659999999 11.89360593 28.01655494179691 
Si 13.3439535 9.55867878 28.227328337963396 
Si 14.13414882 10.061160119999998 32.060836702709224 
Si 12.232144709999998 12.28010247 1.2861271200846462 
Si 12.21548004 14.937213239999998 4.06867249301191 
Si 14.93364573 12.218298209999999 4.074778849839119 
Si 14.742352259999999 14.823948869999999 1.15700542935655 
Si 13.571541089999998 16.28231112 2.6852149024308294 
Si 13.574799089999999 13.572665099999998 5.429800246922579 
Si 12.21764661 12.21792354 6.787423784699451 
Si 14.93274978 14.932538009999998 6.787423784699451 
Si 12.21487731 14.93045289 9.502289212951494 
Si 13.57945803 13.57307235 10.864908860859721 
Si 14.918447159999998 14.93138142 12.246021055295804 
Si 13.16805408 12.41959374 16.7913710281318 
Si 15.36339222 15.90622389 16.149162704997376 
Si 13.378309109999998 14.741244539999999 16.908120407242947 
Si 13.27442778 16.193628359999998 13.632927349675889 
Si 16.25209317 13.50665802 13.713593711171704 
Si 13.578936749999999 13.90110408 21.097775094893954 
Si 12.988375379999999 15.40660959 19.15754960346645 
Si 14.931902699999998 15.319897919999999 22.52253386256089 
Si 13.410351539999999 16.18999569 24.127742413513737 
Si 13.62036222 12.64864743 25.867256119455956 
Si 13.94015121 12.95719632 29.94585144231208 
Si 13.80627999 15.390287009999998 29.80779920472419 
Si 13.308017759999998 15.001884539999999 26.155677393913894 
Si 14.832289349999998 15.90307992 27.651908292626587 
Si 16.17882075 16.100661329999998 34.45379997958141 
Si 13.43504718 12.32871183 32.1870578739444 
Si 13.12284933 13.69961307 34.29451427393527 
Si 16.084224719999998 12.33058518 32.566623463090295 
