&CONTROL
  dt          = 30.D0,
  prefix = 'x.33_y.66_z3.15_struc2-scf',
  pseudo_dir = './',
  outdir='./',
  wf_collect= .true.,
  verbosity= 'high',
/

&SYSTEM
ibrav= 6, celldm(1) =30.783621515, celldm(3) =2.102903110474409, nat=  432, ntyp= 1,
  ecutwfc     = 12.D0, nbnd= 1728,
  degauss     = 0.05D0,
  occupations = "smearing",
  smearing    = "methfessel-paxton",
/
&ELECTRONS
  electron_maxstep=200,
  conv_thr    = 1.D-8,
  mixing_beta = 0.3D0,
  scf_must_converge=.false.,
/
ATOMIC_SPECIES
Si  28.08  Si.pbe-hgh.UPF
K_POINTS {automatic}
1 1 1 0 0 0
ATOMIC_POSITIONS (angstrom)
Si 0.00470515473 2.7151520399999995 2.702420614121124 
Si 2.7043517699999997 0.008687636189999999 2.686080362994712 
Si 1.261471536 1.3797548549999998 1.1751860651307617 
Si 4.06622835 1.3626633869999998 4.069955756976848 
Si -0.000951705783 -0.000526137678 5.430238842886111 
Si 0.00037924749 2.71484253 8.144912932537462 
Si 2.71557558 -0.0001313329122 8.145461033204176 
Si 2.71432125 2.7157221899999997 5.431335044219539 
Si 1.357313751 1.358009334 6.78723332479509 
Si 2.71461447 2.7156896099999996 10.858251026813697 
Si 1.376674416 1.362127446 12.204489033138412 
Si 1.357106868 4.070985029999999 9.502352746238147 
Si 0.085566483 2.67924888 13.587826603341336 
Si 2.79906183 0.0622199808 13.550932577213146 
Si 1.1833609859999998 3.0219090299999998 15.676055887230197 
Si 1.0621943369999998 1.260269334 20.128757191031802 
Si 2.98066275 2.3203964699999995 21.101019261199188 
Si 1.340425908 0.901131849 17.817724986123675 
Si 2.47125816 2.2365518399999997 23.4054057455234 
Si 0.987053454 4.04451378 23.639650267960317 
Si 1.5078773339999998 0.33018200999999997 24.398427128442577 
Si 1.64299311 0.7028173889999999 26.75388974364621 
Si 0.32721234299999996 3.19259565 29.467262094214114 
Si 0.16509915 2.4865218899999997 27.25944409610658 
Si 3.91906449 0.6671325149999999 27.605569667136503 
Si 3.8829821399999997 0.794523573 31.2299538383665 
Si 0.213087861 1.163449719 30.672946535818344 
Si 2.0410229699999998 2.2943161799999996 31.70683567469939 
Si 1.83806586 3.21316992 33.89115385672156 
Si 1.360081422 4.06759671 4.073860974227186 
Si 2.73513987 5.4227781 2.694641010282952 
Si 1.468488114 6.77890431 1.2689010022513634 
Si 0.0009421484399999999 5.430222629999999 5.429142641552683 
Si 2.71458189 5.43038553 8.144741651079114 
Si 1.358654418 6.78688641 6.787438862545108 
Si 0.00176114448 5.43295935 10.861265580480623 
Si 1.3406588549999998 6.78488274 12.220109902139763 
Si 3.5852661 7.19609121 14.943964677958574 
Si 2.5881063299999996 5.41927575 13.654934678722137 
Si -0.001319613804 8.10743526 13.656030880055566 
Si 1.3799649959999998 5.391729359999999 15.805818720074749 
Si 3.1759961399999996 4.76414082 20.765410371711837 
Si 2.44830555 7.58296242 18.68619049253209 
Si 1.9496034899999999 5.355223469999999 18.21561181386641 
Si 0.043567604999999995 7.23508947 22.17481697987535 
Si 1.9374511499999998 5.84670906 22.495455869903065 
Si 3.47012838 7.22332809 23.56915081970422 
Si 3.9923531999999997 6.73936848 25.809135475689537 
Si 0.854645076 4.34670957 25.96815318161995 
Si 3.1651469999999997 4.60360287 26.36576595902932 
Si 0.412598007 7.432100729999999 28.411448928664505 
Si 4.00070997 4.8237948 28.5621423557192 
Si 0.423088767 5.21890875 34.14129329849318 
Si 1.538922816 6.42453165 30.436852173631266 
Si 3.48298119 7.531143929999999 31.32631678683316 
Si 0.0590378922 6.7943961 32.31409695712689 
Si 2.32841115 4.23287505 30.10610767756101 
Si 3.3683810399999996 7.4782014299999995 33.97086824743678 
Si 4.04899353 9.35565651 1.193948236078217 
Si 1.360324143 9.503309069999998 4.074683125227256 
Si 2.7074957399999997 10.82980377 2.6977549071957214 
Si 1.1929281029999999 12.067908929999998 1.3844132177613493 
Si -1.99619289e-05 8.14485339 8.14508421399581 
Si 2.71441899 8.145 5.430547149511138 
Si -0.000776081664 10.85894658 5.430033305136093 
Si 2.7152497799999997 10.860217200000001 8.14515272657915 
Si 1.356715908 9.50282037 9.5018389018631 
Si 2.71813311 8.14465791 10.864725465939257 
Si 0.000312173415 10.85925609 10.861197067897285 
Si 1.359597609 12.202448039999998 12.253920862017686 
Si 1.75891275 8.96671647 15.003502112880387 
Si 2.75045247 10.83413691 13.809156503818803 
Si 0.8480476259999999 8.83001079 17.32313264699759 
Si 1.084000131 11.24322768 17.553334927017488 
Si 2.19427929 9.30751956 20.329259266174134 
Si 2.95909479 11.15819388 18.98576176318299 
Si 3.27466467 9.31900401 22.4757927584847 
Si 2.00160117 10.91741139 23.741014635010746 
Si 0.42673446899999995 12.15330111 22.446024041023794 
Si 0.711131805 9.58485681 25.227155336514222 
Si 3.5131828499999997 10.903499729999998 29.87556283462441 
Si 3.69139545 8.5333536 27.261122654398395 
Si 1.5101025479999999 9.26830953 27.39598967470172 
Si 1.70254935 11.36124873 28.452556478668058 
Si 2.86959753 9.82181115 31.923027131426416 
Si 0.542362518 9.27990801 32.61980010398665 
Si 4.05241443 14.909324759999999 1.3102551975549384 
Si 0.00920705913 13.57953948 2.727362620085781 
Si 3.10884876 12.905166059999999 0.27569737586050075 
Si 1.3582325069999999 14.93289639 4.070435345060223 
Si -0.00030849024599999996 13.57486425 8.144947188829132 
Si 2.71459818 13.57455474 5.430375868052789 
Si 1.357175286 12.21743484 6.787712912878464 
Si 1.356968403 14.9335317 9.501496338946405 
Si 2.7151683299999996 13.57730775 10.86068322352224 
Si -0.0189755694 13.454155349999999 13.792713483817382 
Si 1.0995359040000001 15.363001259999999 14.737604776940733 
Si 2.89882179 16.001243459999998 16.604949492143835 
Si 0.0937930959 15.505946009999999 20.915076110016443 
Si 3.5091918 13.21061985 20.260609657668198 
Si 3.0922981199999997 12.798010439999999 24.854618164607018 
Si 1.7169985799999998 13.96825146 21.69649637929233 
Si 2.8921754699999997 14.834374469999998 23.547021255285642 
Si 3.9936726899999995 14.658442469999999 28.079848025302503 
Si 1.131358419 15.390319589999999 29.942499628546866 
Si 2.34007479 13.25250144 27.09552774046741 
Si 0.7921273139999999 14.97389832 27.650171358890358 
Si 3.38232528 14.89767741 30.302498997702987 
Si 0.46271745 13.613667029999998 31.331420974291937 
Si 3.96589824 12.79154331 31.17538356573678 
Si 2.13115554 12.33302868 32.47016862197372 
Si 5.44475331 2.7002629799999998 2.6995088293292064 
Si 6.80076549 1.25151183 1.356326484221421 
Si 5.43230775 0.000176865417 5.429211154136022 
Si 5.430206339999999 2.7147284999999997 8.144947188829132 
Si 6.787586879999999 1.357670502 6.787473118836778 
Si 4.07293983 4.05293571 12.261046170684969 
Si 4.0711479299999995 1.3593043889999998 9.5029693594882 
Si 5.43286161 -0.0018450379799999999 10.862224756647374 
Si 6.80760729 1.355725476 12.24333566789177 
Si 6.55398828 1.7753493599999999 16.998108951636155 
Si 4.85819928 0.7002956969999999 15.273544460112067 
Si 5.479548749999999 2.57035023 13.78271064664985 
Si 5.15369988 2.94098031 18.437455558718916 
Si 8.075653469999999 0.1587732543 17.776172104328417 
Si 6.290562689999999 0.561772053 21.277884495089474 
Si 4.5241728299999995 1.0584932489999999 19.851589535132838 
Si 4.146195959999999 3.01492062 24.88483221385963 
Si 6.4083231 2.83758768 21.93724959714648 
Si 5.283482309999999 1.4776756739999999 29.488192688424256 
Si 6.0060904200000005 3.6426068999999996 28.93971520250184 
Si 5.45315895 1.375193655 25.94688002449311 
Si 7.014506579999999 2.85985611 26.987723190583093 
Si 4.11428385 3.5288701199999997 33.33082369388145 
Si 5.37931638 1.60621029 32.79560339283518 
Si 7.805988809999999 2.8355188499999997 34.000362914564334 
Si 4.390920629999999 4.25269998 1.2866491869653978 
Si 6.7872285 4.075253009999999 4.070195551018536 
Si 4.071571469999999 6.785257409999999 4.071976878185356 
Si 6.81355314 6.97534542 1.2136798600799228 
Si 4.0720927499999995 4.0729887 6.787507375128448 
Si 5.42960361 5.42966877 5.430410124344459 
Si 6.787358819999999 6.78753801 6.787575887711787 
Si 6.78875976 4.07162034 9.502181464779797 
Si 4.0723370999999995 6.78682125 9.502181464779797 
Si 5.4296199 5.43146067 10.865102285147621 
Si 6.7744082699999995 6.801954659999999 12.231996835349124 
Si 8.07817842 5.38713558 13.564635093880998 
Si 5.17236822 4.88519181 16.7645838113243 
Si 6.75486027 4.165825409999999 15.057935360343427 
Si 5.32318104 6.01125435 20.634414312367177 
Si 6.494822999999999 4.11920343 19.9675813387262 
Si 4.25416608 7.0968199499999995 17.19741205657005 
Si 5.49367218 6.26062167 22.926194481356973 
Si 6.880505039999999 8.064397079999999 23.360084671644483 
Si 5.85048834 4.14927477 23.795310857307104 
Si 7.32786102 4.680361349999999 25.556906400126064 
Si 4.4220671099999995 7.142627429999999 29.10479627205778 
Si 6.74239842 7.00109991 28.816598090241197 
Si 6.33281895 6.61338162 26.47093277445508 
Si 5.32730241 5.84879418 33.99834179335583 
Si 7.475106329999999 5.132718359999999 30.092405160893158 
Si 7.295623109999999 4.993894979999999 32.57862404139976 
Si 8.147362049999998 10.8515835 2.723227885681257 
Si 5.432324039999999 8.15031054 2.7048939183796716 
Si 6.7860393299999995 9.502217639999998 4.073107335810454 
Si 5.001274349999999 11.28315447 0.13959301830206783 
Si 6.78476871 12.17053593 1.3900038445618326 
Si 4.07227194 9.50213619 6.787678656586795 
Si 5.42966877 8.145114029999998 8.144947188829132 
Si 5.43004344 10.85958189 5.430238842886111 
Si 8.149284269999999 8.14205151 10.86184793743901 
Si 6.787619459999999 9.503162459999999 9.502489771404823 
Si 4.07189727 9.52205886 12.239807269849798 
Si 5.425205309999999 10.86059187 10.860820248688919 
Si 8.09099865 10.79580654 13.605434337259526 
Si 6.055432829999999 10.72448892 16.665685897274084 
Si 5.45814369 8.24707314 13.663738545681232 
Si 7.0645820399999995 9.269140319999998 15.098803116305293 
Si 4.38244983 12.02850342 15.185574303104461 
Si 7.71812055 11.37362913 18.470375855013433 
Si 5.94980847 8.29553589 19.950692986933074 
Si 4.71386988 9.339773759999998 18.174572776446194 
Si 6.339563009999999 11.5461891 22.904852811646794 
Si 5.575431689999999 9.516145589999999 21.982776208775416 
Si 5.3562334499999995 12.081641399999999 25.05124927879068 
Si 6.91197732 8.716990769999999 25.611750723089138 
Si 7.305543719999999 9.17734617 29.582260465349055 
Si 5.66294157 10.67889321 28.81337799882425 
Si 5.3168931 10.17155745 26.529579545793485 
Si 7.96615209 8.53545501 34.0627778779864 
Si 7.45961454 10.01647665 32.1099294587759 
Si 5.879582279999999 12.01641624 32.29933249541728 
Si 4.07474802 12.218347080000001 4.068448480143385 
Si 5.438954069999999 13.582211039999999 2.715068037005551 
Si 6.786397709999999 14.93175609 4.07533399476898 
Si 4.07263032 14.93252172 6.787473118836778 
Si 5.42968506 13.57535295 8.144810163662452 
Si 6.787652039999999 12.21748371 6.787610144003457 
Si 4.07310273 12.21686469 9.5010510071547 
Si 6.787375109999999 14.931918989999998 9.50300361577987 
Si 4.07813634 14.91689961 12.232990267807542 
Si 6.78037041 12.22712739 12.232716217474186 
Si 5.457475799999999 13.57357734 13.730469801853667 
Si 6.47683884 15.28215399 15.022377329590352 
Si 6.462438479999999 14.863435829999998 18.324581077667496 
Si 7.304631479999999 13.2693453 19.899616856053655 
Si 4.14552807 15.168710429999999 18.936912291262097 
Si 5.1345591299999995 15.353439029999999 22.725795175089647 
Si 6.49327545 15.963206309999999 24.55490986878944 
Si 5.56243227 13.295099789999998 21.536039909111793 
Si 6.747774119999999 13.928324669999999 25.82821623014952 
Si 6.880325849999999 12.597724889999999 29.467227837922447 
Si 7.125294869999999 16.28032374 29.100205928974052 
Si 6.25189023 14.34137391 28.06833791130151 
Si 8.08699131 15.476819489999999 31.34673353666826 
Si 6.612387929999999 14.37330231 32.83928016471396 
Si 5.60239164 16.04478663 34.22227517200019 
Si 9.505117259999999 1.356131097 4.073038823227114 
Si 10.672849620000001 0.1427857596 0.005706892654410028 
Si 10.863051659999998 2.7137348099999996 2.702670685050313 
Si 9.37857654 3.95009694 1.3141432866594414 
Si 8.145048869999998 7.467987599999999e-05 8.145221239162488 
Si 8.145798209999999 2.7161945999999997 5.429587973344389 
Si 10.859418989999998 -0.0016762898699999999 5.430855456136165 
Si 10.85928867 2.71528236 8.14504995770414 
Si 9.50063751 1.358004447 9.502147208488129 
Si 8.14449501 2.71490769 10.85708631289693 
Si 8.432583659999999 3.3267763799999996 16.684081525900673 
Si 8.23009896 0.1111230495 13.856019110822853 
Si 9.84595293 1.325033487 15.421360358666512 
Si 10.801068209999999 2.7292103099999996 13.71368421893555 
Si 12.055398209999998 3.23348355 20.581556854320944 
Si 9.815686109999998 2.55826305 20.330218442340882 
Si 9.56358207 0.348008157 19.69644279016109 
Si 8.64865422 2.63847501 22.372544295392444 
Si 11.903412509999999 3.3396291899999997 22.95575766106786 
Si 8.55557316 0.611083512 23.64040390637705 
Si 11.84051682 1.16100459 23.91925012056782 
Si 9.87962436 1.068957945 25.549644066292103 
Si 10.36061919 1.479527847 29.20503018148311 
Si 10.95766398 3.33314577 26.076334550712637 
Si 8.56855629 1.277535105 27.699226368561266 
Si 10.991644919999999 3.6016701299999996 28.442553641500528 
Si 8.86940001 0.9940190579999999 32.91741876601238 
Si 10.63943883 1.6430908499999999 31.53247115010099 
Si 11.21737545 4.0118360399999995 32.02100012560155 
Si 10.85303331 8.12348091 2.708682664238333 
Si 12.092881499999999 6.69331665 1.236056069798524 
Si 8.13753918 5.4392309999999995 2.6895745047450137 
Si 9.502543439999998 6.788743469999999 4.07437481860223 
Si 9.50275521 4.07225565 6.787747169170134 
Si 8.1453258 5.42975022 8.144775907370784 
Si 10.85964705 5.43106971 5.43030735546945 
Si 9.489902399999998 4.056910469999999 12.222918918056672 
Si 10.861357499999999 5.43216114 10.860991530147269 
Si 12.210104340000001 6.798207959999999 12.214937202097648 
Si 9.50174523 6.78659319 9.502078695904789 
Si 8.59224195 7.73890659 16.188427241732825 
Si 10.903890689999999 8.089483679999999 13.722659367352993 
Si 11.6341551 4.57916787 14.90844090349717 
Si 9.87473736 6.216850439999999 14.856542621617683 
Si 10.156261139999998 6.02809821 19.482375223517586 
Si 8.67771558 4.20490512 19.069586908898568 
Si 9.59239908 7.97252148 18.287652795247634 
Si 9.22564602 7.880271209999999 23.052257634701203 
Si 9.88276833 4.435799579999999 23.191064128546536 
Si 10.36356768 6.26363532 21.84465484076347 
Si 10.201156379999999 7.4916081 25.264631719600796 
Si 9.598524119999999 5.162822279999999 25.37024386681826 
Si 10.396277999999999 7.1498113199999995 30.974093595886046 
Si 8.98895232 6.68684952 32.970241967766945 
Si 9.88605891 4.9632209099999995 30.098023192726977 
Si 10.61365176 5.32635759 34.11416231549084 
Si 9.473384339999999 9.494561339999999 1.3657606669472369 
Si 11.07368136 10.56155634 0.09093366879994456 
Si 12.192641459999999 12.18812913 1.4195601730143879 
Si 9.501354269999998 12.217548869999998 4.07070939539358 
Si 12.219748019999999 9.502413119999998 4.073004566935445 
Si 8.14438098 8.14317552 5.431060993886182 
Si 9.50213619 9.50251086 6.787747169170134 
Si 10.86033123 8.144739359999999 8.144947188829132 
Si 8.14470678 10.86046155 8.144741651079114 
Si 10.859875109999999 10.85886513 5.429724998511067 
Si 9.51179616 9.49785192 12.237340816849587 
Si 10.862676989999999 10.859402699999999 10.858662102313733 
Si 12.20047695 12.209420159999999 12.216444478931113 
Si 9.64861587 11.992812029999998 14.910941612789053 
Si 11.512501379999998 11.47594662 18.53142056676871 
Si 11.87391132 9.10469277 20.989069700022842 
Si 8.14486968 9.24736059 19.6055265920699 
Si 11.55063627 9.121829850000001 18.670912186447435 
Si 9.620271269999998 12.17446182 17.225810522364174 
Si 9.55289583 9.65249289 21.557929679488687 
Si 8.760664259999999 11.564857439999999 22.789820184220183 
Si 9.6692553 11.4238512 25.001098067786344 
Si 11.95642017 11.89823229 25.22359268218058 
Si 11.06407026 8.94638655 29.479183283715145 
Si 9.08242434 9.39076146 26.132549125342496 
Si 9.230272379999999 9.928331459999999 28.416279065789926 
Si 11.35197972 10.71727245 30.967721925635498 
Si 9.47050101 11.444344019999999 32.375724025840555 
Si 12.216457440000001 14.935681979999998 4.076704246435765 
Si 9.53621487 14.8732587 1.3245195174061715 
Si 10.86124347 13.58084268 2.7285787184400525 
Si 8.17412652 16.267340609999998 2.725125684239754 
Si 8.14416921 13.57633035 5.430101817719432 
Si 9.50233167 14.93258688 6.787781425461804 
Si 10.860152040000001 13.574913119999998 8.144912932537462 
Si 9.503374229999999 12.216115349999999 9.502215721071469 
Si 8.14469049 13.57505973 10.864725465939257 
Si 9.488077919999998 14.94993573 12.246898322225412 
Si 10.860608159999998 16.28832213 10.865718898397676 
Si 11.819747069999998 16.208370809999998 16.474193226840864 
Si 10.81830303 13.540329449999998 13.60217998955091 
Si 9.30069405 13.3328763 21.311215866884023 
Si 11.53170729 12.63243888 20.615744633407235 
Si 11.49205743 15.67063791 18.71578792853465 
Si 12.14818605 14.226806339999998 24.638529476755004 
Si 9.61281045 15.60189411 21.885693878183687 
Si 11.97588672 15.46502553 22.55112234386621 
Si 11.33292042 15.77315088 28.34177163140848 
Si 10.74690396 13.76320923 29.413616741459478 
Si 8.98802379 13.34419785 26.237510403018234 
Si 10.58807646 15.187460219999998 26.152589055969226 
Si 9.16134939 12.304456019999998 28.364380783910438 
Si 8.250591779999999 13.34375802 34.22309732300025 
Si 8.90838198 13.296989429999998 30.778729964494154 
Si 12.084084899999999 16.10660718 32.38541855638305 
Si 12.216783239999998 4.0729887 4.069852988101839 
Si 15.60119364 0.36264798 0.09812029622931585 
Si 13.55450175 -0.00446924295 2.716736318409862 
Si 12.233301299999999 1.3765212900000001 1.2841005188651773 
Si 14.93610552 1.358191782 4.0713602649353025 
Si 14.998268159999999 4.06564191 1.2298899372979908 
Si 13.57535295 -0.000579666618 8.144741651079114 
Si 13.573218959999998 2.71336014 5.429896279969415 
Si 12.217597739999999 1.3572616229999999 6.787747169170134 
Si 16.28855019 -0.001436431023 10.862259012939044 
Si 14.93351541 1.357084062 9.502044439613119 
Si 13.576802759999998 2.71300176 10.863081163939114 
Si 12.218705459999999 1.3642695809999998 12.2517627156425 
Si 14.92892163 4.07456883 12.249262006350616 
Si 15.63734115 1.542151494 16.90924813104514 
Si 15.429643650000001 4.0247703 16.5131768867609 
Si 15.598603529999998 0.6970279229999999 14.712768965480254 
Si 15.642521369999999 2.82898656 20.39876528197181 
Si 13.68070038 1.63214397 20.052708223525226 
Si 13.97706435 0.18203586299999996 18.126442686650368 
Si 15.2282178 3.9104470799999995 22.514433855488043 
Si 15.365444759999999 0.335901429 24.03078860624413 
Si 13.691956769999999 3.9043872 24.328612806019876 
Si 14.30128422 0.107549838 21.880349896683224 
Si 13.803917939999998 1.70469963 25.109142411712355 
Si 14.143857659999998 1.9490007599999999 27.367899515532624 
Si 13.259131469999998 3.9952528199999997 28.119516811055934 
Si 13.95188001 2.32841115 34.11614918040768 
Si 13.40864109 2.81258253 31.75037542141149 
Si 14.29395372 0.33572223900000003 30.806717354788244 
Si 13.577812739999999 5.42904975 2.6823327246860544 
Si 14.933173319999998 6.7860393299999995 4.069099349685107 
Si 13.57419636 8.146107719999998 5.430375868052789 
Si 14.932994129999999 4.0718809799999995 6.78723332479509 
Si 13.574913119999998 5.430401819999999 8.144638882204104 
Si 12.21740226 6.787521719999999 6.787849938045143 
Si 12.216343409999999 4.07271177 9.503174897238218 
Si 14.932114469999998 6.7865280299999995 9.502387002529815 
Si 13.48331445 5.454331829999999 13.646884450179774 
Si 14.5834596 7.075349729999999 14.97383616429449 
Si 16.09482951 4.45412583 18.754737332163018 
Si 14.38525917 5.92454268 19.297494017376604 
Si 12.233887739999998 4.97687193 18.95503386955533 
Si 15.13283985 8.060210549999999 18.581982853273082 
Si 12.557260529999999 7.214515199999999 22.291939241093807 
Si 15.83791992 7.71528609 24.44326861423812 
Si 14.472410669999999 5.96922615 21.611026931576607 
Si 12.4739046 7.4854993499999996 26.050025718710362 
Si 15.900522389999999 6.270754049999999 26.395842983115255 
Si 13.67211555 5.40963207 26.23778445335159 
Si 14.46468921 6.47900541 30.979711627719865 
Si 12.56393943 7.232271299999999 32.065293510730385 
Si 14.5723824 4.32888831 30.043110357180563 
Si 14.930713529999998 12.21771177 4.075471019935659 
Si 16.293257999999998 8.13970575 2.692232792978577 
Si 12.85386885 8.72318097 0.07192279717496773 
Si 14.810151239999998 9.46339857 1.3636915869303912 
Si 13.571573669999998 10.858490459999999 2.7364987730740706 
Si 14.93219592 9.50275521 6.788329526128519 
Si 13.57520634 10.860038009999998 8.144947188829132 
Si 12.216978719999998 9.502217639999998 9.50190741444644 
Si 13.573056059999999 8.14513032 10.86256731956407 
Si 14.946433379999998 9.51438627 12.233606881057597 
Si 12.998572919999999 8.864985419999998 14.847978548700276 
Si 13.493007 10.82569869 13.613587334676895 
Si 13.631113619999999 11.56871817 17.310457819079826 
Si 16.13970846 9.00351558 20.584297357654513 
Si 15.245941319999998 11.15223174 20.84450814917701 
Si 15.409606949999999 12.13463277 18.70362694499193 
Si 13.398687899999999 9.21238596 17.2554422146584 
Si 13.01263119 11.0506473 21.595885650658634 
Si 13.43949435 10.75170951 23.870777467855298 
Si 13.55256324 8.35766595 24.17555569483998 
Si 15.184185929999998 10.971168389999999 25.67313799776111 
Si 16.074450719999998 11.91657483 29.783344897449773 
Si 14.79255804 8.30167722 29.46301431404708 
Si 13.296761369999999 11.055159629999999 27.105359296176594 
Si 12.93939135 8.84815785 28.001538142545733 
Si 15.279791939999999 10.050473879999998 31.039454600391696 
Si 13.1538492 9.58404231 32.06998662268912 
Si 15.8617359 10.99565226 34.24012269996006 
Si 13.99916988 13.00388346 0.14966882137085555 
Si 14.82534981 14.81785641 1.4395076116536123 
Si 13.57496199 13.57470135 5.431163762761191 
Si 12.21769548 12.217581449999999 6.787781425461804 
Si 14.932163339999999 14.93248914 6.787815681753473 
Si 12.217728059999999 14.93159319 9.502421258821487 
Si 14.93170722 12.21813531 9.50187315815477 
Si 13.579376579999998 13.573544759999999 10.85890189635542 
Si 14.94801351 14.90950395 12.230386789640653 
Si 12.54747024 14.525141399999999 14.947595844875554 
Si 14.166044639999999 12.62227392 15.094829386471615 
Si 13.59113796 16.17697998 13.645719736263006 
Si 12.819448079999999 14.563145969999999 20.332034025799373 
Si 15.0386022 14.393045789999999 19.360011749673674 
Si 15.271549199999999 12.68956791 24.21347740971826 
Si 14.40941724 14.70087792 25.05265378674914 
Si 14.79171096 14.58626148 27.393763015743193 
Si 14.17223484 12.63180357 28.619761438307513 
Si 13.63546305 16.25678469 28.550084141051492 
Si 15.206519519999999 15.110050139999998 32.42464201034478 
Si 13.12807842 13.930914779999998 32.365995239006374 
Si 12.542632109999998 12.68248176 30.346210025873432 
