&CONTROL
  dt          = 30.D0,
  prefix = 'x.33_y.66_z3.15_struc17-scf',
  pseudo_dir = './',
  outdir='./',
  wf_collect= .true.,
  verbosity= 'high',
/

&SYSTEM
ibrav= 6, celldm(1) =30.783621515, celldm(3) =2.1024929778250487, nat=  432, ntyp= 1,
  ecutwfc     = 12.D0, nbnd= 1728,
  degauss     = 0.05D0,
  occupations = "smearing",
  smearing    = "methfessel-paxton",
/
&ELECTRONS
  electron_maxstep=200,
  conv_thr    = 1.D-8,
  mixing_beta = 0.3D0,
  scf_must_converge=.false.,
/
ATOMIC_SPECIES
Si  28.08  Si.pbe-hgh.UPF
K_POINTS {automatic}
1 1 1 0 0 0
ATOMIC_POSITIONS (angstrom)
Si 0.00262449819 2.70443322 2.7044828271498567 
Si 1.380028527 1.291327848 1.3052252606117394 
Si 4.07277693 1.3567354559999998 4.069538732534056 
Si -0.001458363879 0.00035993895299999995 5.430892255011448 
Si 0.00021086753399999998 2.7150868799999994 8.144899898871603 
Si 2.71544526 -0.000666821376 8.144660151597341 
Si 2.71590138 2.71547784 5.4310977526751 
Si 1.357310493 1.3574896829999998 6.7874850816142205 
Si 2.7115356599999996 2.71611315 10.861305015474374 
Si 1.366605567 1.364583978 12.244989284068684 
Si 4.07272806 1.357167141 9.503102457172988 
Si 0.27860787 0.1360273644 16.2370553974057 
Si 2.96802171 0.1398253779 13.589252250852297 
Si 3.90678183 4.05959832 16.85639110604409 
Si 1.13901309 0.6445122209999999 20.47746543726691 
Si 2.8019125799999998 2.779074 19.262083755204095 
Si 0.6641709929999999 2.0667937499999995 22.302318940112787 
Si 2.55392991 2.256165 23.78703956000297 
Si 2.66445756 0.283584465 24.99978402204891 
Si 2.20130028 3.9397365 25.41095059740719 
Si 1.071595296 3.35740158 29.951763971917924 
Si 3.8146130099999995 3.2698102499999995 26.99711856392055 
Si 3.8572765199999997 0.887345622 26.920056940050817 
Si 2.38187493 2.92227939 34.10059055301128 
Si 1.42776963 1.0715366519999998 30.184010581455997 
Si 3.22452405 1.95248682 31.946906538710607 
Si 3.98500641 4.08901806 1.1481154468271895 
Si 4.07471544 6.781608449999999 4.072758195931281 
Si 1.357694937 4.07026827 4.071045715400842 
Si 2.7242255699999998 5.43541914 2.6919611695112904 
Si 1.4034502889999998 6.7901932799999996 1.2445965999120947 
Si 2.7142560899999997 5.43048327 8.144865649260995 
Si 1.358051688 6.78716334 6.787622080056655 
Si 2.7164389499999997 8.145537569999998 5.43027576202049 
Si 4.065772229999999 4.0770612 12.251770706969218 
Si 1.35798327 4.0730701499999995 9.503170956394206 
Si 0.0011223207270000001 5.4317376 10.860037779881848 
Si 1.357525521 6.767713079999999 12.224576516145856 
Si 2.7167158799999997 8.14496742 10.860722772094025 
Si 3.55091049 7.4199321 15.06143751325967 
Si 0.0538000056 6.261664229999999 16.231849456593167 
Si 2.6838915299999995 5.43786264 13.774200148139656 
Si 1.3941747629999999 4.3813746899999995 15.530999674705907 
Si 3.4479902699999996 4.16220903 21.141839383855835 
Si 3.4526817899999998 7.7993587799999995 21.19372754392812 
Si 2.99130012 7.18688736 18.89427718687652 
Si 0.805450905 7.903142369999999 18.8520474169959 
Si 1.8770478299999998 4.97180574 18.03238573590682 
Si 1.0756612799999998 4.21562394 21.5052962516361 
Si 1.83138696 7.272817109999999 22.89130949375181 
Si 2.57671962 6.25381245 24.882239358439605 
Si 3.1762241999999996 4.1552532 29.12597161052987 
Si 2.30135346 7.53192585 26.84446804943726 
Si 0.0375368841 7.6779657 27.365849871734568 
Si 3.28958631 6.4554500699999995 28.68654910641935 
Si 0.69571332 4.80791205 34.18049489456155 
Si 2.41487847 7.316653499999999 30.69114456574005 
Si 0.397919088 6.51427326 31.769219558872308 
Si 1.3580810099999998 9.500458319999998 4.068168748109706 
Si 2.70594819 10.87763121 2.7023627762531737 
Si 0.000272106531 8.14496742 8.144899898871603 
Si -0.000509546313 10.861357499999999 5.430755256569014 
Si 2.71492398 10.85994027 8.145105396535255 
Si 4.07219049 9.510085709999998 12.228857717471952 
Si 1.3565334599999999 9.502413119999998 9.502417464960814 
Si 1.345387842 12.20471235 12.23899560221215 
Si 0.259410105 8.869155659999999 16.761040190109274 
Si 4.039854839999999 10.76894433 17.084596261530326 
Si 1.69836282 8.984163059999998 14.883887531863804 
Si 3.91583907 12.117479399999999 15.019858485980624 
Si 2.61850347 10.768097249999999 13.638571690128927 
Si 0.30064335299999995 11.127308039999999 19.505564237021844 
Si 2.45684151 11.87519823 18.717343698471613 
Si 0.669859461 9.24266907 22.85031270985311 
Si 2.0039795099999997 11.06091 23.242984495482656 
Si 3.74026545 10.18830357 21.846867618237365 
Si 2.46197286 11.39640255 25.517603884842902 
Si 3.14809137 10.73511 29.02315427948234 
Si 3.36370581 9.69377175 26.88176587539021 
Si 2.7447021 8.34947208 34.0592855226171 
Si 0.1099778625 10.99685772 33.92447905526099 
Si 1.6758337499999998 9.44867241 30.219082182719372 
Si 1.8489801599999998 10.13332482 32.595559914030105 
Si 0.439670358 15.820847999999998 0.06925408263535737 
Si 2.73056238 16.287344729999997 2.7123499627066914 
Si 4.0031371799999995 14.891927039999999 1.2881895042949372 
Si -0.0009953694989999998 13.560284699999999 2.714326165238817 
Si 1.309106754 12.24027342 1.247836613075684 
Si 1.35726651 14.933108159999998 4.068613993047619 
Si 0.00033076845 13.575010859999999 8.144797150039777 
Si 2.71531494 13.57357734 5.429762017861359 
Si 1.357281171 12.217548869999998 6.787724828888482 
Si 4.091836229999999 14.91515658 12.226049249402033 
Si 1.35562122 14.933140739999999 9.501047480536462 
Si 2.71634121 13.577552099999998 10.864147733154901 
Si 2.21684094 13.30348914 15.968504200622336 
Si 1.4781578579999999 15.08434452 14.783022428620978 
Si 0.1347406173 14.71808016 17.916108307890045 
Si 3.8426643899999995 12.2427495 20.599599548697785 
Si 3.28463415 15.962294069999999 20.560863239099266 
Si 2.40347547 14.13370899 18.101364451672882 
Si 2.8849264199999998 14.000684849999999 21.87447280438803 
Si 0.8747273879999999 13.1098662 22.66259059410644 
Si 3.6235313099999997 14.66443719 24.019114921487997 
Si 0.38505161699999996 16.27212987 25.402045698648912 
Si 1.7882673299999998 12.643076249999998 29.55083803013166 
Si 3.55856679 14.194486979999999 29.40301671074421 
Si 0.24891282899999997 12.297532769999998 26.010421531892494 
Si 0.376028586 15.881756309999998 27.670534407710186 
Si 2.551014 16.13478888 28.56205177185647 
Si 2.2281787799999995 14.03810298 34.07771181312462 
Si 1.057422996 12.865337010000001 31.980539656328418 
Si 6.78351438 4.07300499 4.067415256676313 
Si 5.4112122 2.7318492899999995 2.6923173654616215 
Si 6.85460394 1.484465346 1.3414681985579398 
Si 5.4288542699999995 0.00039230229599999993 5.4309950038432735 
Si 5.43045069 2.71445157 8.14500264770343 
Si 6.78730995 1.357668873 6.787656329667264 
Si 8.14750866 2.71021617 10.861236516253156 
Si 5.432470649999999 -0.00271419093 10.859113040395412 
Si 6.789720869999999 1.361088144 12.230193452285695 
Si 7.09344792 3.8860935299999997 15.149733009409077 
Si 8.05317327 0.06509011590000001 13.785297021976897 
Si 4.677461729999999 1.0236619710000001 15.115688896463961 
Si 5.511509729999999 2.76791535 13.676794255568314 
Si 4.7558655 1.8395645399999998 17.554021424534128 
Si 7.080269309999999 0.6679242089999999 20.430954466060204 
Si 7.0923402 2.1976024499999998 18.666277529053936 
Si 4.602397409999999 2.7590698799999998 22.708964566870716 
Si 6.61720977 3.31548741 24.105937684381225 
Si 5.1035755499999995 0.7328219399999999 21.686784938251975 
Si 6.813846359999999 3.6370357199999996 29.34897082520357 
Si 7.03226268 1.242223272 28.89540323191163 
Si 4.8270202200000005 3.7862847 30.77272713821014 
Si 6.87464064 0.599331906 31.255715147015017 
Si 4.78487799 0.210033486 32.320227294346196 
Si 8.02761426 3.0390786899999997 34.15306095646392 
Si 6.98572215 7.01102052 1.2421272029872021 
Si 4.073037569999999 4.07210904 6.786800089402045 
Si 5.430190049999999 5.43221001 5.4308580054008395 
Si 6.787684619999999 6.78753801 6.78724533433996 
Si 6.78727737 4.071538889999999 9.502896959509336 
Si 4.07196243 6.78688641 9.503410703668468 
Si 5.430255209999999 5.43160728 10.86445597965038 
Si 6.76851129 6.7971654 12.244338541467117 
Si 6.046880579999999 5.136872309999999 17.19251678455856 
Si 6.869183489999999 5.548194809999999 21.10190433788601 
Si 7.301177999999999 7.619696369999999 20.17534962208695 
Si 7.46946999 4.47476526 19.065901985637062 
Si 6.5234933999999996 7.413627869999999 17.8226068709281 
Si 6.0693282 8.074952999999999 24.616873375442857 
Si 4.73248935 5.96531655 21.93581385698834 
Si 8.047422899999999 4.960011779999999 23.054234891417725 
Si 4.81848426 6.10225029 24.35253488076437 
Si 5.53783437 7.25910093 28.421525619528687 
Si 5.6353300200000005 4.45267602 25.93339415763337 
Si 6.86919978 5.40515232 27.729580736399708 
Si 6.94590939 5.375309039999999 33.72744104542873 
Si 4.809948299999999 5.23220139 32.829347756045564 
Si 4.12241256 7.475953409999999 32.28858065414369 
Si 4.1071977 9.531230129999999 1.3735498088151745 
Si 5.43590784 8.12911725 2.7029895441273144 
Si 6.78815703 9.502038449999999 4.0700867263037965 
Si 4.0728909600000005 9.50220135 6.787896076941526 
Si 5.42981538 8.145228059999999 8.144934148482212 
Si 5.42916378 10.86018462 5.4309265046220565 
Si 6.78757059 9.50301585 9.502828460288118 
Si 5.42675286 10.85922351 10.862332503792636 
Si 6.37331589 11.111523029999999 17.1262780376412 
Si 5.36186979 8.20092357 13.728648166029993 
Si 6.993590219999999 9.587186280000001 15.144561318207154 
Si 7.136893349999999 9.723289229999999 21.234210583667686 
Si 7.31034927 11.348216729999999 19.492446636158686 
Si 4.34496654 8.295975720000001 17.265708202429497 
Si 5.7238824600000004 9.94364406 23.09197796230859 
Si 6.11404425 12.057043499999999 24.092374838580156 
Si 7.9627149 11.90046402 25.495718383663895 
Si 6.3968712299999995 12.15802521 28.761898249758644 
Si 5.66328366 8.991477269999999 26.761926487870127 
Si 7.38383346 10.5766083 27.359890439488645 
Si 4.249067309999999 11.60965494 32.21682771991832 
Si 7.63292385 8.96538069 33.928726006976476 
Si 8.073209969999999 8.26934157 31.64708544744143 
Si 5.677293059999999 10.60786881 34.04435269239168 
Si 5.20165764 10.72988091 30.22689109393817 
Si 5.96614734 8.450893619999999 30.449890308611877 
Si 4.073461109999999 12.21859143 4.073169191258586 
Si 5.418917369999999 13.56171822 2.689327374455476 
Si 6.748995869999999 12.26549034 1.141916267307002 
Si 6.78766833 14.93149545 4.06498353432309 
Si 5.74549929 16.03462167 0.14856008348828267 
Si 4.0725 14.93261946 6.7874850816142205 
Si 5.4301086000000005 13.57561359 8.145379393420127 
Si 6.78716334 12.21736968 6.787313833561176 
Si 4.07326563 12.21728823 9.501972220022898 
Si 6.78815703 14.93444394 9.501869471191073 
Si 6.79356531 12.22039962 12.241016329238066 
Si 7.343939249999999 12.86427816 15.95223563558317 
Si 7.724098979999999 14.89582035 16.969620318716682 
Si 5.49403056 13.534139249999999 13.826293805875595 
Si 6.30447435 15.416953739999999 15.04862815889199 
Si 6.0188454899999995 13.101688620000001 20.278749196514827 
Si 6.52140828 15.02723178 18.995347787782997 
Si 4.39649181 15.909058349999999 18.443689309707537 
Si 5.6585269799999995 15.49196919 23.36796132459406 
Si 6.7834818 13.687314119999998 22.42000060216452 
Si 7.057365569999999 15.888109409999998 25.206309174019793 
Si 4.275115019999999 12.95098983 25.474004130537935 
Si 7.98293079 13.551846479999998 29.716640395088717 
Si 5.90406615 16.08112962 27.263786032120432 
Si 5.074335 13.784386229999999 27.61926274062886 
Si 7.565613569999999 14.21305758 34.0955901098624 
Si 6.9542661599999995 14.49375057 31.650441909281092 
Si 4.51734732 14.07496725 31.64516746924734 
Si 9.50080041 1.3556749769999998 4.070052476693188 
Si 10.868850899999998 2.7099392399999997 2.675658354861516 
Si 8.14475565 -8.06796459e-05 8.145139646145864 
Si 8.147036250000001 2.7151031699999995 5.4300702643568375 
Si 10.86072219 0.00213672672 5.430618258126578 
Si 10.85969592 2.71544526 8.145242394977691 
Si 12.20733504 1.3694872679999999 12.248071749023472 
Si 9.502250219999999 1.3586609339999998 9.501595474306203 
Si 10.85588406 0.001369495413 10.865894463295948 
Si 8.97702804 1.92125889 15.157404922185442 
Si 10.866863519999999 2.78646966 13.883182409096763 
Si 9.17091162 1.5220610369999998 17.557412135984393 
Si 10.705836869999999 2.17060992 21.26945343298411 
Si 10.75089501 2.68723098 18.85273240920808 
Si 8.82830034 0.8598627629999999 22.117199794772386 
Si 8.16251175 1.504666575 24.415382916231465 
Si 11.78917074 0.533160297 25.90219276236878 
Si 9.74080098 1.72818981 26.290857343557104 
Si 10.225200419999998 3.96391086 27.013147381685457 
Si 9.293005169999999 0.68447322 28.40279108252569 
Si 8.70648372 3.94695297 30.760671275275858 
Si 8.783567999999999 1.90948122 32.0550668090131 
Si 10.67542344 0.977362533 30.42468259520382 
Si 12.21914529 4.06834605 4.068065999277879 
Si 12.165078779999998 6.85704744 1.2999473956169278 
Si 9.67052592 4.22860707 1.1874271498839355 
Si 8.16288642 5.44749003 2.690745308334679 
Si 9.501126209999999 6.7875054299999995 4.074778922957198 
Si 9.502087320000001 4.073021279999999 6.787622080056655 
Si 8.14535838 5.42968506 8.144899898871603 
Si 10.85984253 5.43279645 5.430378510852316 
Si 9.503993249999999 6.78714705 9.502040719244116 
Si 9.5164551 4.07039859 12.242728809768504 
Si 10.86104799 5.42839815 10.859387037280282 
Si 10.929221639999998 8.111149379999999 13.625796585371857 
Si 8.32041072 8.10588771 16.389774411110206 
Si 12.189774419999999 4.170044519999999 15.52058779308084 
Si 11.08454679 5.9368905 16.98643687752559 
Si 8.16220224 5.44046904 13.628810551105428 
Si 9.62849772 6.71219676 15.083323014438674 
Si 10.80688374 5.84866386 20.70138939142705 
Si 9.681147000000001 7.816658759999999 20.13044838257885 
Si 9.840837869999998 4.814639819999999 18.832970383886817 
Si 11.962447469999999 5.07475854 23.89228861340372 
Si 11.84735862 7.47943947 24.055008513405983 
Si 8.168115509999998 6.87669318 24.54967563942845 
Si 10.273125599999998 4.3090307999999995 22.411232701848675 
Si 8.91413235 5.96808585 26.655512947708676 
Si 10.6214058 4.24330065 29.384898666732173 
Si 11.4787485 6.434810639999999 29.255332389799197 
Si 10.35081261 7.640775629999999 27.565319603920045 
Si 8.76507885 5.89250025 32.28337471333116 
Si 10.73033703 5.69154681 33.77991144888137 
Si 9.54988218 9.457566749999998 1.1316722087739188 
Si 10.8356193 8.146303199999998 2.710247036615313 
Si 8.15772249 10.87160391 2.6700962180986516 
Si 8.14680819 8.14472307 5.430378510852316 
Si 9.50233167 9.50220135 6.787348083171785 
Si 10.859972849999998 8.14488597 8.144899898871603 
Si 8.144609039999999 10.86020091 8.144934148482212 
Si 10.859907689999998 10.86116202 5.430584008515969 
Si 8.14408776 8.146140299999999 10.863976485101857 
Si 9.51744879 9.49669533 12.227864478764298 
Si 10.861552979999999 10.85866965 10.859284288448455 
Si 9.50282037 12.215789549999998 9.502794210677509 
Si 8.245493009999999 10.889913869999999 13.616412192065052 
Si 11.762080469999999 9.790729829999998 17.109324480389855 
Si 10.72983204 11.12097123 21.394053516378815 
Si 9.54685224 12.142549709999999 19.650371590675725 
Si 10.18820583 8.25859017 17.81507195659417 
Si 10.64922912 11.85594345 17.362566101231103 
Si 9.363491999999999 9.36704322 21.859094729224697 
Si 11.066269409999999 12.09301182 23.499274331668083 
Si 9.75081933 8.51442462 23.98448856516253 
Si 9.910721969999999 10.719748529999999 24.95851324126534 
Si 10.99343682 11.201916240000001 27.00886618035936 
Si 9.51622704 9.77038362 28.179038376418596 
Si 11.5844706 10.208209949999999 34.15059498450009 
Si 9.493241849999999 12.192657749999999 30.838691888242636 
Si 11.818606769999999 9.82142019 31.63071413357044 
Si 9.714069089999999 9.81402453 30.528904160286306 
Si 12.21881949 14.93289639 4.0684427449945755 
Si 9.50110992 12.2175 4.070292223967449 
Si 9.65602782 14.94082962 1.0811026587100698 
Si 10.858913999999999 13.555674629999999 2.6743226200477737 
Si 8.17199253 16.2955386 2.685309895131067 
Si 8.14521177 13.57401717 5.4309265046220565 
Si 9.502413119999998 14.93274978 6.78693708784448 
Si 10.85982624 13.57507602 8.144762900429168 
Si 8.14330584 13.57753581 10.864832725367076 
Si 9.49384458 14.94368037 12.250469221766085 
Si 12.04032996 15.28941933 16.826354197540198 
Si 9.44626149 12.23419725 15.146958790949768 
Si 10.864208249999999 13.56732198 13.637852448306143 
Si 10.0098792 14.41407618 20.05146878051503 
Si 9.85502646 15.56333568 17.86445989509202 
Si 12.19109391 15.92042877 23.735254148762507 
Si 10.37068641 14.314039289999998 23.928113706100493 
Si 8.94948165 14.785993169999998 22.14634621340045 
Si 8.662288949999999 14.2037397 25.67022014971558 
Si 11.216104829999999 13.42234098 27.894766608365806 
Si 9.20339388 14.643700019999999 27.941106331519467 
Si 11.737368539999999 15.36818148 31.360587454699072 
Si 11.52963846 13.11608898 30.227370588486696 
Si 11.61046944 15.5452212 33.87009067361426 
Si 13.57602084 0.00747846207 2.694886086257279 
Si 12.264545519999999 1.255180338 1.0981623897542983 
Si 14.933075579999999 1.358791254 4.074059681134414 
Si 13.57532037 -0.00021755946599999996 8.144899898871603 
Si 13.576770179999999 2.71531494 5.431029253453882 
Si 12.21784209 1.357211124 6.787211084729351 
Si 16.291466099999997 -0.0046499479199999996 10.858804793899933 
Si 14.93387379 1.357882272 9.502896959509336 
Si 13.57131303 2.71906164 10.861236516253156 
Si 16.14508416 2.6663146199999996 13.596204921805878 
Si 13.683160169999999 0.07054661429999999 13.5306854167113 
Si 14.77915137 1.2490764749999999 15.258920768029837 
Si 15.310840679999998 3.7070012699999997 15.540726564118797 
Si 13.518712619999999 0.616626999 17.639850948719705 
Si 13.7450133 3.4271879399999996 20.052188022337813 
Si 16.00670061 3.98125971 19.630883562239333 
Si 12.83959881 2.86537842 17.77393817425304 
Si 14.62879467 2.3349434399999995 22.924463116821094 
Si 12.82128885 1.149186195 21.88211046755379 
Si 15.16994847 1.77285699 25.144214629986088 
Si 15.419967389999998 0.5716063259999999 29.511998971701317 
Si 13.93842447 2.2656457800000003 28.79316814424445 
Si 16.27589286 3.6343152899999995 26.03090279903654 
Si 13.31977914 2.13995214 26.523206701927 
Si 15.746581889999998 3.71045475 28.335764594564328 
Si 13.947123329999998 2.46342267 34.14497804836025 
Si 12.245746859999999 2.80196145 30.358683595560723 
Si 13.70427201 3.7365024599999996 32.06486219764721 
Si 16.28767053 8.14493484 2.6844570798269087 
Si 15.029414639999999 4.10195232 1.2958168925775102 
Si 13.571329319999998 5.4403713 2.6925228631252742 
Si 14.9315769 6.78828735 4.070018227082579 
Si 16.28973936 5.42944071 5.429145524870401 
Si 14.93283123 4.07204388 6.787690579277873 
Si 13.574717639999998 5.42989683 8.145242394977691 
Si 12.21732081 6.787391399999999 6.787827577720308 
Si 13.57540182 8.144120339999999 5.429522270587097 
Si 12.21706017 4.07337966 9.502143468075943 
Si 14.93281494 6.786707219999999 9.502383215350203 
Si 14.912468729999999 4.0873239 12.232899171523787 
Si 12.221556210000001 6.76957014 12.224302519260986 
Si 13.468702319999998 5.444020259999999 13.836876935553706 
Si 14.60810637 7.2418824 14.918513888189272 
Si 13.35433023 6.82365294 18.182330531152015 
Si 14.66174934 7.13125701 21.268186197391586 
Si 13.089503699999998 5.697036539999999 20.164013000975448 
Si 15.769876589999999 5.997163499999999 18.464067828019754 
Si 16.22791881 5.923907369999999 22.598338324604388 
Si 15.261628589999999 5.34756717 24.760344994282995 
Si 14.023181339999999 4.60998855 22.866821022166537 
Si 14.88995595 7.47924399 25.568156310101443 
Si 15.220480049999999 5.936662439999999 28.4879698641097 
Si 12.4934526 7.982099999999999 26.29483029838772 
Si 12.360167820000001 4.29433722 26.102518734819476 
Si 13.09007385 6.02972721 27.550044277588537 
Si 16.11266706 4.287837509999999 31.85186386927127 
Si 12.63009312 7.54544655 31.105564854106166 
Si 12.7905822 5.87855601 32.73872328637476 
Si 14.927146019999999 7.246867139999999 30.41074300368605 
Si 12.33491832 12.1531545 1.1664595382692466 
Si 13.29332418 8.52182028 0.10921378832482156 
Si 12.215626649999999 9.50415615 4.067826252003618 
Si 15.021579149999999 9.62802531 1.2531144780704957 
Si 13.59014427 10.86606531 2.7025614239947044 
Si 13.575157469999999 10.85977737 8.144831399650386 
Si 14.9320656 9.5030973 6.787793328109699 
Si 12.21580584 9.50332536 9.502999708341163 
Si 13.57584165 8.14247505 10.86308599522603 
Si 14.92709715 9.5327451 12.221288553527414 
Si 16.288110359999997 10.861699589999999 10.858770544289325 
Si 12.707047079999999 9.09175851 15.031777350472474 
Si 13.556114459999998 10.862953919999999 13.697652268429056 
Si 16.268871869999998 8.15967729 13.504929709533506 
Si 15.146441999999999 10.53829422 17.761608314433882 
Si 12.80692107 10.156440329999999 20.832805147332902 
Si 16.164518129999998 9.07473546 20.642993805339096 
Si 13.367802059999999 9.231738479999999 18.67497693014856 
Si 13.289691509999999 8.54762364 22.517885989284387 
Si 14.983949249999998 9.140025779999998 23.97770714226199 
Si 14.631889769999999 11.04584175 25.195554796288636 
Si 15.874507259999998 9.06546645 29.225261231684694 
Si 14.44346334 10.8374112 28.743506208861735 
Si 13.136304869999998 10.24955397 26.85624991548668 
Si 13.22954883 11.51644356 30.65216850886727 
Si 14.931120779999999 12.21833079 4.075395415948156 
Si 14.94701982 14.899208669999998 1.3435676996882573 
Si 13.5762489 13.574408129999998 5.4316457464448415 
Si 12.217793219999999 12.217809509999999 6.787587830446046 
Si 14.93221221 14.93252172 6.787793328109699 
Si 12.217516289999999 14.932098179999999 9.502314716128986 
Si 14.933303639999998 12.21719049 9.50221196729716 
Si 13.575108599999998 13.57486425 10.863736737827596 
Si 12.208312439999998 12.20052582 12.231083942161522 
Si 14.955311429999998 14.929801289999999 12.20217727080772 
Si 12.680054549999998 14.62170852 14.69051423036669 
Si 14.414369399999998 12.91596633 14.88851122929599 
Si 16.287898589999998 13.591023929999999 13.616343692843836 
Si 13.64395014 12.33356625 21.350659259737505 
Si 15.818306759999999 12.94219323 20.797391049963434 
Si 13.57729146 16.044411959999998 20.08236192928414 
Si 12.359695409999999 14.01813144 20.199016103017613 
Si 15.78983184 15.22533447 20.094726038713905 
Si 12.51329382 13.27318974 17.89689427633852 
Si 14.838446969999998 12.82871709 17.205497386979285 
Si 13.755259709999999 14.37307425 24.63913562233856 
Si 13.35581262 12.3140997 23.698230319694428 
Si 16.12095867 14.15560275 24.57570534349112 
Si 14.76336636 14.62350042 28.383577050974168 
Si 12.869995949999998 14.80464522 26.868785272969486 
Si 16.00775946 12.599614529999998 28.293363576630668 
Si 13.459465889999999 13.871391119999998 34.05860053040493 
Si 14.802771869999999 13.25470059 31.985094854539383 
Si 14.07249117 15.18767199 30.690322575085442 
