&CONTROL
  dt          = 30.D0,
  prefix = 'x.33_y.66_z3.17_struc42-scf',
  pseudo_dir = './',
  outdir='./',
  wf_collect= .true.,
  verbosity= 'high',
/

&SYSTEM
ibrav= 6, celldm(1) =30.783621515, celldm(3) =2.118804555752091, nat=  432, ntyp= 1,
  ecutwfc     = 12.D0, nbnd= 1728,
  degauss     = 0.05D0,
  occupations = "smearing",
  smearing    = "methfessel-paxton",
/
&ELECTRONS
  electron_maxstep=200,
  conv_thr    = 1.D-8,
  mixing_beta = 0.3D0,
  scf_must_converge=.false.,
/
ATOMIC_SPECIES
Si  28.08  Si.pbe-hgh.UPF
K_POINTS {automatic}
1 1 1 0 0 0
ATOMIC_POSITIONS (angstrom)
Si -0.00219766761 2.69553888 2.713670880599576 
Si 1.321353576 1.315000476 1.3286122580552528 
Si 3.92261571 3.99929274 1.2571448235981977 
Si -0.000573966747 0.000290276397 5.4301927271443615 
Si 6.89273883e-05 2.7148914 8.14499571044373 
Si 2.71492398 0.0006069149009999999 8.144823133812665 
Si 2.71441899 2.713914 5.429467905293885 
Si 1.3575271500000001 1.35725022 6.787749537762006 
Si 2.7147284999999997 2.7110795399999996 10.862767011797434 
Si 1.363008735 1.353557277 12.229746506471281 
Si 4.05762723 4.09581099 12.240791410859508 
Si 0.20143725299999998 2.8449181799999996 13.621646066671062 
Si 3.7545843599999995 1.3901495039999998 15.096727563044658 
Si 3.9988529099999996 0.8861678550000001 17.481287905136114 
Si 0.5951909879999999 0.0679631832 21.400986411212138 
Si 1.4823753389999998 3.2112477 20.06334494381951 
Si 2.3190769799999997 1.240340148 19.083178710017012 
Si 3.1401255599999995 3.08117205 21.710209218756205 
Si 2.72215674 0.7927447049999999 22.31512482596878 
Si 2.9822754599999994 0.543142809 24.703861522532033 
Si 3.9176635499999994 4.01921541 25.330038570691936 
Si 2.04278229 3.92949009 29.935867246560193 
Si 1.2321641970000001 0.38901171599999995 29.029218657591816 
Si 2.20962447 2.4780348 25.974094557830277 
Si 2.4945365699999997 2.21177475 28.348093210100494 
Si 1.9922995799999998 3.26010141 34.34816848835102 
Si 3.16941498 3.66277392 32.24514966218066 
Si 0.497791449 1.376185716 33.08342338992068 
Si 4.070985029999999 6.787456559999999 4.070737573584992 
Si 1.3587195779999999 4.07552994 4.070047267060728 
Si 0.39276981899999996 5.04779859 0.041063573902370164 
Si 2.7251052299999996 5.432258879999999 2.706426113627425 
Si 1.3433336729999998 6.7836447 1.3447378184620606 
Si -0.0007852675949999999 5.4304995599999994 5.430330788449215 
Si 2.71502172 5.4295873199999996 8.145340863705863 
Si 1.357670502 6.78714705 6.78757696113094 
Si 1.35682668 4.07043117 9.500309024857517 
Si 1.3669329959999998 6.78586014 12.252837259707915 
Si 4.0326546599999995 7.02136467 15.619807331805726 
Si 2.83687092 5.593741649999999 13.82818577873086 
Si 0.011970820529999999 8.114146739999999 13.753736220088985 
Si 1.060101072 5.59326924 19.805998671573878 
Si 3.14405145 6.71646474 19.91706899132796 
Si 3.97353825 6.7563100799999996 22.198670115325438 
Si 2.96391663 4.86188082 23.33339597991065 
Si 0.66595149 5.132539169999999 23.63737245787032 
Si 0.36854007299999997 6.56816058 21.90387471413848 
Si 1.14601779 7.972668089999999 26.695913574926962 
Si 3.1879367100000002 5.82890409 29.160135289918486 
Si 1.3282051499999998 7.271872289999999 28.88442686412743 
Si 1.515255075 7.448977169999999 32.60938989970857 
Si 3.2996698199999996 5.955135299999999 32.79432301755891 
Si 2.0986407 8.66201202 0.07450581862360328 
Si 1.359239229 9.502217639999998 4.069564052493743 
Si 2.72541474 10.857073230000001 2.6918502913675897 
Si 1.43822781 12.158351009999999 1.1370832613655764 
Si -0.000382205754 8.1453258 8.144374434571894 
Si 2.71432125 8.14438098 5.431538824866677 
Si -0.001277404785 10.85866965 5.429882089208443 
Si 2.7152009099999996 10.859972849999998 8.144512495876747 
Si 1.3582911509999998 9.50368374 9.502794128344867 
Si 2.71324611 8.1430452 10.86283604244986 
Si -0.004729084739999999 10.866733199999999 10.862801527123649 
Si 3.83829867 11.47871592 16.835264544403618 
Si 1.180414125 9.69240339 15.282903232638667 
Si 2.6302974299999997 10.764057329999998 13.558241412417411 
Si 2.7570825 9.2730825 17.103621205711264 
Si 0.46894511699999997 9.65353545 20.86869105035214 
Si 0.484086672 11.95321104 20.558225691064393 
Si 3.9822208199999998 10.268157149999999 20.490195983098175 
Si 2.3282482499999997 8.90584074 19.548100154108834 
Si 0.8218419029999999 8.7519654 22.992419072250435 
Si 2.73833271 9.513425159999999 24.072231052830443 
Si 2.5719792299999997 11.649418829999998 24.977360967445442 
Si 3.3806474099999995 8.674604189999998 26.202206348773327 
Si 1.452170421 11.39465952 27.03129899974064 
Si 3.3094112399999998 10.34214633 27.920620894949995 
Si 0.436223394 10.457137439999999 34.219253744944716 
Si 1.507685112 8.79896205 30.706283842965064 
Si 0.0438735312 10.590764309999999 31.473386968053468 
Si 3.3392871 12.165714089999998 31.529405342497494 
Si 3.48788448 9.94649481 30.225830502077297 
Si 2.7278419499999997 16.27424757 2.685841173073871 
Si 4.02701832 14.65645509 1.1308912118429277 
Si 0.006890458229999999 13.56310287 2.68134037453567 
Si 1.357209495 14.935519079999999 4.068942776621906 
Si -0.000310537899 13.57525521 8.145168287074798 
Si 2.71536381 13.574978279999998 5.430089181165722 
Si 1.3577535809999999 12.21777693 6.787266323195021 
Si -0.0029705466599999997 16.2909774 10.859004841240196 
Si 4.06318212 14.931251099999999 12.237167301607121 
Si 1.357297461 14.93252172 9.50217285247303 
Si 2.7146633399999995 13.57512489 10.86390601756247 
Si 1.347357303 12.22681788 12.237788577478959 
Si 2.5458500699999997 16.16287284 13.719773139095194 
Si 3.5202689999999994 12.49745994 14.758615427460134 
Si 0.7560531089999999 15.35107698 15.161478315020624 
Si 0.9058070789999999 14.25664962 17.470726215314873 
Si 2.80494252 12.316575779999999 20.42755066602121 
Si 0.427790061 15.99112737 19.0347882226661 
Si 3.01244454 13.27773465 18.29716118616377 
Si 2.0031812999999996 13.491899279999998 23.727422943960562 
Si 3.7590478199999997 13.618700639999998 22.128914641048556 
Si 1.551418875 15.150351599999999 25.377048444994315 
Si 2.10349512 14.886306989999998 27.719879757694013 
Si 0.783309537 13.146534990000001 28.39475793114074 
Si 0.472317147 15.779308499999999 34.50100235282308 
Si 1.5181775009999998 16.2973305 31.41560831197257 
Si 3.27637512 12.84412743 34.16886136867345 
Si 3.8363601599999995 16.1358966 32.09411059467168 
Si 0.280378593 14.41321281 32.17052752690771 
Si 1.120012434 12.64180563 30.70321197893209 
Si 6.78581127 4.07644218 4.06963308314617 
Si 8.12721132 -0.0208347471 2.682859048889051 
Si 4.075415909999999 1.3560349859999998 4.068148924119002 
Si 5.41937349 2.7162108899999997 2.6857341755626103 
Si 6.64125381 1.2466574099999999 1.2260189024191326 
Si 5.43069504 -0.0005070197339999999 5.431159156278332 
Si 5.430369239999999 2.7145656000000002 8.144305403919468 
Si 6.787652039999999 1.357176915 6.787680507109579 
Si 4.07381949 1.3587081749999999 9.500964816055568 
Si 6.78496419 1.331771031 12.237408908890613 
Si 7.02058275 3.41278758 15.033357424117218 
Si 5.27207931 2.5917227099999995 13.58571561208312 
Si 6.12798849 2.2537052099999997 17.34098310407945 
Si 5.419015109999999 3.0036805199999996 21.090900720512735 
Si 5.84242479 4.03428366 18.946601564191372 
Si 6.24397329 0.825024969 21.660058449768428 
Si 6.70359564 4.0428522 22.721646338107867 
Si 6.71007906 0.8733378509999999 24.01396918218256 
Si 6.0488028 2.9923100999999996 24.718910204760988 
Si 7.56012384 3.08371329 26.51263719273486 
Si 5.98067802 3.701088 28.09923770810331 
Si 4.7846173499999995 1.7294441399999998 28.623939697196402 
Si 7.487291249999999 1.032838128 31.55618923563894 
Si 5.57254836 3.2033633399999997 32.40278115699635 
Si 5.27035257 1.2983162579999998 30.896049106485247 
Si 4.73390658 0.22502028599999999 34.46106812039441 
Si 6.65650125 6.77844819 1.1613475356934568 
Si 5.42874024 8.13519342 2.694960122259399 
Si 8.133075719999999 5.42556369 2.681326568405185 
Si 4.072027589999999 4.07276064 6.787645991783366 
Si 5.429326679999999 5.429489579999999 5.430296273123002 
Si 6.78763575 6.78727737 6.787197292542595 
Si 6.78818961 4.0723696799999995 9.501896729863324 
Si 4.0720927499999995 6.786609479999999 9.505451808463283 
Si 5.43058101 5.42730672 10.863836986910043 
Si 6.77362635 6.79457529 12.257669405377762 
Si 8.03623167 5.334421139999999 13.69512919617897 
Si 7.730549819999999 5.51844927 16.275356922573064 
Si 7.409571659999999 7.33475169 20.907313700384712 
Si 6.39977085 7.7553431999999995 18.759045281548833 
Si 8.07557202 4.68536238 18.452894338037737 
Si 4.7488608 6.213559859999999 18.028942586160984 
Si 6.21360873 6.3208946699999995 22.69096221310433 
Si 6.903034109999999 6.781266359999999 24.95568534258355 
Si 7.6047584399999995 4.46344371 29.593992940418428 
Si 5.36792967 7.418759219999999 26.67423795006507 
Si 4.504722569999999 5.32419102 27.26051528112251 
Si 5.10704532 5.49577359 34.38399539696033 
Si 4.599660689999999 6.42264201 30.996454190439447 
Si 6.57734814 5.26010616 31.625875679263395 
Si 4.131355769999999 9.513294839999999 1.2291943124307472 
Si 6.78678867 9.505687409999998 4.070150813039367 
Si 4.070040209999999 12.21663663 4.070564996953926 
Si 6.89951547 12.17519487 1.2259981932234048 
Si 4.072548869999999 9.50255973 6.7875079304785135 
Si 5.42997828 8.14506516 8.145168287074798 
Si 5.4289683 10.859174639999999 5.431193671604545 
Si 6.7860882 9.500523479999998 9.502759613018654 
Si 4.08766599 9.48578103 12.235165412686754 
Si 5.432470649999999 10.859972849999998 10.863836986910043 
Si 6.78727737 12.21507279 12.248591874583692 
Si 8.165167019999998 10.856454209999999 13.728367455322282 
Si 6.157701449999999 11.026163429999999 16.904743896070794 
Si 5.37428277 8.17331202 13.875023076402176 
Si 6.9343923599999995 9.46232343 15.17856340149616 
Si 8.01054234 10.79025165 19.886799050238984 
Si 5.9191506899999995 10.01351187 19.102507292696405 
Si 5.925373469999999 10.5272496 23.648348331606115 
Si 4.3828733699999995 9.14338152 22.533641356224557 
Si 4.875303779999999 11.77260381 25.422505129617104 
Si 4.934762279999999 12.002064749999999 27.735584231121017 
Si 6.7745223 10.819166399999999 28.58062296279883 
Si 6.39560061 8.47268964 28.619763342724603 
Si 7.79440662 8.313112799999999 34.2542522857249 
Si 5.227249229999999 11.13216246 34.355692829465504 
Si 7.5929481899999995 11.353527269999999 30.745838406805394 
Si 6.51505518 9.90300051 32.62954685021708 
Si 5.3173818 8.58074121 30.718916452359096 
Si 5.45227929 13.569586289999998 2.6883193734959794 
Si 6.787407689999999 14.93478603 4.073982014249033 
Si 4.07238597 14.932603169999998 6.787645991783366 
Si 5.430206339999999 13.574587320000001 8.144857649138878 
Si 6.787652039999999 12.21720678 6.787611476457153 
Si 4.07131083 12.2175 9.502690582366228 
Si 6.7845732299999995 14.931902699999998 9.502794128344867 
Si 5.430646169999999 16.293257999999998 10.85893581058777 
Si 7.37656812 13.234077450000001 16.909265403804724 
Si 5.345873009999999 13.53936834 13.66765499651326 
Si 6.79817538 14.7817089 15.177838579645682 
Si 8.12432799 16.17600258 13.801401885589417 
Si 4.34638377 15.72540489 21.233103864511126 
Si 7.4727117 12.88662804 20.783783347867665 
Si 4.49889075 15.07652532 18.922268259211066 
Si 6.75762957 14.263670609999998 18.921060222793606 
Si 5.8586985 12.64643199 22.520663593568397 
Si 5.93622261 13.67892477 24.62789328953678 
Si 5.18629617 15.884623349999998 25.212030670369 
Si 7.92878283 12.900067289999999 25.639433954867073 
Si 5.56520157 16.05798153 27.55510359035219 
Si 7.820682389999999 15.91148556 28.21952361995632 
Si 4.31917947 14.25187665 28.443493571753784 
Si 6.88270419 13.52741148 31.338466557886065 
Si 4.59200439 14.04616653 30.845587699561545 
Si 9.504367919999998 1.357330041 4.068252470097642 
Si 10.32114852 0.5954418539999999 0.18400258465562608 
Si 10.871359559999998 2.7189639 2.7258064692961375 
Si 12.213899909999999 4.074471089999999 4.072083671307307 
Si 9.43285482 3.91010499 1.3118550671787435 
Si 8.1448371 0.000255560778 8.145064741096157 
Si 8.14423437 2.7147773699999997 5.429640481924951 
Si 10.8590769 -0.000485300277 5.430158211818148 
Si 10.859598179999999 2.71531494 8.14540989435829 
Si 9.50086557 1.357300719 9.502241883125457 
Si 8.1469548 2.7158688 10.863629894952766 
Si 10.85795289 0.0028186424099999998 10.863802471583831 
Si 12.21593616 4.0728583800000004 9.501931245189537 
Si 8.92788111 1.7904664799999999 14.941891809652235 
Si 10.832247269999998 2.79160101 13.765574976980112 
Si 12.19585059 3.5746124399999997 17.37715516595088 
Si 8.43750324 0.5490234989999999 20.836419220342794 
Si 12.15084132 2.03695047 21.34617607318557 
Si 9.90482499 2.3868596699999998 20.574413379058385 
Si 9.8446986 3.1111945199999997 18.31566140101405 
Si 8.44043544 1.4860910879999998 17.299737289254672 
Si 11.9702178 3.67277598 24.778897841719534 
Si 8.96461506 3.98758023 22.06437098102987 
Si 11.692962 0.0525168423 22.45363483006236 
Si 8.93824155 0.009537485489999999 24.66627433228586 
Si 11.362193549999999 1.5679939499999997 28.06506753515224 
Si 8.67054798 2.48803686 30.14682492037528 
Si 12.198375539999999 3.25573569 29.5199230503649 
Si 8.95961403 1.67547537 27.932632228472183 
Si 8.47397655 2.09899908 34.44232629826064 
Si 10.64240361 2.9572540199999997 31.35820932448001 
Si 11.01954969 0.77758686 32.50221981181658 
Si 9.504302759999998 6.78638142 4.067113464332606 
Si 10.551179609999998 5.61732957 0.03633911605030713 
Si 9.5027715 4.0725814499999995 6.787542445804727 
Si 8.1453258 5.43005973 8.145030225769943 
Si 10.86112944 5.42922894 5.430779487689986 
Si 10.85681259 5.431656149999999 10.861317368096481 
Si 12.21859143 6.79234356 12.241378171405133 
Si 9.502380539999999 6.786576899999999 9.502034791168176 
Si 9.49954608 4.07222307 12.239859497051752 
Si 8.30421846 8.02984599 16.70362309022647 
Si 10.82107233 8.08620939 13.715389692666117 
Si 11.69783271 4.574199419999999 15.13483248318403 
Si 9.72483678 6.38721126 15.153367213360522 
Si 11.808425519999998 7.31411226 18.212218968353085 
Si 8.914832819999999 5.642660519999999 20.407186623555425 
Si 11.087430119999999 6.444242549999999 20.21911261101969 
Si 9.99872055 4.792843799999999 24.057458493211193 
Si 10.58465556 7.1006643899999995 23.757658369723323 
Si 8.42711022 5.11841574 25.83989896951335 
Si 11.99864385 7.361744219999999 28.966262702578934 
Si 9.13394961 5.58215946 28.075146010406495 
Si 11.53379241 5.17789053 28.26850086785285 
Si 8.634986909999999 7.78293846 28.726243124092328 
Si 10.25633061 7.7350132799999995 30.493945556101448 
Si 10.322435429999999 5.685503219999999 31.852054611938502 
Si 8.31161412 6.33203703 33.0259553717757 
Si 12.21608277 9.502543439999998 4.069391475862678 
Si 9.39098952 9.41223168 1.3291196333505872 
Si 10.86642369 8.14488597 2.7028813896253285 
Si 8.14263795 10.84837437 2.714333574862869 
Si 12.07846485 12.09012849 1.2638235392204522 
Si 8.144250659999999 8.145781920000001 5.430158211818148 
Si 9.50291811 9.50275521 6.78757696113094 
Si 10.86000543 8.14488597 8.144961195117517 
Si 8.14513032 10.860217200000001 8.14499571044373 
Si 10.86127605 10.86124347 5.429744027903591 
Si 8.14998474 8.14570047 10.862663465818795 
Si 9.49263912 9.49778676 12.244864219352666 
Si 10.86130863 10.86220458 10.861179306791627 
Si 11.818785959999998 9.640031039999998 15.261434699734055 
Si 10.12899168 11.68675551 14.83327207805929 
Si 10.421364599999999 9.0029943 17.34043085886004 
Si 8.72790507 9.208834739999999 21.449929143782455 
Si 11.94964353 11.47366602 19.685125999175245 
Si 9.94222683 11.06115435 18.511984576514738 
Si 8.75274732 8.18008866 24.80119474245326 
Si 10.89033741 8.2614735 21.667962459471248 
Si 8.1977796 10.02541986 23.543939469811182 
Si 9.29372193 12.032527049999999 23.99840277006041 
Si 11.444620950000001 11.856464729999999 24.93142106825567 
Si 10.49545152 11.95927092 28.317616177054237 
Si 12.134795669999999 10.87171794 27.025086241022265 
Si 9.337818959999998 9.005616989999998 26.87259752981234 
Si 11.62640106 8.63490546 27.03585502280078 
Si 8.56899612 11.216267729999998 27.179680387131196 
Si 10.38093282 11.03157171 34.4066719662824 
Si 10.719650790000001 9.77988069 31.929092820046368 
Si 9.958858919999999 11.491552439999998 30.582788005774226 
Si 9.50117508 12.22127928 4.0717385180451755 
Si 9.47949309 14.836182659999999 1.1914103848251556 
Si 10.86174846 13.57400088 2.693624379134948 
Si 8.142295859999999 13.57370766 5.430917548994839 
Si 9.50242941 14.93229366 6.787197292542595 
Si 10.86000543 13.574408129999998 8.145064741096157 
Si 9.50321133 12.215528909999998 9.502656067040013 
Si 8.14311036 13.57509231 10.867392065510003 
Si 9.496874519999999 14.94126945 12.238582429981863 
Si 9.80175816 12.835607759999998 16.910473440222187 
Si 10.89017451 13.533341039999998 13.575015860957027 
Si 11.815039259999999 14.315505389999998 17.04087234265566 
Si 11.72459718 12.88475469 21.553647699053126 
Si 8.4369168 15.88310838 18.735436798419006 
Si 11.398862339999999 16.26683562 24.748593385304343 
Si 9.45592146 13.305492809999999 22.026714760131267 
Si 9.471364379999999 15.558578999999998 22.467717083157343 
Si 12.069961469999999 14.087396519999999 25.51973480355969 
Si 10.89159174 14.15840463 27.54478350781444 
Si 11.748119939999999 15.717145859999999 29.051653619630393 
Si 8.87485716 14.79317706 26.510428211857217 
Si 8.825628779999999 12.92842818 34.236787530661026 
Si 8.23681044 15.26602689 30.48866471119083 
Si 10.53492219 15.328775969999999 31.03980544016323 
Si 10.69163199 13.17139353 32.12413892847717 
Si 12.263340059999999 1.454817546 1.3444789535154615 
Si 14.93234253 1.3582992959999998 4.074672320773297 
Si 15.016561829999999 4.051697669999999 1.3015971122281802 
Si 13.57545069 -6.922907909999998e-05 8.144857649138878 
Si 13.574978279999998 2.71484253 5.430468849754067 
Si 12.21727194 1.35749457 6.787059231237742 
Si 14.932472849999998 1.355520222 9.5013099693177 
Si 13.57489683 2.7137510999999996 10.86356086430034 
Si 12.2135904 1.3556912669999999 12.258221650597173 
Si 14.928156 4.0689487799999995 12.249109604476889 
Si 13.466486879999998 1.460655882 16.67880657067918 
Si 15.258924449999999 1.040696424 14.93837124637849 
Si 16.01766378 2.2190238 21.30403285987925 
Si 14.08721733 2.0450954699999997 19.949962097209145 
Si 14.38734429 0.18943641 18.540149082704712 
Si 13.1347899 3.6801553499999997 22.76579144033455 
Si 15.471036539999998 3.30678855 23.351758133456073 
Si 16.06723425 2.9203408799999995 25.687134135693718 
Si 14.506440479999998 2.70031185 30.072927606952813 
Si 12.43865304 1.6446221099999998 25.975716778162294 
Si 14.76012465 1.0931616269999997 26.364946111868573 
Si 15.18951276 0.765669096 28.716716894057488 
Si 13.499376389999998 3.08122092 34.28686926899638 
Si 14.560278929999999 1.88164161 32.42493999642522 
Si 16.27041942 8.14234473 2.6926234346747653 
Si 13.58164089 5.43823731 2.679500707648506 
Si 12.29285754 6.966532529999999 1.1865816906879287 
Si 14.929719839999999 6.788531699999999 4.072601401200505 
Si 13.57457103 8.14332213 5.4308140030162 
Si 14.93229366 4.07287467 6.7875079304785135 
Si 13.57519005 5.43001086 8.145030225769943 
Si 12.217516289999999 6.787521719999999 6.787266323195021 
Si 13.575222629999999 8.14539096 10.862559919840157 
Si 16.28757279 5.4315747 10.864906962022653 
Si 14.93366202 6.788906369999999 9.501689637906045 
Si 13.493463119999998 5.42657367 13.74569414908131 
Si 14.809353029999999 6.85800855 15.183188455208727 
Si 15.4751742 5.85728127 17.93619990462611 
Si 12.995168309999999 5.31962982 21.043718269579287 
Si 13.951016639999999 4.2492302099999995 19.079934269352968 
Si 14.05758582 7.782254279999999 18.562722106048145 
Si 14.380893449999999 6.97832649 21.96972995655327 
Si 14.338897829999999 7.704388079999999 24.2182653980385 
Si 12.33996822 7.280359379999999 25.297904801987446 
Si 16.12415151 6.530660999999999 25.322238106967752 
Si 14.142342689999998 7.65180396 29.777441899241598 
Si 12.80092635 5.206495769999999 26.291911681601437 
Si 15.139095209999999 4.95962082 26.749136207947718 
Si 15.62566122 6.05704554 28.848013194972502 
Si 16.07461362 4.47577524 30.470958348843457 
Si 13.878982259999999 6.82472808 32.27628248642496 
Si 16.00911153 5.834344949999999 32.47729974629065 
Si 12.36977892 5.12284662 33.13526540989291 
Si 14.99647626 9.55043604 1.068722206267709 
Si 13.579637219999999 10.853945549999999 2.677070828683097 
Si 14.93498151 12.216604049999999 4.068079893466575 
Si 14.93221221 9.502478279999998 6.787162777216381 
Si 13.574815379999999 10.860168329999999 8.144857649138878 
Si 12.21719049 9.50255973 9.50217285247303 
Si 14.937636779999998 9.490733189999998 12.242586207822594 
Si 12.222142649999999 12.204207359999998 12.212868511953028 
Si 15.632747369999999 10.818726569999999 16.512753336267465 
Si 13.967518409999998 8.86172742 16.422185120284023 
Si 13.476945059999998 10.762998479999998 13.64190656315821 
Si 12.61515519 9.846962909999998 21.299304260188045 
Si 14.5754775 8.82186579 20.597089948380457 
Si 12.72682314 11.411812889999998 23.055582119220595 
Si 14.788762469999998 11.948063399999999 23.976381991936385 
Si 15.44500512 9.74415672 24.399125707395676 
Si 16.02064485 9.89586549 26.65874056859534 
Si 14.38317405 9.992758409999999 30.07848457447314 
Si 14.286118229999998 11.037045149999999 27.938085650013875 
Si 13.043158649999999 10.22941953 32.11695974062483 
Si 13.57548327 8.52744033 33.92342288397137 
Si 13.24570851 13.73497866 0.05748182427546588 
Si 12.21622938 14.929964189999998 4.070288874344221 
Si 14.95956312 14.85768546 1.1825951705103037 
Si 13.59087732 16.27993278 2.694932509998429 
Si 13.574799089999999 13.575434399999999 5.4301927271443615 
Si 12.21725565 12.217516289999999 6.787853083740646 
Si 14.93252172 14.932798649999999 6.787645991783366 
Si 12.218347080000001 14.93056692 9.502414459756523 
Si 14.931185939999999 12.217109039999999 9.501068362034207 
Si 13.577486939999998 13.572355589999999 10.860143847005231 
Si 14.93465571 14.929100819999999 12.21600940663843 
Si 12.785499719999999 14.268199229999999 14.87296470320447 
Si 14.581879469999999 12.413827079999999 14.907169391481755 
Si 13.582455389999998 16.18435935 13.658197797130843 
Si 16.22769075 13.639779899999999 13.713629411029245 
Si 15.77385135 12.347754839999999 18.39418376814908 
Si 13.11011055 14.785390439999999 21.575116231957736 
Si 12.83383215 14.881713210000001 19.232250403931825 
Si 13.422096629999999 12.81708603 18.354836296266033 
Si 16.282718369999998 13.04757324 22.571953368321214 
Si 15.2806716 15.14606733 22.589659730668586 
Si 15.52415823 15.57684009 24.966316063057217 
Si 14.397248609999998 13.661022059999999 25.665216903548338 
Si 14.00640264 15.0931737 29.40136290482255 
Si 14.80036095 13.33382112 27.967113039359177 
Si 14.25050829 14.513233409999998 31.69266283548594 
Si 13.00994334 12.65434893 32.51996068949017 
Si 13.1893614 16.23909375 32.94615593757078 
