&CONTROL
  dt          = 30.D0,
  prefix = 'x.33_y.66_z3.16_struc28-scf',
  pseudo_dir = './',
  outdir='./',
  wf_collect= .true.,
  verbosity= 'high',
/

&SYSTEM
ibrav= 6, celldm(1) =30.783621515, celldm(3) =2.112208350681268, nat=  432, ntyp= 1,
  ecutwfc     = 12.D0, nbnd= 1728,
  degauss     = 0.05D0,
  occupations = "smearing",
  smearing    = "methfessel-paxton",
/
&ELECTRONS
  electron_maxstep=200,
  conv_thr    = 1.D-8,
  mixing_beta = 0.3D0,
  scf_must_converge=.false.,
/
ATOMIC_SPECIES
Si  28.08  Si.pbe-hgh.UPF
K_POINTS {automatic}
1 1 1 0 0 0
ATOMIC_POSITIONS (angstrom)
Si 2.70014895 0.011901588029999998 2.689591256592706 
Si 1.199175318 1.362722031 1.2708651497562113 
Si 4.06979586 1.362904479 4.066012882306121 
Si -0.0018433926899999997 0.0003008763 5.429837785336202 
Si -0.000214133679 2.7148914 8.144756678004303 
Si 2.71609686 -0.000113235048 8.14458463863414 
Si 2.7120406499999996 2.71482624 5.430250679824593 
Si 1.3572730259999999 1.3573479599999998 6.7875724946625136 
Si -0.00418657887 0.00213426693 10.86518083051762 
Si 2.7192571199999995 2.70875007 10.85551221791446 
Si 1.36425492 1.378490751 12.227250931972039 
Si 4.0715226 1.359767025 9.500530138510756 
Si 2.8326355199999997 0.0889525224 13.547481058602818 
Si 0.35212464 3.08260557 13.571050452315149 
Si 3.83750046 1.96503012 16.98692655477533 
Si 2.8065063599999998 2.03937768 20.868719679510924 
Si 1.72167381 0.26777339099999997 19.65917968364301 
Si 1.55238813 3.4219588499999998 17.344045879359665 
Si 1.46135961 1.81131768 22.785685565489047 
Si 2.1434382 3.25821177 24.459697452923 
Si 3.69699921 1.96266807 25.59756584718101 
Si 3.15221274 4.04055531 29.794603913803265 
Si 3.8088952199999997 1.86746931 29.044202589026334 
Si 0.1482484482 2.4003315 27.15366195030525 
Si 2.25479664 1.324036539 27.347137425990546 
Si 2.03023899 3.20370543 34.39393884361465 
Si 0.8997178769999999 3.7541445299999996 30.66577687643461 
Si 1.5003692729999998 2.1198177 32.32320416858485 
Si 4.07144115 6.784214849999999 4.06559998781773 
Si 1.362614517 4.07030085 4.070348274434228 
Si 0.25282405799999996 4.97201751 0.14693263263888326 
Si 2.7397010699999997 5.40041193 2.72571608353953 
Si 1.2934488059999998 6.65791848 1.4615122981960298 
Si 3.03696099 7.8203403 0.32517298986002735 
Si -0.000443547378 5.428447019999999 5.431248508171538 
Si 2.71498914 5.4299457 8.144412599263976 
Si 1.357768242 6.78724479 6.787159600174122 
Si 2.71443528 8.14576563 5.431110876675408 
Si 1.3588270919999998 4.07295612 9.502491387330613 
Si -0.0069344412299999995 5.43618477 10.858436887207231 
Si 1.3388571809999998 6.80467509 12.25484604694618 
Si 2.42799192 5.0999754600000005 13.573768674363723 
Si 3.3015105899999995 4.22637534 16.05540218109081 
Si 2.54311335 7.69054158 21.209632895425905 
Si 0.24160024799999996 6.6989529899999996 18.216491933330218 
Si 4.02377661 5.5118844 18.31176733652648 
Si 1.7325718199999998 5.11030332 19.04933452428925 
Si 1.530725688 7.4155012199999994 24.825453153889512 
Si 1.42078122 6.25387761 22.703209891432913 
Si 3.2572995299999996 4.887879659999999 23.290173814554997 
Si 0.360952191 4.26980448 25.71572248660895 
Si 3.5761111199999998 8.00119188 28.56913307225826 
Si 1.2588749099999998 6.15783177 26.81846044147968 
Si 3.2636037599999996 5.69863296 28.017987746004103 
Si 0.01562160501 7.737261299999999 28.189132511442246 
Si 2.1726298799999997 7.44622416 31.248852709791013 
Si 0.1459186524 5.95919151 31.39253999175114 
Si 1.3592897279999998 9.502217639999998 4.070313866560196 
Si 2.70444951 10.856665979999999 2.7178573251104847 
Si 1.321843905 12.104414819999999 1.2321253243829096 
Si -0.0011559758669999998 8.14519548 8.144928717374466 
Si 2.7152009099999996 10.860347519999998 8.145135164618662 
Si 4.05531405 9.500067360000001 12.245246250091087 
Si 1.356818535 9.50174523 9.502353755834484 
Si 2.7156570299999996 8.14763898 10.86518083051762 
Si 1.374851565 12.21616422 12.216481267399836 
Si 0.839580084 10.18009341 15.257173911408573 
Si 2.67599088 10.93681278 13.746220939015101 
Si 3.82639068 9.359093699999999 17.36809698330845 
Si 0.877038939 8.36059815 19.695204727755144 
Si 1.148262552 11.97018522 19.107724686522566 
Si 1.531372401 9.9386919 17.7478222811322 
Si 2.3745118499999998 11.447846369999999 22.78678661745809 
Si 0.187344774 10.56077442 23.17879552631148 
Si 3.70178847 8.268266429999999 24.608683547484148 
Si 3.5281044899999996 9.40043772 22.510422573228265 
Si 0.421394607 9.425182229999999 25.186116489499206 
Si 3.47623713 11.40713766 26.652820935886755 
Si 1.263357918 10.85194188 26.920514195860367 
Si 1.6630298099999998 9.33353469 28.813016083401312 
Si 0.360442314 10.515634829999998 34.05216543084886 
Si 0.16243068509999997 11.26386711 31.681153239136574 
Si 3.9759817499999994 10.5842646 32.237150075629316 
Si 2.1854989799999998 9.053411849999998 32.95968102243984 
Si 2.36778408 11.05589268 30.368596068415062 
Si 4.07166921 12.22028559 4.072447154750217 
Si 4.03705296 14.964124319999998 1.2382017549370663 
Si 3.0855377699999997 13.137200819999999 0.1611341385670977 
Si 1.361316204 14.927194889999999 4.068903143724859 
Si 2.42279541e-05 13.57486425 8.145100756744629 
Si 2.7161294399999996 13.57470135 5.430629166438952 
Si 1.3580011889999999 12.21728823 6.7876757182846115 
Si 1.359952731 14.931918989999998 9.502250532212386 
Si 2.7168462 13.571834309999998 10.85816162421497 
Si 3.96338958 12.46501026 15.202396575948677 
Si 2.59248834 14.099907239999999 16.544475702590155 
Si 0.1068539292 13.67014446 13.521571929456272 
Si 1.4098799519999998 15.082503749999999 14.858283427748665 
Si 3.32483787 16.076698739999998 17.938717166265054 
Si 1.3249536659999999 14.79320964 21.22425624188976 
Si 2.60307684 12.838491089999998 20.848350218083624 
Si 0.41142512699999995 13.52236158 17.491758882581607 
Si 1.3808707199999999 15.797406689999999 23.34976825237946 
Si 3.5663859899999997 12.530805569999998 24.568391926991975 
Si 2.6813665799999997 14.737448969999999 24.99243456656971 
Si 1.7896031099999998 15.29378505 27.170418584959126 
Si 3.7212713099999997 14.65759539 28.32359848316164 
Si 3.7120022999999995 12.364924499999999 28.79832392118939 
Si 3.32982261 14.50596807 32.75818851210495 
Si 1.86678513 16.00811784 31.73369406278435 
Si 3.6362538 16.11348156 30.148420082480467 
Si 4.26433104 3.9504716099999997 0.6208556790441957 
Si 8.16889743 -0.008585905139999999 2.710459632193476 
Si 5.420236859999999 2.71972953 2.670983478315877 
Si 6.826259339999999 1.303841826 1.3580271762555882 
Si 5.43167244 -0.001592000523 5.429700153840072 
Si 5.4299457 2.71388142 8.144309375641878 
Si 6.7872285 1.357784532 6.787503678914448 
Si 4.064208389999999 4.05621 12.2181328453534 
Si 5.42898459 -0.001490929218 10.862324976972914 
Si 6.81620841 1.3617560340000001 12.239396911505546 
Si 4.6246332599999995 1.054808451 14.910480172656117 
Si 5.52144663 2.76200208 13.609208784617298 
Si 5.92376076 3.11642361 20.395370556444472 
Si 5.45532552 3.54734298 18.099367530123256 
Si 5.0043694499999996 1.074159342 21.07210462291761 
Si 8.01660222 3.75031638 21.252573922218588 
Si 7.779387239999999 3.12075675 25.079520895746217 
Si 5.87086713 0.0967309974 23.099450968792308 
Si 7.9335558 1.093267512 23.831065594347436 
Si 6.901291079999999 3.9814388999999997 29.490679162473327 
Si 5.64450129 3.15558477 26.171385962422644 
Si 7.394601149999999 0.26704522799999997 27.691869915923142 
Si 6.04665252 2.1609825299999996 28.232314393353157 
Si 6.21944055 0.698881725 32.769233439669414 
Si 5.6543730299999995 3.0740533199999995 33.16967227766079 
Si 7.9736292 2.7554372099999997 34.17476068602701 
Si 6.78388905 4.07732184 4.066012882306121 
Si 6.84957033 6.957247229999999 1.1695374015176139 
Si 4.0720113 4.07280951 6.786781113559764 
Si 5.42965248 5.430222629999999 5.431042060927343 
Si 6.78770091 6.78781494 6.787366047418318 
Si 6.7888575 4.0723370999999995 9.502663426700778 
Si 4.0729887 6.787521719999999 9.502594610952713 
Si 5.43186792 5.43362724 10.86359806831212 
Si 6.79446126 6.79294629 12.222227382363279 
Si 7.194673979999999 7.319895209999999 16.376668500933178 
Si 6.36165225 4.52902725 14.888080646660896 
Si 4.35693969 6.02272251 14.756917830848632 
Si 7.367576039999999 4.86508995 17.102399380028732 
Si 4.58499969 7.20234657 16.76158938773585 
Si 5.31536184 8.01642303 13.596993989335726 
Si 8.14211667 5.45674275 13.646919814557025 
Si 6.359371649999999 7.33563135 21.393542982130135 
Si 4.10910363 4.29731829 21.22109071747876 
Si 4.39580763 6.4852119 20.425683893467195 
Si 6.85693341 6.70867812 23.599638233604182 
Si 4.79046546 6.216768989999999 24.502122361605192 
Si 5.175267839999999 5.37182298 26.64999949021608 
Si 7.220803139999999 5.71554198 27.822723060869112 
Si 7.179019289999999 7.817701319999999 28.816594502300703 
Si 4.8637378799999995 6.218235089999999 34.29663337585046 
Si 4.46113053 6.63292962 31.788574621866342 
Si 5.17595202 4.4065590299999995 31.11824041996327 
Si 4.15810395 9.5998599 1.4048528520265509 
Si 5.4547390799999995 8.15912343 2.706175851876418 
Si 6.78669093 9.4988619 4.07382346971152 
Si 4.711833629999999 11.447911529999999 0.056455063397725255 
Si 4.07276064 9.50269005 6.78712519230009 
Si 5.43001086 8.145244349999999 8.144791085878335 
Si 5.4304995599999994 10.86116202 5.430525942816854 
Si 6.78910185 9.500213969999999 9.502491387330613 
Si 5.42787687 10.86228603 10.863976554926479 
Si 6.77009142 12.244981229999999 12.240153884734264 
Si 7.958414339999999 10.745437860000001 13.607041088553245 
Si 6.582153689999999 9.41951331 15.026847602634362 
Si 5.30079858 10.939810139999999 16.415687030086143 
Si 5.5605100499999995 9.92440557 19.03213058727295 
Si 7.53994053 8.783730899999998 18.189997870325115 
Si 5.61692232 9.54678708 21.461877019958877 
Si 6.300059759999999 12.16685439 19.191404636169842 
Si 7.37951661 8.752682159999999 24.780929364891335 
Si 6.961401179999999 10.527200729999999 23.203706827111077 
Si 7.223881949999999 11.4652278 27.521516531587753 
Si 5.957204129999999 11.97261243 29.411093749835928 
Si 4.332618719999999 9.217435859999998 26.666652901247858 
Si 6.64193799 9.2548377 26.941330959650085 
Si 5.97983094 10.20032559 31.032564813622102 
Si 5.3145962099999995 8.16534621 30.161563890360917 
Si 7.948770659999999 10.37682774 32.27744169612149 
Si 5.42390211 13.578855299999999 2.7107693030597697 
Si 6.72801435 12.22017156 1.2755170943254186 
Si 6.78540402 14.93296155 4.0710020240408475 
Si 6.053363999999999 15.627094739999999 0.21803719248472736 
Si 4.0725 14.932114469999998 6.788019797024938 
Si 5.42991312 13.574668769999999 8.144963125248498 
Si 6.787456559999999 12.217516289999999 6.787882165528807 
Si 8.14407147 13.576981949999999 10.862806687209371 
Si 4.07127825 12.218558849999999 9.501562374731733 
Si 6.787391399999999 14.93261946 9.502629018826743 
Si 4.08108483 14.925126059999998 12.21906185795228 
Si 5.44146273 13.737373289999999 13.771682765799225 
Si 6.3806952599999995 15.598961909999998 15.171670344437567 
Si 4.8697326 13.61733228 20.401151079281952 
Si 5.200077509999999 15.73144848 19.329070540174268 
Si 6.95767077 14.94434826 17.605752169251602 
Si 5.90457114 12.553008839999999 23.980808662137303 
Si 6.21953829 14.177431349999999 22.297885135328908 
Si 4.554293039999999 16.14247776 25.038609933521457 
Si 6.905298419999999 13.23295344 25.99673159383318 
Si 5.672894759999999 15.11495343 26.89897486671596 
Si 7.6942557 13.92480603 34.399478511333896 
Si 5.25378564 15.23113371 31.59702598712687 
Si 8.11647621 12.79054962 32.32055476228434 
Si 7.01712927 13.888006919999999 30.393817040080954 
Si 12.15998001 1.281190581 1.382814608708672 
Si 9.50120766 1.357768242 4.072860049238608 
Si 10.84511637 2.72520297 2.695223825571842 
Si 12.217239359999999 4.07424303 4.071208471285043 
Si 9.436780709999999 4.06055943 1.1530663522182094 
Si 8.1453258 -0.00021334687199999999 8.145479243358988 
Si 8.14631949 2.71337643 5.4296313380920065 
Si 10.86121089 0.001569533355 5.43087002155718 
Si 10.860608159999998 2.71409319 8.145135164618662 
Si 12.224227769999999 1.351625283 12.239740990245872 
Si 9.502347959999998 1.358514324 9.502250532212386 
Si 8.14482081 2.70949941 10.86266905571324 
Si 10.86020091 0.0016986397499999999 10.86242820059501 
Si 12.217239359999999 4.0730701499999995 9.503798886543853 
Si 11.071172699999998 2.59265124 16.36944284738633 
Si 8.343037529999998 0.060326105399999996 13.84858436426208 
Si 10.13234742 0.405974493 15.856146182568036 
Si 11.04049863 2.86914141 13.614335557848156 
Si 9.08170758 1.69779267 21.789061494134852 
Si 12.054828059999998 1.4717395979999999 23.749759788008408 
Si 11.31895989 2.4284806199999998 21.813697531942193 
Si 10.928162789999998 1.218751011 25.759592526000514 
Si 8.86457817 0.0318464613 25.75611733072322 
Si 11.9809692 0.956358207 28.89538853383535 
Si 9.78734151 3.0851631 26.522690356295467 
Si 10.43226261 2.83566546 28.82571258891934 
Si 11.206966139999999 3.90432204 32.16568492126361 
Si 10.925474939999999 0.1229657166 34.17472627815297 
Si 8.78848758 3.04551324 30.562690885832946 
Si 8.22659661 0.882860985 31.45574725634902 
Si 9.88283349 1.8682349399999998 32.870461405073314 
Si 10.86024978 8.155441889999999 2.678745894697631 
Si 12.16496475 6.72542424 1.1874948709752269 
Si 8.14236102 5.431086 2.675243173121112 
Si 9.500653799999998 6.78861315 4.067389197267425 
Si 8.145244349999999 8.14651497 5.4304915349428216 
Si 9.50239683 4.07297241 6.787813349780742 
Si 8.145 5.4305321399999995 8.144825493752368 
Si 10.86075477 5.42989683 5.429596930217974 
Si 12.206194739999999 6.78439404 12.241014081585078 
Si 9.501223949999998 6.788417669999999 9.502319347960452 
Si 9.50319504 4.07671911 12.244214013870108 
Si 10.85964705 5.43167244 10.862256161224849 
Si 10.751106779999999 8.07830874 16.896777924809925 
Si 9.41004882 6.85100385 15.258137331881485 
Si 8.322349229999999 7.38196011 20.12471821930406 
Si 8.97893397 5.15107719 19.5738825639162 
Si 11.34807012 5.068943009999999 19.556609811151837 
Si 11.989700639999999 7.160644169999999 18.66066317921702 
Si 8.22601017 4.79134512 23.425327943755043 
Si 10.50320556 5.4680643 23.544000701293474 
Si 10.538538569999998 7.802339849999999 23.595440472972204 
Si 11.93868036 4.713658109999999 21.823985486277937 
Si 10.960987139999999 4.93821576 25.778310409474248 
Si 11.77739307 4.65183756 29.55546918927671 
Si 9.37321713 6.32050371 26.844507202122358 
Si 10.604529359999999 6.595755839999999 28.828809297582275 
Si 9.172100789999998 7.886445119999999 30.144394361218655 
Si 9.88791597 7.3466271 32.49603491985059 
Si 10.72214316 5.52569832 33.92547563866083 
Si 9.55698462 9.675364049999999 1.1877770155422942 
Si 8.141188139999999 10.865706929999998 2.693527517382035 
Si 9.502657469999999 9.502087320000001 6.787744534032677 
Si 10.85958189 8.14477194 8.144963125248498 
Si 8.14459275 10.8600543 8.1448599016264 
Si 10.8595656 10.85951673 5.429906601084268 
Si 8.14555386 8.1456516 10.8551337313001 
Si 9.469279259999999 9.506583359999999 12.21469205795014 
Si 10.86134121 10.86011946 10.864905567525359 
Si 11.817971459999999 10.03239198 14.671551895373756 
Si 9.29877183 10.02447504 16.9634603846851 
Si 10.741984379999998 8.150277959999999 13.62961265391863 
Si 9.83839437 11.50608312 14.821088515919428 
Si 9.8230329 8.62431696 21.50323528454606 
Si 8.43206238 12.150678419999998 20.257635836691986 
Si 11.96927298 8.76884184 20.4441609218227 
Si 11.97310113 10.957517369999998 19.44660783786962 
Si 9.93453795 11.614884029999999 18.543882854750382 
Si 9.02220021 10.770100919999999 22.06879751001987 
Si 10.921988879999999 11.99460393 22.824187976531526 
Si 9.507479309999999 8.40357117 25.62564267239161 
Si 12.14189811 11.47672854 26.56869368387705 
Si 10.512051029999999 9.92515491 27.203897446392844 
Si 11.96417421 8.35647678 28.167111472061386 
Si 9.391787729999999 11.64078513 28.38133489578834 
Si 8.24233275 8.46456093 33.971857452856774 
Si 12.136620149999999 8.42351013 32.24372197956955 
Si 10.91840508 11.21222781 34.19588712068302 
Si 11.358984419999999 10.6549632 31.821055654953113 
Si 9.46813896 10.22699232 30.310240314055772 
Si 9.50034429 12.21894981 4.068283801992272 
Si 9.50871735 14.955441749999999 1.1965407010583968 
Si 10.863116819999998 13.581135899999998 2.6837556811567773 
Si 8.14514661 13.57650954 5.4296313380920065 
Si 9.50269005 14.93252172 6.7875724946625136 
Si 10.86002172 13.575157469999999 8.145066348870596 
Si 9.5030973 12.217614029999998 9.50242257158255 
Si 9.49508262 14.92501203 12.250957957180498 
Si 11.95436763 15.22619784 15.10364597747512 
Si 10.78326324 13.53066948 13.729842790975587 
Si 10.90325538 13.738497299999999 18.2876130089556 
Si 12.026467169999998 12.86154144 20.885545129912863 
Si 11.68455636 15.34397454 20.798768471602653 
Si 9.4260456 16.03830321 20.438173951741028 
Si 9.257183459999998 15.48965601 17.961082284386244 
Si 8.46474012 14.185136519999999 21.513626462503904 
Si 12.054143879999998 15.41056806 23.371307581523865 
Si 9.977380649999999 14.05010871 23.377294551605537 
Si 9.112593419999998 14.014726829999999 25.570590073939453 
Si 8.50904892 15.56190216 29.542428605018355 
Si 10.796507010000001 15.100748549999999 28.93210173542813 
Si 10.9268433 13.51009521 27.05119530143617 
Si 11.69739288 14.15965896 30.89372904190057 
Si 10.4290209 12.8200671 32.441567255256984 
Si 16.28069841 2.71296918 2.7322260533064977 
Si 13.58882478 -0.021088382399999998 2.7064992858923245 
Si 13.81383855 2.33364024 0.07514025939112752 
Si 14.933792339999998 1.358002818 4.074718074436368 
Si 14.824942559999998 3.9413003399999997 1.4071788243111545 
Si 13.574978279999998 0.000484375005 8.144963125248498 
Si 13.57540182 2.713914 5.430319495572658 
Si 12.2175 1.3575678749999998 6.7880542048989705 
Si 14.934329909999999 1.360379529 9.502732242448843 
Si 13.573789109999998 2.7111284099999997 10.863907739178414 
Si 14.9507991 4.08888774 12.2290057335477 
Si 15.96881007 1.99777302 16.826998756271816 
Si 14.809841729999999 1.90535985 14.742500931628973 
Si 12.88301166 3.5504055 14.965188692367947 
Si 14.58896562 1.3842574109999999 20.703837147146714 
Si 12.37238532 1.352809566 20.030681499572967 
Si 15.84811746 0.680703714 18.820109267484078 
Si 12.3556392 3.17366667 18.43456903894882 
Si 14.475619799999999 3.92683482 17.55310812198173 
Si 15.646365809999999 2.6920202399999997 22.276930740043056 
Si 14.16760848 2.4932333699999996 24.134061333078492 
Si 14.962984019999999 1.1130794099999999 25.845164908719582 
Si 15.39672156 3.13913187 29.119899911898052 
Si 12.918817079999998 0.38175777899999996 26.797093151705436 
Si 15.651953279999999 0.7017992639999999 34.21460500415675 
Si 13.728951359999998 1.95664077 30.34485463533257 
Si 13.4921925 3.44667078 32.4003122142919 
Si 14.582091239999999 0.347736114 31.88763489120619 
Si 16.26976782 8.15733153 2.688239027143225 
Si 13.55878602 5.43310596 2.697873231872352 
Si 14.93358057 6.78932991 4.069763340575674 
Si 14.932049309999998 4.07207646 6.787882165528807 
Si 13.575287789999999 5.430711329999999 8.14472227013027 
Si 12.217109039999999 6.78770091 6.7872972316702525 
Si 14.93325477 6.78537144 9.499738757408007 
Si 13.598892 5.456596139999999 13.68631683032435 
Si 14.50681515 7.151912729999999 15.159593180652125 
Si 14.36893659 6.32700342 17.392423350249498 
Si 13.72846266 8.10896652 21.997814065890623 
Si 14.04810504 5.7353017500000005 22.389650935373847 
Si 14.537815019999998 4.756614839999999 24.5858367191265 
Si 16.07001984 4.90056957 21.527320796368876 
Si 13.120438409999998 7.80553269 26.16498609785258 
Si 14.904372599999999 6.780044609999999 29.75961110591211 
Si 13.21729875 5.48384931 26.340225400300604 
Si 13.93106139 4.96563183 28.56982122973891 
Si 14.76773208 5.57868969 33.07264207288886 
Si 13.690702439999999 7.69836078 34.043288199348446 
Si 14.933173319999998 12.21455151 4.067079526401131 
Si 12.2181516 9.4993506 4.067423605141458 
Si 14.941595249999999 9.422803889999999 0.9803181798501487 
Si 13.588368659999999 10.854776339999999 2.6691942688661814 
Si 14.93258688 9.50236425 6.786884337181862 
Si 13.575010859999999 10.859972849999998 8.145203980366727 
Si 16.2921177 10.860852509999999 5.430388311320724 
Si 13.57422894 8.14410405 5.430319495572658 
Si 12.21728823 9.50176152 9.502697834574809 
Si 13.57652583 8.1435339 10.862497016343076 
Si 14.939021429999999 9.48936483 12.22673481386155 
Si 14.932880099999998 12.21789096 9.501665598353831 
Si 12.20932242 12.24726183 12.224532709923464 
Si 16.28796375 10.860380099999999 10.860088465160796 
Si 13.06150119 8.84778318 16.269212710329374 
Si 13.60884519 10.9035486 13.493873590860032 
Si 15.35425353 11.912013629999999 14.770577756839575 
Si 16.24052727 8.328767489999999 13.904428343816988 
Si 15.689257379999999 9.29829942 21.290938701764933 
Si 15.324947819999998 11.16984123 19.91889031684106 
Si 13.8119652 10.67164416 18.028590533238198 
Si 14.644954349999999 11.97456723 23.649839321817744 
Si 12.63903633 8.70268815 24.01559502278426 
Si 12.568288860000001 11.046249 24.277404536298295 
Si 14.998642829999998 9.002098349999999 26.688295454014362 
Si 13.371956009999998 8.603530919999999 30.09825340214094 
Si 14.494434749999998 10.72082367 29.905500491810326 
Si 14.27732163 11.080506869999999 27.579356167836547 
Si 12.96843642 12.186565289999999 30.923491852938767 
Si 12.384146699999999 12.37989501 1.2441611987195125 
Si 12.218803199999998 14.93268462 4.0730320886087705 
Si 15.084002429999998 15.06176658 1.1773755152222398 
Si 16.297167599999998 13.57756839 2.6801153280841286 
Si 13.572990899999999 13.5752715 5.430147456202496 
Si 12.21764661 12.21738597 6.7876757182846115 
Si 14.932538009999998 14.93229366 6.787606902536546 
Si 12.21883578 14.93309187 9.502181716464321 
Si 13.571769149999998 13.575010859999999 10.8613615565 
Si 14.92629894 14.93788113 12.226700405987517 
Si 14.45882481 12.56602455 16.771877342071594 
Si 12.90593169 14.32071819 17.18969215644943 
Si 13.635316439999999 16.2984708 13.705516424034538 
Si 14.245865639999998 12.54320226 21.462737216809696 
Si 15.32092419 14.43080601 20.861184355097787 
Si 15.01589394 14.80861998 18.57003283901516 
Si 14.25990762 15.907657409999999 22.303631250292355 
Si 15.556265819999998 15.69344391 24.308406030801667 
Si 14.884580249999999 13.65962112 25.26556427064047 
Si 12.68544654 14.57961516 25.67684158895212 
Si 15.941670929999999 12.67482546 27.1684917440133 
Si 15.9281991 14.818361399999999 28.220340453189813 
Si 13.78073727 13.702105439999999 34.04463010643572 
Si 14.964678179999998 13.10072751 31.963745108566297 
Si 12.66756012 15.35835861 32.67646981127753 
Si 15.975081719999999 15.00541947 30.75227827175256 
