&CONTROL
  dt          = 30.D0,
  prefix = 'x.33_y2.00_z3.17_struc19-scf',
  pseudo_dir = './',
  outdir='./',
  wf_collect= .true.,
  verbosity= 'high',
/

&SYSTEM
ibrav= 6, celldm(1) =30.783621515, celldm(3) =2.114852743146671, nat=  432, ntyp= 1,
  ecutwfc     = 12.D0, nbnd= 1728,
  degauss     = 0.05D0,
  occupations = "smearing",
  smearing    = "methfessel-paxton",
/
&ELECTRONS
  electron_maxstep=200,
  conv_thr    = 1.D-8,
  mixing_beta = 0.3D0,
  scf_must_converge=.false.,
/
&IONS
/
ATOMIC_SPECIES
Si  28.08  Si.pbe-hgh.UPF
K_POINTS {automatic}
1 1 1 0 0 0
ATOMIC_POSITIONS (angstrom)
Si 2.70814734 -0.0027837818099999997 2.7109797997664513 
Si 3.02412447 2.49347772 0.07556506084057557 
Si 1.387790712 1.3642190819999997 1.3481036159489777 
Si 1.360210113 4.07039859 4.075099662921735 
Si 4.0706592299999995 1.356966774 4.069759765487927 
Si 0.00177016914 -9.051212699999998e-05 5.431502513011386 
Si -0.00014273786700000002 2.7146633399999995 8.14537619267745 
Si 2.7151846199999996 0.00023412150899999998 8.144997232214406 
Si 2.7128388599999997 2.7142072199999996 5.430021122110395 
Si 1.357279542 1.3573316699999998 6.78797426500341 
Si 2.7156407399999996 2.7147936599999998 10.860386753732648 
Si 1.347635862 1.363989393 12.226332517300781 
Si 1.83943422 3.60748566 15.253951009416467 
Si 3.6234009899999995 1.8268746299999998 14.829205232246006 
Si 2.0407297499999997 3.87786708 17.74565050488492 
Si 3.2874523199999994 3.36246777 21.465147449666215 
Si 1.5044091929999999 2.6943822899999996 19.979140121215362 
Si 2.21894235 0.482154678 19.46874927939686 
Si 3.8083250699999995 2.06360091 23.40239333674946 
Si 2.5095396599999997 0.054947961899999995 23.62401630572809 
Si 0.313483131 0.533767914 24.37614947201777 
Si 3.1913087399999998 3.2125671899999997 25.371058491314198 
Si 2.47259394 1.92331143 30.060108555319133 
Si 0.0311720553 1.68272442 30.018732962944913 
Si 0.554083173 1.213828173 26.66713772587741 
Si 0.165493368 0.0644870601 34.252617059882276 
Si 2.6690513399999998 3.8626033499999997 31.369485857040086 
Si 1.2531734099999998 3.37685184 33.23965574216446 
Si 0.10904721479999999 5.087595059999999 0.029781675967835017 
Si 2.70868491 5.41616436 2.7217181612510837 
Si 1.2253484609999998 6.620956469999999 1.3928898524905946 
Si 0.013609838879999999 8.13042045 2.7236853105637966 
Si 3.03409395 7.512410429999999 0.23610235925253745 
Si 0.000757719576 5.42937555 5.430124474963952 
Si 2.71531494 5.43005973 8.145272839823892 
Si 1.357414749 6.78724479 6.787457500735621 
Si 1.35850455 4.0716366299999995 9.501710140864729 
Si 0.0018598781700000001 5.42947329 10.866587924946101 
Si 1.363600062 6.78486645 12.267294698260768 
Si 2.8318210199999996 5.41372086 13.875017237251264 
Si 1.557623736 6.1711081199999995 17.76542535086561 
Si 2.51965575 7.23565962 19.84970789761009 
Si 2.4933473999999998 5.17604976 22.69831924736405 
Si 1.264610619 4.1202622799999995 24.394029515683233 
Si 0.994812381 6.553092329999999 21.567122265176362 
Si 0.327549546 5.49378621 26.040474923806627 
Si 2.66743863 7.02149499 28.900696244110225 
Si 1.7409611699999998 7.262277479999999 26.799326025577553 
Si 1.6863408 5.91299307 30.716261371605007 
Si 2.72365542 7.29554166 32.35888272414678 
Si 4.0440413699999995 9.42648543 1.3645022687134465 
Si 1.357219269 9.502478279999998 4.070448784511644 
Si 2.7120406499999996 10.86842736 2.6970409449166532 
Si -9.17912178e-05 8.145032579999999 8.144997232214406 
Si 2.71642266 8.14596111 5.42964216164735 
Si -0.0007892179199999999 10.85992398 5.429676612598535 
Si 2.7147284999999997 10.85998914 8.145479545531009 
Si 1.357940916 9.50220135 9.502571414644375 
Si 2.7148914 8.14635207 10.864073005509534 
Si -0.0009620206109999999 10.8580995 10.86369404504649 
Si 2.7780966 10.91754171 13.802532435956216 
Si 1.0985161499999998 11.133954359999999 15.710701720238589 
Si 0.798120405 8.802464399999998 15.920886973423514 
Si 0.51807087 9.812542139999998 19.72826829467994 
Si 2.92886055 9.56397303 19.9327691409192 
Si 1.265446296 11.1930219 18.030663224045536 
Si 3.73358655 10.400057279999999 22.20188104077582 
Si 1.9970725499999997 11.927179619999999 22.759194078109466 
Si 0.8982615509999999 8.41663575 22.99025660771302 
Si 3.1093048800000003 8.637072029999999 23.688818544908692 
Si 0.385825392 10.45262511 21.96740786700486 
Si 3.2735406599999997 8.952202080000001 25.97419129372504 
Si 2.32951887 9.28955169 29.66419822429124 
Si 0.0472356243 9.32090994 28.97893435425331 
Si 1.9934235899999997 10.86244893 26.56388822517339 
Si 0.333202176 9.14119866 26.686981473760465 
Si 3.0177876599999998 11.31247647 28.630359630154786 
Si 2.1569589 9.49667904 31.983091748611425 
Si 4.057985609999999 15.05818278 1.1785739302584828 
Si 0.016538096699999998 13.58770077 2.711940981304537 
Si 1.5302500199999998 12.430051919999999 1.2720014647794144 
Si 1.357116642 14.931951569999999 4.076133191457311 
Si 0.0001471737969 13.57457103 8.145066134116778 
Si 2.71388142 13.576200029999999 5.43029672971988 
Si 1.357794306 12.217581449999999 6.787423049784435 
Si -0.0011258312219999999 16.2939096 10.861179125609922 
Si 4.06401291 14.9305995 12.229364201005136 
Si 1.35721764 14.93283123 9.502571414644375 
Si 2.71451673 13.57303977 10.860076695171974 
Si 1.3793752979999998 12.21575697 12.240078446823938 
Si 2.6631706499999996 16.289478719999998 13.61294885158043 
Si 0.056675516399999994 13.547741399999998 13.699214033349822 
Si 0.950826123 15.355833659999998 15.093030616427317 
Si 1.241052021 15.08781429 17.74806207146793 
Si 2.76566733 15.51723498 21.438137903936507 
Si 1.503896058 13.608666 21.200357438851704 
Si 2.06630505 13.15484289 18.919359960835962 
Si 1.67987367 12.63825441 25.03223338640127 
Si 2.92418532 14.69001249 25.314248872808715 
Si 3.31384212 15.0804675 29.24827189062436 
Si 2.4927772499999996 16.11076113 27.212702988856677 
Si 3.09549096 16.27630011 31.269715902405835 
Si 2.90603826 13.777137179999999 33.91709924628319 
Si 2.5085785499999997 13.08826566 30.140723781094042 
Si 0.42467378399999994 13.874681699999998 30.95245709293526 
Si 1.492872615 15.226719119999998 32.65016551642322 
Si 8.13576357 -0.0219278061 2.7156582389374915 
Si 5.43691782 2.73131172 2.703379919934851 
Si 6.74347356 1.285888617 1.3701763403737577 
Si 8.14400631 2.7159991199999998 5.430572337329368 
Si 5.43093939 -0.000819329985 5.42964216164735 
Si 5.42953845 2.71546155 8.145066134116778 
Si 6.7872936600000005 1.3573886849999999 6.787423049784435 
Si 4.07232081 1.3599282959999999 9.502295807034889 
Si 5.42865879 -0.00048690809999999996 10.863452888388188 
Si 6.80500089 1.36601424 12.246520774695695 
Si 5.05203399 0.6170977799999999 16.289477700161022 
Si 6.44370498 2.6366016599999997 16.714430183038598 
Si 5.49653922 2.8562885999999996 13.61811649425831 
Si 4.37251293 3.3947382599999996 18.114310133524803 
Si 7.2483984 3.65394474 20.649142219877955 
Si 5.957236709999999 0.211067901 19.985789154794237 
Si 4.300103879999999 1.0846419569999999 18.53233797521402 
Si 7.093122119999999 1.5487326539999997 21.631166583430872 
Si 6.120185579999999 1.9611530999999998 23.754413155966567 
Si 6.66327789 3.9672666 25.043188788878375 
Si 5.99424759 0.38755539 25.53022188579287 
Si 6.27645555 0.528265152 29.15542657717847 
Si 8.114211899999999 2.9478384 26.692286920243088 
Si 4.115065769999999 1.436673744 26.642126335316476 
Si 7.59734649 0.6892005779999999 27.258143793470825 
Si 4.545040319999999 2.1299175 28.818978587897366 
Si 7.80069456 0.45460828799999997 30.951216858692568 
Si 6.73150041 1.9590679799999997 32.66218889838708 
Si 5.12931375 3.96045738 31.58507990956119 
Si 5.04229257 0.757993248 34.23342788007175 
Si 4.10301117 4.15614915 1.3000100880935181 
Si 6.788743469999999 4.07145744 4.074135036288531 
Si 4.07336337 6.7855506299999995 4.06865733504998 
Si 4.99314564 6.02721855 0.18359910964528794 
Si 6.830315549999999 6.899939009999999 1.4059088669437307 
Si 8.1409275 5.41564308 2.6991252274633974 
Si 4.07219049 4.07235339 6.787698657393922 
Si 5.42989683 5.4283167 5.4310546506459705 
Si 6.787440269999999 6.78766833 6.787423049784435 
Si 6.7888575 4.07333079 9.502158003230145 
Si 4.073184179999999 6.788417669999999 9.502778120351492 
Si 4.06999134 4.0893112799999995 12.231190101417988 
Si 5.4256777199999995 5.4283655699999995 10.859732185660116 
Si 6.79843602 6.8022478799999995 12.223404186449983 
Si 6.61118247 4.5589194 15.077458786491308 
Si 4.80480066 6.4018071 15.253296441343933 
Si 6.38983395 8.07959565 21.08560132045161 
Si 5.05183851 4.32367551 20.159525301624523 
Si 4.83718518 6.66612864 19.83982047461975 
Si 7.78705983 7.03348443 17.944398042276145 
Si 5.376123539999999 7.41709764 17.552725178244113 
Si 6.187707629999999 7.49296017 23.358881785401717 
Si 4.10983668 6.5026421999999995 23.831307679013403 
Si 7.745585489999999 5.85387666 24.020753459584444 
Si 4.58819253 5.0849234999999995 25.73000295171967 
Si 5.54729886 4.193909369999999 29.303462314424106 
Si 4.561835309999999 5.8983320699999995 28.01206840922217 
Si 6.1207394399999995 7.577000279999999 28.36191781851457 
Si 7.86401379 4.28435145 28.660676467198343 
Si 6.22804167 7.63688232 30.851963668326107 
Si 4.91594733 6.233433659999999 32.22273256506026 
Si 5.42600352 8.16546024 2.7397291185310513 
Si 6.786332549999999 9.50278779 4.0758920347990095 
Si 5.515631099999999 10.710870479999999 0.08563576289122594 
Si 4.0728258 9.50306472 6.787939814052224 
Si 5.42999457 8.14498371 8.144893879360847 
Si 5.432438069999999 10.860738479999998 5.430503435426996 
Si 5.42689947 10.8616833 10.865830004020014 
Si 6.79030731 9.503928089999999 9.502399159888448 
Si 4.06228617 9.49164543 12.246348519939765 
Si 8.06965875 10.83755781 13.629795366710317 
Si 5.465653379999999 8.141530229999999 13.655599129148525 
Si 6.30554949 9.9017136 14.95422773409949 
Si 4.803187949999999 11.823949889999998 15.023232989324766 
Si 6.96920409 10.43850168 21.028206035775963 
Si 5.96715732 11.32498719 19.049481203464953 
Si 4.578532559999999 9.60792345 18.199472884856245 
Si 6.6241330199999995 9.537436620000001 24.569970523389415 
Si 5.89308669 11.254386329999999 22.929657384577094 
Si 5.50680192 9.26384607 26.711855060516655 
Si 6.70348161 11.097839429999999 29.75111797413316 
Si 5.302443869999999 11.28903516 27.877881954353246 
Si 7.471750589999999 9.90075249 33.39199784830832 
Si 6.01105887 9.80123688 31.52844254581164 
Si 4.1127363 10.693000349999998 32.63052847424728 
Si 4.0745362499999995 12.216490019999998 4.070689941169945 
Si 5.410397699999999 13.605131069999999 2.7001036344770757 
Si 6.745672709999999 12.271729409999999 1.3251317216982466 
Si 6.78760317 14.93318961 4.074858506263434 
Si 4.07227194 14.93263575 6.787560853589179 
Si 5.42981538 13.57486425 8.144928330312034 
Si 6.7877171999999995 12.21719049 6.788077617856966 
Si 8.143973729999999 13.575108599999998 10.858664206173355 
Si 4.07241855 12.21808644 9.50270921844912 
Si 6.78882492 14.93116965 9.5020201994254 
Si 6.79025844 12.23950779 12.22250846171915 
Si 5.69258937 12.73008114 17.17383361710203 
Si 7.458343919999999 14.28201315 16.902601278415762 
Si 5.524362539999999 13.71106494 13.634308441315664 
Si 6.567671879999999 15.394522409999999 15.012174233994106 
Si 4.90969197 14.63480568 20.982214015942844 
Si 4.4437491 13.2245478 19.100744218829508 
Si 7.74076365 15.696881099999999 18.707589963896485 
Si 6.10350462 13.73364288 22.901200898897578 
Si 5.2613930700000004 14.462718119999998 25.028788291282687 
Si 6.18549219 13.30594893 26.86933035838722 
Si 5.56811748 14.625895049999999 28.756071151031986 
Si 7.823728619999999 14.440270499999999 31.858620461976916 
Si 4.10107266 12.83469552 31.837123068436938 
Si 6.1786341 13.256867159999999 30.5791121349341 
Si 8.47775583 2.24409411 0.052266227063090816 
Si 9.50242941 1.358682111 4.065418945638509 
Si 10.862693279999998 2.73797433 2.6997694602505726 
Si 10.366255529999998 0.614536992 0.23782697386890156 
Si 9.47657718 4.082436899999999 1.187830900842123 
Si 8.145179189999999 8.639075699999999e-05 8.144997232214406 
Si 10.86011946 -0.000658375011 5.430055573061581 
Si 10.86018462 2.7146633399999995 8.144928330312034 
Si 12.204109619999999 1.381882329 12.21592833004265 
Si 9.502445699999999 1.358269974 9.504018354594182 
Si 8.142018929999999 2.71495656 10.861592537024151 
Si 10.860852509999999 -0.0027537104699999998 10.862005948438382 
Si 8.29986903 0.1285360821 13.733044867414335 
Si 10.00297224 0.914605308 15.30025308781026 
Si 10.858783679999998 2.65287537 13.73993505765151 
Si 8.58223989 1.4075765459999998 17.444514740569325 
Si 10.586154239999999 0.19666265399999996 20.36240695315805 
Si 10.88209467 4.020991019999999 19.713971149937805 
Si 11.95244541 1.96716411 19.290913469375454 
Si 8.74584036 3.37224177 18.810253798430345 
Si 10.50112044 2.25205992 23.381860569842683 
Si 9.16204986 0.6593931359999999 22.2518693709465 
Si 10.2889269 2.52796365 25.77072397602135 
Si 12.18356793 1.237363965 29.72383282079396 
Si 11.06266932 0.32812947 26.42139909106868 
Si 11.040726689999998 0.352328265 32.527313424494444 
Si 9.507072059999999 3.6854821799999997 30.279044350105266 
Si 9.991846169999999 1.3939320419999999 30.7284570083248 
Si 9.50606208 6.785257409999999 4.070896646877061 
Si 9.5027715 4.07271177 6.787664206442736 
Si 8.14482081 5.430255209999999 8.144514918897803 
Si 10.861422659999999 5.42966877 5.430262278768696 
Si 10.861422659999999 5.43129777 10.862074850340754 
Si 12.226980779999998 6.7739521499999995 12.240629662042913 
Si 9.50102847 6.78717963 9.501193376596941 
Si 9.50739786 4.064697089999999 12.241387582969 
Si 9.830526299999999 6.76209303 15.082591978218002 
Si 8.29589427 4.90030893 17.005644073412665 
Si 10.870007489999999 5.12359596 16.520092367399165 
Si 8.27362584 5.58375588 13.618598807574912 
Si 11.91545082 5.91432885 18.622461663516226 
Si 8.40067155 7.131371039999999 20.32702582629017 
Si 10.539662579999998 4.2424047 22.048402053242814 
Si 11.66890167 5.9748950700000005 23.16292477505655 
Si 8.48358765 5.266149749999999 21.845727107416405 
Si 11.19510702 6.19831242 25.4943239946572 
Si 9.00338526 7.02955854 25.70495711020755 
Si 9.30519009 7.93169874 29.4009240553289 
Si 11.38177413 6.893748809999999 29.70261103486347 
Si 11.38568373 4.58690562 29.148226328380623 
Si 11.63938419 4.23937476 26.775417065454565 
Si 8.16317964 6.55690419 27.87795085625562 
Si 8.42300514 7.36718508 31.537020832656918 
Si 11.449377629999999 6.019269029999999 32.0111692738279 
Si 9.25084665 5.2422197399999995 32.087925993069994 
Si 8.489826719999998 7.85381625 34.43055622275724 
Si 10.34157618 5.970871439999999 34.32165676605874 
Si 9.520543889999999 9.511845029999998 1.3970032960621863 
Si 10.87505739 8.14804623 2.7094570677240366 
Si 8.13055077 10.873509839999999 2.707965341537689 
Si 10.97235756 10.6908012 0.019533517067626276 
Si 8.1448371 8.146075139999999 5.4298833183056505 
Si 9.502608599999999 9.50251086 6.787629755491551 
Si 10.860103169999999 8.14464162 8.144928330312034 
Si 8.14464162 10.86046155 8.14479052650729 
Si 10.8616833 10.85886513 5.4310201996947844 
Si 8.14513032 8.14227957 10.85969773470893 
Si 9.5099391 9.501337979999999 12.2440747571615 
Si 10.86007059 10.86011946 10.865623298312897 
Si 9.330341849999998 8.327431709999999 16.755978030168745 
Si 11.05919955 8.220699629999999 13.684779084802948 
Si 9.65123856 11.96205651 14.951712814662923 
Si 9.325568879999999 10.88369109 20.965884265080746 
Si 10.17932778 8.71060509 20.44395235461498 
Si 11.196279899999999 8.21783259 18.361151198771484 
Si 11.57658624 8.18192943 22.277156369116923 
Si 10.4997195 11.884907069999999 22.841807459053154 
Si 10.88084034 9.79108821 23.875887209847907 
Si 8.92867932 9.42467724 25.24830975223898 
Si 8.883393120000001 10.3058685 29.24586032404135 
Si 9.352105289999999 11.04292584 27.044892405630357 
Si 11.67851277 11.17749753 27.11558575746374 
Si 10.07319843 11.23166178 31.110483606024793 
Si 9.20398032 11.52478404 33.270385990622245 
Si 9.502380539999999 12.21595245 4.070655490218759 
Si 9.44671761 14.940585269999998 1.2577284357031129 
Si 10.85819724 13.585974030000001 2.6962795788954455 
Si 8.14403889 13.575434399999999 5.429573259744978 
Si 9.502168769999999 14.9325543 6.787457500735621 
Si 10.859744789999999 13.575304079999999 8.144652722702547 
Si 12.22228926 12.218998679999999 12.25272194590915 
Si 9.5034231 12.22000866 9.501296729450498 
Si 9.49711887 14.93030628 12.241318681066629 
Si 11.781937979999999 15.433080839999999 15.035773135556418 
Si 9.350150489999999 13.00942206 16.955724645144354 
Si 10.837394909999999 13.57548327 13.708102378755774 
Si 11.44123263 13.333283549999999 18.30933696818795 
Si 9.016563869999999 14.55768882 20.315622561447654 
Si 12.17069883 14.797607939999999 20.154908874165617 
Si 9.50490549 12.50480673 19.287399472354497 
Si 8.374249169999999 14.6737062 22.64540258634257 
Si 9.601668089999999 13.534432469999999 24.32853825747891 
Si 12.20686263 13.45386213 22.05508553777287 
Si 11.534199659999999 14.64787026 25.240007073003188 
Si 11.07887787 14.34885102 29.064889477462028 
Si 8.57676645 13.28552127 26.514347757368125 
Si 9.42220116 15.367578749999998 27.604134696230414 
Si 11.78324118 14.45214591 31.982161572929407 
Si 8.15798313 13.49836641 34.10482247929494 
Si 9.829711799999998 13.51674153 30.859336171879878 
Si 16.2934209 2.70503595 2.719947382360131 
Si 12.28010247 1.4417154989999998 1.3179831493271807 
Si 14.93374347 1.35637056 4.070999999730618 
Si 12.21437232 4.07491092 4.074272840093275 
Si 14.890591259999999 3.93413274 1.3429704242222844 
Si 13.574913119999998 4.4797011299999996e-05 8.144893879360847 
Si 13.57558101 2.71604799 5.429435455940235 
Si 12.217304519999999 1.357817112 6.787698657393922 
Si 14.93235882 1.356233724 9.50136563135287 
Si 13.57597197 2.71362078 10.862005948438382 
Si 16.299774 2.68110594 13.785169156558542 
Si 13.89517452 0.038414100599999994 16.537731254406324 
Si 12.26128752 1.7825006700000001 16.886409331358408 
Si 15.429888 0.6758036820000001 14.773980357495075 
Si 12.302533799999999 3.75849396 15.215676002648976 
Si 15.71696667 3.01796685 21.11068161291491 
Si 13.76281827 1.66164516 20.811957415182327 
Si 12.65907303 1.336485357 22.924834251411074 
Si 16.03814031 2.5809876 23.41941210663527 
Si 13.86176373 3.06126567 24.063334835250167 
Si 13.684414499999999 3.13351182 26.392598095877297 
Si 15.2901198 3.6963964799999998 29.432825636127006 
Si 15.92039619 3.51974772 27.169639299874355 
Si 13.045243769999999 1.1345870969999998 27.51687043687663 
Si 15.26560335 0.454047912 28.19703556613905 
Si 13.77801684 2.66338242 34.17444785164156 
Si 13.09215897 3.33576846 30.239012344827298 
Si 15.798530699999999 1.82695608 32.577232852762755 
Si 13.57059627 5.422256819999999 2.6925933271185585 
Si 12.25131804 6.83404596 1.2213826822020315 
Si 14.930974169999999 6.78830364 4.069759765487927 
Si 14.93232624 4.07240226 6.787491951686807 
Si 13.575304079999999 5.42997828 8.145066134116778 
Si 12.217532579999999 6.78760317 6.787629755491551 
Si 14.932603169999998 6.7888575 9.501606788011172 
Si 13.57872498 8.140976369999999 10.862005948438382 
Si 12.2175 4.0730701499999995 9.5020201994254 
Si 14.937148079999998 4.0713597 12.25713166766094 
Si 13.53865158 5.3160786 13.8025668869074 
Si 14.512467779999998 7.1531670599999995 15.164929751552204 
Si 15.69344391 7.055019809999999 17.35914528353077 
Si 15.2233308 5.33947104 21.232534627259295 
Si 14.21797716 6.34734963 19.30682980882332 
Si 13.922232209999999 5.36258655 23.26906815566018 
Si 14.749014869999998 6.60688191 25.11798180390288 
Si 14.839522109999999 7.7780514599999995 29.93791103146289 
Si 12.91997367 7.63779456 26.19488408702165 
Si 13.03768521 7.981318079999999 28.514363277511997 
Si 13.06827783 4.25092437 32.438257715679 
Si 15.67218546 5.693859989999999 30.62444958669469 
Si 14.88664908 5.770879109999999 32.878127460420046 
Si 13.96406493 7.842608729999999 34.11829280120861 
Si 12.239361179999998 12.2065857 1.3173044655888195 
Si 15.967523159999999 11.30711706 0.18415135839279725 
Si 12.217239359999999 9.50125653 4.075616427189523 
Si 15.029984789999999 9.41035833 1.2729350855565513 
Si 13.57740549 10.83715056 2.7031525436570245 
Si 13.57564617 10.85925609 8.145341741726265 
Si 13.57240446 8.14615659 5.429848867354465 
Si 14.931886409999999 9.5021199 6.787457500735621 
Si 12.217174199999999 9.50198958 9.503157080814535 
Si 14.93543763 9.50690916 12.237597978338556 
Si 12.8790369 8.99437689 15.16389622301663 
Si 13.63658706 10.80530361 13.748685599252717 
Si 15.25988556 11.88049248 15.062954936042061 
Si 16.272390509999997 8.16055695 13.724811090080916 
Si 14.60051523 8.61615567 19.957918335284877 
Si 13.03745715 9.6097968 17.545145968983224 
Si 13.1957145 11.990889809999999 17.27849560680467 
Si 14.412251699999999 10.751790960000001 22.31212408457057 
Si 14.55868251 10.94254686 24.597427931484543 
Si 15.553740869999999 8.74266381 24.602078809894632 
Si 13.92814548 8.49810204 22.23281799494072 
Si 12.616539839999998 9.894546 25.435998534299543 
Si 14.971031279999998 11.21445954 29.110433634929734 
Si 12.81796569 10.292380379999999 28.951787004718856 
Si 12.395533409999999 10.800074519999999 31.256176678589796 
Si 15.312925799999999 12.06261468 31.22834031003162 
Si 14.00645151 9.01254024 31.99570079674545 
Si 16.15357125 10.226291849999999 32.514256513995 
Si 14.11144056 12.939554249999999 0.05120375972851891 
Si 12.21727194 14.93234253 4.070414333560459 
Si 14.93242398 12.21308541 4.067141493197801 
Si 15.025651649999999 14.946205319999999 1.258786079904519 
Si 13.57973496 16.28278353 2.693082530625398 
Si 13.57545069 13.575662459999998 5.430021122110395 
Si 12.217516289999999 12.21694614 6.787595304540365 
Si 14.93312445 14.932668329999998 6.788008715954595 
Si 12.21790725 14.93232624 9.50253696369319 
Si 14.931902699999998 12.218428529999999 9.501813493718288 
Si 13.57778016 13.572990899999999 10.860007793269602 
Si 14.927699879999999 14.916818159999998 12.239217173044292 
Si 13.467610889999998 16.2567684 13.555519115953604 
Si 15.23957193 15.1112556 18.328491697047287 
Si 14.16378033 12.627682199999999 21.050633604997962 
Si 14.4032922 15.736319189999998 20.416873906982893 
Si 14.8118454 12.785988419999999 18.73425500011434 
Si 15.627795209999999 14.26891599 21.82888059228652 
Si 12.96718209 15.2492319 23.51318759576318 
Si 15.231182579999999 14.86082943 24.062094601007477 
Si 15.64292862 12.95011017 25.450467933797604 
Si 12.98488932 15.362675459999998 30.087979374828492 
Si 15.18330627 14.706514259999999 29.266668698557606 
Si 12.321185849999999 13.40469891 27.18979310631808 
Si 14.698955699999999 13.07984373 27.656431240130544 
Si 13.3579629 12.68890002 32.31013462821878 
