&CONTROL
  dt          = 30.D0,
  prefix = 'x.33_y2.00_z3.17_struc42-scf',
  pseudo_dir = './',
  outdir='./',
  wf_collect= .true.,
  verbosity= 'high',
/

&SYSTEM
ibrav= 6, celldm(1) =30.783621515, celldm(3) =2.118804555752091, nat=  432, ntyp= 1,
  ecutwfc     = 12.D0, nbnd= 1728,
  degauss     = 0.05D0,
  occupations = "smearing",
  smearing    = "methfessel-paxton",
/
&ELECTRONS
  electron_maxstep=200,
  conv_thr    = 1.D-8,
  mixing_beta = 0.3D0,
  scf_must_converge=.false.,
/
&IONS
/
ATOMIC_SPECIES
Si  28.08  Si.pbe-hgh.UPF
K_POINTS {automatic}
1 1 1 0 0 0
ATOMIC_POSITIONS (angstrom)
Si -0.00218496141 2.6956529099999997 2.713677783664818 
Si 1.321288416 1.314936945 1.3286191611204956 
Si 3.92259942 3.99926016 1.2570895990762567 
Si -0.000570628926 0.000288670203 5.4301927271443615 
Si 9.50697432e-05 2.71485882 8.144788618486452 
Si 2.71484253 0.000594987363 8.144857649138878 
Si 2.71443528 2.713914 5.429467905293885 
Si 1.357605342 1.357294203 6.787887599066859 
Si 2.71453302 2.7130994999999998 10.859488055807182 
Si 1.3630250249999998 1.347728715 12.225984335914044 
Si 4.063719689999999 4.08844791 12.23575217323238 
Si 0.19721488499999998 2.83366179 13.62582242114286 
Si 2.30097879 3.47902272 14.625351752950962 
Si 3.74919237 1.4224509449999998 15.077571556996329 
Si 3.97570482 0.897808689 17.500823579772785 
Si 0.599481774 0.0724567797 21.396395872825778 
Si 1.4632313309999998 3.24438156 20.026896759338367 
Si 1.79305659 1.610002602 18.295711542462815 
Si 3.1350756599999996 3.0807159299999998 21.70040686611166 
Si 2.7232155899999997 0.790972353 22.315297402599846 
Si 2.9815587 0.5432714999999999 24.703136700681554 
Si 3.91753323 4.01928057 25.330038570691936 
Si 2.04270084 3.9295715399999995 29.935694669929124 
Si 1.2321413909999999 0.389031264 29.029149626939386 
Si 2.20977108 2.47764384 25.974094557830277 
Si 2.4945202799999997 2.21177475 28.348093210100494 
Si 1.99223442 3.26024802 34.34816848835102 
Si 3.1694638499999996 3.6628065 32.24521869283308 
Si 0.49776701399999995 1.376154765 33.08349242057311 
Si 4.070985029999999 6.787456559999999 4.070737573584992 
Si 1.3587114329999999 4.0755136499999995 4.070081782386941 
Si 0.39274049699999997 5.04781488 0.040975559820526496 
Si 2.7250563599999995 5.43224259 2.7064744350841234 
Si 1.343343447 6.78361212 1.3446825939401197 
Si -0.000780817167 5.4304995599999994 5.430330788449215 
Si 2.7150380100000002 5.429522159999999 8.145168287074798 
Si 1.357662357 6.78714705 6.78757696113094 
Si 1.3573919429999999 4.07044746 9.500826754750715 
Si 1.357346331 6.78507822 12.247487384144868 
Si 4.05028044 6.98495652 15.604655103598132 
Si 2.84403852 5.60149569 13.837608462787063 
Si -0.0007169457059999999 8.10784251 13.733475723601835 
Si 1.055388375 5.600062169999999 19.803237445476825 
Si 3.1445890199999997 6.71949468 19.91102880924065 
Si 3.97303326 6.755723639999999 22.20053394294095 
Si 2.96346051 4.86127809 23.33177375957863 
Si 0.66587004 5.132685779999999 23.637821157111087 
Si 0.36659830499999996 6.5682094499999994 21.904047290769547 
Si 1.146032451 7.97268438 26.695913574926962 
Si 3.18792042 5.82890409 29.160135289918486 
Si 1.3282279559999999 7.27188858 28.88442686412743 
Si 1.515206205 7.44899346 32.60942441503478 
Si 3.29963724 5.955216749999999 32.7940468949492 
Si 2.09865699 8.66199573 0.07455103370094258 
Si 1.359229455 9.502217639999998 4.069598567819956 
Si 2.72534958 10.857089519999999 2.6919814496072 
Si 1.438232697 12.15838359 1.1371039705613042 
Si -0.000179247015 8.145244349999999 8.14499571044373 
Si 2.71433754 8.14438098 5.431538824866677 
Si -0.00127016388 10.85866965 5.429882089208443 
Si 2.7152660699999998 10.8598914 8.144754103160238 
Si 1.357766613 9.503569709999999 9.502448975082734 
Si 2.71533123 8.143273259999999 10.863457318321698 
Si -0.0040235648399999996 10.86529968 10.863664410278979 
Si 2.63060694 10.76159754 13.56210712895329 
Si 2.17201086 10.92034359 16.354293473622658 
Si 0.472765122 9.65013084 20.875525084942353 
Si 0.481477014 11.95369974 20.556983139320717 
Si 3.9801845699999996 10.27125225 20.481291028935164 
Si 2.3043182399999997 8.907714089999999 19.55483064272041 
Si 1.054464732 9.07934553 17.33180202730674 
Si 0.820598976 8.754474059999998 22.99486966041157 
Si 2.73742047 9.51339258 24.071230108370262 
Si 2.5719466499999997 11.649614309999999 24.976429053637684 
Si 3.3806636999999995 8.674604189999998 26.20217183344711 
Si 1.4521834529999997 11.394692099999999 27.031333515066855 
Si 3.3093949499999997 10.342130039999999 27.920620894949995 
Si 0.436185927 10.45710486 34.219288260270936 
Si 1.507740498 8.798880599999999 30.706214812312638 
Si 0.043831177199999995 10.590796889999998 31.473455998705894 
Si 3.3394337099999998 12.165746669999999 31.529405342497494 
Si 3.48790077 9.94639707 30.225692440772445 
Si 2.7277767899999996 16.27434531 2.6860033951070736 
Si 4.02708348 14.656438799999998 1.1308152781252587 
Si 0.0068518183499999994 13.56316803 2.6815302088298423 
Si 1.357211124 14.93550279 4.068942776621906 
Si -0.000438896583 13.57538553 8.145064741096157 
Si 2.71536381 13.574978279999998 5.430089181165722 
Si 1.3577633550000001 12.21777693 6.787266323195021 
Si -0.0010262944349999999 16.2906516 10.858797749282918 
Si 4.063263569999999 14.929768709999998 12.23727084758576 
Si 1.3565057669999998 14.932977839999998 9.502690582366228 
Si 2.7174326399999997 13.577047109999999 10.86356086430034 
Si 1.3457511089999998 12.224520989999998 12.244242943480828 
Si 2.54454687 16.15933791 13.71304265048362 
Si 3.51433944 12.50239581 14.770626760982328 
Si 0.7554080249999999 15.3495783 15.159234818816765 
Si 0.9069017669999999 14.25383145 17.470829761293512 
Si 2.8069787699999997 12.31374132 20.433383756151244 
Si 0.418498245 16.00699383 19.023087527079827 
Si 2.9908765799999997 13.35247317 18.344964912969058 
Si 2.0024808299999997 13.492583459999999 23.727595520591628 
Si 3.7599111899999995 13.61915676 22.12957043224661 
Si 1.5514530839999998 15.15061224 25.377290052277807 
Si 2.10347883 14.886306989999998 27.719879757694013 
Si 0.783325827 13.146534990000001 28.39475793114074 
Si 0.472325292 15.779341079999998 34.50107138347551 
Si 1.5181856459999998 16.2973305 31.41560831197257 
Si 3.27629367 12.844208879999998 34.16886136867345 
Si 3.83618097 16.135961759999997 32.094145109997896 
Si 0.280337868 14.41319652 32.17052752690771 
Si 1.120007547 12.641887079999998 30.702935856322384 
Si 6.78581127 4.0764096 4.069667598472383 
Si 8.12730906 -0.0207163188 2.683041980117981 
Si 4.07539962 1.3560431309999998 4.068183439445215 
Si 5.4194223599999995 2.7162108899999997 2.6859033006610553 
Si 6.64122123 1.2466769580000001 1.2260465146801032 
Si 5.43069504 -0.000504139662 5.431159156278332 
Si 5.43045069 2.7146633399999995 8.14444346522432 
Si 6.78763575 1.357178544 6.787680507109579 
Si 4.07390094 1.358107074 9.501137392686633 
Si 6.784784999999999 1.332987894 12.240032073682817 
Si 7.01722701 3.41353692 15.019620324284364 
Si 5.286479669999999 2.58892083 13.581021527718123 
Si 6.13587285 2.25939042 17.342881447021178 
Si 5.42272923 3.00705255 21.094835467701035 
Si 5.84359767 4.03472349 18.945151920490417 
Si 6.242898149999999 0.824643783 21.659264597265523 
Si 6.7035304799999995 4.0428196199999995 22.72230212930592 
Si 6.71014422 0.8738770499999999 24.013693059572855 
Si 6.04850958 2.9922286499999995 24.718357959541578 
Si 7.56014013 3.083697 26.512602677408648 
Si 5.98067802 3.7011042899999995 28.0992031927771 
Si 4.7846173499999995 1.7294115599999997 28.623939697196402 
Si 7.487258669999999 1.032872337 31.556154720312726 
Si 5.57262981 3.2033470499999996 32.40278115699635 
Si 5.27040144 1.298259243 30.895911045180394 
Si 4.73390658 0.22498281899999997 34.461137151046835 
Si 6.656484959999999 6.77841561 1.1612163774538466 
Si 5.42874024 8.13525858 2.6950740228359025 
Si 8.13315717 5.42557998 2.681516402699357 
Si 4.0720113 4.07271177 6.787715022435792 
Si 5.429326679999999 5.429489579999999 5.430296273123002 
Si 6.78763575 6.7872936600000005 6.787197292542595 
Si 6.7869027 4.07222307 9.502034791168176 
Si 4.07158776 6.7863162599999995 9.503208312259424 
Si 5.431525829999999 5.42992941 10.861904128642104 
Si 6.775988399999999 6.793760789999999 12.257013614179712 
Si 8.03370672 5.33186361 13.721257298122362 
Si 7.41118437 7.33284576 20.908176583540044 
Si 6.40860003 7.75066797 18.753039614787735 
Si 8.07070131 4.6983618 18.444127445179586 
Si 4.74988707 6.21733914 18.02901161681341 
Si 6.2139834 6.32105757 22.691445427671315 
Si 6.90301782 6.781266359999999 24.95568534258355 
Si 7.60472586 4.46337855 29.59388939443979 
Si 5.36796225 7.418759219999999 26.674272465391283 
Si 4.504722569999999 5.32415844 27.2604807657963 
Si 5.10715935 5.495838749999999 34.38402991228654 
Si 4.5994489199999995 6.42256056 30.99669579772294 
Si 6.57734814 5.2601713199999995 31.625910194589608 
Si 4.13153496 9.51327855 1.2291597971045338 
Si 6.78678867 9.50567112 4.070150813039367 
Si 4.0700565 12.216652919999998 4.070564996953926 
Si 6.89959692 12.175113419999999 1.2260361600822391 
Si 4.072548869999999 9.50255973 6.7875079304785135 
Si 5.43001086 8.145 8.145133771748585 
Si 5.4289683 10.859174639999999 5.431159156278332 
Si 6.78685383 9.501126209999999 9.501586091927404 
Si 4.08942531 9.48767067 12.236269903125578 
Si 5.43315483 10.860233489999999 10.86218025125181 
Si 6.7875054299999995 12.215431169999999 12.248557359257477 
Si 8.16485751 10.85611212 13.728194878691214 
Si 6.16421745 11.010427289999999 16.913372727624093 
Si 5.3772964199999995 8.17803612 13.878888792938055 
Si 6.9349136399999995 9.4594401 15.178356309538879 
Si 8.01080298 10.791896939999999 19.88635035099821 
Si 5.91950907 10.021347359999998 19.09750257039549 
Si 5.92579701 10.527151859999998 23.64858993888961 
Si 4.38170049 9.14175252 22.53336523361485 
Si 4.87532007 11.77260381 25.422505129617104 
Si 4.93474599 12.002081039999998 27.735584231121017 
Si 6.7745223 10.81918269 28.580588447472618 
Si 6.39558432 8.47264077 28.619763342724603 
Si 7.79435775 8.313047639999999 34.25435583170354 
Si 5.2272655199999996 11.1320973 34.355692829465504 
Si 7.593029639999999 11.353559849999998 30.74563131484811 
Si 6.51507147 9.903033090000001 32.62961588086951 
Si 5.31733293 8.58065976 30.718778391054244 
Si 5.45214897 13.56960258 2.6884712409313174 
Si 6.787407689999999 14.93476974 4.073982014249033 
Si 4.07238597 14.932603169999998 6.787645991783366 
Si 5.430206339999999 13.574587320000001 8.144857649138878 
Si 6.787652039999999 12.21720678 6.787611476457153 
Si 4.07121309 12.21738597 9.503553465521557 
Si 6.7843614599999995 14.93172351 9.503104766280787 
Si 5.43012489 16.2930951 10.859246448523688 
Si 7.37521605 13.24043055 16.90805736738726 
Si 5.351053229999999 13.54370148 13.654228534616324 
Si 6.796888469999999 14.78082924 15.176768604533072 
Si 8.12926386 16.17689853 13.79819196025159 
Si 4.60777311 12.717244619999999 16.800507610906926 
Si 4.3487458199999995 15.72828822 21.235278330062552 
Si 7.4732004 12.88726335 20.784093985803583 
Si 4.499102519999999 15.09652944 18.938732069814762 
Si 6.76297269 14.264794619999998 18.92437369411007 
Si 5.8588939799999995 12.646627469999999 22.52038747095869 
Si 5.93635293 13.678827029999999 24.628169412146484 
Si 5.1862473 15.884102069999999 25.21161648645444 
Si 7.92879912 12.900051 25.63946847019329 
Si 5.56518528 16.05799782 27.55510359035219 
Si 7.8206660999999995 15.91146927 28.21955813528253 
Si 4.31917947 14.25187665 28.443493571753784 
Si 6.8826879 13.527362609999999 31.338466557886065 
Si 4.591906649999999 14.04608508 30.84551866890912 
Si 9.50435163 1.3573316699999998 4.068286985423855 
Si 10.321181099999999 0.595542852 0.18392423486512208 
Si 10.87131069 2.71894761 2.7257477932415752 
Si 12.2139162 4.0744548 4.072083671307307 
Si 9.43290369 3.9100398299999997 1.3119482585595192 
Si 8.1448371 0.00025411422599999996 8.145064741096157 
Si 8.144250659999999 2.7147773699999997 5.429640481924951 
Si 10.85909319 -0.00048248047799999996 5.430158211818148 
Si 10.85963076 2.71529865 8.145340863705863 
Si 9.50070267 1.357235559 9.502207367799242 
Si 8.14864896 2.7147447899999997 10.863629894952766 
Si 10.85801805 0.0027978075 10.863664410278979 
Si 12.21642486 4.073428529999999 9.502345429104095 
Si 8.922179609999999 1.7890655399999997 14.942167932261942 
Si 10.8331758 2.79127521 13.76457403251993 
Si 12.19611123 3.5755898399999997 17.37553294561886 
Si 8.4370797 0.550329957 20.835763429144745 
Si 12.15097164 2.03698305 21.3457273739448 
Si 9.904368869999999 2.3864849999999995 20.574931108951585 
Si 9.84243429 3.11445252 18.315730431666474 
Si 8.43898563 1.487125503 17.301704662848827 
Si 11.97016893 3.67275969 24.778897841719534 
Si 8.965543590000001 3.9870426599999997 22.066441900602662 
Si 11.69325522 0.05241291209999999 22.4532206461478 
Si 8.93820897 0.00957389364 24.666239816959642 
Si 11.36216097 1.567990692 28.06510205047845 
Si 8.67054798 2.48803686 30.146859435701494 
Si 12.19847328 3.2558008499999995 29.51981950438626 
Si 8.95961403 1.6754916599999998 27.932597713145974 
Si 8.47400913 2.09891763 34.44225726760821 
Si 10.64230587 2.95722144 31.35820932448001 
Si 11.019468239999998 0.7775559089999999 32.50235787312143 
Si 9.50428647 6.78638142 4.067147979658819 
Si 10.551179609999998 5.61724812 0.03632392930677332 
Si 9.5027715 4.0725814499999995 6.787542445804727 
Si 8.1453258 5.43001086 8.144926679791304 
Si 10.86112944 5.42922894 5.430779487689986 
Si 10.85751306 5.4299457 10.860316423636297 
Si 12.21943851 6.793663049999999 12.240342711618736 
Si 9.50275521 6.7870167299999995 9.501378999970127 
Si 9.496092599999999 4.07487834 12.23889306791778 
Si 8.32689414 8.03266416 16.70193183924202 
Si 10.82159361 8.08036128 13.719151863223356 
Si 11.69799561 4.57869546 15.138974322329616 
Si 9.698707619999999 6.39696897 15.151434355092581 
Si 11.807496989999999 7.31407968 18.212978305529774 
Si 8.913790259999999 5.6369427299999995 20.40822208334182 
Si 11.08692513 6.44363982 20.219147126345902 
Si 9.998704259999998 4.79225736 24.05783816179954 
Si 10.584704429999999 7.10077842 23.757899977006815 
Si 8.42707764 5.11846461 25.83989896951335 
Si 11.99862756 7.36172793 28.966262702578934 
Si 9.1339659 5.58215946 28.075111495080282 
Si 11.53379241 5.17785795 28.26850086785285 
Si 8.634986909999999 7.78300362 28.726277639418544 
Si 10.25629803 7.73491554 30.49373846414417 
Si 10.322500589999999 5.68555209 31.852054611938502 
Si 8.31153267 6.33211848 33.025989887101915 
Si 12.21608277 9.502543439999998 4.069425991188891 
Si 9.391022099999999 9.41221539 1.3292266308618481 
Si 10.866391109999999 8.14488597 2.7029504202777552 
Si 8.14265424 10.84843953 2.7143370263954907 
Si 12.07844856 12.090112199999998 1.263702735578706 
Si 8.144250659999999 8.145781920000001 5.430158211818148 
Si 9.50291811 9.50275521 6.78757696113094 
Si 10.86000543 8.14488597 8.144961195117517 
Si 8.14513032 10.860217200000001 8.14499571044373 
Si 10.86127605 10.86124347 5.429744027903591 
Si 8.14863267 8.14498371 10.863284741690634 
Si 9.494202959999999 9.49746096 12.244519066090534 
Si 10.86077106 10.86226974 10.860937699508135 
Si 11.819616749999998 9.64126908 15.260606331904938 
Si 10.128486689999999 11.685892139999998 14.833962384583554 
Si 10.415630519999999 9.006708419999999 17.341535349298862 
Si 8.72697654 9.20821572 21.449791082477603 
Si 11.949317729999999 11.474040689999999 19.68581630569951 
Si 9.944197919999999 11.06099145 18.512881974996283 
Si 8.75273103 8.18005608 24.80119474245326 
Si 10.891054169999999 8.26132689 21.66709957631592 
Si 8.19781218 10.02546873 23.543973985137395 
Si 9.29370564 12.03254334 23.99833373940798 
Si 11.444637239999999 11.856464729999999 24.931455583581883 
Si 10.49546781 11.95920576 28.317616177054237 
Si 12.13481196 10.87176681 27.025086241022265 
Si 9.337818959999998 9.00563328 26.87259752981234 
Si 11.62640106 8.63488917 27.03582050747457 
Si 8.56899612 11.21630031 27.17964587180498 
Si 10.380965400000001 11.03160429 34.40674099693483 
Si 10.719585630000001 9.77999472 31.92902378939394 
Si 9.95890779 11.49140583 30.582753490448017 
Si 9.501191369999999 12.22126299 4.0717385180451755 
Si 9.47949309 14.836133789999998 1.1913758694989423 
Si 10.861732169999998 13.57400088 2.6937451827766945 
Si 8.142312149999999 13.573723949999998 5.430917548994839 
Si 9.50242941 14.93229366 6.787197292542595 
Si 10.86000543 13.574408129999998 8.145064741096157 
Si 9.50319504 12.215528909999998 9.502656067040013 
Si 8.14319181 13.574668769999999 10.866908850943018 
Si 9.496450979999999 14.941285739999998 12.239203705853699 
Si 9.807068699999999 12.837236759999998 16.91040440956976 
Si 10.89050031 13.53368313 13.57473973834732 
Si 11.814843779999999 14.316238439999998 17.041217495917792 
Si 11.724629760000001 12.884787269999999 21.553613183726913 
Si 8.436737609999998 15.88310838 18.736403227552973 
Si 11.398797179999999 16.26688449 24.748593385304343 
Si 9.456002909999999 13.305427649999999 22.02699088274097 
Si 9.471657599999999 15.55867674 22.46792417511462 
Si 12.06994518 14.087396519999999 25.51973480355969 
Si 10.89159174 14.15842092 27.54478350781444 
Si 11.74813623 15.717145859999999 29.05161910430418 
Si 8.87484087 14.79314448 26.510428211857217 
Si 8.82557991 12.928363019999999 34.236787530661026 
Si 8.2368756 15.26599431 30.488630195864616 
Si 10.535019929999999 15.32887371 31.03980544016323 
Si 10.691648279999999 13.17131208 32.124173443803386 
Si 12.263356349999999 1.454726322 1.3446653362770131 
Si 14.93234253 1.358296038 4.074672320773297 
Si 15.01675731 4.05161622 1.3015453392388603 
Si 13.57545069 -6.88369788e-05 8.144857649138878 
Si 13.574978279999998 2.71484253 5.430468849754067 
Si 12.21728823 1.35749457 6.787059231237742 
Si 14.93312445 1.355499045 9.500930300729353 
Si 13.57665615 2.7125293499999996 10.86573532985177 
Si 12.213199439999999 1.355388273 12.257600374725335 
Si 14.93159319 4.07774538 12.248729935888544 
Si 13.466731229999999 1.460458773 16.680394275684986 
Si 15.259901849999999 1.039321548 14.943893698572602 
Si 16.01864118 2.21998491 21.305033804339434 
Si 14.0884065 2.04268455 19.948719545465465 
Si 14.38494966 0.185093496 18.542116456298864 
Si 13.13470845 3.68026938 22.766240139575324 
Si 15.471867329999998 3.30667452 23.351930710087142 
Si 16.067217959999997 2.9203083 25.68637479851703 
Si 14.506440479999998 2.7003933 30.07278954564796 
Si 12.438669329999998 1.6446221099999998 25.97575129348851 
Si 14.760140939999998 1.093148595 26.364946111868573 
Si 15.189529049999999 0.765656064 28.716716894057488 
Si 13.49947413 3.08122092 34.28690378432259 
Si 14.560392959999998 1.88169048 32.42490548109901 
Si 16.27051716 8.14236102 2.692747689849133 
Si 13.581592019999999 5.43818844 2.6797008965405427 
Si 12.2929227 6.966613979999999 1.1866265606120057 
Si 14.929736129999998 6.788531699999999 4.072601401200505 
Si 13.57457103 8.14333842 5.4308140030162 
Si 14.932309949999999 4.07287467 6.787542445804727 
Si 13.57519005 5.43001086 8.145168287074798 
Si 12.217516289999999 6.787521719999999 6.787266323195021 
Si 13.574733929999999 8.14410405 10.862421858535305 
Si 16.28897373 5.4298316699999996 10.86400956354111 
Si 14.933971529999999 6.789639419999999 9.503173796933213 
Si 13.493723759999998 5.42541708 13.74572866440752 
Si 14.81899671 6.859409489999999 15.180116591175752 
Si 15.47512533 5.86409049 17.93782212495813 
Si 12.99526605 5.32010223 21.043476662295795 
Si 13.95121212 4.24970262 19.07907138619764 
Si 14.058889019999999 7.783117649999999 18.564240780401526 
Si 14.381789399999999 6.978065849999999 21.96983350253191 
Si 14.339207339999998 7.7047627499999995 24.217851214123943 
Si 12.340000799999999 7.28037567 25.297904801987446 
Si 16.12415151 6.53070987 25.32220359164154 
Si 14.14235898 7.651885409999999 29.777234807284316 
Si 12.80092635 5.206495769999999 26.291877166275224 
Si 15.139095209999999 4.95962082 26.74917072327393 
Si 15.625644929999998 6.05702925 28.848013194972502 
Si 16.07459733 4.47580782 30.470958348843457 
Si 13.878917099999999 6.82476066 32.276317001751174 
Si 16.0091604 5.8342635000000005 32.47740329226929 
Si 12.369746339999999 5.122911779999999 33.13526540989291 
Si 14.996508839999999 9.55048491 1.0686083056912057 
Si 13.57962093 10.85397813 2.67728827523824 
Si 14.934965219999999 12.216604049999999 4.068079893466575 
Si 14.93221221 9.50246199 6.787162777216381 
Si 13.574685059999998 10.86024978 8.144581526529173 
Si 12.21688098 9.50270634 9.502103821820604 
Si 14.93893998 9.491840909999999 12.244311974133254 
Si 12.22230555 12.20419107 12.213179149888946 
Si 15.65771994 10.81416537 16.547372208459304 
Si 13.968137429999999 8.8609455 16.417491035919028 
Si 13.477173119999998 10.762069949999999 13.643735875447511 
Si 12.61460133 9.84699549 21.29830331572786 
Si 14.57638974 8.82137709 20.596986402401818 
Si 12.72682314 11.41166628 23.055375027263313 
Si 14.789153429999999 11.94767244 23.976174899979103 
Si 15.44500512 9.74397753 24.399470860657807 
Si 16.02064485 9.89586549 26.65870605326913 
Si 14.383157759999998 9.99280728 30.07824296718965 
Si 14.286118229999998 11.03702886 27.938085650013875 
Si 13.04312607 10.229403239999998 32.116994255951035 
Si 13.57553214 8.52742404 33.92331933799273 
Si 13.24577367 13.734994949999999 0.057614363128124575 
Si 12.21622938 14.92998048 4.070288874344221 
Si 14.959579409999998 14.85760401 1.1824433030749657 
Si 13.59079587 16.27998165 2.6950464105749323 
Si 13.574815379999999 13.575434399999999 5.4301927271443615 
Si 12.21727194 12.217516289999999 6.787853083740646 
Si 14.93252172 14.932798649999999 6.787645991783366 
Si 12.218347080000001 14.930583209999998 9.502414459756523 
Si 14.93178867 12.217239359999999 9.501413515296338 
Si 13.577552099999998 13.57238817 10.859902239721738 
Si 14.93473716 14.92792794 12.215181038809312 
Si 12.78224172 14.271522389999998 14.8725160039637 
Si 14.580348209999999 12.419740349999998 14.902026607875987 
Si 13.585159529999999 16.187291549999998 13.657887159194923 
Si 16.22974329 13.6368477 13.714906478099133 
Si 15.761014829999999 12.35016576 18.39252703249085 
Si 13.11092505 14.785243829999999 21.57470204804318 
Si 12.83291991 14.883391079999999 19.23204331197455 
Si 13.426837019999999 12.81821004 18.356838185186398 
Si 16.28258805 13.04837145 22.573437527348382 
Si 15.282382049999999 15.1462791 22.588451694251123 
Si 15.52401162 15.57723105 24.965867363816447 
Si 14.39728119 13.66098948 25.665216903548338 
Si 14.00641893 15.09315741 29.401397420148765 
Si 14.80036095 13.33383741 27.96707852403296 
Si 14.25050829 14.513265989999999 31.692766381464576 
Si 13.009959629999999 12.654332639999998 32.519926174163956 
Si 13.18927995 16.23907746 32.94615593757078 
