&CONTROL
  dt          = 30.D0,
  prefix = 'x.33_y.66_z3.16_struc11-scf',
  pseudo_dir = './',
  outdir='./',
  wf_collect= .true.,
  verbosity= 'high',
/

&SYSTEM
ibrav= 6, celldm(1) =30.783621515, celldm(3) =2.109682705316459, nat=  432, ntyp= 1,
  ecutwfc     = 12.D0, nbnd= 1728,
  degauss     = 0.05D0,
  occupations = "smearing",
  smearing    = "methfessel-paxton",
/
&ELECTRONS
  electron_maxstep=200,
  conv_thr    = 1.D-8,
  mixing_beta = 0.3D0,
  scf_must_converge=.false.,
/
ATOMIC_SPECIES
Si  28.08  Si.pbe-hgh.UPF
K_POINTS {automatic}
1 1 1 0 0 0
ATOMIC_POSITIONS (angstrom)
Si 0.000284483673 2.72139111 2.695094052932464 
Si 2.70692559 0.013775605919999998 2.7030465145482507 
Si 3.3653511 2.2380831 0.28188280321955506 
Si 1.404020439 1.442213973 1.2552860996998503 
Si 4.06323099 4.06358937 1.4883887645553278 
Si 0.0001345453002 9.19075284e-05 5.429531139822372 
Si 0.000361061334 2.7151683299999996 8.144709110508794 
Si 2.7152497799999997 -0.000498144942 8.14501841109022 
Si 2.7152497799999997 2.7164715299999997 5.429668606747451 
Si 1.357667244 1.356864147 6.787154491896852 
Si 2.71642266 2.71487511 10.86301445374075 
Si 1.3676497559999998 1.350317196 12.227270584950263 
Si 0.7238510369999999 0.671151258 16.368771003519107 
Si 2.34976734 2.52108927 16.194566042713475 
Si 2.84004747 1.076389443 21.18722729463663 
Si 2.523321 0.17228629799999998 19.005695927104636 
Si 3.5520833699999996 3.6455228099999997 17.943214063173524 
Si 3.7880928899999997 3.29251851 21.602446141835998 
Si 0.8555833799999999 1.561688091 22.303321259348326 
Si 0.6582919319999999 3.78934722 22.97051698021644 
Si 0.379851849 0.30734505900000003 24.19830282155435 
Si 3.5289026999999997 3.76056279 25.52716121955617 
Si 2.3163891299999997 0.054097298099999996 25.660675970538588 
Si 1.6555038299999998 0.494851104 30.038653866973583 
Si 3.66803559 1.095492726 29.0006754824377 
Si 2.6944148699999997 2.0336598899999996 27.009845106720746 
Si 0.71750934 3.0569488199999997 27.941973958946246 
Si 0.547475949 1.096406595 33.38587039243931 
Si 2.52942975 0.614422962 32.201730299813796 
Si 3.4403013899999997 3.01443192 32.44219431850723 
Si 1.35620766 4.0762141199999995 4.076822230319445 
Si 2.68848531 5.42126313 2.7294710942214504 
Si 1.33628499 6.69121524 1.2817862861818428 
Si -0.000577288278 5.429701349999999 5.4309745425356954 
Si 2.7146470499999995 5.4297990899999995 8.144365443196097 
Si 1.357530408 6.78770091 6.787601259403357 
Si 4.08077532 4.0661469 12.250021361050742 
Si 1.356033357 4.07284209 9.502057528733118 
Si 0.0001401625809 5.43185163 10.856484774799524 
Si 1.3347064889999998 6.79291371 12.217785367119852 
Si 3.49081668 7.100957609999999 14.669198675312053 
Si 3.2921275499999996 8.093393279999999 16.776119869257734 
Si 2.47715514 5.294934179999999 13.595135222943085 
Si 0.875124864 4.2634188 15.084280055586346 
Si 2.0376183599999997 4.93204185 21.48494628762522 
Si 1.79755263 4.666905809999999 19.162614422081653 
Si 1.6260938639999998 7.016591699999999 18.48565854953297 
Si 1.510149789 6.941869469999999 24.68503883652577 
Si 2.42592309 7.082892 22.526086411437905 
Si 1.368910602 4.636524959999999 25.021214201805044 
Si 3.29058 7.5111561 26.109230547069473 
Si 0.803468412 6.98407686 28.930120583141203 
Si 3.8906384399999996 7.2483984 29.864105238855256 
Si 1.85453505 4.7990828699999994 29.076110457574483 
Si 0.431170236 7.759448279999999 31.153201328778145 
Si 1.79375706 4.41851589 31.516526411760413 
Si 2.57209326 6.7085966699999995 31.808574894089517 
Si 3.11603265 7.324163189999999 34.17805791493498 
Si 3.9746948399999997 9.24654609 1.165582057739927 
Si 1.358209701 9.5011425 4.071289186585039 
Si 2.7125782199999997 10.848488399999999 2.670844887348631 
Si 1.295123418 12.187428659999998 1.1621316379204587 
Si 6.566270939999999e-07 8.14495113 8.144812210702604 
Si 2.71435383 8.14591224 5.430527775029191 
Si -0.00165382596 10.85767596 5.430218474447765 
Si 2.71541268 10.860038009999998 8.14501841109022 
Si 4.076295569999999 9.508961699999999 12.214383060724161 
Si 1.357668873 9.50229909 9.5018513283455 
Si 2.71539639 8.146238039999998 10.861742884683775 
Si 0.0023477147999999997 10.86140637 10.862155285459009 
Si 1.337444838 12.21837966 12.241807712277307 
Si 3.81728457 12.17359845 15.112048374452185 
Si 1.6880349599999998 8.81230356 14.696382759746312 
Si 2.61948087 10.75056921 13.611390686833609 
Si 0.1370661777 12.133606499999999 20.705508822430573 
Si 2.25329796 8.86206951 19.920503946770253 
Si 1.323352359 10.847934539999999 18.99243036883457 
Si 1.2205168469999998 9.09741114 22.06526291184377 
Si 1.525496598 10.72496133 23.847899629529458 
Si 3.52994526 11.20380588 24.960969321889426 
Si 0.6706821059999999 11.22064974 29.812314574831966 
Si 0.306685314 10.28928528 25.906604299503883 
Si 1.79738973 10.53422172 27.842551005383278 
Si 2.5876339199999996 8.31314538 28.191923195470082 
Si 0.185411151 10.71886887 33.968489587652925 
Si 3.86877726 9.99101538 30.92827107261858 
Si 1.442399679 9.906535439999999 31.778641471153687 
Si 2.16762885 14.124619169999999 0.08592988753189523 
Si 1.360548945 14.92928001 4.069880150602986 
Si 3.40425162e-05 13.574799089999999 8.14501841109022 
Si 2.71396287 13.572779129999999 5.43056214176046 
Si 1.3566588929999999 12.21802128 6.787154491896852 
Si -0.00285148305 16.2901629 10.860986816595842 
Si 4.0793580899999995 14.91971778 12.225414781461705 
Si 1.357046595 14.93227737 9.502298095852003 
Si 2.71676475 13.57455474 10.861536684296157 
Si 2.75164164 16.268529779999998 13.585512538187597 
Si 2.42017272 13.57002612 16.469981027108094 
Si 1.345741335 15.05772666 15.030324287493064 
Si 0.16233050159999998 12.662217 17.234675164588076 
Si 3.24618975 12.378266009999999 19.74073157549895 
Si 3.5815194 14.35375431 18.43623918996728 
Si 1.221839595 12.82011597 22.736788840851855 
Si 3.43870497 13.341070169999998 21.926249483858218 
Si 1.5638057909999998 14.41920753 26.9434142151766 
Si 1.1866385339999999 14.673494429999998 29.267636250939994 
Si 2.93070132 12.476006009999999 26.850761507673745 
Si 2.1610151099999997 12.959379179999999 30.452910445697402 
Si 3.6702999 14.861155229999998 32.70698998293953 
Si 0.0257409693 15.149716289999999 33.80119233983249 
Si 8.133010559999999 0.0413663373 2.7182022430381467 
Si 4.07404755 1.3545639989999998 4.068264914233314 
Si 5.46573483 2.71174743 2.715037067088216 
Si 7.343124749999999 1.94833287 1.341989926019937 
Si 5.42968506 0.0005824326599999999 5.429909173866338 
Si 5.43085794 2.71458189 8.145121511284028 
Si 6.7877171999999995 1.357416378 6.78742942574701 
Si 4.0715226 1.356593733 9.502091895464387 
Si 5.43072762 -0.0035103646799999996 10.859818347732675 
Si 6.77470149 1.360319256 12.207303514082623 
Si 7.42263624 3.61598904 15.014515591109046 
Si 7.79755059 0.41478249599999995 16.23797122430699 
Si 5.481585 0.39666475799999995 16.67992738843411 
Si 4.085532 1.3682866949999999 14.98894674304446 
Si 5.559711839999999 2.69966025 13.701087855447279 
Si 4.40835093 1.55092203 18.551711407033153 
Si 6.355185119999999 1.9337533199999999 19.96772383553469 
Si 4.9535120699999995 3.22787979 23.68689149353136 
Si 5.94293409 1.3097127419999999 24.571834823723687 
Si 7.590716459999999 0.28521672299999995 23.216273475525384 
Si 6.517954799999999 0.9181076579999999 26.836980448434634 
Si 5.85718353 4.01129847 29.53497505348625 
Si 7.26151185 2.7721344599999997 28.04342454965412 
Si 4.81587786 2.3122026 30.70815215883676 
Si 7.394975819999999 1.0114184069999999 31.27709339500507 
Si 6.35075424 1.62289125 33.5116182621548 
Si 5.66720955 4.05208863 32.93930908632206 
Si 6.78208086 4.078250369999999 4.076994063975794 
Si 4.0770612 6.78949281 4.071942154479161 
Si 4.983387929999999 5.7032756099999995 0.1306571572773482 
Si 6.782862779999999 6.8077539 1.265410538731876 
Si 4.07276064 4.073216759999999 6.787910559984784 
Si 5.4293429699999995 5.42797461 5.4316962438923575 
Si 6.7863162599999995 6.787652039999999 6.788632261341445 
Si 6.7870167299999995 4.07162034 9.502332462583274 
Si 4.07219049 6.787375109999999 9.502298095852003 
Si 5.431656149999999 5.43035295 10.860849349670763 
Si 6.78597417 6.77206251 12.233422229847521 
Si 7.382399939999999 7.77028113 16.92441231468608 
Si 5.32143801 8.041020929999998 13.560081157048089 
Si 5.6142344699999995 4.12552395 20.396311341197936 
Si 5.23585035 7.21091511 18.127385376047336 
Si 5.56966503 4.8620600099999995 18.18378118206076 
Si 7.78419279 4.1684318099999995 17.511464818233474 
Si 4.763815019999999 7.719896159999999 22.223624809534112 
Si 6.88184082 4.66747596 23.457321728650395 
Si 6.274370429999999 6.004086749999999 21.660113516906396 
Si 7.82872965 7.732472039999999 25.14706517171434 
Si 6.936428609999999 5.62247721 25.60874783959021 
Si 4.6695285 5.61732957 26.400419861116838 
Si 4.139793989999999 5.27235624 28.632504690346423 
Si 7.4416629599999995 7.581056489999999 31.688428801570975 
Si 7.08059511 5.06399085 31.36256345567258 
Si 5.42908233 8.13846771 2.704156559968259 
Si 6.7848501599999995 9.50541048 4.07383232469899 
Si 6.68860884 12.070059209999998 1.3402887728220916 
Si 4.07272806 9.50249457 6.787773093059705 
Si 5.42966877 8.145781920000001 8.144537276852446 
Si 5.42984796 10.8590769 5.432383578517749 
Si 6.7855506299999995 9.500979599999999 9.501954428539308 
Si 5.43312225 10.8597285 10.859131013107284 
Si 8.09552727 10.6719048 13.748307744211715 
Si 6.6764239199999995 9.17428365 15.04558311617677 
Si 4.71768174 10.10835225 16.06709983643451 
Si 5.210714879999999 10.9809261 19.65907622200237 
Si 6.33423618 11.12090607 17.527479715005114 
Si 7.17160734 11.20607019 20.96786444894274 
Si 4.61099853 8.674473869999998 20.01827729723228 
Si 6.89819598 11.009319569999999 23.302190303699398 
Si 6.1227268200000005 8.85179052 23.903779934573834 
Si 4.71729078 9.313481699999999 25.767968905562295 
Si 8.095771619999999 8.87373315 27.186318271790167 
Si 5.946061769999999 9.55955844 27.883791082906804 
Si 5.979521429999999 11.86733016 28.48871428671439 
Si 5.6956356 8.668951559999998 30.159830961430213 
Si 7.51965948 8.525501819999999 34.13967027610683 
Si 5.774202269999999 10.30906134 34.35085383975856 
Si 4.411706669999999 12.175911629999998 30.27389414251403 
Si 7.55958627 13.987343339999999 0.15114797712953756 
Si 4.07238597 12.22033446 4.071495386972656 
Si 4.079537279999999 15.01810938 1.3305767345653012 
Si 5.41249911 13.55992632 2.69905653704785 
Si 6.78351438 14.93620326 4.066890244982529 
Si 4.07227194 14.932440269999999 6.786879558046696 
Si 5.4297828 13.57489683 8.145430811865456 
Si 6.78683754 12.21764661 6.787566892672088 
Si 4.0725814499999995 12.215985029999999 9.502779230089779 
Si 6.786674639999999 14.93351541 9.502091895464387 
Si 6.7795722 12.20909436 12.261568582757329 
Si 7.406150759999999 13.16087019 16.631745231194124 
Si 5.31286947 13.525896509999999 13.755524757778332 
Si 7.06207338 14.765207129999999 14.844743938637196 
Si 6.38836785 16.21166139 21.26963871622114 
Si 7.58714895 14.95000089 19.665640267674863 
Si 5.929494839999999 14.713991369999999 17.91939791840369 
Si 4.16732409 15.632388989999999 22.042134101699325 
Si 4.9729297500000005 12.37971582 23.55698524933225 
Si 4.3464978 15.896612789999999 24.39106581724557 
Si 7.995685859999999 14.73875217 24.607335657125194 
Si 5.72277474 14.05219383 24.99471745199618 
Si 6.8262104699999995 15.31085697 29.97428497930561 
Si 5.02129476 13.57721001 27.195322355382803 
Si 5.24638998 15.76270899 28.24962493727175 
Si 7.91216703 13.55552802 32.2107687501377 
Si 5.5389583799999995 13.90472046 31.457346900514153 
Si 5.72709159 15.62518881 34.12379284626027 
Si 9.508261229999999 1.352353446 4.077543931676107 
Si 10.862123129999999 2.6989434899999996 2.7062151271713084 
Si 9.19552581 3.7677140999999996 1.3845634327167238 
Si 8.14519548 0.00026118734399999995 8.145052777821489 
Si 8.145032579999999 2.71397916 5.42801900364651 
Si 10.85658453 0.001261194606 5.432074277936324 
Si 10.859972849999998 2.7152334899999997 8.144709110508794 
Si 9.50189184 1.358183637 9.502126262195658 
Si 8.14612401 2.7162271799999997 10.859887081195215 
Si 10.860347519999998 -0.0037971012599999996 10.862636419696784 
Si 9.51215454 4.070594069999999 12.220122304846186 
Si 8.24435271 0.17235308700000002 13.555269814670345 
Si 9.13302108 2.01134259 14.981042394852452 
Si 10.94209074 2.73880512 13.64610108541591 
Si 8.93105766 0.0553183965 18.265917669795115 
Si 9.81433404 2.6834354099999995 21.06804347059364 
Si 12.01327227 2.96360712 20.163854770890328 
Si 8.526560669999999 2.27773296 19.061095097911238 
Si 10.17623268 3.66383277 24.88251007440092 
Si 9.751666409999999 0.795248478 22.475601683202857 
Si 10.981447379999999 1.5033210209999999 24.33408577680056 
Si 10.979280809999999 1.92489156 28.399223318488342 
Si 12.09550419 0.422735274 29.813276843307513 
Si 8.90856117 2.09170116 29.5671423139546 
Si 10.617968609999998 0.584146368 26.435955061249608 
Si 10.48549833 0.202502619 34.34095622115291 
Si 12.086740169999999 6.6381749999999995 1.2840338704068748 
Si 8.142312149999999 5.4317213099999995 2.69804959182165 
Si 9.50682771 6.78809187 4.070086350990603 
Si 9.503357939999999 4.072304519999999 6.788116760372402 
Si 8.14495113 5.42996199 8.144812210702604 
Si 10.859598179999999 5.42805606 5.429977907328877 
Si 8.146107719999998 8.147264309999999 10.85861551213824 
Si 12.234083219999999 6.793711919999999 12.204416708655977 
Si 9.501289109999998 6.78700044 9.502744863358508 
Si 10.859044319999999 5.42579175 10.861261750446 
Si 10.77661692 8.00269056 13.554376279657333 
Si 11.6590788 4.65397155 14.750304161108323 
Si 8.21747421 5.413525379999999 13.671188799242723 
Si 9.9232164 6.42585114 15.108027466893642 
Si 11.643815069999999 7.58068182 20.999619308635854 
Si 8.14827429 7.06630878 20.67804980414616 
Si 11.28805776 6.899987879999999 18.757774327725702 
Si 8.90836569 6.343863569999999 18.495762368526236 
Si 9.88420185 6.45486363 22.153207377162687 
Si 9.20686365 4.274626319999999 22.77624184834936 
Si 9.970978679999998 7.60049046 24.178679417999405 
Si 11.92097313 6.988442579999999 25.42622612981734 
Si 12.13342731 4.635889649999999 25.856531972044067 
Si 8.502923879999999 4.20122358 26.633632499512377 
Si 11.69103978 4.18631823 28.150854951602906 
Si 9.643289039999999 7.60795128 28.446099539940082 
Si 9.62139528 5.245054199999999 28.45142638328687 
Si 9.580979789999999 8.06252373 30.762623427899086 
Si 11.43082332 6.761669489999999 31.40184462951374 
Si 11.01049245 4.559570999999999 32.0345017854559 
Si 9.16105617 4.193876789999999 30.56662995946853 
Si 10.950300899999998 4.700577239999999 34.364634898997664 
Si 9.26309673 9.3556728 1.281769102816208 
Si 10.845637649999999 8.137848689999998 2.6889836481127283 
Si 8.15101101 10.85713839 2.716655740131014 
Si 11.929052969999999 11.958619319999999 1.2972100751756415 
Si 8.14275198 8.14415292 5.429428039628563 
Si 9.502250219999999 9.502347959999998 6.78739505901574 
Si 10.85937012 8.14552128 8.144571643583715 
Si 8.14475565 10.859549309999998 8.145602645521803 
Si 10.859679629999999 10.860233489999999 5.4293936728972945 
Si 9.487784699999999 9.48657924 12.229092021707553 
Si 10.861699589999999 10.861829909999999 10.866485493598978 
Si 11.78944767 9.696247829999999 14.84694340943845 
Si 10.05006663 10.79515494 17.142641058248074 
Si 10.017209699999999 11.542442399999999 14.889455056018955 
Si 10.61176212 9.72315891 21.09581178945948 
Si 12.001217669999999 11.68766775 20.928617641832854 
Si 8.40871881 9.38193228 20.184921577158597 
Si 11.781644759999999 9.195428069999998 17.220619171498807 
Si 8.16379866 9.72491823 17.858740637712835 
Si 10.432620989999998 9.79872822 23.49433469822776 
Si 8.94540915 11.27880504 24.600153010289844 
Si 9.23234121 10.918796039999998 26.989981136046914 
Si 11.73068964 8.165492819999999 27.48706153713048 
Si 11.53131633 10.531045169999999 27.504382369690365 
Si 10.425062429999999 10.724765849999999 34.20623863457606 
Si 10.39170051 10.19648115 31.829469866701434 
Si 9.417916889999999 12.14375517 30.830841389469253 
Si 12.21821676 14.933417669999999 4.066993345176338 
Si 9.50067009 12.22041591 4.071976521210431 
Si 9.43427205 14.9615505 1.3827591793250693 
Si 10.85068755 13.566768119999999 2.703173671453948 
Si 8.14568418 13.5736425 5.430459041566651 
Si 9.5032602 14.93268462 6.787704359597166 
Si 10.860347519999998 13.575238919999999 8.145637012253074 
Si 9.50264118 12.216750659999999 9.50257302970216 
Si 8.145114029999998 13.574685059999998 10.867757062655954 
Si 9.517139279999999 14.931951569999999 12.249746427200584 
Si 10.90444455 13.51819134 13.84188835345885 
Si 9.57418686 12.910378859999998 17.843069408253896 
Si 10.92718539 15.37341057 21.297303934893176 
Si 8.63534529 12.85575849 20.05384686409632 
Si 11.06063307 15.6893877 18.95569233310736 
Si 11.78083026 13.93176186 17.56263688109392 
Si 10.306357199999999 13.182454439999999 21.65526780779738 
Si 9.81371502 13.317710309999999 23.953508594720955 
Si 12.01014459 13.59029088 24.912409130605475 
Si 11.06951112 14.77537209 28.903520733138524 
Si 12.050674110000001 15.0612453 26.750685586216655 
Si 8.4747096 15.894560249999998 26.59868153381119 
Si 8.69027517 14.613482069999998 28.566692399965127 
Si 8.298875339999999 12.29238513 28.69938234939707 
Si 11.55755952 13.09557987 30.452051277415663 
Si 9.02866734 15.77499165 32.16598889929341 
Si 11.37278205 16.14506787 32.173446479978914 
Si 12.27300003 1.3868361179999997 1.1982167057535438 
Si 14.934997799999998 1.354392954 4.068058713845696 
Si 12.21626196 4.075383329999999 4.073488657386294 
Si 14.83781166 4.05831141 1.3179847642281177 
Si 13.575157469999999 -0.0001317947337 8.145190244746567 
Si 13.573218959999998 2.7153801 5.4286719715406315 
Si 12.21725565 1.356432462 6.787944926716054 
Si 14.93281494 1.3570889489999998 9.50095779333249 
Si 13.578024509999999 2.71772586 10.860471315626798 
Si 12.21756516 1.350208053 12.238542872806693 
Si 14.924735099999998 4.06635867 12.223662078166956 
Si 16.24782519 2.66872554 13.608538248138231 
Si 13.42243872 7.366256549999999e-05 13.853263741509089 
Si 14.936186969999998 1.431395784 15.19793083589493 
Si 14.11083783 2.30542596 17.30151845690746 
Si 15.54983127 1.7547099299999998 20.604504999229203 
Si 15.94121481 3.42656892 18.892663747958906 
Si 12.73778631 1.0111659119999998 18.92699611249724 
Si 13.7055915 2.70200601 21.77448599857164 
Si 13.12939791 1.090431423 23.40051352186174 
Si 14.69107134 1.293044814 25.14441893340658 
Si 14.213855789999998 3.71732913 25.153697950849374 
Si 16.0187715 1.8151621199999999 29.6969454579599 
Si 14.379508799999998 0.1132933662 29.183643959717077 
Si 13.047996779999998 3.27332889 34.33782884860737 
Si 16.063047719999997 2.88471465 31.869300908242906 
Si 13.945543199999998 4.036580549999999 32.15454477778063 
Si 15.715826369999998 5.9171958899999995 0.1901524987839759 
Si 16.3116657 8.14587966 2.7069711952592397 
Si 13.558883759999999 5.428349279999999 2.7197796760034216 
Si 14.931055619999999 6.787554299999999 4.068402381158393 
Si 13.93433568 7.663760819999999 0.2705579342642821 
Si 14.932016729999999 4.073249339999999 6.78742942574701 
Si 13.57489683 5.42989683 8.144880944165141 
Si 12.217874669999999 6.7868049599999996 6.788048026909863 
Si 14.932407689999998 6.78589272 9.50260739643343 
Si 13.570645139999998 8.14998474 10.861055550058381 
Si 12.215431169999999 4.07219049 9.501507661032804 
Si 16.05806298 7.87730643 13.689334433353073 
Si 13.11506271 4.27443084 16.5183693847357 
Si 13.585159529999999 5.4894042 13.603142671328904 
Si 15.33340233 6.06641229 15.340999538170294 
Si 15.61297131 7.15231998 17.967236408330976 
Si 15.44199147 6.19103079 21.462436078643627 
Si 14.710717079999998 5.40591795 19.35362471447812 
Si 12.49469064 4.84720353 18.69017496731839 
Si 13.852087469999999 7.8305541299999994 21.899684000586813 
Si 14.70293046 4.44778902 22.917832781180135 
Si 13.709778029999999 8.05033881 24.2452821431999 
Si 15.805649429999999 8.078520509999999 25.448667605336393 
Si 12.70488051 5.39122437 29.914658700552845 
Si 15.86025351 4.53487536 26.554451550667206 
Si 15.389912339999999 6.72762339 27.352137750166012 
Si 13.52895903 7.25341572 28.718180951401546 
Si 13.17305511 7.92646965 32.39603979841215 
Si 14.96158308 6.2411877 32.34514266940186 
Si 12.222908279999999 9.501403139999999 4.06953648329029 
Si 15.0762321 9.514679489999999 1.238068367333778 
Si 13.57444071 10.84747842 2.690585137789892 
Si 14.93258688 12.221507339999999 4.072113988135509 
Si 13.57336557 8.142784559999999 5.430802708879348 
Si 14.932440269999999 9.502738919999999 6.78742942574701 
Si 13.574587320000001 10.860673319999998 8.144880944165141 
Si 12.217174199999999 9.50063751 9.500545392557255 
Si 14.92796052 9.50319504 12.256860340573393 
Si 12.220953479999999 12.221719109999999 12.247718790055679 
Si 13.673597939999999 10.989478349999999 13.783980411269567 
Si 13.559225849999999 10.34400339 18.212339935745803 
Si 15.260178779999999 9.75370266 21.360951121204483 
Si 15.52262697 9.41027688 18.998650747194368 
Si 13.786145549999999 11.414370420000001 22.43955098210104 
Si 12.70670499 10.163738249999998 24.095718128714577 
Si 12.77751762 11.59430976 25.879523315263434 
Si 12.7307979 11.365516709999998 29.399810699402895 
Si 14.909601689999999 12.13261281 28.91637389063336 
Si 14.99768172 11.939462279999999 26.572940852090255 
Si 14.41919124 8.65451862 30.411670368173876 
Si 12.91305042 10.231390619999999 31.68110868781055 
Si 14.57207289 11.7138132 32.902433583669776 
Si 13.42608768 13.200438599999998 0.07856062934575381 
Si 14.7950667 14.76022239 1.2361747604408226 
Si 13.581461699999998 16.290488699999997 2.681818184643016 
Si 16.276968 13.561392419999999 2.693076725806938 
Si 13.576493249999999 13.574815379999999 5.430390308104112 
Si 12.217662899999999 12.21790725 6.78742942574701 
Si 14.93268462 14.93229366 6.787566892672088 
Si 12.2204322 14.934118139999999 9.502263729120736 
Si 14.930843849999999 12.2165226 9.502504296239621 
Si 13.572730259999998 13.575939389999998 10.858168744631735 
Si 14.90233635 14.966600399999999 12.227992286306925 
Si 12.67096473 14.36711211 15.239377113806073 
Si 14.6846205 12.767482979999999 15.25601061174056 
Si 16.21798191 13.706357129999999 13.663146984125635 
Si 13.23945315 12.531440879999998 19.057142923815235 
Si 14.465129039999999 16.01158761 20.027762515062694 
Si 15.29259588 13.772934359999999 19.31571820988774 
Si 13.798591109999998 13.69627362 23.24304515918441 
Si 16.00347519 14.34544641 23.82449588553486 
Si 13.16683233 15.51653451 21.9494470274652 
Si 15.70390209 14.11671852 26.114454290222454 
Si 15.23900178 14.284977929999998 29.86242126902305 
Si 14.257154609999999 15.908976899999999 26.83897371884827 
Si 15.01301061 13.95689733 32.14554069418799 
Si 12.58796718 14.1488424 32.34912921022914 
