&CONTROL
  dt          = 30.D0,
  prefix = 'x.33_y.66_z3.17_struc36-scf',
  pseudo_dir = './',
  outdir='./',
  wf_collect= .true.,
  verbosity= 'high',
/

&SYSTEM
ibrav= 6, celldm(1) =30.783621515, celldm(3) =2.1196850800590985, nat=  432, ntyp= 1,
  ecutwfc     = 12.D0, nbnd= 1728,
  degauss     = 0.05D0,
  occupations = "smearing",
  smearing    = "methfessel-paxton",
/
&ELECTRONS
  electron_maxstep=200,
  conv_thr    = 1.D-8,
  mixing_beta = 0.3D0,
  scf_must_converge=.false.,
/
ATOMIC_SPECIES
Si  28.08  Si.pbe-hgh.UPF
K_POINTS {automatic}
1 1 1 0 0 0
ATOMIC_POSITIONS (angstrom)
Si 0.01135931022 2.72635956 2.694802485199716 
Si 2.71653669 -0.01260088515 2.69657731023536 
Si 4.04013177 4.00562955 1.2281340360946824 
Si 1.358344908 1.324386774 1.303681500987395 
Si 0.000873505638 -0.000680796567 5.430515723361124 
Si -0.00031873013999999996 2.71528236 8.14544555317712 
Si 2.71482624 -0.00022232917799999997 8.144824019117946 
Si 2.71389771 2.71590138 5.431344435440024 
Si 1.357663986 1.357287687 6.787359104209948 
Si 2.71085148 2.71992501 10.867730202693357 
Si 1.3420027799999998 1.3473866249999997 12.237004264725678 
Si 4.02812604 1.322130609 15.08169659422942 
Si 1.1769720479999999 2.85421977 15.958888329744969 
Si 3.32065134 2.4319341 17.134899829043842 
Si 2.98444203 1.5813452339999998 19.559331545535468 
Si 1.3627008539999999 0.65277288 21.131053062509046 
Si 1.123865019 1.459318473 23.413982191528515 
Si 2.7490678199999996 3.08977317 23.81525148606584 
Si 1.8052252199999999 0.1202276934 25.269468536185403 
Si 2.05183953 0.8090135279999999 29.099775764860766 
Si 2.21188878 3.43565874 26.148662992558293 
Si 2.90607084 1.3853390669999999 26.921920421511814 
Si 3.1728033 2.13384339 34.488027172197995 
Si 3.12365637 2.02194738 30.89435177171851 
Si 1.7276522399999998 1.3396847129999998 32.660233622844345 
Si 4.07196243 6.788873789999999 4.066628289841651 
Si 1.357839918 4.07360772 4.073879520532025 
Si 2.70619254 5.40611343 2.694909527176574 
Si 1.307003715 6.705110609999999 1.2727567285764467 
Si 0.00376285968 8.151727769999999 2.696466815291507 
Si 3.2631639299999997 7.43141655 0.05599089572077346 
Si 0.000238855383 5.42769768 5.43023948600149 
Si 2.71500543 5.43041811 8.144858548787901 
Si 1.357352847 6.78779865 6.787290044870039 
Si 2.71445157 8.1453258 5.430274015671444 
Si 4.07181582 6.78574611 9.5023234636959 
Si 4.080514679999999 4.0907447999999995 12.249331356899315 
Si 1.357031934 4.0733144999999995 9.501874577986495 
Si 0.00322320456 5.4259872300000005 10.862170925830736 
Si 1.364668686 6.798338279999999 12.229235088985991 
Si 2.3168941199999997 6.93066195 15.641284425506582 
Si 3.2176008 6.08363082 13.579483302873571 
Si -0.00366336036 8.061187949999999 13.745156659313642 
Si 0.816544395 5.22472428 16.22576814882069 
Si 0.73396224 6.4146762 19.949931172056957 
Si 3.09793446 6.884724149999999 19.76215882684622 
Si 3.7953745199999998 6.776330489999999 17.438553746620748 
Si 0.32639458499999996 4.7478671100000005 18.415536228303832 
Si 2.39987538 5.12406837 22.711821353010617 
Si 2.95090092 6.529227479999999 24.495796751192433 
Si 0.1496404287 5.82940908 22.177474710469948 
Si 0.9508863959999999 7.45645428 25.316256238973292 
Si 3.76175196 6.18576912 30.056869156650247 
Si 3.5862435 5.2574346 26.324280893945165 
Si 3.7703856599999996 6.98852403 27.822764980945966 
Si 2.7130832099999997 8.11784457 30.865726675326506 
Si 2.44912005 4.35267171 30.814691823134254 
Si 0.270744687 4.62785868 31.845920416315327 
Si 1.7613073799999999 8.07176016 32.958293733888674 
Si 1.356535089 9.50431905 4.071220735945555 
Si 2.71640637 10.84887936 2.685945624856473 
Si 0.001033400133 8.14552128 8.144651370768177 
Si -0.00040330619099999997 10.858555619999999 5.431309905770069 
Si 2.7140606099999998 10.859533019999999 8.144375133408543 
Si 1.356697989 9.50124024 9.500700569208053 
Si 2.70598077 8.150408279999999 10.85623182259862 
Si 0.00171624924 10.86213942 10.858959666524997 
Si 1.336622193 9.18117432 15.367947558149428 
Si 2.56699449 10.756270709999999 13.610629065172226 
Si 0.18931586399999997 9.88638471 17.741620659808436 
Si 3.3499896299999996 12.15444141 17.278750434072887 
Si 3.41211969 11.05330257 20.840313241494997 
Si 1.6359558299999999 11.29517649 19.21848917341793 
Si 0.567978543 9.72778527 21.894676713545355 
Si 2.21640111 11.16829368 22.86109311622246 
Si 3.4947914399999997 10.410678359999999 24.674177026175638 
Si 2.40756426 10.606972859999999 26.77085311546235 
Si 0.8332595639999999 8.55324369 29.509055942827455 
Si 0.0589691484 10.87044732 29.32825859094746 
Si 0.326217024 11.60366022 27.093947237223453 
Si 1.90557162 8.39795112 27.313210641432384 
Si 3.8714814 11.356410599999998 28.51719117339413 
Si 3.70819044 10.317271499999999 30.708340439675435 
Si 2.9198196 12.07128096 32.38865776865485 
Si 1.404962001 10.350535679999998 33.03415541877797 
Si 1.399444578 12.30784434 1.2906776272826572 
Si 1.3558769729999998 14.935991489999997 4.072325685384088 
Si 8.211642389999999e-05 13.57489683 8.144893078457855 
Si 2.7128225699999997 13.573821689999999 5.430101367321675 
Si 1.357346331 12.217662899999999 6.7874972228897645 
Si 4.0801237200000005 14.936447609999998 12.249883831618583 
Si 1.355386644 14.93214705 9.501563810956908 
Si 2.71728603 13.576428089999999 10.864726121407344 
Si 1.331937189 12.20785632 12.2268180120892 
Si 2.64373668 16.254585539999997 13.680896943528946 
Si 3.4046425799999995 12.5908668 14.853179238472771 
Si 1.69235181 14.483178359999998 15.0570769395521 
Si 0.535488138 14.55698835 17.470182924298765 
Si 2.95852464 14.56057215 17.342975620187627 
Si 1.9066304699999999 14.631840899999998 21.04479794696355 
Si 0.6298088669999999 13.3941267 19.48830401443976 
Si 1.7448381899999998 13.496704829999999 23.113228766227756 
Si 3.2875337699999996 14.79428478 24.38903101169416 
Si 0.463494483 13.891427819999999 27.62453014573912 
Si 2.2832064 14.670106109999999 29.01762968003981 
Si 2.70053991 13.6725228 34.31092449500309 
Si 1.64950911 13.74959079 31.14576229865477 
Si 1.239991542 15.309146519999999 33.10425064878492 
Si 8.149219109999999 -0.00521612316 2.679571447782935 
Si 4.07171808 1.358076123 4.069390663437984 
Si 5.4332037 2.72691342 2.7067842806738107 
Si 6.82269183 1.4916997349999999 1.2919897547409154 
Si 8.14379454 2.71551042 5.430688371710895 
Si 5.4298316699999996 -0.00010540835459999999 5.429721540952178 
Si 5.43082536 2.71542897 8.14444419274845 
Si 6.78779865 1.35770634 6.787911578929215 
Si 4.07438964 1.3555234799999998 9.502357993365854 
Si 6.76106676 1.3601579849999998 12.197640440977931 
Si 7.2733221 3.4642965599999997 14.98473728099813 
Si 6.27282288 3.99877146 17.108381042519046 
Si 8.06104134 -0.015442138079999999 13.554656470176527 
Si 5.442700769999999 2.6703219599999994 13.645331383476158 
Si 6.35340951 0.357471018 18.081806968196847 
Si 4.65913548 2.82377376 20.635655887676673 
Si 6.386396759999999 2.52121959 18.951851062031885 
Si 4.85300277 2.07607905 23.051489716349714 
Si 7.1495669699999995 2.8950587999999997 23.469160604115267 
Si 4.94100135 1.8159929099999998 25.74117835742922 
Si 6.87740994 2.25978138 29.390860882574355 
Si 6.851964959999999 0.600623703 26.2586399913623 
Si 7.077304529999999 4.00970205 27.814305211807195 
Si 7.4388285 0.22502680199999997 28.46111498938857 
Si 7.86271059 2.9312877599999996 34.28078009313311 
Si 5.16314808 0.492622632 34.441101350730285 
Si 5.47529706 2.13754122 31.293134930019132 
Si 6.525953189999999 0.18873268199999998 32.4894153455811 
Si 6.78586014 4.07170179 4.072118507364363 
Si 6.70266711 6.6933981 1.2577017924764318 
Si 5.44773438 8.1394614 2.70877318966317 
Si 4.07284209 4.07246742 6.787359104209948 
Si 5.43146067 5.429261519999999 5.430308545341399 
Si 6.787521719999999 6.78753801 6.787877049259261 
Si 6.7854366 4.0738357800000005 9.499215793400024 
Si 5.43600558 5.4228432600000005 10.854367220421095 
Si 6.78198312 6.76644246 12.205029790348123 
Si 8.10828234 5.36964012 13.591361509337803 
Si 6.01772148 7.6833414 17.223675610495995 
Si 5.15780496 7.825960349999999 13.463670789847308 
Si 4.135705199999999 4.62671838 16.287265491009055 
Si 4.10315778 5.1146853299999995 21.048043735939242 
Si 7.957599839999999 5.45801337 20.41863691201476 
Si 7.312874219999999 5.85214992 18.113401616204907 
Si 6.1442459099999995 5.89235364 22.034038461480357 
Si 6.82109541 5.085558809999999 24.191555829226303 
Si 5.57007228 4.11710202 26.005226743568702 
Si 7.732195109999999 7.46544636 27.133518238990924 
Si 7.46295399 6.022070909999999 28.94753445003286 
Si 5.03712864 5.82206229 34.29548973253358 
Si 8.04730887 7.89133212 34.16303391858941 
Si 6.23048517 7.665471269999999 32.52542979134329 
Si 5.987666429999999 6.02102835 30.791729592614736 
Si 6.59609793 4.11985503 32.21138244311018 
Si 8.136219689999999 10.82939652 2.6978203783537102 
Si 4.0793580899999995 9.35739954 1.2437552587819456 
Si 6.78976974 9.504498239999998 4.075640533699688 
Si 6.74163279 12.04145397 1.1988321581715797 
Si 4.07241855 9.50278779 6.787393633879902 
Si 5.42996199 8.14495113 8.144858548787901 
Si 5.430304079999999 10.85853933 5.43023948600149 
Si 6.78638142 9.50053977 9.503117646104846 
Si 4.07109906 9.508407839999999 12.225195117601354 
Si 5.4346535099999995 10.860673319999998 10.863137756589452 
Si 7.01178615 8.72321355 14.954489290118284 
Si 5.63741514 11.42323218 17.454264746449894 
Si 4.27275297 8.867673270000001 20.51863483620202 
Si 7.911401399999999 9.523199159999999 19.807461753826082 
Si 5.81841333 9.41899203 18.76466572121037 
Si 7.60878207 9.37688238 22.20537468379291 
Si 5.62755969 8.15832522 22.358997185418982 
Si 7.26841881 11.251877669999999 23.7079332718483 
Si 4.51562058 8.286983639999999 24.47770320413645 
Si 5.470149419999999 11.51290863 25.28445441294551 
Si 5.5218213 8.2191195 26.70780193812605 
Si 5.74000956 10.47440484 27.4087197085256 
Si 7.707320279999999 10.8861183 28.657657870767665 
Si 5.186719709999999 10.853065889999998 34.272527502014064 
Si 5.766627419999999 9.96498396 32.06003889970109 
Si 7.72250256 11.01521655 31.09037670804829 
Si 4.07313531 12.21644115 4.067215294230872 
Si 4.13492328 14.983102169999999 1.2135107208690945 
Si 5.44177224 13.570889489999999 2.6779243825261214 
Si 6.78713076 14.931544319999999 4.067560590930413 
Si 4.07222307 14.932603169999998 6.787428163549856 
Si 5.42968506 13.57567875 8.145203845487442 
Si 6.78776607 12.21702759 6.787255515200085 
Si 8.14488597 13.57442442 10.864070057678216 
Si 4.07122938 12.216750659999999 9.502116285676175 
Si 6.78589272 14.933173319999998 9.502530641715625 
Si 6.78717963 12.204239939999999 12.257445829338542 
Si 5.429261519999999 16.290488699999997 10.856749767647932 
Si 7.074225719999999 14.71822677 15.105556596167746 
Si 5.41647387 13.515992189999999 13.750336109806767 
Si 5.3521446599999996 15.95944332 16.12345673674651 
Si 5.170934699999999 12.738796289999998 20.58845382884933 
Si 4.1887291499999995 14.85861399 20.805956219890607 
Si 6.56024364 13.124413169999999 18.713630869018118 
Si 7.94966661 15.08695092 18.690185223119236 
Si 4.21642215 15.99893028 18.804443900997562 
Si 6.946951949999999 12.997628099999998 22.163421134798607 
Si 4.656301019999999 15.99164865 22.827841044056605 
Si 6.80876388 15.133507739999999 23.13222008470255 
Si 6.8818734 14.739908759999999 25.405342787455034 
Si 4.82695506 13.73170437 25.873185285663986 
Si 6.414969419999999 14.449588379999998 29.244213374279024 
Si 4.34411946 13.7156913 28.22831595455761 
Si 6.2879562899999994 14.342481629999998 31.57272166763799 
Si 9.502657469999999 1.3566344579999998 4.067180764560918 
Si 10.863719549999999 2.7101510099999997 2.672924486316759 
Si 9.482848829999998 4.0189059 1.1154982527042037 
Si 8.14470678 4.38031584e-05 8.14468590043813 
Si 10.86108057 -0.0016288843409999999 5.430722901380849 
Si 10.859907689999998 2.7152660699999998 8.144547781758313 
Si 12.214600379999998 1.326691809 12.223192396744013 
Si 9.50181039 1.355652171 9.50208175600622 
Si 8.14400631 2.71678104 10.86096238738234 
Si 9.51378354 4.076230409999999 12.21552681001419 
Si 10.0286127 0.988019451 16.935076629019104 
Si 9.01224702 1.7622521999999998 14.927487088214129 
Si 10.76962851 2.6239931999999997 13.557384314102906 
Si 11.94084693 2.0474738099999996 20.23970416231229 
Si 8.47527975 3.1946319 19.782911158488673 
Si 10.48064391 2.81163771 18.457869603667632 
Si 11.137798799999999 2.87907831 22.28513822138703 
Si 8.720949240000001 0.0460130598 22.453263184393844 
Si 11.99520666 1.215014085 23.705205427921925 
Si 9.973747979999999 0.401465421 24.46002401311992 
Si 8.81688105 2.36582928 21.920573966010977 
Si 8.430123870000001 1.99860381 25.22140323560921 
Si 10.35029133 3.9882155399999997 30.15942227641411 
Si 9.07201503 3.8639391299999994 26.532494803768767 
Si 10.709616149999999 2.9325746699999997 27.99451555929797 
Si 9.824987700000001 0.585589662 28.179007585863058 
Si 8.448710759999999 2.95948575 31.009370102335826 
Si 8.713928249999999 1.233845325 32.691275796133134 
Si 10.85803434 8.13770208 2.6818676708348868 
Si 12.21938964 4.07463399 4.071496973305188 
Si 12.128051609999998 6.66617751 1.2237280502085313 
Si 8.14991958 5.41531728 2.682240591270392 
Si 9.50259231 6.787489139999999 4.0669045272012845 
Si 9.502347959999998 4.072548869999999 6.787946108599169 
Si 8.144609039999999 5.42909862 8.144029836709 
Si 10.85899545 5.428235249999999 5.430170426661583 
Si 10.858913999999999 5.430369239999999 10.862136396160782 
Si 8.148583799999999 8.149251689999998 10.862412633520414 
Si 9.502347959999998 6.7863162599999995 9.502047226336266 
Si 8.916445529999999 7.14319758 14.964986309784349 
Si 10.78026588 8.114863499999998 13.735453822056524 
Si 11.24133804 4.65002937 17.077373398900207 
Si 9.40969044 6.3700090199999995 17.17916686592508 
Si 9.963957689999999 6.769635299999999 20.66873531149276 
Si 10.30257792 7.5336037199999994 24.539753021044085 
Si 8.65873773 6.020181269999999 25.45582516492802 
Si 9.550273139999998 6.185410739999999 30.05241482922616 
Si 11.6038557 7.24471686 29.403533271447532 
Si 12.176937899999999 7.31248326 27.133138412621427 
Si 9.469197809999999 7.18915167 32.3919380873005 
Si 11.87751141 4.2548502599999996 32.036973080171705 
Si 10.74444417 5.4631773 34.0492931857604 
Si 9.360853019999999 9.326122739999999 1.1963667397368525 
Si 10.421103959999998 11.18494206 0.08893151026364561 
Si 12.21702759 9.50697432 4.068423832679268 
Si 8.14267053 8.1453258 5.430964609070529 
Si 9.50194071 9.5027715 6.787669871239536 
Si 10.8598914 8.145472409999998 8.145065726807626 
Si 8.145537569999998 10.85976108 8.145169315817489 
Si 10.8592398 10.85831127 5.429997778311812 
Si 9.50400954 9.49327443 12.232031992252278 
Si 10.8626607 10.85883255 10.859477611574311 
Si 11.788291079999999 9.89443197 14.860395939493191 
Si 8.150636339999998 10.7186571 13.732553329780373 
Si 10.003868189999999 11.55604455 14.967714153710729 
Si 9.76245039 11.96249634 17.353265461833967 
Si 11.49673266 11.18059263 19.654219078569508 
Si 8.37279936 11.72950047 19.26503516851614 
Si 9.7207317 8.18355843 18.824298461221204 
Si 11.90388492 9.10622403 18.69042693080892 
Si 9.30303981 11.657172869999998 24.867163351549454 
Si 9.7340895 8.37737685 22.405888477216735 
Si 11.07465876 10.343384369999999 21.870885770946938 
Si 10.492926569999998 9.683036640000001 25.73389259706889 
Si 9.21663765 9.29771298 27.71555035573829 
Si 10.772267489999999 9.43968033 29.48340039805151 
Si 9.63727803 9.45947268 31.513192516637016 
Si 11.30376132 10.70714007 32.51289552114993 
Si 12.18542499 12.246040079999998 1.2597459489377183 
Si 9.50246199 12.218493689999999 4.06562692941298 
Si 9.55846701 14.90412825 1.1921610259364355 
Si 10.86743367 13.5884664 2.700879707111649 
Si 8.144674199999999 13.575809069999998 5.429997778311812 
Si 9.50308101 14.93265204 6.787738930579444 
Si 10.86059187 13.57476651 8.144824019117946 
Si 12.21811902 12.21316686 12.215112453974738 
Si 9.50332536 12.216620339999999 9.501943637326404 
Si 9.50169636 14.93129997 12.2375912691149 
Si 10.86508791 16.28758908 10.859443081904356 
Si 9.00490023 14.176812329999999 16.769057975879488 
Si 11.325166379999999 15.22849473 16.760460088060903 
Si 10.79464995 13.418529119999999 13.641671238461017 
Si 9.09255672 13.01142573 21.161715409428343 
Si 9.433604159999998 15.22940697 20.525713418542622 
Si 11.661310529999998 15.965095949999998 20.429202991020738 
Si 10.49984982 12.32765298 22.988300420333598 
Si 8.76654495 13.58313957 26.233260683945993 
Si 9.81775494 13.8021912 30.179967430036836 
Si 10.30417434 15.36306642 26.370550651683743 
Si 8.274293729999998 13.13472474 28.47354567057207 
Si 8.64678087 12.937257359999998 34.404776137938505 
Si 12.11984145 14.776854479999999 32.67805093254069 
Si 10.32152319 16.09899975 30.32323103067666 
Si 11.618728469999999 12.70569501 31.228322739515168 
Si 8.28414918 13.21294932 31.958866966735393 
Si 10.660860179999998 16.28480349 34.0761917986547 
Si 15.8395815 0.268143174 0.14989295197432081 
Si 13.549875389999999 -0.0040375253699999995 2.7016877013885763 
Si 12.207611969999999 1.293652431 1.1453974939175129 
Si 14.93485119 1.355774346 4.06645564149188 
Si 14.869495709999999 4.018058819999999 1.2559822149127144 
Si 13.57492941 -0.00018071637299999998 8.144754959778039 
Si 13.572518489999998 2.71437012 5.429825129962041 
Si 12.21764661 1.3570286759999999 6.787877049259261 
Si 16.291629 -0.0025107777 10.858959666524997 
Si 14.93159319 1.3565383469999999 9.503014057094981 
Si 13.57828515 2.7152171999999997 10.862826989559863 
Si 14.925826529999998 4.084750079999999 12.231065161493563 
Si 16.10098713 2.5796843999999997 13.582970799538941 
Si 15.285135059999998 1.8778297499999999 16.949026615680584 
Si 14.100037559999999 1.91265777 14.915090936700585 
Si 12.27800106 3.7702879199999995 14.972859074533897 
Si 14.29085862 2.54988999 20.535865141509145 
Si 15.456473279999999 0.510818562 20.412352512083103 
Si 14.66080452 3.57638805 18.46425759260915 
Si 14.777147699999999 4.0329153 22.401572268472464 
Si 15.45798825 2.65206087 24.246388945113516 
Si 13.53237993 1.7819631 25.34236066945864 
Si 15.975065429999999 1.409749632 29.56634066528141 
Si 16.22441646 3.70395504 26.268895303338688 
Si 12.92813496 3.3166765799999998 27.063043182614475 
Si 15.00766749 3.248226 28.3257241534983 
Si 14.11025139 2.1135949199999997 34.41447897519563 
Si 12.64959225 0.107315262 30.809581431981037 
Si 15.875061119999998 2.3128053299999998 31.786874680693707 
Si 13.364804699999999 2.2048189199999997 32.064355108445355 
Si 13.55324742 5.4174024 2.6986870730695594 
Si 14.9343462 6.7879615499999995 4.067526061260459 
Si 14.0454009 7.429412879999999 0.06416786686261873 
Si 14.932407689999998 4.07243484 6.787531752559719 
Si 13.57525521 5.42940813 8.144754959778039 
Si 12.21740226 6.787342529999999 6.787359104209948 
Si 12.215838419999999 4.07197872 9.501149454917458 
Si 14.933792339999998 6.78861315 9.502806879075257 
Si 12.21372072 6.78390534 12.257756596368129 
Si 13.530034169999999 5.34049731 13.712318943187235 
Si 15.142793039999999 6.46587567 15.141501982590029 
Si 14.214165299999998 7.40566206 17.13804202900967 
Si 12.250308059999998 6.05673603 20.446191588638186 
Si 13.38928857 8.12103741 20.273646827877233 
Si 15.492523049999999 8.04214494 19.106405864746716 
Si 13.12294707 5.464105829999999 18.284427071487872 
Si 16.07243076 7.9854720299999995 23.364155877784658 
Si 12.35260926 6.35451723 24.152157475808604 
Si 12.53377035 4.81384161 22.41396841998601 
Si 13.32510597 5.53472298 26.144726610183522 
Si 15.083008739999999 5.1181062299999995 29.879179475066124 
Si 15.69447018 5.95770912 26.282707171320354 
Si 15.81762258 6.838721189999999 28.471853716744317 
Si 15.85816839 5.700995009999999 34.364376424092136 
Si 13.08455154 6.033816 30.90557391445361 
Si 13.709582549999999 7.744917599999999 32.36797449635231 
Si 16.14555657 10.965189959999998 0.07393423871245411 
Si 14.82965037 9.38044989 1.2698596892672926 
Si 13.56033357 10.85335911 2.6879932342847552 
Si 13.573756529999999 8.14384341 5.429583422272361 
Si 14.93274978 9.50270634 6.787428163549856 
Si 13.57457103 10.860608159999998 8.14468590043813 
Si 13.5738054 8.14710141 10.866901490614456 
Si 14.93735985 9.495261809999999 12.252059200825693 
Si 12.215414879999999 9.50340681 9.50166739996677 
Si 13.54467888 10.88403318 13.65430909766424 
Si 13.07909439 9.47188566 16.73970775641845 
Si 14.4407592 11.36843262 17.267735469357504 
Si 14.991915059999998 11.132634869999999 22.125680205538707 
Si 13.74809211 8.25705891 23.948501482418955 
Si 13.24223874 9.57547377 22.08921687406711 
Si 12.95437815 9.366375329999999 25.948356377154198 
Si 14.170263749999998 10.108401119999998 29.700039547343927 
Si 12.250568699999999 11.353527269999999 29.328914654676588 
Si 14.412610079999999 11.309348789999998 26.17849662739869 
Si 13.97090673 8.23938426 28.337982186332027 
Si 13.51224549 10.023074099999999 32.01635886720907 
Si 14.74710894 11.943094949999999 32.84880015046402 
Si 12.215789549999998 14.935307309999999 4.076607364458404 
Si 14.93661051 12.21517053 4.069977667827205 
Si 14.770501379999999 14.80128948 1.3371200333710063 
Si 16.2909774 13.577715 2.706142028812663 
Si 13.573544759999999 13.57634664 5.43023948600149 
Si 12.21764661 12.21771177 6.787428163549856 
Si 14.93265204 14.932309949999999 6.787600811899627 
Si 12.21673437 14.93165835 9.501598340626863 
Si 14.93170722 12.215463749999998 9.502565171385578 
Si 13.569879509999998 13.57701453 10.860686150022707 
Si 14.938402409999998 14.941399769999999 12.234967014198382 
Si 12.668830739999999 14.388256529999998 14.928557507982708 
Si 14.35821777 12.55403511 15.1055911258377 
Si 13.546649969999999 16.23498867 13.681345829238351 
Si 16.12687194 13.43325528 13.663701167891773 
Si 14.950717649999998 13.038630029999998 20.737449354701546 
Si 13.27410198 12.654023129999999 19.16648749046696 
Si 12.789963179999999 14.935095539999999 18.642948634621945 
Si 15.04936989 16.08709176 18.170202923279504 
Si 14.81943654 15.099591959999998 21.95434398322615 
Si 12.628008 15.547648409999999 22.550498734984767 
Si 15.897036329999999 14.152654259999998 23.863800202021395 
Si 12.34283526 13.58392149 23.83766124186609 
Si 14.383092599999998 12.348992879999999 24.050053241754146 
Si 16.13128653 15.31408239 25.88202488117225 
Si 14.811112349999998 13.91382657 28.97160162999091 
Si 14.24132073 16.18136199 28.9814771155978 
Si 12.39423021 14.377765769999998 26.13295199272915 
Si 14.00578362 16.11776583 26.56564328692476 
Si 13.202719199999999 12.73412106 27.657954866254745 
Si 13.54055751 13.5265644 34.19093389191238 
Si 15.84727038 12.76819974 30.76738617529705 
