&CONTROL
  dt          = 30.D0,
  prefix = 'x.33_y2.00_z3.18_struc7-scf',
  pseudo_dir = './',
  outdir='./',
  wf_collect= .true.,
  verbosity= 'high',
/

&SYSTEM
ibrav= 6, celldm(1) =30.783621515, celldm(3) =2.1265850812889053, nat=  432, ntyp= 1,
  ecutwfc     = 12.D0, nbnd= 1728,
  degauss     = 0.05D0,
  occupations = "smearing",
  smearing    = "methfessel-paxton",
/
&ELECTRONS
  electron_maxstep=200,
  conv_thr    = 1.D-8,
  mixing_beta = 0.3D0,
  scf_must_converge=.false.,
/
&IONS
/
ATOMIC_SPECIES
Si  28.08  Si.pbe-hgh.UPF
K_POINTS {automatic}
1 1 1 0 0 0
ATOMIC_POSITIONS (angstrom)
Si 0.00292513014 2.71909422 2.7348633277501904 
Si 2.71528236 0.0165361419 2.6875491872136332 
Si 1.362612888 1.476613566 1.2971965970784611 
Si 0.00043084117799999994 0.0007840311839999999 5.4307335404118255 
Si -0.00043531767 2.7150705900000003 8.144628022601337 
Si 2.71500543 0.0001532486637 8.14525157987887 
Si 2.71384884 2.71580364 5.430837466624748 
Si 1.3575043439999999 1.357825257 6.787836670825965 
Si 2.71969695 2.7091899 10.865450918985685 
Si 1.353335733 1.340655597 12.220233030644552 
Si 1.357369137 4.07256516 9.503359330351262 
Si 2.79323001 3.6119002499999997 17.062328501062836 
Si 0.289647603 2.9463234299999996 13.56337540645609 
Si 2.3159167199999997 3.64498524 14.703342036003965 
Si 3.6204036299999998 1.5632274959999999 14.558607463473775 
Si 3.19101552 0.9205755929999999 19.733509309741162 
Si 1.4361492059999998 2.59823871 19.951823641020543 
Si 0.564181344 3.30721209 17.822583390662547 
Si 3.6014909399999997 1.404048132 17.406636044475373 
Si 0.51940665 1.287579519 23.10785487505372 
Si 1.91290212 2.8480132799999995 24.197313365121218 
Si 3.54664251 4.04682696 22.93183851243383 
Si 3.03199254 1.8808433999999998 26.115652687388312 
Si 3.76255017 2.66866038 30.189802728450612 
Si 0.30109784399999995 2.60258814 28.126105276375792 
Si 0.14567772329999998 0.24258905099999997 28.20689058588762 
Si 2.65403196 3.19876956 28.089869670136785 
Si 2.25434052 3.28051278 34.4930061427943 
Si 3.15801198 0.428835879 30.8714201169389 
Si 1.0771029449999998 0.451874826 32.60480542227476 
Si 2.73974994 3.82116159 32.02950454960628 
Si 3.97897911 4.17897144 1.2540498976800998 
Si 4.06966554 6.787407689999999 4.0709629705326735 
Si 1.3584719699999999 4.070952449999999 4.0784456578631 
Si 0.46207073699999995 4.99555656 0.12171872699564573 
Si 2.7137348099999996 5.426589959999999 2.746177428130363 
Si 1.3554241109999998 6.7260269699999995 1.4213953499351497 
Si 3.0953769299999996 7.717534109999999 0.23886816482979498 
Si 0.00268819209 5.42888685 5.430317835560135 
Si 2.71555929 5.42981538 8.144766590885231 
Si 1.35764118 6.787358819999999 6.78804452325181 
Si 2.71415835 8.14338729 5.4306642562698775 
Si -0.00441788058 5.42919636 10.858834283429614 
Si 1.3435731359999998 6.8015148299999995 12.233293091401825 
Si 3.8043666 7.13806623 15.158053859611266 
Si 2.88034893 5.598351719999999 13.523155962055048 
Si 1.5839874719999998 7.88509305 18.181509888026195 
Si 0.7057886849999999 6.14014083 21.329954508516025 
Si 2.4752655 4.5133073999999995 20.82629343862218 
Si 3.7481498099999997 7.36392708 19.057434652608745 
Si 3.83631129 4.976269199999999 18.875667706207135 
Si 1.8339282 7.87667112 22.526422355822813 
Si 2.78001882 7.4036583899999995 24.665293101911637 
Si 0.299175624 4.4882208 24.77947336784259 
Si 1.405247076 6.114712139999999 26.040860456155023 
Si 1.66925259 6.49549089 29.72681144988048 
Si 2.79423999 5.56215534 27.87404956796754 
Si 0.66078756 4.81325517 31.01993067520528 
Si 3.91882014 5.900433479999999 32.38853497318285 
Si 1.97203482 7.60275477 32.72286560015482 
Si -0.006069149009999999 8.15092956 2.69437367519555 
Si 1.357965351 9.50303214 4.071240107100468 
Si 2.68381008 10.86643998 2.7058713785518855 
Si 1.274671323 12.18581595 1.219875494664055 
Si -0.000277992108 8.145179189999999 8.145147653665948 
Si -0.000586998747 10.859809949999999 5.430456403844032 
Si 2.71536381 10.85958189 8.144801232956207 
Si 4.0805798399999995 9.49648356 12.218431642953894 
Si 1.357893675 9.50283666 9.502216142009113 
Si 2.7193059899999996 8.14333842 10.859042135855459 
Si -0.00163411506 10.85958189 10.863788099578924 
Si 1.349491293 12.211326089999998 12.232669534124287 
Si 2.22332436 9.008255969999999 15.252037798164261 
Si 0.25333882199999996 8.160964199999999 13.937371204693513 
Si 2.6751438 10.732112639999999 13.581943556498258 
Si 2.67781536 10.50939576 17.12007683337682 
Si 3.7714608 8.35144317 21.23243707872366 
Si 3.38108724 10.71339543 20.8642611484099 
Si 1.1336276159999998 11.43479808 20.276419846048768 
Si 0.730384956 10.022797169999999 18.420955882599838 
Si 3.5765672399999997 12.035100869999999 22.755926076026864 
Si 0.557658828 9.65702151 23.426596570087302 
Si 2.17782639 11.046086099999998 24.37471541058008 
Si 3.09466017 9.48455928 25.853412210113646 
Si 3.20300496 10.05558894 29.994317521943223 
Si 0.7638120359999999 11.855976029999999 27.74809099790536 
Si 1.9676853899999998 9.78157485 27.962421491022717 
Si 0.37740672 8.25412671 28.77734156861971 
Si 1.99334214 9.825932519999999 31.980174240539025 
Si -0.003969970739999999 13.5881406 2.6845353270388785 
Si 1.3561050329999997 14.92950807 4.067671973790126 
Si -0.0007636686839999999 13.575108599999998 8.145009085382052 
Si 2.71581993 13.575743909999998 5.430421761773059 
Si 1.357484796 12.217597739999999 6.787386323903299 
Si -0.0020477670299999997 16.2927693 10.860358534552478 
Si 1.357926255 14.933792339999998 9.503809677273926 
Si 2.7188009999999996 13.57452216 10.861605649107547 
Si 2.43646272 16.015643819999998 13.648179196200923 
Si 2.96732124 12.8985849 16.6522356648703 
Si 1.2281014709999998 14.313485429999998 15.554151299130227 
Si 2.89362528 14.87003328 20.032262529822628 
Si 0.8100870389999999 13.76788446 19.657608532236697 
Si 0.7831140569999999 15.250111559999999 22.830060107911642 
Si 4.06145538 15.263062109999998 24.128167791456725 
Si 2.8833625799999996 14.30263629 22.336757017239087 
Si 1.455767253 12.787421939999998 25.721287351418063 
Si 3.66568983 12.333419639999999 29.776938526580143 
Si 1.607624262 13.339017629999999 29.383924231377886 
Si 3.5307923399999996 13.903661609999999 26.02953249894646 
Si 3.5214092999999997 16.00184619 27.07870226047097 
Si 2.18369079 15.61924296 28.987826791858925 
Si 2.8874676599999995 13.35595923 34.61117024688728 
Si 0.21084472799999998 13.142022659999999 31.257713850372163 
Si 1.84534749 14.333017139999999 32.71288868371425 
Si 6.790796009999999 4.07269548 4.0709283284617 
Si 4.0716366299999995 1.3590551519999998 4.0695426456227315 
Si 5.42061153 2.7157384799999997 2.671059561429916 
Si 6.70162455 1.237854294 1.150653708443416 
Si 5.43058101 2.71497285 8.144558738459388 
Si 6.78805929 1.357100352 6.787905954967913 
Si 4.07375433 1.3585664519999998 9.501488658518655 
Si 6.76535103 1.37762901 12.18115677458566 
Si 7.315464329999999 3.6771579899999995 14.935374627389134 
Si 8.13450924 0.1017437562 13.472093549439084 
Si 5.07855411 0.326024802 16.007546724040505 
Si 5.508365759999999 2.74364325 13.597774982933466 
Si 5.32311588 1.302642882 20.849953973097556 
Si 6.897967919999999 2.28584538 19.291130063400672 
Si 6.78906927 0.697172904 17.533391382169956 
Si 7.64657487 3.19917681 23.276111413775393 
Si 5.21408691 1.78611705 25.22988957464909 
Si 5.38985601 2.5816880700000002 22.913270362391664 
Si 6.4127214 3.38413347 26.51545682850151 
Si 5.923988819999999 0.009700662419999999 26.663655608129122 
Si 7.47518778 2.762784 28.58351918151908 
Si 7.50491703 0.42828038999999996 28.38595545075324 
Si 7.71618204 2.97525447 32.081467656067574 
Si 6.07678902 3.47262075 30.346731309963722 
Si 4.74506523 5.99322132 0.0071965438241795325 
Si 6.65273826 6.739417349999999 1.2713085774394441 
Si 4.071995009999999 4.072548869999999 6.787732744613042 
Si 5.429489579999999 5.42900088 5.430213909347213 
Si 6.78757059 6.787440269999999 6.787559534258171 
Si 6.78928104 4.07360772 9.501557942660604 
Si 4.07245113 6.788401379999999 9.501350090234759 
Si 4.09862916 4.08110112 12.217323096682719 
Si 5.42947329 5.42874024 10.859977471771762 
Si 6.783253739999999 6.811402859999999 12.253385492566856 
Si 7.281092429999999 5.0599835099999995 16.873563856324438 
Si 6.0360966 7.006052069999999 16.188586186951657 
Si 6.998917049999999 5.98991445 20.714538117659426 
Si 7.85443527 7.92852219 19.655183587268503 
Si 6.17017959 4.53847545 18.99992881479158 
Si 5.626500839999999 7.207282439999999 22.3362027441035 
Si 4.501122479999999 5.953294529999999 24.00421846151105 
Si 7.83889461 7.04724948 25.42585977015012 
Si 5.96381787 5.62438314 25.826322110611827 
Si 6.2993429999999995 5.75700003 29.652608133853754 
Si 4.991239709999999 6.4927215899999995 27.76887624048988 
Si 5.7763525499999995 7.146993149999999 31.49826839121698 
Si 8.141888609999999 10.87460127 2.681805531846112 
Si 4.08509217 9.614243969999999 1.320278608968568 
Si 5.43326886 8.16853905 2.7050434330556024 
Si 6.78830364 9.49850352 4.069715855977603 
Si 4.784666219999999 11.57165037 0.13300164951194146 
Si 4.07248371 12.21947109 4.069057656629093 
Si 4.0723370999999995 9.50239683 6.787420965974274 
Si 5.4293429699999995 8.1453258 8.145043727453025 
Si 5.4304995599999994 10.86000543 5.430802824553774 
Si 6.7870167299999995 9.50249457 9.50193900544132 
Si 5.43069504 10.857268709999998 10.863441678869181 
Si 4.07124567 12.21735339 9.50128080609281 
Si 6.81659937 12.206471669999999 12.233362375543772 
Si 5.46435018 8.35145946 13.89129725029783 
Si 6.137648459999999 10.308523769999999 15.165467262799744 
Si 4.4256671999999995 11.98153935 14.879289114481908 
Si 5.063974559999999 11.65189491 19.48460602979156 
Si 5.135552819999999 10.22676426 17.482155759199117 
Si 5.828562 8.156989439999998 18.241371386669606 
Si 6.647965289999999 10.54642293 24.571828794423254 
Si 7.2873315 8.470718549999999 23.5084904258703 
Si 5.15104461 10.42167411 26.443505247088105 
Si 5.35589136 9.152927459999999 30.203936693408085 
Si 8.06170923 8.2702701 27.448506368120515 
Si 5.82365871 8.75206314 27.938414535837598 
Si 6.9764857199999994 10.4215275 31.450115912562847 
Si 7.82656308 8.35874109 32.45771518891832 
Si 5.94837495 12.091578299999998 32.78511740169545 
Si 4.10156136 15.01926597 1.2025094244846903 
Si 5.4215889299999995 13.59418419 2.6989083222860724 
Si 6.76517184 12.34210221 1.206344301741534 
Si 6.78757059 14.93408556 4.073595767926713 
Si 8.14407147 13.575711329999999 5.430456403844032 
Si 4.0728583800000004 14.93258688 6.787698102542068 
Si 5.42988054 13.574652480000001 8.144628022601337 
Si 6.7872285 12.21820047 6.787455608045248 
Si 5.431411799999999 16.28897373 5.430317835560135 
Si 8.14356648 13.57276284 10.859111419997408 
Si 6.78815703 14.932538009999998 9.501696510944502 
Si 4.04508393 14.93648019 12.22012910443163 
Si 5.42821896 16.2961902 10.861051375971963 
Si 8.03670408 14.331551039999999 16.212697068349698 
Si 5.408508059999999 13.568315669999999 13.481966539666729 
Si 6.49599588 15.21108072 14.684011760400363 
Si 6.9516108899999995 12.303169109999999 20.839422783521403 
Si 7.6776561899999995 14.47752573 20.085126330129253 
Si 4.33744056 13.693602059999998 18.5540507192827 
Si 6.46581051 14.650655849999998 18.053715288202383 
Si 6.71613894 15.88064859 21.686109640201735 
Si 5.92061679 12.22655724 23.007670005796346 
Si 6.14859534 14.507189819999999 23.503744462146837 
Si 7.43281749 15.09126777 25.318538634272056 
Si 7.03612341 15.150481919999999 30.13998743038972 
Si 4.82775327 12.52888335 27.644441921550566 
Si 6.930254699999999 13.22370072 28.59294182482406 
Si 7.8177338999999995 13.986675449999998 34.258410038157045 
Si 5.113821959999999 15.54284286 31.74038182525564 
Si 4.13052498 13.37778783 31.899215720672327 
Si 5.82360984 15.74812944 34.25387192685942 
Si 12.11135436 1.3734652859999998 1.3020880575000175 
Si 9.49936689 1.3574652479999998 4.070477981539035 
Si 10.851420599999999 2.7486605699999997 2.7082201109639366 
Si 12.21622938 4.07176695 4.073110778933074 
Si 8.14478823 0.00047670078599999994 8.145009085382052 
Si 8.14410405 2.7151357499999995 5.430906750766697 
Si 10.860510419999999 -0.000918928674 5.430317835560135 
Si 10.8600543 2.7150868799999994 8.144870517098155 
Si 9.501484589999999 1.357931142 9.502735773073725 
Si 8.143485029999999 2.7179865 10.857760379229413 
Si 8.963181539999999 0.251817336 16.673679106803327 
Si 9.03961422 1.8241053299999999 14.93700280472492 
Si 10.89258543 2.70814734 13.67301756108942 
Si 11.4430734 3.91600197 18.56395835158132 
Si 8.92848384 2.37055338 20.540981342078698 
Si 10.973742210000001 1.79028729 19.515576041242493 
Si 11.862508319999998 2.95544583 24.947106349286724 
Si 8.35813836 1.076342202 22.45755391872611 
Si 8.477430029999999 3.29515749 25.494901417601692 
Si 10.09253466 1.5627029579999998 25.824243586353372 
Si 9.82094778 3.4574221799999996 28.971302524004233 
Si 10.87403112 0.23737462199999998 29.94134979542368 
Si 9.786087179999999 0.1221686469 27.78453445657022 
Si 12.17293056 2.79103086 28.626509991598056 
Si 8.311500090000001 2.47669902 34.46453036045351 
Si 10.249961220000001 0.8234057429999999 34.40092751814488 
Si 9.86753718 3.4443250199999995 31.39763317503694 
Si 11.23185726 1.498412844 32.14070559743345 
Si 8.4326814 7.80895359 0.07574488818508014 
Si 10.85539536 8.15123907 2.725658929492347 
Si 12.07245384 6.78419856 1.2744956479690703 
Si 9.43573815 4.09778208 1.2656203493854814 
Si 8.119392119999999 5.4247328999999995 2.701541119680111 
Si 9.50301585 6.79007925 4.070339413255139 
Si 9.502152480000001 4.07219049 6.7875248921871965 
Si 8.14555386 5.42947329 8.144766590885231 
Si 10.86013575 5.430190049999999 5.429902130708445 
Si 10.86008688 5.42593836 10.861155302184883 
Si 12.21821676 4.0752367199999995 9.501869721299371 
Si 12.22626402 6.79768668 12.23218454513065 
Si 9.504302759999998 6.787928969999999 9.502701131002752 
Si 9.51682977 4.06246536 12.217219170469797 
Si 10.18291158 6.00338628 14.992049055502918 
Si 9.67334409 5.4467244 17.29997310794582 
Si 10.90390698 7.969768469999999 13.831054688873705 
Si 12.057255269999999 4.42397304 14.864393023963004 
Si 8.28235728 5.47317936 13.59787890914639 
Si 8.631419399999999 4.51597896 21.589631472538596 
Si 11.94039081 7.19763876 19.75415598404178 
Si 9.951251489999999 7.589364389999999 18.434223795782955 
Si 10.64717658 5.5178954099999995 22.17078685520171 
Si 11.189796479999998 5.13729585 24.376586082412686 
Si 10.824004529999998 7.84321146 21.742922636599417 
Si 9.467585099999999 5.40261108 25.856980343423988 
Si 8.50193019 6.72319251 29.170563716247813 
Si 10.262292749999999 5.60512836 28.112525584553907 
Si 9.64144827 7.52084865 31.088210197095417 
Si 10.44544122 5.57595297 32.346721993516994 
Si 10.09302336 5.984929709999999 34.632925467459074 
Si 9.62124867 9.55015911 1.2934795028629298 
Si 9.50011623 12.21881949 4.068849804203248 
Si 12.21909642 9.501680069999999 4.075397155617371 
Si 8.14534209 8.14534209 5.4307681824828 
Si 9.50308101 9.50200587 6.787836670825965 
Si 10.860477839999998 8.14495113 8.144870517098155 
Si 8.14456017 10.86052671 8.145147653665948 
Si 10.861422659999999 10.85866965 5.4307335404118255 
Si 8.14170942 8.14687335 10.865728055553479 
Si 9.50690916 9.48985353 12.265925922259516 
Si 10.86222087 10.861422659999999 10.863788099578924 
Si 11.03212557 9.50736528 17.154199273286405 
Si 8.25458283 10.92189114 13.855269496484668 
Si 10.73271537 11.81880225 17.287190183756344 
Si 8.73924291 8.998938090000001 21.62112111505414 
Si 9.053248949999999 11.33195931 21.358326364643887 
Si 10.58900499 12.21683211 19.696615504153645 
Si 9.871984349999998 12.07338237 23.499760623984805 
Si 11.67571089 10.557728189999999 23.90095044793697 
Si 8.66018754 11.38460859 25.46285750195056 
Si 11.69136558 9.122970149999999 25.81000569518298 
Si 8.152086149999999 11.58820101 29.79218103780879 
Si 10.27985337 10.80991368 29.115205686831047 
Si 9.758589659999998 9.861721649999998 26.994314175577827 
Si 11.546156519999998 10.26576252 34.50201308124759 
Si 11.24948304 9.28549548 30.684595428175058 
Si 11.52556596 11.16928737 32.260047531939556 
Si 9.46460403 15.004800449999998 1.1261894779214385 
Si 10.85089932 13.581396539999998 2.677347097311732 
Si 8.139086729999999 16.287181829999998 2.684923318233789 
Si 9.50182668 14.932782360000001 6.7876634604710935 
Si 10.85994027 13.574847959999998 8.145147653665948 
Si 9.50194071 12.21790725 9.501835079228396 
Si 9.50345568 14.938532729999999 12.22269261768372 
Si 10.85958189 16.2896742 10.860947449759038 
Si 9.36233541 12.47237334 15.354266549609115 
Si 10.81087479 13.63793913 13.706551085792443 
Si 10.632499289999998 16.185124979999998 18.219650808168783 
Si 11.62557027 15.03887913 21.64970082360785 
Si 10.09046583 14.52994695 19.86906373346319 
Si 10.675993590000001 14.396450399999999 23.706088798707118 
Si 9.27534681 16.22299923 24.306713025257732 
Si 11.99321928 13.95609912 25.61254589063006 
Si 11.24521506 12.96017739 29.081880014553867 
Si 8.233536149999999 13.3534017 26.64629993057105 
Si 10.317271499999999 14.118966539999999 27.257940335691462 
Si 10.724244569999998 14.372699579999999 30.88811759514846 
Si 8.46723249 13.868817299999998 31.596790441067597 
Si 14.149656899999998 2.18505915 0.20294156586387552 
Si 14.93457426 1.3588417529999999 4.069508003551758 
Si 13.574978279999998 0.0001435043115 8.144939801240103 
Si 13.57507602 2.71438641 5.430491045915007 
Si 12.2173371 1.35742941 6.787109187335507 
Si 14.93322219 1.3553149679999998 9.50242399443496 
Si 13.57457103 2.71388142 10.866247686618092 
Si 12.21769548 1.351592703 12.232011334775779 
Si 14.947769159999998 4.08737277 12.237034435067038 
Si 13.266347940000001 3.9283335 16.959718686837267 
Si 15.018321149999998 2.01909663 16.945550079808818 
Si 13.658806619999998 0.0784562238 13.623340831312424 
Si 15.22352628 1.479646764 14.705870907185083 
Si 12.46023729 0.9149539139999999 21.225370096244923 
Si 15.809282099999999 2.2436217 21.182379286165947 
Si 14.58906336 0.511437582 20.210842405694613 
Si 14.1356475 3.8718234899999997 21.85010520419358 
Si 13.20372918 2.10383721 23.20970256371786 
Si 15.02037369 1.2657362579999998 24.623999753310397 
Si 15.37119513 3.0262095899999997 26.14204994547065 
Si 15.391671659999998 3.4140256199999994 30.006407604713218 
Si 14.83427673 0.00440084124 29.962308248363065 
Si 13.23363762 3.7181762099999998 26.711184529505722 
Si 12.876414209999998 0.510124608 28.776129096135612 
Si 15.95854737 0.483995448 34.64553518129368 
Si 15.321168539999999 1.593236934 31.546698006438906 
Si 13.43939661 2.6344350899999998 32.65434358376786 
Si 14.963130629999998 4.072548869999999 1.3900027052183328 
Si 13.55251437 5.4413487 2.6977859191865083 
Si 14.93030628 6.790730849999999 4.067671973790126 
Si 14.933173319999998 4.07186469 6.7878020287549905 
Si 13.57538553 5.42989683 8.144766590885231 
Si 12.21712533 6.78810816 6.787732744613042 
Si 13.57336557 8.146140299999999 5.430248551418187 
Si 14.933042999999998 6.78830364 9.501835079228396 
Si 13.72829976 5.59564758 13.644576420819604 
Si 15.169329449999998 6.71591088 15.333550591166546 
Si 15.408776159999999 5.25699477 17.346705261690012 
Si 12.29517072 4.94030088 20.549087586686664 
Si 15.95071188 6.74010153 19.206256989513893 
Si 15.375854069999999 5.54233041 22.96790090831797 
Si 14.114503079999999 7.51113981 23.638121055455745 
Si 12.45383532 6.93455526 25.15838834015835 
Si 13.205472209999998 4.37249664 30.06083029821368 
Si 15.821352989999998 7.26475356 26.81590751006072 
Si 13.729749570000001 6.050040839999999 26.866935280605706 
Si 12.549148109999999 6.29023689 28.83010144271341 
Si 13.955366069999998 7.1447451299999996 32.3853825447242 
Si 12.75032961 5.08707378 32.27497826452944 
Si 16.25390136 6.25058703 32.74877786924352 
Si 12.2476365 12.13601742 1.3352751614932976 
Si 14.89886658 9.515054159999998 1.2210290756274957 
Si 13.588222049999999 10.84436703 2.720684328100452 
Si 14.93229366 9.50264118 6.787732744613042 
Si 13.574815379999999 10.860347519999998 8.144628022601337 
Si 12.21844482 9.50317875 9.501661868873526 
Si 13.57567875 8.14382712 10.860427818694426 
Si 14.9418396 9.49097754 12.254944385760696 
Si 14.9327172 12.21686469 9.501869721299371 
Si 12.20477751 12.21596874 12.247877403281962 
Si 13.947937829999999 8.46848682 16.643194084346035 
Si 15.264300149999999 10.44382851 16.851081152262186 
Si 12.27374937 9.287564309999999 15.200282544128811 
Si 13.452216839999998 10.714437989999999 13.68812150403417 
Si 14.869218779999999 11.98833228 14.96863101552436 
Si 13.918941629999999 10.01240415 20.69693994560453 
Si 12.98681154 12.01418451 19.920853629569613 
Si 13.99765491 8.21051838 19.102573271088126 
Si 13.1657409 11.99952351 24.951471250229474 
Si 15.71348061 10.98442845 21.912807352656873 
Si 12.71778219 9.031078260000001 22.439609325961477 
Si 15.368393249999999 8.84755512 25.111794754698053 
Si 14.78012877 11.27663847 28.161370904627525 
Si 13.2597342 8.17575552 30.162435492380997 
Si 15.087635099999998 9.66692583 29.87507951365004 
Si 13.818481199999999 10.21754412 26.282003912206406 
Si 16.16526747 10.85945157 32.00677935104721 
Si 15.733012319999998 11.337465329999999 34.531805262285395 
Si 13.239599759999999 8.375910750000001 34.53010780080766 
Si 12.219992369999998 14.93289639 4.07027012911319 
Si 14.933010419999999 12.216457440000001 4.070096918758319 
Si 14.838284069999998 14.97466395 1.1828846912778082 
Si 13.548181229999999 16.28418447 2.6928182462088084 
Si 13.57387056 13.574033459999999 5.430179267276239 
Si 12.21826563 12.21699501 6.787975239109862 
Si 14.932668329999998 14.931967859999999 6.7875248921871965 
Si 12.21699501 14.932163339999999 9.502874341357623 
Si 13.576835339999999 13.57344702 10.863788099578924 
Si 14.935877459999999 14.93366202 12.230660294007784 
Si 12.51936999 15.357641849999998 17.165146167714248 
Si 12.381181919999998 14.875685909999998 14.888988894354684 
Si 12.76411095 13.023105659999999 16.428413244306018 
Si 16.22584998 13.480708049999999 13.68729009433079 
Si 13.559714549999999 13.660207559999998 21.514181041956796 
Si 15.54937515 14.847585659999998 21.074919582003986 
Si 14.572170629999999 16.21540809 17.93925788570364 
Si 16.019471969999998 14.29509402 17.557467621497022 
Si 14.497008569999998 12.415781879999999 17.947883761376215 
Si 14.68776447 12.69250011 23.346538744065935 
Si 16.16437152 14.093423819999998 24.635327710518958 
Si 15.354139499999999 15.7450995 26.14170352476091 
Si 13.36918671 15.08996457 27.14722427685793 
Si 13.5654975 13.24407951 28.69842693094049 
Si 13.91310981 13.16689749 34.55286764143771 
Si 12.73298076 13.26817242 32.23191817030851 
Si 14.40290124 14.111717489999998 30.7269626809765 
