&CONTROL
  dt          = 30.D0,
  prefix = 'x.33_y2.00_z3.17_struc13-scf',
  pseudo_dir = './',
  outdir='./',
  wf_collect= .true.,
  verbosity= 'high',
/

&SYSTEM
ibrav= 6, celldm(1) =30.783621515, celldm(3) =2.1163055416155427, nat=  432, ntyp= 1,
  ecutwfc     = 12.D0, nbnd= 1728,
  degauss     = 0.05D0,
  occupations = "smearing",
  smearing    = "methfessel-paxton",
/
&ELECTRONS
  electron_maxstep=200,
  conv_thr    = 1.D-8,
  mixing_beta = 0.3D0,
  scf_must_converge=.false.,
/
&IONS
/
ATOMIC_SPECIES
Si  28.08  Si.pbe-hgh.UPF
K_POINTS {automatic}
1 1 1 0 0 0
ATOMIC_POSITIONS (angstrom)
Si 0.00215677971 2.70953199 2.6959771250532154 
Si 2.73611727 0.00304386795 2.6928330399579252 
Si 1.492626636 1.446131718 1.2784877341044065 
Si -0.001584192726 0.000273056238 5.430062492039913 
Si 0.00019259015399999998 2.71458189 8.145179924603053 
Si 2.71450044 0.0005106084209999999 8.145179924603053 
Si 2.7162271799999997 2.71337643 5.430165915891732 
Si 1.3576167449999998 1.357463619 6.787603971012846 
Si 2.71349046 2.71608057 10.861090273363468 
Si 1.348973271 1.361133756 12.229836002950098 
Si 4.07194614 1.3574913119999998 9.501307944267795 
Si 2.73709467 0.1248802803 13.678528369992625 
Si 4.05997299 1.54670292 17.156741455891787 
Si 1.76316444 3.7028799 15.129289214071525 
Si 3.5989496999999995 2.09318355 14.905342100266655 
Si 2.0872376999999998 1.195387893 18.572751885759587 
Si 0.206757567 2.32712424 17.680445366884673 
Si 2.93817843 3.3604152299999996 22.140667925802877 
Si 0.785583621 2.61293229 22.670129097880338 
Si 4.03441398 1.329234678 21.725455635367865 
Si 0.879614388 2.00148714 24.968482882231182 
Si 2.59522506 0.987942888 29.709328825750937 
Si 2.94244641 1.8160906499999998 26.173336281302365 
Si 2.1883823099999997 2.74761801 28.19161827492803 
Si 2.6813014199999996 3.0448127699999996 34.46168929143984 
Si 1.5776278559999999 1.2188161709999998 31.832517079738086 
Si 3.4410996 2.75964003 32.30133740003249 
Si 1.3559176979999998 4.07297241 4.067418769710589 
Si 2.70712107 5.45201865 2.694180997493296 
Si 1.453253706 6.90469569 1.1550858415759995 
Si -0.00032646463199999997 5.429522159999999 5.430407238212642 
Si 2.7151683299999996 5.42981538 8.145110975368507 
Si 1.357227414 6.787684619999999 6.787155800988298 
Si 1.3578268859999998 4.0721742 9.501618215823253 
Si 1.3450653 6.78263472 12.241384999736526 
Si 2.74400163 5.44341753 13.66711727167529 
Si 0.7686012959999999 6.6052691999999995 17.983270405009975 
Si 3.7708254899999996 6.325374419999999 20.31709857053465 
Si 2.7094505399999997 4.295102849999999 19.93398214878072 
Si 0.507158199 4.59151569 19.107591098131625 
Si 2.59374267 7.723952369999999 18.883057915833113 
Si 2.85553926 5.4621999 17.360072748567454 
Si 0.9058461749999999 6.6795353099999994 23.229652136219784 
Si 3.7834991099999997 5.07264084 23.787899613720132 
Si 3.26482551 6.960537809999999 22.512649046177653 
Si 0.733874274 6.0339789 25.557033548314426 
Si 2.71122615 6.06445749 29.596079708009402 
Si 0.35913259799999997 5.753171879999999 29.186762577128057 
Si 3.02728473 5.871925979999999 25.954836157026616 
Si 3.59077212 4.6512511199999995 27.95384683959672 
Si 2.84187195 5.04752166 31.74536524727215 
Si 0.6030053009999999 4.641965819999999 32.704690422125616 
Si 3.04952058 7.920719279999999 34.00555563030188 
Si 1.3544874359999999 9.504758879999999 4.070900706055153 
Si 2.71220355 10.85210478 2.6792638305993046 
Si 1.236681414 12.163824449999998 1.198603150959603 
Si 6.48342e-05 8.145032579999999 8.145248873837598 
Si 2.7152009099999996 8.145781920000001 5.430096966657186 
Si 0.00032663079 10.86039639 5.43085540823719 
Si 2.71541268 10.859875109999999 8.145042026133961 
Si 4.08408219 9.505948049999999 12.241971068230166 
Si 1.358989992 9.50493807 9.502135335082345 
Si 2.71632492 8.14508145 10.867157806003501 
Si -0.0028181862899999996 10.86065703 10.858952847092546 
Si 1.360873116 12.21811902 12.221665518656417 
Si 2.7188172899999996 10.869812009999999 13.598030138660363 
Si 1.6450945199999998 9.111159899999999 14.872246467684654 
Si 2.46097917 9.55579545 17.058488796663973 
Si 2.07236493 10.1955852 19.47474577208819 
Si 0.317391102 10.255288049999999 21.275941100746298 
Si 3.99807099 10.50522552 20.914785010195214 
Si 1.3029312149999999 11.945212649999998 22.503099577193055 
Si 1.6424881199999999 10.87240212 24.529379682026036 
Si 3.8004569999999998 9.911340990000001 24.693789131800578 
Si 3.84455403 8.181277829999999 26.280862612576595 
Si 3.16705293 8.36121717 29.898973695369254 
Si 0.256631031 9.18337347 27.560284608809095 
Si 2.674818 11.93921793 27.833737273017874 
Si 2.5912991699999997 9.48325608 27.89051696766637 
Si 3.7144783799999996 11.09396241 32.348946846486385 
Si 2.16847593 9.09667809 32.00451094531267 
Si 0.538151553 15.687726119999999 -0.0007996111679514958 
Si 4.05138816 14.83509123 1.2029331628890814 
Si 1.358908542 14.93359686 4.067970363586955 
Si -0.00023027218199999998 13.5742941 8.14455938149214 
Si 2.7162271799999997 13.57450587 5.430131441274459 
Si 1.3575124889999999 12.21743484 6.787638445630119 
Si 1.35685926 14.93133255 9.502514555872347 
Si 2.71451673 13.57320267 10.860504204869828 
Si 2.702511 13.9613445 16.37089255515564 
Si 3.9635198999999997 12.40392276 14.820189795602552 
Si 0.1459450422 13.67993475 13.617232500481377 
Si 1.178232894 15.287155019999998 15.049273627381083 
Si 0.0841824846 15.39967005 21.198890331141328 
Si 2.3292093599999997 16.2046404 20.60816776416989 
Si 3.14079345 14.10031449 19.89523267896596 
Si 1.676241 12.82029516 18.550894978408557 
Si 3.41653428 12.61258137 21.74224477397977 
Si 3.4973489699999996 15.202414439999998 24.47084178189662 
Si 1.177941303 14.72115897 24.697891611256058 
Si 1.353443247 12.71312325 25.96766071465214 
Si 1.88318916 13.18033674 29.687092697609906 
Si 3.3638524199999997 15.81695469 26.716483876437177 
Si 1.8280800899999998 15.330600449999999 28.53774343234812 
Si 2.22545835 13.93241346 34.30482978284807 
Si 3.15286434 13.414912739999998 31.92132369383312 
Si 8.13898899 0.0216394731 2.687610135441078 
Si 4.074063839999999 1.355890005 4.075899525559726 
Si 5.41538244 2.7033580799999997 2.7137522377191314 
Si 6.594094259999999 1.2951136439999997 1.2223216876433698 
Si 5.42991312 0.00275120181 5.429752220484457 
Si 5.429294099999999 2.7155267100000002 8.145076500751234 
Si 6.787521719999999 1.3574961989999998 6.787259224840117 
Si 6.784296299999999 1.361770695 12.242591611341078 
Si 5.479206659999999 2.9292678 13.598409359450365 
Si 7.670651489999999 2.97061182 21.359921268423122 
Si 6.0263877599999995 1.506046338 20.445102824468993 
Si 5.879305349999999 2.70226665 18.37769450122942 
Si 5.02450389 0.641061999 23.74528898677081 
Si 5.145962129999999 2.36105631 25.320227402266756 
Si 6.648274799999999 2.15800146 27.137694750277678 
Si 6.41855322 0.320468283 28.571528557275577 
Si 5.8466439 2.4902034299999998 31.586402787026728 
Si 4.897979459999999 0.735350148 30.273057767397674 
Si 7.62886764 3.11241627 34.41480381194867 
Si 4.17240657 4.170256289999999 1.3922022591791239 
Si 6.78889008 4.07240226 4.069073551339688 
Si 4.06994247 6.787391399999999 4.070555959882424 
Si 5.885577 5.067949319999999 0.040563868921832544 
Si 6.88413771 6.916799159999999 1.3046470736910962 
Si 4.0725814499999995 4.0723696799999995 6.787569496395573 
Si 5.429147489999999 5.42996199 5.429614322015365 
Si 6.78776607 6.78713076 6.787707394864665 
Si 6.7873262400000005 4.072516289999999 9.502100860465072 
Si 4.0742593199999995 6.787554299999999 9.501894012761435 
Si 4.05446697 4.096169369999999 12.206496687056333 
Si 5.42549853 5.4309231 10.859780237907097 
Si 6.7863162599999995 6.8188311 12.22735383050645 
Si 6.334431659999999 4.82177484 15.024658750648221 
Si 4.51822698 6.5712231 14.965293459704258 
Si 4.13425539 7.833600359999999 17.083482894186837 
Si 6.62356287 4.95805698 17.710886453936656 
Si 7.44962877 6.72967593 21.38901784540146 
Si 6.00687234 6.56822574 19.56644825403415 
Si 7.51923594 4.81745799 22.791100529891004 
Si 5.9198837399999995 4.48440894 24.49638747329585 
Si 6.20212428 7.8685912799999995 26.431309842355603 
Si 6.7274442 5.5892619 26.444030976129312 
Si 5.90841558 4.19061879 28.143043539190487 
Si 6.5229721199999995 6.55250589 31.499250954560797 
Si 4.585863059999999 6.2962479 32.941737890494196 
Si 6.69191571 4.3796968199999995 30.358727191320877 
Si 8.150962139999999 10.855770029999999 2.6933329219083824 
Si 4.10934798 9.445235219999999 1.2007853942329785 
Si 5.428544759999999 8.14628691 2.704530277598626 
Si 6.7870167299999995 9.503439389999999 4.07062490911697 
Si 4.073086439999999 12.220627679999998 4.069039076722415 
Si 6.750413099999999 12.23084151 1.3052641693402813 
Si 4.07225565 9.50278779 6.787466072543754 
Si 5.4297828 8.145179189999999 8.14514544998578 
Si 5.42988054 10.860103169999999 5.430441712829915 
Si 6.78898782 9.50352084 9.501101096564158 
Si 5.43219372 10.854711179999999 10.859849187141643 
Si 6.80772132 12.20155209 12.228663865962819 
Si 7.8983531099999995 8.351834129999999 16.89476883923489 
Si 5.56787313 8.27590644 13.730067922815635 
Si 6.8627815199999995 9.64646559 15.161626405073521 
Si 5.02833204 10.84552362 16.24692183144223 
Si 7.74188766 10.713721229999999 21.11797840440179 
Si 5.86969425 10.69021476 19.576583791512387 
Si 6.1202507399999995 8.63901054 18.404205481912292 
Si 7.640775629999999 8.790914789999999 24.74246729138994 
Si 6.9383345400000005 8.78654907 22.474795916411992 
Si 4.529695139999999 8.99646201 22.662717055166663 
Si 5.248409939999999 11.721746429999998 25.30778206543123 
Si 7.51200318 11.023947989999998 25.519904385511495 
Si 7.08395085 8.74878885 28.43514697134392 
Si 6.43067298 12.18812913 29.297150301635934 
Si 7.79235408 10.93259367 27.871418029697175 
Si 8.020186019999999 8.442927809999999 34.234811835166774 
Si 5.23189188 11.05056585 34.284834504829774 
Si 7.17962202 10.62208998 32.96083682846339 
Si 5.56231824 8.49603321 30.239376066322034 
Si 5.73469902 10.66649652 31.070248817216612 
Si 5.422468589999999 13.56807132 2.7079122375530993 
Si 6.78708189 14.93165835 4.0667637519824025 
Si 4.07267919 14.93229366 6.7875350217783 
Si 5.430190049999999 13.574587320000001 8.144973076899415 
Si 6.787440269999999 12.21736968 6.78729369945739 
Si 4.074063839999999 12.219617699999999 9.501032147329612 
Si 6.78815703 14.934167009999998 9.50347984515599 
Si 4.0726140299999996 14.9450976 12.236420654849224 
Si 5.426101259999999 16.2917919 10.86302085193075 
Si 4.6834564499999995 15.55440876 16.666167652098174 
Si 5.47306533 13.569700319999999 13.523013371474494 
Si 6.713467379999999 14.74842843 15.093332188255873 
Si 8.01821493 16.27353081 13.782676188774108 
Si 6.476203529999999 15.44529834 20.184888413293013 
Si 5.05602504 14.44478283 18.635668062282658 
Si 5.8564504799999995 12.33519525 17.95282931795799 
Si 6.45812163 14.357940839999998 22.286116336077313 
Si 4.6996649999999995 13.36408794 23.58346513329173 
Si 7.25369265 16.04770254 23.676443176076795 
Si 8.12059758 12.74682726 22.22971586221882 
Si 7.312809059999999 14.706025559999999 25.61546802459202 
Si 5.491749959999999 14.945048729999998 27.167239497280566 
Si 4.88779821 12.67456482 27.515950250996127 
Si 7.757379449999999 14.026748849999999 34.44600334058067 
Si 5.1546121199999995 15.038080919999999 31.688930298796386 
Si 7.234665929999999 14.003861399999998 30.65727737690434 
Si 5.755305869999999 15.660717299999998 34.131560356434385 
Si 9.498536099999999 1.359252261 4.0706938583515155 
Si 10.85971221 2.70961344 2.6937948817798394 
Si 9.45399924 4.0237114499999995 1.230288771695141 
Si 8.1456516 0.000585439794 8.144387008405776 
Si 8.146971090000001 2.71581993 5.4310277813235555 
Si 10.860803639999999 0.001358147799 5.429890118953549 
Si 10.85896287 2.71487511 8.145042026133961 
Si 9.50378148 1.357160625 9.499997908811425 
Si 8.14804623 2.71399545 10.861262646449834 
Si 9.27428796 1.3290701489999999 15.44380114745235 
Si 10.65250341 2.79596673 14.006106183319885 
Si 12.10915521 2.33756613 21.346855388476687 
Si 11.627036369999999 0.390179709 20.12859136328634 
Si 9.331987139999999 3.06921519 19.774468094658932 
Si 9.655522829999999 0.8200679219999999 18.847652483893825 
Si 8.19453789 2.28990159 17.654417030843618 
Si 9.968013899999999 2.6007636599999997 22.301285167677396 
Si 9.575131679999998 0.49028990399999994 23.433983192796365 
Si 10.07792253 3.9701987999999995 25.66700757741503 
Si 10.071976679999999 0.38846763 25.80976696754218 
Si 10.4415642 0.468958149 29.93486177195036 
Si 10.1628423 2.57517207 28.9191361232384 
Si 9.01679193 2.2423673699999997 26.809944563864054 
Si 10.796230079999999 1.2595639769999998 32.25441744592405 
Si 11.884825619999999 3.48078204 32.760884048280474 
Si 8.53828947 2.29182381 32.36528781507375 
Si 10.872858240000001 8.13534003 2.6772263807184755 
Si 12.12995754 6.615369 1.0563608800915465 
Si 8.15959584 5.435500589999999 2.6968838074874926 
Si 9.50239683 6.78498048 4.071728096869704 
Si 9.50272263 4.07284209 6.787810818716484 
Si 8.14493484 5.4300760200000004 8.144835178430322 
Si 10.860168329999999 5.4304995599999994 5.430200390509004 
Si 8.14185603 8.14371309 10.861193697215286 
Si 9.50233167 6.786576899999999 9.500894248860519 
Si 9.49439844 4.06042911 12.24569432689564 
Si 10.86108057 5.43087423 10.8605386794871 
Si 11.653165529999999 4.699078559999999 15.158385791049868 
Si 8.698078079999998 6.02725113 17.00164015278093 
Si 8.18103348 5.52889116 13.601960245029476 
Si 9.987399 6.48687348 14.975635844886135 
Si 9.48218094 7.07336235 20.216605061184097 
Si 10.1643084 5.1754633199999995 18.87299132758942 
Si 11.04149232 6.668686169999999 23.709814605596975 
Si 10.8699912 8.06755734 21.80378196581193 
Si 9.66414024 7.70274279 25.369284782646115 
Si 9.777844439999999 4.62464955 23.472077644882937 
Si 9.06812172 5.80187898 26.64422507863314 
Si 12.13826544 5.918075549999999 28.683088418770737 
Si 9.77605254 6.01073307 28.844739899163443 
Si 8.769933270000001 6.85317042 32.648738118291675 
Si 9.062843759999998 4.14997524 30.284089644925007 
Si 10.54510344 5.267762459999999 33.98445716453085 
Si 9.55419903 9.5309532 1.2453507319816786 
Si 8.14486968 8.144120339999999 5.43002801742264 
Si 9.502022160000001 9.50269005 6.787603971012846 
Si 10.859875109999999 8.14457646 8.144938602282142 
Si 8.14493484 10.859809949999999 8.145731518479419 
Si 10.85860449 10.85920722 5.430131441274459 
Si 9.49043997 9.52779294 12.242522662106532 
Si 10.85531391 10.85912577 10.865985669016222 
Si 10.915147079999999 8.26487811 13.61950782522139 
Si 8.20318788 11.12512518 13.88765139837014 
Si 9.229294979999999 11.079676079999999 19.224839271476817 
Si 9.61056243 8.82720891 18.53582957066029 
Si 12.046927409999999 8.750206079999998 18.066009486464978 
Si 11.05874343 10.93322898 24.18177211606321 
Si 10.195210529999999 10.33338231 22.059824948297884 
Si 10.83491883 9.58560615 26.163786812317767 
Si 11.516459849999999 11.07949689 29.94113615229403 
Si 9.33534288 8.30066724 29.030489137029925 
Si 10.10954142 10.9318932 28.002731846889713 
Si 10.16885331 8.352583469999999 31.222316354007454 
Si 10.84340592 11.028606929999999 34.3825700447985 
Si 11.44496304 10.119152519999998 32.25458981901041 
Si 12.216555179999999 14.929654679999999 4.0706938583515155 
Si 9.500213969999999 12.220660259999999 4.070487010647878 
Si 9.538576919999999 15.080157989999998 1.1940352641709413 
Si 10.85132286 13.5824391 2.6871964400338033 
Si 8.14475565 13.57388685 5.430751984385371 
Si 9.502250219999999 14.93252172 6.787431597926481 
Si 10.85985882 13.575108599999998 8.144800703813049 
Si 9.50378148 12.21917787 9.50196296199598 
Si 8.147117699999999 13.57023789 10.862745054992567 
Si 9.5060295 14.94441342 12.246866463882919 
Si 10.85164866 16.297493399999997 10.859297593265277 
Si 10.833338699999999 13.80421116 15.812265856865288 
Si 8.45666028 13.047996779999998 15.613967858311469 
Si 11.365142039999999 14.04531945 13.523633914585409 
Si 11.07467505 16.11100548 16.405815342453103 
Si 9.845692289999999 13.78174725 20.99000862508472 
Si 11.20805757 12.22706223 19.820629607187367 
Si 8.60300964 14.93639874 19.316920974212778 
Si 8.18782641 12.835281959999998 17.94738232842887 
Si 10.83729717 13.17334833 24.871574733077015 
Si 11.067898409999998 15.402602249999997 22.09485115944717 
Si 8.49717351 12.91495635 24.53958416873882 
Si 10.70406126 13.13130384 27.19657739657982 
Si 8.42248386 15.61411161 29.283050183171312 
Si 9.13372155 14.902857629999998 27.12828317976217 
Si 10.54454958 12.47988303 32.363564084210104 
Si 8.212961879999998 12.78646083 32.49098226965081 
Si 11.276019449999998 16.07371767 34.27173415026607 
Si 12.27203892 1.3341330809999998 1.3161650433219776 
Si 14.931853829999998 1.3562777069999998 4.074313693165172 
Si 13.57532037 -4.9500422999999994e-05 8.144973076899415 
Si 13.57496199 2.71459818 5.430889882854463 
Si 12.21735339 1.3577112269999998 6.7875350217783 
Si 16.28993484 0.00498333906 10.860504204869828 
Si 14.93252172 1.355846022 9.501997436613253 
Si 13.57862724 2.71534752 10.867778349114415 
Si 12.198098609999999 1.3684561109999998 12.25620908516388 
Si 14.921982089999998 4.06813428 12.26848204891304 
Si 16.2479718 2.56018527 13.791708538499613 
Si 15.881723730000001 0.82894923 15.609589581917808 
Si 13.29184179 0.12016725749999999 18.470741493249022 
Si 13.3307586 3.7042971299999996 19.798462428280885 
Si 14.704103339999998 1.81216476 19.333365366651957 
Si 13.68140085 0.185244993 24.70478653471064 
Si 13.722712289999999 1.9668546 23.092650007177213 
Si 15.45129306 1.276132536 21.551772513546904 
Si 15.946329869999998 0.051403094999999996 25.612468732889273 
Si 16.0495596 3.8874130199999994 25.834071572719584 
Si 12.35438487 0.019395199800000002 28.559255593526416 
Si 14.388354269999999 2.82325248 29.378200126844565 
Si 14.44484799 0.514583181 29.537266010941803 
Si 12.35212056 3.4501894199999996 26.09301042305647 
Si 12.275524979999998 1.053418914 26.36177453931613 
Si 16.262486189999997 3.65223429 28.19303173423622 
Si 12.35827818 3.60186561 28.451694787634914 
Si 13.536354689999998 2.79674865 34.44600334058067 
Si 13.99314258 3.7156349699999995 31.471636786125188 
Si 15.44067198 0.498666222 31.701099838693725 
Si 15.512233949999999 2.54133774 32.90329869223489 
Si 16.00538112 5.742827729999999 0.11751604112140192 
Si 16.3035207 8.14620546 2.693894858169931 
Si 12.21888465 4.076230409999999 4.072003893807886 
Si 14.883553979999999 4.0895882100000005 1.3720794250769222 
Si 13.54834413 5.43680379 2.7063815645461817 
Si 14.93460684 6.78669093 4.067866939735136 
Si 14.932538009999998 4.07276064 6.7875350217783 
Si 13.57489683 5.430434399999999 8.145248873837598 
Si 12.21764661 6.7870656 6.787224750222844 
Si 16.293257999999998 5.42748591 10.865571973608947 
Si 12.21606648 4.071506309999999 9.502583505106893 
Si 14.932114469999998 6.788433959999999 9.501170045798704 
Si 12.204272519999998 6.80376285 12.214081102856376 
Si 16.181296829999997 8.124425729999999 13.646018805904264 
Si 13.405953239999999 5.47166439 13.687388346631764 
Si 14.17055697 7.47525294 14.985047415401642 
Si 13.484226689999998 7.0125680699999995 17.213590099774827 
Si 14.999457329999998 5.116965929999999 20.625267174337257 
Si 14.62633488 7.471685429999999 20.589206724669786 
Si 15.233903009999999 8.02160325 18.37731528043942 
Si 12.393888119999998 4.92243075 17.716885037342145 
Si 15.92121069 4.67493678 22.7208412598888 
Si 13.268205 6.44453577 24.585400935094526 
Si 14.148565469999998 4.10446098 24.392963621477104 
Si 13.432163849999998 6.79125213 26.914092382645535 
Si 15.804395099999999 6.983474129999999 27.362227932576186 
Si 15.27925437 5.6555947799999995 31.18270501876087 
Si 14.23006434 7.66814283 31.888400434337484 
Si 12.44122686 7.64488071 30.278091061519525 
Si 14.10344217 7.3855602 34.300072285664406 
Si 14.935095539999999 12.215594069999998 4.071279926845155 
Si 12.21714162 9.50383035 4.069004602105142 
Si 14.806306799999998 9.2921418 1.2584338492367506 
Si 13.572795419999999 10.85915835 2.6831215402721447 
Si 13.576069709999999 8.14644981 5.429717745867184 
Si 14.93276607 9.50252715 6.787638445630119 
Si 13.5762489 10.85995656 8.144283584553957 
Si 12.220187849999999 9.50327649 9.503341946686898 
Si 13.57590681 8.142230699999999 10.85922864403073 
Si 14.93050176 9.52031583 12.218287006163672 
Si 12.63064698 9.4066605 14.880589325064701 
Si 13.7441988 10.995065819999999 13.627436987194162 
Si 13.045406669999998 10.54920852 16.980507212392634 
Si 15.64674048 11.782508129999998 14.934921321886819 
Si 15.25742577 10.37422134 17.831133918984595 
Si 12.930887969999999 10.95976539 20.895582648374198 
Si 12.62150829 8.674995149999999 20.371051346566766 
Si 15.05844342 11.45942856 19.998415208463804 
Si 15.75938583 8.37097488 22.43604644659723 
Si 13.21946532 10.850769 23.245579409399873 
Si 14.227523099999999 8.861808869999999 24.216867276447044 
Si 15.851359169999998 10.10113578 25.52000780936331 
Si 15.417719369999999 10.14389703 29.38213023321368 
Si 13.13487135 9.62831853 29.019526208737133 
Si 13.03325433 9.06676965 26.707934171353493 
Si 15.890846129999998 9.41047236 31.59009157107493 
Si 14.435807039999998 10.97165709 32.894817936385756 
Si 16.13511468 10.70153631 34.42283639777327 
Si 12.29510556 12.35888091 1.233939633664343 
Si 15.024739409999999 14.986881449999998 1.4110012679780455 
Si 13.589834759999999 16.2935838 2.7177168187055165 
Si 16.291466099999997 13.54852332 2.7127421314330347 
Si 13.574733929999999 13.57437555 5.43061408591628 
Si 12.21764661 12.21746742 6.787431597926481 
Si 14.93274978 14.932114469999998 6.787328174074663 
Si 12.21776064 14.9320656 9.504238286735992 
Si 14.931528029999999 12.21784209 9.500894248860519 
Si 13.58022366 13.56960258 10.854677994550704 
Si 12.23076006 12.231444239999998 12.23693777410832 
Si 14.92613604 14.925745079999999 12.238282284181963 
Si 13.62130704 16.164355229999998 15.910449566858556 
Si 13.14194121 15.89775309 13.564417386819269 
Si 14.03958537 14.297814449999999 17.809414910102653 
Si 15.74423613 13.704027659999998 19.51832168832116 
Si 12.27959748 12.72161034 17.46915043761896 
Si 14.242851989999998 12.935660939999998 23.825718268868524 
Si 12.518571779999998 14.562233729999999 23.815548256773013 
Si 16.2567684 13.81388742 22.921380108565362 
Si 15.25856607 12.37582251 25.92687724241828 
Si 15.86981574 12.447677699999998 29.67609529469984 
Si 14.76054819 13.53961269 27.900618030527333 
Si 15.834873689999998 15.67855485 27.91485604746105 
Si 12.496352219999999 14.002020629999999 28.434664326702094 
Si 13.133095739999998 14.330329289999998 34.406288581482265 
Si 12.3049773 13.18460472 30.66710264282712 
Si 14.519830859999999 12.96369603 31.58654068549582 
Si 15.06795678 14.83061148 32.892680510114836 
