&CONTROL
  dt          = 30.D0,
  prefix = 'x.33_y.66_z3.18_struc4-scf',
  pseudo_dir = './',
  outdir='./',
  wf_collect= .true.,
  verbosity= 'high',
/

&SYSTEM
ibrav= 6, celldm(1) =30.783621515, celldm(3) =2.122134354613896, nat=  432, ntyp= 1,
  ecutwfc     = 12.D0, nbnd= 1728,
  degauss     = 0.05D0,
  occupations = "smearing",
  smearing    = "methfessel-paxton",
/
&ELECTRONS
  electron_maxstep=200,
  conv_thr    = 1.D-8,
  mixing_beta = 0.3D0,
  scf_must_converge=.false.,
/
ATOMIC_SPECIES
Si  28.08  Si.pbe-hgh.UPF
K_POINTS {automatic}
1 1 1 0 0 0
ATOMIC_POSITIONS (angstrom)
Si 0.0032617955699999995 2.71075374 2.685042594707456 
Si 2.7141909299999996 -0.010594201499999999 2.7044464935832133 
Si 1.3510583909999998 1.2204744929999998 1.2363391388077938 
Si 1.3570123859999998 4.07093616 4.069771606888114 
Si 4.0730701499999995 1.3578757559999999 4.069702467750841 
Si 4.02245712 4.0551511499999995 1.3176156516294462 
Si 0.001602401688 0.0006430949909999999 5.42987671532888 
Si 8.72663445e-05 2.71495656 8.145074344758095 
Si 2.71539639 0.000186217506 8.144936066483549 
Si 2.71482624 2.71549413 5.430049563172063 
Si 1.357408233 1.357541811 6.7874928148278055 
Si -0.0022241225699999997 0.0007904022029999999 10.864904296384623 
Si 2.7174489299999998 2.71591767 10.860963365560043 
Si 1.3672881179999998 1.351521027 12.246753663497849 
Si 0.08116280729999999 2.81427669 13.667597504033225 
Si 2.89673667 1.116910818 19.502422146371945 
Si 0.250848081 2.77413813 18.17221971480189 
Si 3.49754445 3.9135910499999995 22.348189036541825 
Si 1.136965437 0.22701092399999998 22.43931441946806 
Si 3.0932755199999997 1.6002465209999999 21.885544499477398 
Si 0.7171020899999999 3.68929404 25.102865113354106 
Si 3.2906940299999996 0.0675064116 29.073629475666827 
Si 0.325298268 3.10013361 29.00950292584582 
Si 2.9657085299999997 1.124462862 27.016325306961896 
Si 0.852204834 2.10046518 26.930696485448884 
Si 2.7323379899999996 2.56171653 34.50036036024977 
Si 1.99990701 3.7754681399999996 30.634514638749316 
Si 1.0565661419999999 3.56900868 32.9843810668263 
Si 3.50914293 0.740660688 33.072775453830246 
Si 2.70505224 5.43796038 2.7002117214252226 
Si 1.413004374 6.81490521 1.1800840797653565 
Si -0.00640428318 8.14340358 2.674163551457499 
Si 2.7150868799999994 5.42999457 8.144970636052184 
Si 1.3573723949999998 6.78703302 6.787734801808262 
Si 1.356194628 4.07179953 9.502344748570655 
Si -0.00040216589099999997 5.43098826 10.862795552697786 
Si 1.359341856 6.78807558 12.232511001219542 
Si 0.6839503109999999 4.629618 14.998387618270103 
Si 2.6206048799999997 5.35616829 13.703584424983987 
Si 1.7148320099999999 4.317876269999999 17.053513904150925 
Si 0.503808975 7.28638668 17.36896121796045 
Si 2.15172981 5.520176009999999 21.122905245784033 
Si 2.9432772 4.965778439999999 18.93375274229888 
Si 2.90931255 6.89005098 17.38303103239557 
Si 2.40292161 7.82537391 21.808004957025368 
Si 2.1734769599999995 8.083749599999999 24.2379690756335 
Si 3.05487999 4.226424209999999 24.687926581008274 
Si 3.58122618 6.496859249999999 25.308761464154053 
Si 3.54009393 6.47535645 27.710032840793758 
Si 1.445027256 6.6798122399999995 28.737509559812576 
Si 0.1293155586 5.47462917 34.24910873539852 
Si 3.6823544999999998 6.9400287 32.60995806892264 
Si 1.9337533199999999 6.09177582 30.959157457816193 
Si 1.3548344129999998 9.50589918 4.069149354652654 
Si 2.7104116499999997 10.85873481 2.68674341748438 
Si -0.000333267336 8.14495113 8.144866927346275 
Si 2.71461447 8.14506516 5.4303606892897935 
Si 0.000528540453 10.86000543 5.430256980583883 
Si 2.7150868799999994 10.86002172 8.145108914326732 
Si 4.07458512 9.48796389 12.230678814081799 
Si 1.3572632519999999 9.50026284 9.501722496335194 
Si 2.7182797199999995 8.142165539999999 10.859995417638217 
Si 0.269850366 10.48649202 16.367722801536857 
Si 1.6167694679999998 9.22227399 14.924547019662196 
Si 2.67227676 10.8093924 13.540934604548502 
Si 1.1917796579999997 9.55768509 20.533943504921254 
Si 2.6147404799999996 11.48713785 20.1506706974466 
Si 1.589151402 11.887480889999999 17.858915714247836 
Si 0.9552928409999999 11.68053273 23.57807057992829 
Si 2.6533151999999998 10.39266162 24.49447527491752 
Si 3.40702092 11.157428249999999 26.59754955249739 
Si 2.1194267399999998 11.59787727 30.238589369153644 
Si 2.67890679 10.0002681 28.558577472549224 
Si 0.6017900669999999 8.843938739999999 28.724891667260195 
Si 2.6781248699999995 8.26104996 34.37241838672549 
Si 0.200430531 11.01510252 31.839678940560567 
Si 1.450631016 12.274270649999998 1.125132293460521 
Si 1.3575157469999999 14.92947549 4.072260615829954 
Si 1.90834092e-05 13.574717639999998 8.144970636052184 
Si 2.7152334899999997 13.57678647 5.430118702309336 
Si 1.357686792 12.21763032 6.7874928148278055 
Si 4.06811799 14.935323599999998 12.238007562632772 
Si 1.358177121 14.93289639 9.502863292100203 
Si 2.7179213399999997 13.57419636 10.862277009168237 
Si 1.343429784 12.222826829999999 12.219132578157154 
Si 2.65751802 16.20123579 13.729822727579213 
Si 0.503015652 15.124645979999999 17.08988109035669 
Si 2.98131435 12.97609272 16.20752742047457 
Si 1.541695374 14.582987189999999 15.062825294208837 
Si 3.39538986 15.1014816 19.750320523065433 
Si 1.172311479 14.71560408 20.852640358182622 
Si 2.1630350700000003 12.950321939999998 22.0074713680589 
Si 0.786995964 15.59314638 24.614604525929913 
Si 2.76921855 15.391573919999999 25.813408027112022 
Si 1.430275032 15.15953916 29.97758912594686 
Si 3.0271544099999996 13.437588419999999 27.193667194067963 
Si 1.2546443969999999 13.15777509 28.685378650308497 
Si 0.179735715 16.17624693 34.029488265849814 
Si 3.22043526 13.34638071 34.22888553774608 
Si 3.92789367 12.614340689999999 31.569448622527794 
Si 2.00026539 15.079082849999999 32.63104550579099 
Si 8.12677149 -0.0006127483499999999 2.7302976170097084 
Si 5.4362988 2.7186869700000003 2.7027664125474717 
Si 6.79545495 1.344816063 1.339861169047137 
Si 5.4305973 -0.0013558720859999998 5.430775524113432 
Si 5.42989683 2.71494027 8.144763218640366 
Si 6.7874728499999994 1.357414749 6.787631093102353 
Si 4.0495311 4.06966554 12.227429274629953 
Si 8.14589595 2.71581993 10.862000452619144 
Si 4.07243484 1.35775521 9.501757065903831 
Si 5.42764881 0.00222110892 10.862380717874146 
Si 6.783498089999999 1.367957637 12.239044649691872 
Si 6.10394445 3.4874772299999997 17.17364315516332 
Si 4.122119339999999 1.2704196329999997 15.018749094197096 
Si 5.36403636 2.7715806 13.669879095563244 
Si 4.38735312 1.67729985 17.3843792455724 
Si 5.036933159999999 0.490083021 22.82825663619913 
Si 6.98968062 1.7265770999999999 23.431253621928395 
Si 7.78691322 3.3137280899999997 21.86307427986357 
Si 6.57247743 2.82641274 25.504494361774828 
Si 4.33121778 2.92662882 26.304434180027144 
Si 5.807759669999999 4.05803448 32.37844566776292 
Si 5.37066639 0.11902125599999999 34.50692857829073 
Si 7.5873607199999995 2.36955969 32.38888567749119 
Si 4.24978407 1.173357297 30.8878750072874 
Si 8.19747009 0.33211400399999996 31.07448153878809 
Si 4.34576475 3.47457555 30.421047552417935 
Si 6.78830364 4.07290725 4.071258098339491 
Si 4.07204388 6.787586879999999 4.066694915279452 
Si 6.82552629 6.66015021 1.060106934854963 
Si 5.4507969 8.13802788 2.6790551454195866 
Si 4.0725814499999995 4.07243484 6.787423675690532 
Si 5.430711329999999 5.42981538 5.430049563172063 
Si 6.787554299999999 6.787440269999999 6.787181688710076 
Si 8.145733049999999 8.14539096 5.429600158779787 
Si 6.78753801 4.07144115 9.502344748570655 
Si 4.06987731 6.7869027 9.501031104962461 
Si 5.42878911 5.434360289999999 10.863383235364608 
Si 6.7867723799999995 6.789606839999999 12.242225050006443 
Si 5.96008746 4.68120843 15.078105043546241 
Si 4.1940722699999995 6.492933359999999 15.09694545845322 
Si 5.42794203 8.147671560000001 13.751636125388945 
Si 7.90773615 5.287750289999999 13.716029469693186 
Si 6.31011069 6.72980625 18.218957771598657 
Si 5.69864925 4.41300987 21.398493846955493 
Si 5.29900668 4.78090323 19.06594677276547 
Si 6.11502165 6.61165488 22.21710123227161 
Si 5.812581509999999 6.84181629 24.604233655338916 
Si 7.0403751 5.13117081 25.703131103161077 
Si 6.79408659 5.123009519999999 28.05987687539676 
Si 4.5932913 4.384697849999999 28.210980459907603 
Si 7.504037369999999 7.13708883 28.957406585910373 
Si 5.16850749 5.4309231 34.210943931623646 
Si 7.68197304 5.49367218 32.377201163292 
Si 7.224012269999999 7.4859554699999995 31.221298496787984 
Si 4.14508824 9.57550635 1.2684335263300694 
Si 6.787358819999999 9.502217639999998 4.070843263515851 
Si 4.95792666 11.41349076 0.04518657455635149 
Si 4.07238597 9.50291811 6.787665662670989 
Si 5.429766509999999 8.14465791 8.145039775189458 
Si 5.42981538 10.859972849999998 5.43070638497616 
Si 6.78778236 9.50151717 9.502033622452924 
Si 5.43098826 10.857219839999999 10.861965883050505 
Si 6.32765502 10.16124588 15.116961238693847 
Si 4.516842329999999 11.77121916 14.787063845194197 
Si 4.633446149999999 10.30907763 17.74573494653141 
Si 4.67355213 8.14540725 21.10724523119163 
Si 4.96846629 11.33106336 19.904051394792663 
Si 4.50666108 8.15910714 18.666875672423863 
Si 6.96575061 10.70966502 17.51055817109621 
Si 5.7669532199999995 10.155381479999999 21.730119718886975 
Si 8.09370279 10.553818589999999 21.699594789780804 
Si 4.63100265 11.228468939999999 23.451027415188562 
Si 5.56521786 10.94223735 25.538718234725117 
Si 6.7075704 8.85760605 25.563124350182605 
Si 6.546804389999999 9.00149562 27.913958726181416 
Si 7.53814863 11.2027959 28.189789314333332 
Si 4.4198028 8.43993045 28.81688128940235 
Si 5.32551051 10.657911689999999 32.371981158427865 
Si 7.7985117 10.83065085 32.07793240760443 
Si 4.976595 8.407643669999999 31.178674218658987 
Si 5.4251890199999995 13.59064926 2.7115470829811836 
Si 4.0713597 12.21719049 4.068181406730828 
Si 4.089751109999999 14.94099252 1.2720944436486918 
Si 6.77033577 12.31598934 1.2920929391049998 
Si 6.785664659999999 14.932049309999998 4.076996646733177 
Si 4.072516289999999 14.93227737 6.787700232239626 
Si 5.43002715 13.57502715 8.145281762169915 
Si 6.78700044 12.217597739999999 6.787596523533716 
Si 4.0723370999999995 12.217109039999999 9.502690444257022 
Si 6.78801042 14.93200044 9.502310179002016 
Si 6.80583168 12.227241419999999 12.233029544749092 
Si 5.46956298 15.94574343 16.663050626399848 
Si 5.5322469000000005 13.630706369999999 13.629674687238808 
Si 7.084521 14.97955095 15.258834748378701 
Si 5.32163349 14.92146081 21.35590413839513 
Si 7.79592159 14.63604372 21.359257386552883 
Si 8.10598545 13.96593828 19.14587161545343 
Si 6.16923477 12.825035549999999 18.574160089340342 
Si 8.05185378 15.692629409999999 17.559439541148446 
Si 4.3447059 14.15578194 17.773943714538927 
Si 4.3033293 13.486637609999999 22.958929605645704 
Si 4.740829829999999 15.18224742 24.615814460832198 
Si 6.99160284 12.58788573 26.342322427252927 
Si 7.499134079999999 12.38639472 30.201012248045593 
Si 6.19031403 14.83667136 26.592951799868715 
Si 4.701489479999999 14.58287316 28.387803803484122 
Si 7.16395104 15.4585584 33.36820698739914 
Si 8.12950821 13.607704889999999 34.44954309435388 
Si 5.61286611 13.84897608 30.409777873042387 
Si 6.03360423 15.91322859 31.338178208348538 
Si 8.498395259999999 2.32383366 0.019248612373441585 
Si 9.502657469999999 1.357035192 4.069944454731298 
Si 10.307578949999998 0.6671797559999999 0.11909596660584498 
Si 10.877207669999999 2.7224662499999996 2.701677471135417 
Si 8.145228059999999 -5.405771339999999e-05 8.144694079503092 
Si 8.14485339 2.7157221899999997 5.4303261197211565 
Si 10.85995656 2.7146633399999995 8.145039775189458 
Si 12.220627679999998 1.357437555 12.238768093142777 
Si 9.502315379999999 1.358310699 9.501791635472467 
Si 12.21776064 4.0710339 9.501584218060648 
Si 10.85933754 0.000361481616 10.862588135285966 
Si 11.43201249 1.03993731 16.64911909023927 
Si 8.18657208 0.030483477 13.654945041912207 
Si 9.34110954 1.7002524599999997 14.947086378413298 
Si 10.868687999999999 2.77197156 13.615051759705501 
Si 8.54897571 3.17392731 16.65762320412389 
Si 9.56306079 0.045723912299999996 21.4103857785665 
Si 9.33252471 2.2043465099999997 20.290781159130983 
Si 11.32884792 3.60388557 20.26450828696712 
Si 9.36881883 1.353037626 17.997677962755393 
Si 11.38667742 3.9010966199999997 22.547033195339896 
Si 9.00130014 0.504196677 23.609874583074017 
Si 10.728610289999999 2.05926777 23.92877885374721 
Si 10.23103224 3.17594727 25.910479375843767 
Si 8.336114279999999 2.11390443 26.987425147581646 
Si 8.27986491 3.5167992299999997 28.94717399359392 
Si 9.18650115 3.92422842 31.303435791868694 
Si 10.57108599 0.48313370699999997 32.39756263921899 
Si 11.253408929999999 2.78111025 31.80289691953116 
Si 10.84141854 8.154171269999999 2.708581013992158 
Si 9.56811069 4.08209481 1.2723018610605117 
Si 8.14079718 5.42123055 2.685305323429095 
Si 9.50340681 6.789509099999999 4.072779159359504 
Si 9.50272263 4.07272806 6.787873080082809 
Si 8.14488597 5.430222629999999 8.145350901307188 
Si 10.86000543 5.42965248 5.430740954544797 
Si 8.14488597 8.146417229999999 10.861481909089594 
Si 9.502282799999998 6.788808629999999 9.501480509354739 
Si 9.48700278 4.06881846 12.23544941455366 
Si 10.85796918 5.43211227 10.863832639756886 
Si 10.74825603 8.065521089999999 13.687889840822946 
Si 10.03433049 5.173948349999999 16.21561669953555 
Si 9.08144694 6.8995317599999995 14.989987213091394 
Si 11.877071579999999 4.44801708 14.87677187580633 
Si 8.27575983 7.4237439599999995 19.337905569230077 
Si 11.74681674 5.75700003 19.153165794435765 
Si 10.12980618 6.88663008 17.833576220437163 
Si 9.2794356 5.19857883 25.117211484338323 
Si 9.29033361 4.980276539999999 22.756490211709423 
Si 8.418818609999999 6.905412449999999 21.674946687342864 
Si 10.24132752 4.8743915399999995 29.31630784749618 
Si 10.085660279999999 7.1623871999999995 26.10462207330725 
Si 9.75873627 7.04578338 28.457081219031988 
Si 8.7702102 7.39323279 34.213951484095034 
Si 10.86435486 5.592357 34.51477587037126 
Si 9.34146792 9.331335539999998 1.2097413126987475 
Si 8.13516084 10.85655195 2.6866120531235604 
Si 11.041687799999998 10.582945109999999 0.0585273167889251 
Si 12.215349719999999 9.504628559999999 4.075164459595434 
Si 9.50301585 9.50229909 6.787423675690532 
Si 10.86002172 8.1453258 8.145074344758095 
Si 8.14535838 10.86000543 8.14531633173855 
Si 10.861992809999998 10.859418989999998 5.430637245838887 
Si 9.492785729999998 9.49649985 12.240842267260978 
Si 10.857724829999999 10.86165072 10.86545740948281 
Si 11.74746834 9.77885442 15.024937046983057 
Si 11.56537872 8.725168349999999 17.153731083628603 
Si 8.19585738 10.940917859999999 13.730548688520583 
Si 10.079861039999999 11.7905391 15.070188612328446 
Si 8.30829096 9.81597933 19.45195057616242 
Si 10.277263259999998 10.43369613 18.3344201308451 
Si 9.3874383 8.819829539999999 22.622705981085545 
Si 11.712412259999999 9.049323059999999 22.031981192222293 
Si 9.03594897 8.94408966 24.959919947041517 
Si 10.18387269 10.89089127 25.648891449970158 
Si 10.24735482 9.114173549999999 29.50111676142777 
Si 9.86390451 10.890467730000001 27.948977699210353 
Si 9.013338450000001 8.8951545 31.582377641197905 
Si 9.45122994 12.01441257 33.36665135681049 
Si 12.218102729999998 14.931348839999998 4.070082733005845 
Si 9.50425389 12.21692985 4.0674900153580955 
Si 9.49545729 15.0402312 1.3318444860802954 
Si 10.86132492 13.59218052 2.700913483668547 
Si 8.14311036 13.575743909999998 5.430844663250706 
Si 9.50223393 14.932505429999999 6.787319966984623 
Si 10.85998914 13.57489683 8.145074344758095 
Si 10.860217200000001 16.2901629 5.429842145760243 
Si 9.502413119999998 12.218998679999999 9.502344748570655 
Si 8.14493484 13.57098723 10.85933859583412 
Si 9.509645879999999 14.92626636 12.236901336436398 
Si 11.987810999999999 15.32372607 15.240478307432634 
Si 10.96375644 13.66312347 13.714370130398628 
Si 11.9550681 14.06406924 17.387559645886974 
Si 11.70405549 15.22192986 21.424040758177984 
Si 9.971923499999999 12.69807129 17.549932909773364 
Si 8.82553104 12.766000589999999 24.885802791884515 
Si 11.0617245 13.053177 22.221145871802097 
Si 8.69943015 12.733958159999998 22.509144948114116 
Si 9.374178239999999 15.073365059999999 25.23001198679974 
Si 11.66191326 14.99409792 25.507190788128487 
Si 11.40456384 12.64449348 28.550073358664605 
Si 11.57466402 16.20569925 29.392118911516377 
Si 9.61365753 13.41821961 29.888987321531097 
Si 9.264872339999998 15.665245919999998 29.216401794136235 
Si 8.24754555 16.01196228 27.081316095998815 
Si 12.035459249999999 15.115767929999999 31.608581374224496 
Si 10.911872789999999 13.08898242 31.906709334147052 
Si 12.30834933 1.48569687 1.2145464827392434 
Si 14.932668329999998 1.358791254 4.067766571907188 
Si 13.574815379999999 -6.3244296e-05 8.145212623032641 
Si 13.575238919999999 2.7158688 5.430637245838887 
Si 12.21712533 1.358084268 6.7874582452591685 
Si 14.93126739 1.357414749 9.50206819202156 
Si 13.57317009 2.7164389499999997 10.8612053525405 
Si 13.63565853 0.085325391 13.725052127107356 
Si 14.74534962 1.68050898 15.104827320102379 
Si 15.34869864 0.6922989359999999 17.192103304815294 
Si 12.98526399 2.9682660599999995 16.24811209405401 
Si 15.540122429999998 2.82690144 20.51973541221159 
Si 13.44443022 2.8928922299999997 19.49488598040915 
Si 13.26225915 0.8554253669999999 18.385755940270542 
Si 15.34478904 1.269051273 22.260520610479254 
Si 15.085126439999998 2.9923263899999997 23.82804313073998 
Si 12.49073217 0.624087819 24.475807707853722 
Si 13.95329724 1.9672292699999998 25.628149708788158 
Si 15.00463755 1.7559642599999998 30.242945134801865 
Si 12.63035376 2.00342565 30.025606256783178 
Si 15.635207159999998 0.42814681199999993 26.227205763692847 
Si 12.480893009999999 3.5631117 26.60242386167516 
Si 12.39191703 4.0283541 28.854285562667215 
Si 13.773423059999999 2.74924701 34.28091273854425 
Si 15.52785606 1.80646326 32.76137277955121 
Si 12.21399765 4.0721742 4.072917437634051 
Si 14.98528503 4.14989379 1.2012717683827656 
Si 13.587309809999999 5.434490609999999 2.696187823635915 
Si 12.283572239999998 6.92043183 1.327924296996898 
Si 14.93296155 6.7865606099999995 4.071154389633581 
Si 16.28920179 5.4297990899999995 5.43070638497616 
Si 14.932668329999998 4.07253258 6.787734801808262 
Si 13.57496199 5.430141180000001 8.14483235777764 
Si 12.21706017 6.787684619999999 6.787665662670989 
Si 14.933108159999998 6.78713076 9.502621305119748 
Si 14.92600572 4.0752367199999995 12.238214980044592 
Si 12.217304519999999 6.796904759999999 12.233824644827736 
Si 13.591007639999999 5.5355374799999995 13.691173949843426 
Si 15.419902229999998 6.50454813 15.154227233684168 
Si 15.890096789999998 5.3898397199999994 18.45645070813251 
Si 13.6106208 4.67509968 17.983780996163453 
Si 16.13680884 5.1287598899999995 20.80299845762038 
Si 12.802050359999999 7.4929438799999994 20.431721290462647 
Si 16.26450615 7.78683177 25.12630328088976 
Si 14.46301134 6.492835619999999 21.854431887704408 
Si 13.52286657 4.74618924 23.21166772194833 
Si 13.427130239999999 5.39391222 25.43659972897243 
Si 15.76668375 5.55868557 25.876048085481653 
Si 12.38492862 7.4474947799999995 25.825196250017125 
Si 13.97150946 5.777509139999999 29.127799989720472 
Si 13.456126439999998 7.806070259999999 27.91589462202507 
Si 16.02212724 5.21628606 28.180801226487798 
Si 16.2253287 6.8051800799999995 32.12933735616714 
Si 13.99470642 6.070794299999999 31.514897843219146 
Si 12.467991329999998 4.41146232 33.0816944025385 
Si 12.23934489 12.16063161 1.4016197034165307 
Si 14.933173319999998 12.21639228 4.069218493789928 
Si 14.79312819 9.534048299999998 1.1896702211483026 
Si 13.58250426 10.850606099999998 2.7295094308447925 
Si 13.57400088 8.14486968 5.430464397995704 
Si 14.932114469999998 9.502869239999999 6.787250827847349 
Si 13.574880539999999 10.860103169999999 8.144866927346275 
Si 14.922535949999999 9.496809359999999 12.232683849062726 
Si 16.2917919 10.86091767 10.86193131348187 
Si 12.21901497 9.5034231 9.502310179002016 
Si 13.573414439999999 8.14644981 10.861067074265954 
Si 13.491834119999998 10.71517104 13.689618319254778 
Si 14.92872615 11.842846289999999 15.134971983953546 
Si 16.274133539999998 8.13745773 13.639769001280714 
Si 16.06971033 9.24737688 18.507440821871583 
Si 14.510398949999999 12.184773389999998 21.564738902529193 
Si 12.317993009999999 11.296105019999999 21.292952953907765 
Si 12.484525679999999 10.8646155 19.031999456364268 
Si 13.675992569999998 8.892091979999998 18.674515547092568 
Si 15.936523289999998 10.3552272 22.155256273980626 
Si 15.004881899999999 8.40057381 23.22798455834483 
Si 12.90552444 9.00193545 24.086070391044014 
Si 12.548871179999999 11.03199525 25.269421295045536 
Si 12.567979349999998 9.18084852 29.638150531503488 
Si 13.31041239 11.350171529999999 29.164409162906693 
Si 15.335634059999999 8.988756839999999 27.01131271950958 
Si 14.25666591 11.12321925 27.00882371056774 
Si 15.915329999999999 8.90729055 30.93838114706556 
Si 14.59427616 12.16216287 30.99756424857152 
Si 13.61964546 8.43157368 31.6931731086784 
Si 12.77479719 11.81661939 32.5184524207414 
Si 15.900848189999998 11.34960138 34.34465902311025 
Si 12.92842818 8.77089438 34.27182094199281 
Si 15.04700784 14.93573085 1.126625698825625 
Si 13.579132229999999 16.28726328 2.673161033967036 
Si 16.3087335 13.584247289999999 2.6792694767451337 
Si 13.575662459999998 13.57532037 5.429842145760243 
Si 12.217597739999999 12.21702759 6.7874928148278055 
Si 14.93315703 14.93227737 6.7875273843964425 
Si 12.217679189999998 14.932179629999998 9.503001570374751 
Si 14.932782360000001 12.21868917 9.502137331158835 
Si 13.5738054 13.574245229999999 10.861620187364139 
Si 12.23082522 12.220823159999998 12.241602797770986 
Si 14.93268462 14.930713529999998 12.24837843322377 
Si 13.658220179999999 12.30812127 17.272546691032804 
Si 16.21835658 13.43587797 13.689341762705684 
Si 15.246071639999998 13.86163341 19.99178895999251 
Si 13.09841433 15.100210979999998 19.533189062458572 
Si 15.848475839999999 13.15577142 17.886986203980804 
Si 16.21573389 13.41571095 24.775767854914026 
Si 14.367128399999999 13.74406848 23.349980566063604 
Si 12.31815591 13.12703586 24.232749070769366 
Si 13.62795336 15.93548073 22.699623271302116 
Si 12.352983929999999 14.733539369999999 27.712832975853328 
Si 15.48371016 15.80139774 29.757138986750878 
Si 15.72819048 12.995933939999999 27.059917533012722 
Si 14.70553686 15.036256439999999 27.654306696151462 
Si 14.061902669999998 13.020759899999998 34.55249126975385 
Si 14.43235356 14.54991849 31.787202335370118 
