&CONTROL
  dt          = 30.D0,
  prefix = 'x.33_y2.00_z3.17_struc36-scf',
  pseudo_dir = './',
  outdir='./',
  wf_collect= .true.,
  verbosity= 'high',
/

&SYSTEM
ibrav= 6, celldm(1) =30.783621515, celldm(3) =2.1196850800590985, nat=  432, ntyp= 1,
  ecutwfc     = 12.D0, nbnd= 1728,
  degauss     = 0.05D0,
  occupations = "smearing",
  smearing    = "methfessel-paxton",
/
&ELECTRONS
  electron_maxstep=200,
  conv_thr    = 1.D-8,
  mixing_beta = 0.3D0,
  scf_must_converge=.false.,
/
&IONS
/
ATOMIC_SPECIES
Si  28.08  Si.pbe-hgh.UPF
K_POINTS {automatic}
1 1 1 0 0 0
ATOMIC_POSITIONS (angstrom)
Si 0.011622589199999998 2.7266364899999997 2.6943328816883394 
Si 2.71656927 -0.01289470788 2.6961491423279282 
Si 4.04013177 4.00605309 1.2281167712597052 
Si 1.3582145879999998 1.324499175 1.3041821812017302 
Si 0.0008937703979999999 -0.000696806379 5.430515723361124 
Si -0.000220421619 2.7152009099999996 8.145272904827351 
Si 2.7146959199999996 -0.00014084252549999998 8.145065726807626 
Si 2.71388142 2.71591767 5.431378965109978 
Si 1.357667244 1.3572828000000001 6.787359104209948 
Si 2.7105745499999996 2.72038113 10.867246787313997 
Si 1.342155906 1.346533029 12.235381370237832 
Si 0.8819243099999999 2.81245221 15.611796087365725 
Si 4.01084235 1.333611801 15.076033728356938 
Si 2.36001375 2.9742119099999997 17.689998803226963 
Si 1.366322121 0.656781849 21.128463337262485 
Si 2.97255033 1.578373938 19.569414209162083 
Si 1.124407476 1.4600841029999998 23.413982191528515 
Si 2.7494587799999994 3.09024558 23.815700371775247 
Si 1.8051763499999998 0.1198207692 25.269779303214992 
Si 2.0520513 0.809033076 29.099672175850902 
Si 2.21188878 3.43565874 26.148662992558293 
Si 2.9058753599999996 1.385368389 26.92164418415218 
Si 3.17277072 2.13330582 34.48795811285809 
Si 3.1235097599999997 2.02232205 30.89393741567906 
Si 1.72752192 1.3396505039999997 32.660440800864066 
Si 4.07194614 6.788906369999999 4.066490171161834 
Si 1.357848063 4.07362401 4.07391405020198 
Si 2.70598077 5.405559569999999 2.6944433766321927 
Si 1.3069857959999998 6.70501287 1.2727808993454146 
Si 0.0038476979999999997 8.151890669999998 2.69603519441708 
Si 3.2626915199999997 7.431709769999999 0.056304770420656805 
Si 0.000243998136 5.42764881 5.43023948600149 
Si 2.71497285 5.4304995599999994 8.144962137797764 
Si 1.35742941 6.787831229999999 6.787359104209948 
Si 2.71445157 8.1453258 5.430274015671444 
Si 4.07186469 6.7858275599999995 9.502841408745212 
Si 4.07989566 4.08966966 12.254510807392439 
Si 1.356992838 4.07243484 9.502288934025945 
Si 0.00526844664 5.4254333699999995 10.860824268702522 
Si 1.364453658 6.796855889999999 12.231997462582324 
Si 2.32741746 6.89725116 15.636208564023319 
Si 0.6628791959999999 5.240835089999999 16.054259278158366 
Si 3.9538762199999997 4.5073289700000005 16.898337060187874 
Si 3.21602067 6.088501529999999 13.569814995286405 
Si 0.011847684419999999 8.06879538 13.74322299779621 
Si 0.740378871 6.38934525 19.930318319522993 
Si 3.0990421799999996 6.8919732 19.765922560871225 
Si 0.546834123 4.56354576 18.34008889945398 
Si 3.7863824399999997 6.786462869999999 17.451191605823972 
Si 2.39977764 5.123009519999999 22.710716403572082 
Si 2.9511126899999995 6.52914603 24.49527880614312 
Si 0.14945130180000002 5.82841539 22.177612829149766 
Si 0.950876622 7.45622622 25.316843243362516 
Si 3.76183341 6.1858017 30.056938215990154 
Si 3.58629237 5.25736944 26.32424636427521 
Si 3.7703530799999996 6.9886054799999995 27.822799510615916 
Si 2.71298547 8.11808892 30.865519497306785 
Si 2.44874538 4.3526228399999995 30.814864471484025 
Si 0.270409113 4.6280867400000005 31.84564417895569 
Si 1.7612910899999998 8.07198822 32.95825920421872 
Si 1.356512283 9.50435163 4.0711862062756 
Si 2.7164389499999997 10.84861872 2.685268843325372 
Si 0.0010549127069999999 8.14542354 8.144651370768177 
Si -0.000412684344 10.858523039999998 5.431344435440024 
Si 2.71409319 10.85958189 8.144375133408543 
Si 1.3567582619999998 9.501191369999999 9.500320742838559 
Si 2.7057689999999996 8.151401969999998 10.855126873160087 
Si 0.0013214415419999998 10.86137379 10.857958306096327 
Si 1.67795145 9.14636259 15.10956203788243 
Si 2.58787827 10.75975677 13.580484663302242 
Si 3.3760699199999995 11.82727305 17.00827952932193 
Si 3.41159841 11.058727139999998 20.82853862404063 
Si 1.90452906 11.463077519999999 18.88655545614856 
Si 0.5675419709999999 9.72807849 21.889600852062095 
Si 2.21174217 11.17194264 22.85460153827108 
Si 3.4963715699999995 10.41020595 24.673520962446506 
Si 2.40715701 10.60689141 26.77068046711258 
Si 0.833419206 8.55342288 29.50826176041851 
Si 0.0588187917 10.87007265 29.32856935797705 
Si 0.32631965099999993 11.60359506 27.093878177883543 
Si 1.90537614 8.39801628 27.313555938131927 
Si 3.8715954299999997 11.35644318 28.51719117339413 
Si 3.7087442999999998 10.317401819999999 30.70878932538484 
Si 2.91972186 12.071052899999998 32.38855417964499 
Si 1.4051477069999998 10.350405359999998 33.034086359438064 
Si 1.399413627 12.307795469999999 1.2907397806885748 
Si 1.355839506 14.936072939999999 4.072325685384088 
Si 7.77301785e-05 13.574880539999999 8.144962137797764 
Si 2.71275741 13.573789109999998 5.430101367321675 
Si 1.3573414439999998 12.217662899999999 6.7874972228897645 
Si 4.079569859999999 14.93504667 12.248709822840139 
Si 1.3551536969999998 14.932016729999999 9.501529281286954 
Si 2.71818198 13.57532037 10.864829710417206 
Si 1.3281106679999999 12.20700924 12.224884350571768 
Si 2.6496662399999997 16.25686614 13.680275409469772 
Si 3.4008633 12.6034101 14.818407860828927 
Si 1.6941599999999999 14.481158399999998 15.058043770310817 
Si 0.538537626 14.558275259999998 17.471115225387525 
Si 2.95767756 14.553990989999999 17.33430867302913 
Si 1.90547388 14.631482519999999 21.04338223049543 
Si 0.6433035029999999 13.39603263 19.479844245300985 
Si 1.7443657799999999 13.498187219999998 23.114782601375694 
Si 3.2875826399999997 14.794121879999999 24.38934177872375 
Si 0.463514031 13.891346369999999 27.6243920270593 
Si 2.28315753 14.670203849999998 29.017698739379718 
Si 2.69996976 13.672962629999999 34.31120073236273 
Si 1.6493787899999999 13.749737399999999 31.14607306568435 
Si 1.240263585 15.309146519999999 33.10428517845488 
Si 8.14933314 -0.0053374185 2.67874618867103 
Si 4.07170179 1.3580891549999998 4.069321604098076 
Si 5.43326886 2.72719035 2.7065943674890627 
Si 6.822268289999999 1.49131692 1.2924041107803652 
Si 8.14377825 2.7155267100000002 5.430688371710895 
Si 5.4298316699999996 -0.000107859348 5.429721540952178 
Si 5.4309231 2.71536381 8.144064366378956 
Si 6.78779865 1.3577112269999998 6.787946108599169 
Si 4.07424303 1.35562122 9.502565171385578 
Si 6.76126224 1.361283624 12.196880788238941 
Si 7.26639885 3.4661373299999996 14.982113026081615 
Si 6.25402422 3.99515508 17.11846370614566 
Si 8.06113908 -0.01627432902 13.55583047895497 
Si 5.441821109999999 2.66435982 13.642845247239459 
Si 6.35777523 0.354985164 18.08208320555648 
Si 4.66091109 2.8266408 20.640144744770716 
Si 6.392196 2.5216594199999998 18.953094130150234 
Si 4.85380098 2.07503649 23.051904072389164 
Si 7.14940407 2.89487961 23.468815307415728 
Si 4.941082799999999 1.81613952 25.741385535448945 
Si 6.876986399999999 2.25987912 29.391275238613805 
Si 6.85191609 0.6005210759999999 26.258674521032255 
Si 7.077239369999999 4.00984866 27.814374271147106 
Si 7.438909949999999 0.225021915 28.461045930048662 
Si 7.8630038099999995 2.9313692099999997 34.28043479643357 
Si 5.16274083 0.49267801799999994 34.44175741445942 
Si 5.47563915 2.13721542 31.29327304869895 
Si 6.52549707 0.189574875 32.48920816756138 
Si 6.78581127 4.0716855 4.072118507364363 
Si 6.702992909999999 6.69352842 1.2576465450045053 
Si 5.448141629999999 8.13933108 2.7086281650493627 
Si 4.0728583800000004 4.07246742 6.787359104209948 
Si 5.43149325 5.429245229999999 5.430308545341399 
Si 6.787521719999999 6.78753801 6.787877049259261 
Si 6.785273699999999 4.07394981 9.499388441749796 
Si 5.43602187 5.422973579999999 10.854332690751141 
Si 6.781543289999999 6.765823439999999 12.204442785958902 
Si 8.109113129999999 5.36947722 13.591879454387115 
Si 6.01962741 7.6836997799999995 17.22146571161893 
Si 5.154384059999999 7.82434764 13.465604451364742 
Si 4.1019849 5.11442469 21.044590768943824 
Si 7.95795822 5.45776902 20.419327505413847 
Si 7.312320359999999 5.85340425 18.112054959076694 
Si 6.14416446 5.89212558 22.033831283460632 
Si 6.82109541 5.08564026 24.191555829226303 
Si 5.5701537299999995 4.116890249999999 26.005330332578563 
Si 7.73214624 7.4654137799999996 27.13348370932097 
Si 7.46292141 6.02211978 28.947638039042722 
Si 5.03717751 5.8217202 34.29576596989322 
Si 8.04696678 7.891022609999999 34.16320656693919 
Si 6.23071323 7.665373529999999 32.52542979134329 
Si 5.98794336 6.02120754 30.792213007994096 
Si 6.596195669999999 4.11944778 32.21145150245009 
Si 8.136007919999999 10.82869605 2.697419834182242 
Si 4.07899971 9.35787195 1.243682746475042 
Si 6.7898349 9.50453082 4.07574412270955 
Si 6.741730529999999 12.04194267 1.1986733216897905 
Si 4.07240226 9.50272263 6.787428163549856 
Si 5.42984796 8.14498371 8.144996667467717 
Si 5.43032037 10.85850675 5.43023948600149 
Si 6.786430289999999 9.500718959999999 9.50297952742503 
Si 4.0729887 9.511111979999999 12.221811209945846 
Si 5.434392869999999 10.85950044 10.863344934609177 
Si 7.01059698 8.722105829999999 14.955352531867138 
Si 5.648541209999999 11.41415865 17.456094818957464 
Si 4.271449769999999 8.86918824 20.51860030653206 
Si 7.9110756 9.52334577 19.807392694486172 
Si 5.81891832 9.42000201 18.76169616959431 
Si 7.608847229999999 9.37715931 22.2056854508225 
Si 5.62666374 8.158553280000001 22.35972230848802 
Si 7.268842349999999 11.251796220000001 23.70824403887789 
Si 4.51578348 8.286429779999999 24.47735790743691 
Si 5.47010055 11.51321814 25.284143645915922 
Si 5.521919039999999 8.21923353 26.707767408456096 
Si 5.74004214 10.474372259999999 27.408616119515735 
Si 7.70727141 10.886069430000001 28.657657870767665 
Si 5.186719709999999 10.85308218 34.272423913004204 
Si 5.76636678 9.965423790000001 32.06003889970109 
Si 7.72258401 11.01435318 31.090652945407925 
Si 4.073151599999999 12.216408569999999 4.067111705221009 
Si 4.1350047299999995 14.983102169999999 1.2133277136183374 
Si 5.44204917 13.57079175 2.6770611407772673 
Si 6.78711447 14.931528029999999 4.067457001920551 
Si 4.07222307 14.932603169999998 6.787428163549856 
Si 5.42966877 13.57569504 8.145203845487442 
Si 6.78776607 12.2170113 6.787255515200085 
Si 8.14493484 13.574603609999999 10.864208176358032 
Si 4.0713597 12.216538889999999 9.502254404355991 
Si 6.78590901 14.93318961 9.502461582375718 
Si 6.78716334 12.20399559 12.258136422737627 
Si 5.42883798 16.2906516 10.857785657746557 
Si 7.0753986 14.71772178 15.105211299468204 
Si 5.4175653 13.516366859999998 13.74919663069828 
Si 5.3465409 15.962733899999998 16.124492626845132 
Si 5.17178178 12.740246099999998 20.587728705780297 
Si 4.18837077 14.85564921 20.806439635269964 
Si 6.555568409999999 13.12483671 18.71307839429885 
Si 7.950236759999999 15.08642964 18.689218392360523 
Si 4.21436961 15.99697548 18.799955043903523 
Si 6.946772759999999 12.9974652 22.16328301611879 
Si 4.656773429999999 15.99277266 22.82694327263779 
Si 6.80899194 15.133442579999999 23.132289144042456 
Si 6.88172679 14.739973919999999 25.405342787455034 
Si 4.82710167 13.731720659999999 25.873254345003893 
Si 6.414969419999999 14.44981644 29.243764488569624 
Si 4.3441357499999995 13.715740169999998 28.22831595455761 
Si 6.28800516 14.34222099 31.57289431598776 
Si 9.502657469999999 1.35661491 4.067077175551055 
Si 10.863801 2.71003698 2.6719472966570557 
Si 9.48283254 4.019492339999999 1.115560406110121 
Si 8.14469049 4.48216092e-05 8.14468590043813 
Si 10.86111315 -0.00166703715 5.430757431050803 
Si 10.859907689999998 2.7152660699999998 8.144547781758313 
Si 12.214388609999999 1.326142836 12.224090168162823 
Si 9.5017941 1.355608188 9.50208175600622 
Si 8.14452759 2.71663443 10.860582561012844 
Si 9.51446772 4.0767028199999995 12.215285102324511 
Si 10.02885705 0.987519348 16.93569816307828 
Si 9.0126054 1.7616006 14.927832384913671 
Si 10.76946561 2.62495431 13.558282085521714 
Si 11.940879509999998 2.04775074 20.23987681066206 
Si 8.47545894 3.1943712599999996 19.783912518917344 
Si 10.48015521 2.81167029 18.457524306968093 
Si 11.13770106 2.87901315 22.28513822138703 
Si 8.720818920000001 0.0460674684 22.453194125053937 
Si 11.99512521 1.214865846 23.705309016931785 
Si 9.97378056 0.401638095 24.460162131799738 
Si 8.81671815 2.36594331 21.920470377001116 
Si 8.42999355 1.9986526799999997 25.22140323560921 
Si 10.35055197 3.9882155399999997 30.15976757311365 
Si 9.07208019 3.8639879999999995 26.53242574442886 
Si 10.70999082 2.93249322 27.994550088967923 
Si 9.825085439999999 0.5855554529999999 28.17907664520297 
Si 8.44861302 2.95914366 31.009888047385136 
Si 8.71457985 1.2336905699999998 32.69148297415286 
Si 10.85798547 8.13753918 2.6810942062279133 
Si 12.21943851 4.07468286 4.071496973305188 
Si 12.12819822 6.66606348 1.2237660328454807 
Si 8.15003361 5.41497519 2.6814809385314002 
Si 9.502608599999999 6.787489139999999 4.066766408521468 
Si 9.502347959999998 4.072548869999999 6.787946108599169 
Si 8.144609039999999 5.42908233 8.144029836709 
Si 10.85896287 5.428202669999999 5.430170426661583 
Si 10.859044319999999 5.430271499999999 10.862170925830736 
Si 8.14846977 8.14936572 10.862343574180507 
Si 9.502347959999998 6.78628368 9.502047226336266 
Si 8.91685278 7.143621119999999 14.964399305395128 
Si 10.7795817 8.11483092 13.7344179319579 
Si 11.24135433 4.64999679 17.077269809890346 
Si 9.4099185 6.369210809999999 17.17944310328471 
Si 9.963892529999999 6.76940724 20.668769841162717 
Si 10.3022847 7.53352227 24.5398911397239 
Si 8.65863999 6.02019756 25.45589422426793 
Si 9.55037088 6.185443319999999 30.053001833615383 
Si 11.60380683 7.244635409999999 29.403636860457397 
Si 12.177133379999999 7.312287779999999 27.133449179651013 
Si 9.469279259999999 7.18858152 32.39200714664041 
Si 11.8776906 4.25488284 32.036869491161845 
Si 10.74450933 5.46304698 34.04908600774068 
Si 9.36095076 9.3266766 1.1965911825915545 
Si 10.42105509 11.18494206 0.08901507206493468 
Si 12.2170113 9.50708835 4.068354773339359 
Si 8.14260537 8.1453258 5.430999138740483 
Si 9.50194071 9.5027715 6.787669871239536 
Si 10.8598914 8.1454887 8.145065726807626 
Si 8.145537569999998 10.85976108 8.145169315817489 
Si 10.85922351 10.858278689999999 5.429997778311812 
Si 9.50409099 9.49307895 12.23237728895182 
Si 10.862676989999999 10.85888142 10.859443081904356 
Si 11.7902133 9.8950347 14.860913884542503 
Si 8.14998474 10.718787419999998 13.732311622090695 
Si 10.00394964 11.556207449999999 14.968093980080225 
Si 9.76236894 11.96311536 17.352574868434886 
Si 11.497237649999999 11.17994103 19.654011900549783 
Si 8.37475416 11.72997288 19.26541499488564 
Si 9.7207317 8.18302086 18.82391863485171 
Si 11.906589059999998 9.107299170000001 18.689908985759605 
Si 9.30302352 11.657140290000001 24.867163351549454 
Si 9.73470852 8.377425719999998 22.405612239857103 
Si 11.07434925 10.343726460000001 21.870471414907488 
Si 10.492926569999998 9.682922609999999 25.733927126738845 
Si 9.21662136 9.297827009999999 27.71555035573829 
Si 10.772430389999998 9.43943598 29.48298604201206 
Si 9.6368382 9.459831059999999 31.513365164986784 
Si 11.303631 10.707531029999998 32.512964580489836 
Si 12.18570192 12.245974919999998 1.2599082383865028 
Si 9.50246199 12.21852627 4.065454281063209 
Si 9.55797831 14.903818739999998 1.1920436250585913 
Si 10.86761286 13.588775909999999 2.7005516752470844 
Si 8.14465791 13.57582536 5.429997778311812 
Si 9.5030973 14.93265204 6.787738930579444 
Si 10.860608159999998 13.574750219999999 8.144824019117946 
Si 12.21826563 12.213199439999999 12.215077924304785 
Si 9.50334165 12.216604049999999 9.50190910765645 
Si 9.50159862 14.931251099999999 12.238040154824303 
Si 10.865201939999999 16.28754021 10.859443081904356 
Si 9.00501426 14.17609557 16.76867814950999 
Si 11.32528041 15.22862505 16.760908973770306 
Si 10.79559477 13.418561699999998 13.642120124170422 
Si 9.09280107 13.01186556 21.162302413817564 
Si 9.433669319999998 15.228869399999999 20.525437181182987 
Si 11.661375689999998 15.965063369999998 20.42871957564138 
Si 10.50014304 12.32752266 22.98864571703314 
Si 8.76651237 13.58313957 26.233295213615946 
Si 9.81775494 13.802223779999998 30.180416315746243 
Si 10.304190629999999 15.36298497 26.370481592343832 
Si 8.274358889999998 13.13469216 28.473511140902115 
Si 8.646927479999999 12.93743655 34.404672548928644 
Si 12.119939189999998 14.77677303 32.67784375452097 
Si 10.321409159999998 16.099178939999998 30.323196501006702 
Si 11.61846783 12.706069679999999 31.228322739515168 
Si 8.28377451 13.212819 31.95924679310489 
Si 10.66102308 16.28490123 34.076260857994605 
Si 15.83966295 0.26797212899999995 0.14966194848232744 
Si 13.54928895 -0.00413218656 2.7013769343589886 
Si 12.20726988 1.293416226 1.1455805011682703 
Si 14.93491635 1.3557352499999997 4.066317522812064 
Si 14.869837799999999 4.01774931 1.2558924377708336 
Si 13.57492941 -0.00018492408 8.144754959778039 
Si 13.57246962 2.71435383 5.429825129962041 
Si 12.21764661 1.3570189019999999 6.787877049259261 
Si 16.2919548 -0.0015300138149999998 10.859201374214678 
Si 14.932114469999998 1.35633798 9.50308311643489 
Si 13.579067069999999 2.71459818 10.86362117196881 
Si 14.92313868 4.08654198 12.227508605488284 
Si 16.08052689 2.5718814899999995 13.540119479125824 
Si 15.265961729999999 1.8765591299999997 16.940912143241356 
Si 14.092088039999998 1.9100187899999999 14.920788332243022 
Si 12.27788703 3.76908246 14.972686426184127 
Si 14.290842329999998 2.54992257 20.535623433819467 
Si 15.456375539999998 0.5108723190000001 20.4119036263737 
Si 14.68455534 3.57879897 18.460977273963508 
Si 14.777440919999998 4.03312707 22.400329200354115 
Si 15.457662449999999 2.6521749 24.246388945113516 
Si 13.5324288 1.78191423 25.3424642584685 
Si 15.97517946 1.409717052 29.566064427921777 
Si 16.22457936 3.70397133 26.26882624399878 
Si 12.927988349999998 3.31679061 27.062905063934657 
Si 15.00774894 3.24830745 28.325793212838207 
Si 14.110153649999999 2.1133505699999997 34.41434085651581 
Si 12.6495108 0.10750031639999999 30.810444673729894 
Si 15.875321759999999 2.31293565 31.786909210363664 
Si 13.364967599999998 2.2048677899999998 32.06487305349467 
Si 13.55274243 5.41710918 2.6983072467000633 
Si 14.934395069999999 6.78797784 4.0674224722505965 
Si 14.04571041 7.42942917 0.06463608918719718 
Si 14.932407689999998 4.07243484 6.787531752559719 
Si 13.575287789999999 5.429277809999999 8.144996667467717 
Si 12.21740226 6.787342529999999 6.787359104209948 
Si 12.21596874 4.07253258 9.50132210326723 
Si 14.933482829999999 6.788596859999999 9.502841408745212 
Si 12.21435603 6.78401937 12.258827016136708 
Si 13.5296595 5.34176793 13.710316222329892 
Si 15.127252379999998 6.48436482 15.13456151892924 
Si 14.21835183 7.4109237299999995 17.13728237627068 
Si 12.25022661 6.05820213 20.446709533687496 
Si 13.38586767 8.11636218 20.273577768537322 
Si 15.485127389999999 8.03443977 19.117041003092602 
Si 13.124413169999999 5.46233022 18.284634249507597 
Si 16.07243076 7.986807809999999 23.36308545801608 
Si 12.35262555 6.35438691 24.151984827458833 
Si 12.53334681 4.81377645 22.414210127675688 
Si 13.324975649999999 5.53472298 26.144692080513565 
Si 15.083171639999998 5.11802478 29.879766479455345 
Si 15.694307279999999 5.95772541 26.28287981967012 
Si 15.817573709999998 6.83885151 28.47212995410395 
Si 15.85838016 5.70097872 34.36403112739259 
Si 13.08448638 6.0338648699999995 30.90564297379352 
Si 13.709664 7.74506421 32.367594669982815 
Si 16.14558915 10.96541802 0.07343183201462106 
Si 14.83005762 9.380286989999998 1.2701739092638753 
Si 13.55999148 10.853196209999998 2.687361341324594 
Si 13.573723949999998 8.14382712 5.429583422272361 
Si 14.93276607 9.50270634 6.787428163549856 
Si 13.574587320000001 10.860608159999998 8.14468590043813 
Si 13.573789109999998 8.14737834 10.86735037632386 
Si 14.940226889999998 9.4949523 12.2554431084812 
Si 12.215284559999999 9.50339052 9.501770988976633 
Si 13.543929539999999 10.882811429999999 13.653273207565617 
Si 13.0860828 9.46859508 16.740087582787947 
Si 14.42860686 11.37353139 17.287624559251103 
Si 16.14492126 10.281238019999998 18.704480506480262 
Si 14.9920128 11.13286293 22.129996414282974 
Si 13.747929209999999 8.256944879999999 23.949157546148083 
Si 13.2423039 9.575685539999998 22.088353632318256 
Si 12.954589919999998 9.36661968 25.94821825847438 
Si 14.16998682 10.10841741 29.700592022063194 
Si 12.250503539999999 11.35390194 29.32867294698691 
Si 14.41256121 11.309479109999998 26.17849662739869 
Si 13.970792699999999 8.239498289999998 28.33774047864235 
Si 13.512554999999999 10.02305781 32.01604810017948 
Si 14.747662799999999 11.94278544 32.848765620794076 
Si 12.21574068 14.935372469999999 4.076710953468266 
Si 14.936708249999999 12.21512166 4.069908608487297 
Si 14.770843469999999 14.801305769999999 1.336912855351281 
Si 16.2909774 13.57778016 2.7059348507929384 
Si 13.57351218 13.57637922 5.43023948600149 
Si 12.21764661 12.217728059999999 6.787428163549856 
Si 14.932668329999998 14.93229366 6.787600811899627 
Si 12.216718079999998 14.93162577 9.501563810956908 
Si 14.93165835 12.215708099999999 9.502427052705762 
Si 13.56983064 13.577063399999998 10.860617090682798 
Si 14.93911917 14.94192105 12.235795726277283 
Si 12.66821172 14.38908732 14.928937334352202 
Si 14.35973274 12.556071359999999 15.102656103891595 
Si 13.54705722 16.23549366 13.680793354519084 
Si 16.12859868 13.43581281 13.663355871192232 
Si 14.95294938 13.032146609999998 20.73572287120384 
Si 13.270974299999999 12.659333669999999 19.161722396013285 
Si 12.78779661 14.93533989 18.64391546538066 
Si 15.051976289999999 16.08671709 18.167958494732485 
Si 14.82091893 15.10030872 21.95427492388624 
Si 12.62808945 15.54727374 22.55011890861527 
Si 15.89755761 14.15255652 23.863731142681484 
Si 12.34283526 13.58413326 23.838006538565633 
Si 14.38345098 12.347787419999998 24.049466237364925 
Si 16.13131911 15.31408239 25.882059410842203 
Si 14.81106348 13.9139406 28.97160162999091 
Si 14.241467339999998 16.18106877 28.98161523427762 
Si 12.3942465 14.377798349999999 26.133090111408965 
Si 14.00578362 16.117830989999998 26.56564328692476 
Si 13.20263775 12.734169929999998 27.6579893959247 
Si 13.54011768 13.526857619999998 34.19134824795183 
Si 15.847286669999999 12.7677762 30.767766001666548 
