&CONTROL
  dt          = 30.D0,
  prefix = 'x.33_y.66_z3.17_struc6-scf',
  pseudo_dir = './',
  outdir='./',
  wf_collect= .true.,
  verbosity= 'high',
/

&SYSTEM
ibrav= 6, celldm(1) =30.783621515, celldm(3) =2.118483252460307, nat=  432, ntyp= 1,
  ecutwfc     = 12.D0, nbnd= 1728,
  degauss     = 0.05D0,
  occupations = "smearing",
  smearing    = "methfessel-paxton",
/
&ELECTRONS
  electron_maxstep=200,
  conv_thr    = 1.D-8,
  mixing_beta = 0.3D0,
  scf_must_converge=.false.,
/
ATOMIC_SPECIES
Si  28.08  Si.pbe-hgh.UPF
K_POINTS {automatic}
1 1 1 0 0 0
ATOMIC_POSITIONS (angstrom)
Si 1.083772071 1.272700233 1.1810250807275076 
Si 1.360669491 4.070985029999999 4.072535978466077 
Si 4.06759671 1.363728753 4.06842927749635 
Si -9.63364536e-05 2.71498914 8.145451567946163 
Si 2.71490769 0.00012170030939999998 8.14514097711652 
Si 2.7146307599999995 2.71484253 5.4320610599987535 
Si 1.356984693 1.358491518 6.787997091944442 
Si 2.71494027 2.71383255 10.862983286955481 
Si 1.34170956 1.369568718 12.22613192816733 
Si 3.94294563 0.44127980999999994 16.653776755192137 
Si 2.71132389 0.0818121267 13.592973149242713 
Si 3.75378615 1.8644067899999999 14.808315065636576 
Si 0.320004018 0.5255072550000001 16.413344942956115 
Si 2.45998548 3.4994015099999998 16.45209977647715 
Si 3.54732669 3.0932918099999998 20.17670500555847 
Si 0.28123056 2.09596914 20.713509489458477 
Si 1.8533784599999998 2.40139035 18.47390803708569 
Si 3.0601253699999997 2.3068920599999996 23.645279860737244 
Si 0.7918194329999999 2.03942655 24.207380242207083 
Si 3.5683733699999998 1.247571279 21.633272466308558 
Si 0.1205412759 1.9545393599999998 26.451019375365235 
Si 0.8886211289999999 3.9978755099999996 27.35918696124197 
Si 1.075255659 0.37858611600000003 27.95614253581621 
Si 3.13360956 1.406480229 28.734552175086446 
Si 2.01471462 3.1636646099999997 34.42357538147668 
Si 0.1515794274 1.3226486309999999 31.757429189727223 
Si 2.52732834 1.97770374 32.455637374765146 
Si 3.14346501 3.12186447 30.389035014503623 
Si 3.89907666 4.079406959999999 1.1821225016589136 
Si 2.70563868 5.42792574 2.7040106648921847 
Si 1.3452282 6.706202039999999 1.213512881508187 
Si 0.00387586341 8.140129289999999 2.6793393999908592 
Si 3.18072024 7.755017399999999 0.03429423155597638 
Si 0.000300100896 5.4288542699999995 5.4299559443756165 
Si 2.7151520399999995 5.43054843 8.144899406471243 
Si 1.357747065 6.78700044 6.787617480930433 
Si 4.07350998 6.78861315 9.502353882472963 
Si 4.07763135 4.07895084 12.247217594490884 
Si 1.358405181 4.07344482 9.502768003579154 
Si -0.0001287180414 5.429294099999999 10.864191140181871 
Si 1.364522076 6.79231098 12.220782863879029 
Si 2.7011426399999996 5.5241833499999995 13.68797943302135 
Si 0.8616367439999999 4.67387793 15.154002659029464 
Si 0.0287036316 8.021098259999999 21.306772484169187 
Si 3.7342707299999995 5.13195273 21.56211265622808 
Si 0.212662692 4.32589095 21.19078406434354 
Si 2.8724482799999995 6.82883316 20.189749820403485 
Si 0.620282475 6.234313319999999 19.787327635462443 
Si 0.663775146 4.27680918 23.52273452339691 
Si 0.294414057 7.639798229999999 23.645728491935618 
Si 2.91709917 4.795140689999999 23.863728744252967 
Si 2.5526267099999997 7.25229171 24.079313290117533 
Si 2.59600698 7.767658439999999 26.359326060436125 
Si 3.890052 6.713385929999999 29.54564287165359 
Si 1.6107161039999998 6.546853259999999 30.1034294916006 
Si 1.1510660609999999 4.27047237 29.720781589480172 
Si 3.0214040399999997 4.326298199999999 26.342899256557217 
Si 0.379728045 7.758910709999999 27.09335572115957 
Si 3.9912129 6.218235089999999 27.270116413318732 
Si 0.32503925699999997 4.97656242 34.338922125352816 
Si 4.0421191499999996 9.476805240000001 1.3562466227753314 
Si 1.357595568 9.504547109999999 4.0705689032116705 
Si 4.07362401 12.21288993 4.069982231644567 
Si 2.70972747 10.84467654 2.7151850327409037 
Si 3.32504964e-05 8.14513032 8.145279017485251 
Si 2.71536381 8.14550499 5.430784186587998 
Si -0.000552336885 10.85876739 5.430301045297442 
Si 2.7151520399999995 10.860217200000001 8.14472685601033 
Si 1.3584507929999998 9.50400954 9.502146821919867 
Si 2.71494027 8.145162899999999 10.861671903452544 
Si -0.00397344051 10.86207426 10.859911888751233 
Si 3.59072325 8.47798389 16.440918506609997 
Si 0.087327432 8.225097929999999 13.590453912513384 
Si 1.5800501789999999 9.2813904 15.225369529663036 
Si 2.67638184 10.83394143 13.715035345292494 
Si 0.0272489346 12.20428881 17.118834757444567 
Si 0.45291249899999997 9.74850615 17.48705744103268 
Si 0.023260490999999998 11.739372209999999 20.849996904040577 
Si 3.21049836 9.15848235 20.571086339020976 
Si 1.0480839389999999 9.815881589999998 20.02437745866457 
Si 3.4477785 9.06704658 22.88781784742183 
Si 2.73308733 11.12097123 23.820936229946568 
Si 1.441072044 10.8548415 25.726479989992 
Si 0.183500334 8.28349758 29.382306605353442 
Si 2.69622306 10.428353009999999 29.351627133403134 
Si 3.07252206 9.9344565 27.088110187147816 
Si 1.506846177 10.92503511 32.61742068691707 
Si 3.0095612099999998 8.963116379999999 32.51527081405664 
Si 0.627173145 10.33183476 30.504816373776173 
Si 2.70637173 16.291466099999997 2.676675220874364 
Si 1.485792981 12.317488019999999 1.3370314034480715 
Si 1.3559795999999997 14.933368799999998 4.0709830243178615 
Si -0.00047383700399999994 13.575043439999998 8.144899406471243 
Si 2.71344159 13.575238919999999 5.429265742531965 
Si 1.3577405489999999 12.21696243 6.787686501114798 
Si -0.0049365378899999994 16.2930951 10.859670318105955 
Si 4.08548313 14.936936309999998 12.247459165136164 
Si 1.3567892129999999 14.932994129999999 9.50283702376352 
Si 2.71555929 13.57387056 10.8637425089835 
Si 1.361532861 12.20617845 12.233206497064758 
Si 3.92372343 12.27819654 15.043466833768665 
Si 2.15897886 13.35338541 16.334558402503287 
Si 0.0180390573 13.64544882 13.578685971079125 
Si 1.318625001 15.08507757 14.990183251438765 
Si 1.6221305069999998 16.1585397 21.5093812353731 
Si 1.233890937 15.166348379999999 19.413065685742374 
Si 3.08314314 14.83737183 17.935895699959293 
Si 2.6506110599999997 14.41391328 22.686762050366127 
Si 1.2421923209999999 12.560762879999999 22.704810828577617 
Si 3.13913187 15.12614466 24.936509469840598 
Si 3.63452706 12.505718969999998 29.797911645508236 
Si 0.549251559 12.932354069999999 26.332994860100815 
Si 1.9591331399999998 14.69636559 26.934022625552604 
Si 4.03029261 14.066805959999998 28.012014375059803 
Si 3.1927259699999997 13.28420178 34.468024380207844 
Si 0.18689517 14.11394922 30.9363995866115 
Si 2.41116435 13.55731992 31.744349864790024 
Si 8.146075139999999 -0.0244120311 2.69225307648558 
Si 5.414828579999999 2.71435383 2.6786422961287712 
Si 6.57899343 1.114815924 1.2957366271423982 
Si 5.43113487 -0.00168888204 5.430439085666173 
Si 5.429701349999999 2.71528236 8.14486489637906 
Si 6.787358819999999 1.357564617 6.787859051575712 
Si 8.14785075 2.7128551499999998 10.858773055709209 
Si 4.0726140299999996 1.356460155 9.501284069615304 
Si 6.77764998 1.344545649 12.226338988720425 
Si 7.428288869999999 3.67798878 14.938935764547635 
Si 5.6033038799999995 2.80854261 13.683631161406346 
Si 7.524350999999999 0.230819526 21.010882953795758 
Si 7.448879429999999 3.66433776 19.811898821096435 
Si 5.39436834 3.15198468 18.703538190468567 
Si 6.07579533 1.30794039 17.476807943654453 
Si 6.15841821 0.5496995339999999 24.25500416941904 
Si 4.09673952 0.9551283119999999 25.17459459580821 
Si 8.07177645 2.4392971799999996 21.743083579633524 
Si 7.01559801 2.73733902 23.848026652309894 
Si 4.25507832 2.4013740599999998 26.95886989192406 
Si 6.542780759999999 2.4366093299999996 27.580534692501026 
Si 6.893748809999999 0.400556439 28.737589063198513 
Si 7.05071925 1.8884997 32.474376354820286 
Si 4.73217984 0.895985838 33.02180994711253 
Si 6.79038876 4.071571469999999 4.069430070169646 
Si 4.07194614 6.7869027 4.070396352750757 
Si 4.91084856 5.95863765 0.11911227337001301 
Si 6.761457719999999 6.7737078 1.3690360629381948 
Si 8.13151188 5.43041811 2.716724182852247 
Si 4.07178324 4.0725814499999995 6.787824541483529 
Si 5.42966877 5.43084165 5.430024964559982 
Si 6.78760317 6.787652039999999 6.787410420377338 
Si 6.78766833 4.0728258 9.503044084316615 
Si 5.42471661 5.431525829999999 10.861706413544727 
Si 6.777975779999999 6.80452848 12.221024434524308 
Si 8.14856751 8.14024332 10.862327595204013 
Si 8.10521982 5.36242365 13.499554329704472 
Si 4.490859779999999 4.837054859999999 17.03618308666729 
Si 4.39843032 6.55423263 15.163907055485863 
Si 7.674870599999999 5.82885522 20.758959280862936 
Si 8.10417726 7.727031179999999 19.384560349599568 
Si 4.23932589 6.78895524 18.31115844235265 
Si 5.79699198 6.17363307 22.16531455748737 
Si 6.42454794 5.09213997 24.16507086919124 
Si 5.97122982 6.43720527 26.09949957639349 
Si 6.81663195 4.274105039999999 29.04669595887787 
Si 7.64268156 5.960380679999999 27.683340257112928 
Si 4.94745219 4.800141719999999 30.428376519591758 
Si 5.800119659999999 5.75129853 32.472374769473696 
Si 7.65871092 4.25294433 32.41129190631053 
Si 6.621982739999999 8.119261799999999 32.74158799858999 
Si 8.124279119999999 10.85656824 2.7121964587578926 
Si 5.4379278 8.160703559999998 2.721572850803899 
Si 6.786430289999999 9.5048892 4.075434826209414 
Si 4.85401275 11.37165804 0.20774730392990373 
Si 6.856135199999999 12.19396095 1.2186824933171372 
Si 4.07269548 9.50246199 6.787341400192973 
Si 5.4295873199999996 8.14495113 8.144761366102511 
Si 5.431314059999999 10.85888142 5.430266535205259 
Si 6.786365129999999 9.50332536 9.503147614593162 
Si 4.07241855 9.50435163 12.242696772414966 
Si 5.4295547399999995 10.86090138 10.860429540133971 
Si 6.77672145 12.208540499999998 12.231653542916542 
Si 8.06480433 10.755651689999999 13.610607806348009 
Si 4.95481527 10.56593835 16.343979657669134 
Si 5.5234502999999995 8.16922323 13.70644233233903 
Si 6.7727629799999995 9.52601733 15.21846751122652 
Si 6.55393941 10.22676426 21.52580803925201 
Si 5.21121987 10.01486394 19.59621074495532 
Si 5.83379109 11.96757882 18.385527691006104 
Si 6.09547365 8.32671495 18.232717002821648 
Si 5.70039228 8.49126024 22.904624262314748 
Si 4.81302711 11.947216319999999 24.577190390035593 
Si 6.28948755 8.58188151 25.17518126737531 
Si 6.29256636 10.19861514 29.99631016546588 
Si 5.27892111 10.43094312 26.31001113870722 
Si 6.708303449999999 11.374378469999998 27.988892613297473 
Si 4.27599468 8.946630899999999 30.228908186776454 
Si 7.90801308 8.843971319999998 30.972669693495387 
Si 5.2371535499999995 11.75066118 31.37367696465695 
Si 5.0639094 9.98063865 32.87538362598185 
Si 4.27464261 15.07667193 1.2787300537148236 
Si 5.4550323 13.58100558 2.698281989589877 
Si 6.79252275 14.927341499999999 4.074744624365763 
Si 4.0728909600000005 14.93229366 6.787997091944442 
Si 5.42957103 13.574815379999999 8.144933916563424 
Si 6.7882059 12.21748371 6.788031602036625 
Si 8.14521177 13.574408129999998 10.864191140181871 
Si 4.0728258 12.21593616 9.501974271458955 
Si 6.78709818 14.933205899999999 9.502871533855703 
Si 5.42740446 16.2913032 10.859980908935599 
Si 5.514165 13.59077958 13.735051198758388 
Si 7.4932371 14.39565219 14.995773886372342 
Si 8.11483092 16.25235381 13.625240085433422 
Si 6.752612249999999 15.84134082 18.843442104176738 
Si 5.07550788 14.141283839999998 19.205729051909447 
Si 5.503478759999999 16.19061471 22.11082312193108 
Si 6.1224336 12.330308249999998 22.644763268179933 
Si 8.02352547 13.455230489999998 23.518524292150634 
Si 4.76436888 14.025136139999999 21.60573341274686 
Si 7.112898179999999 14.880214529999998 25.267323213502795 
Si 4.98609207 13.92734727 25.799986486340895 
Si 4.669007219999999 15.996470489999998 29.24450780726841 
Si 6.82785576 13.48277688 29.18339043401306 
Si 6.28574085 13.774481909999999 31.496325832273833 
Si 4.43421945 15.278700509999998 31.48559319360505 
Si 8.44625097 2.3345036099999996 0.1118672246172025 
Si 9.50321133 1.3585338719999998 4.067842605929247 
Si 10.36607634 0.657469287 0.048846619777986953 
Si 10.853326529999999 2.74460436 2.7037794472745613 
Si 8.145374669999999 -3.05593884e-05 8.1445888156416 
Si 8.14452759 2.7141746399999995 5.430473595758355 
Si 10.86108057 -0.00158467491 5.431025757233276 
Si 10.859679629999999 2.71485882 8.144692345918147 
Si 9.50166378 1.3566588929999999 9.501560150352764 
Si 8.62690707 1.186935012 17.084186624893256 
Si 8.93903976 1.8153575999999998 14.84382595049245 
Si 10.81304136 2.67229305 13.669827124533313 
Si 11.300910570000001 2.5964305199999997 19.908147468193647 
Si 9.39771729 2.99778354 18.54323881228049 
Si 11.86418619 1.9856043899999998 22.931266053479696 
Si 10.26014247 3.3432292799999996 21.870011698681047 
Si 8.20193355 2.56865607 25.85534067420175 
Si 9.91055907 2.41785954 29.96228321457386 
Si 9.7533117 0.7836988679999999 26.357876636564455 
Si 11.228697 4.04726679 26.605175957144812 
Si 10.968904079999998 2.09613204 27.896025955234155 
Si 8.331487919999999 0.7853034329999999 30.630571149689487 
Si 11.852946089999998 2.93312853 31.383132729914976 
Si 11.94060258 1.054841031 32.779342039437736 
Si 9.497640149999999 4.21448364 1.245783268708116 
Si 9.50321133 6.78781494 4.070844983949131 
Si 9.50242941 4.07264661 6.787513950653886 
Si 8.145439829999999 5.429701349999999 8.145037446839973 
Si 10.86130863 5.42940813 5.429748883822521 
Si 9.51213825 4.06487628 12.209291003182232 
Si 10.857659669999999 5.433334019999999 10.859463257552859 
Si 9.50304843 6.786006749999999 9.501353089799668 
Si 10.05182595 5.94762561 14.763900576997598 
Si 10.93114386 8.11885455 13.84413760014752 
Si 11.937230549999999 4.40590743 15.01382266458383 
Si 9.22499442 4.93200927 16.81000394250267 
Si 10.97957403 7.332585119999999 21.448781513500496 
Si 11.74896702 6.65887959 19.344356092206862 
Si 9.81387792 7.101120509999999 17.8645633394179 
Si 9.55693575 5.61016197 22.174597772284482 
Si 8.642789819999999 5.983300709999999 24.294587245152456 
Si 9.08125146 4.72892184 26.193677617959747 
Si 10.40077404 6.193295099999999 29.874075418955186 
Si 8.660969459999999 7.602217199999999 29.098323056783006 
Si 11.56098042 8.05271715 26.982612835345673 
Si 11.7656154 5.89398264 27.899649514913328 
Si 8.820888389999999 4.4116577999999995 30.303967637273566 
Si 11.2673043 7.06072131 31.94454290954116 
Si 8.23672899 7.89441093 34.41632826211834 
Si 10.9592604 5.649518609999999 34.23635813138619 
Si 9.43780698 9.500914439999999 1.3236690957549773 
Si 10.85687775 8.15457852 2.700252515853502 
Si 10.57005972 11.214215189999999 0.12229306856648127 
Si 8.14394115 8.14622175 5.430128494836529 
Si 9.502413119999998 9.502478279999998 6.787582970838251 
Si 10.860363809999999 8.14429953 8.145382547761798 
Si 8.14501629 10.86018462 8.144795876194694 
Si 10.862465219999999 10.85979366 5.429610843453791 
Si 12.217109039999999 9.50189184 9.501594660444947 
Si 9.51779088 9.488925 12.247907796334536 
Si 10.865006459999998 10.860233489999999 10.86388054935223 
Si 10.58600763 9.07281324 16.579683587276143 
Si 9.695270429999999 11.35924506 16.744883398554144 
Si 10.44347013 9.67779126 21.564390322312132 
Si 11.99543472 11.48169699 21.196754310291123 
Si 8.51129694 9.92901564 20.257286070804792 
Si 8.2974744 11.783599559999999 18.68825021963168 
Si 9.26931951 11.860162560000001 24.824144609694123 
Si 12.071085479999999 8.68942809 24.743321973802523 
Si 10.075185809999999 9.792945269999999 23.903035739248924 
Si 8.598497309999999 8.26388442 24.981061998848308 
Si 10.36886193 12.08693565 28.530286939457767 
Si 11.40775668 10.67040612 30.13428151401183 
Si 9.34871697 8.77284918 27.1535068118338 
Si 8.85662865 11.07799821 27.067231581377357 
Si 12.048865919999999 10.139172929999999 33.12692768790066 
Si 10.25931168 9.172491749999999 31.578839462682378 
Si 9.499725269999999 12.21934077 4.069257519708732 
Si 9.65983968 14.921281619999998 1.1971792548781726 
Si 10.88087292 13.59061668 2.7162962577091827 
Si 8.14205151 13.57737291 5.43054261594272 
Si 9.502250219999999 14.93208189 6.787893561667894 
Si 10.860282360000001 13.574978279999998 8.144830386286877 
Si 9.50213619 12.21741855 9.502526432933877 
Si 9.51836103 14.940976229999999 12.236657506283017 
Si 10.85995656 16.2906516 10.860464050226154 
Si 11.9620728 12.221311859999998 17.21967324680206 
Si 8.98872426 12.502900799999999 14.815182573980909 
Si 10.812650399999999 13.48492716 13.69036062938195 
Si 8.58800655 15.109121609999999 17.555111342816723 
Si 11.762308529999999 13.088933549999998 19.432770948378632 
Si 9.485487809999999 13.79419281 19.565841863834653 
Si 11.11414572 16.00793865 22.604351950234133 
Si 12.20526621 12.78991431 23.1660037005056 
Si 9.08620362 14.85672435 21.75847508074695 
Si 11.15635311 15.72157674 24.948380941551406 
Si 11.02070628 13.356692279999999 25.120206690528466 
Si 9.11049201 13.96685052 28.974880457045924 
Si 12.061620989999998 12.79183653 27.128832095923254 
Si 8.310636719999998 15.437413979999999 27.274395664749374 
Si 8.844362279999999 13.0161987 34.49532186312426 
Si 9.71354781 15.130999079999999 30.91175938079314 
Si 12.082635089999998 15.430995719999999 31.446941890360563 
Si 8.34973272 14.06068092 32.48769725040276 
Si 16.2787599 2.7125945099999997 2.7077412058571215 
Si 13.572225269999999 -0.0265701303 2.7222630526475506 
Si 13.76907363 2.1652668 -0.012285592816997912 
Si 12.20590152 1.3407842879999998 1.4506455289315563 
Si 14.935747139999998 1.361767437 4.072156367452069 
Si 12.21596874 4.07124567 4.07270852892699 
Si 14.92748811 4.01419809 1.249800243438168 
Si 13.57533666 -0.000208986039 8.145244507393068 
Si 13.57483167 2.7147284999999997 5.430301045297442 
Si 12.217304519999999 1.35803214 6.78744493046952 
Si 14.93309187 1.356681699 9.501801720998044 
Si 13.575662459999998 2.71751409 10.864743301656794 
Si 12.21533343 1.340769627 12.246285822001955 
Si 16.26204636 2.7256427999999997 13.729391543640444 
Si 14.839212599999998 1.326237318 15.133572684457379 
Si 13.50455661 4.0527402299999995 17.195688732735167 
Si 13.94068878 0.578179341 19.567774428996874 
Si 16.2957015 0.772857873 18.81604109098377 
Si 14.091224669999999 1.7487152099999999 17.385218159001887 
Si 12.6511398 3.25840725 24.84640361915189 
Si 15.923393549999998 0.7303719240000001 22.66236341519305 
Si 13.93125687 1.77865623 21.64642081143012 
Si 13.204250459999999 1.73727963 28.419647583920423 
Si 13.6813194 3.47472216 29.911622399249833 
Si 14.06493261 1.8216455399999998 26.23291559277134 
Si 15.53359014 0.420953148 34.0531095418967 
Si 12.67433676 4.05813222 33.39517463443585 
Si 15.68648808 3.45900231 31.072472880087403 
Si 13.57333299 5.439654539999999 2.6802263093599517 
Si 12.267673199999999 6.97464495 1.2042986868954384 
Si 14.93221221 6.78514338 4.068187706851073 
Si 12.21712533 6.78760317 6.787479440561703 
Si 14.932863809999999 4.072060169999999 6.787651991022616 
Si 13.57509231 5.43004344 8.14514097711652 
Si 12.2160339 4.073053859999999 9.501594660444947 
Si 14.93315703 6.78879234 9.502491922841694 
Si 14.93520957 4.06212327 12.234793961305156 
Si 12.199434389999999 6.806548439999999 12.21091297751481 
Si 15.25929912 5.67017433 16.47442780611928 
Si 13.51392336 5.455618739999999 13.531338124604627 
Si 14.61167388 7.12576728 14.76993984312955 
Si 15.551558009999999 7.48797543 18.01647676520561 
Si 14.18018436 4.105324349999999 21.329169533995678 
Si 12.670492320000001 4.4660826899999995 19.53050352943969 
Si 12.71574594 7.255451969999999 22.959598839161597 
Si 13.498317539999999 5.041021949999999 23.42393212947819 
Si 15.44182857 5.737761539999999 24.49522892110197 
Si 15.61044636 5.662583189999999 26.862862815472127 
Si 14.247576089999999 7.66698624 29.572836824293457 
Si 13.935101309999999 5.532784469999999 28.60824523769821 
Si 13.716131129999999 7.205229899999999 31.98454010638077 
Si 14.86899072 5.067949319999999 32.60503156382353 
Si 13.591642949999999 10.837671839999999 2.7057189144552227 
Si 12.233203559999998 12.197984579999998 1.4149655446239886 
Si 14.9315769 12.216685499999999 4.069292029800915 
Si 12.218070149999999 9.502168769999999 4.074054422522111 
Si 15.025179239999998 9.55257003 1.1719696325387992 
Si 13.573479599999999 8.14493484 5.430128494836529 
Si 14.93242398 9.50246199 6.787582970838251 
Si 13.57520634 10.860233489999999 8.145244507393068 
Si 13.572029789999998 8.1438597 10.86281073649457 
Si 14.939591579999998 9.523231739999998 12.23752025858758 
Si 12.220024949999999 12.19687686 12.25480981477105 
Si 12.92038092 8.92151172 15.180264839180406 
Si 13.74577893 10.82871234 13.885998341964985 
Si 12.64420026 9.825769619999999 17.356712822859077 
Si 14.066561609999999 8.52111981 21.387940220982607 
Si 13.45203765 8.300895299999999 19.07583306493422 
Si 14.25475998 10.84221675 21.65283968857608 
Si 14.175427679999999 11.74595337 23.80620042058461 
Si 13.908434579999998 10.01973465 25.25451996930306 
Si 16.0761123 9.19974492 25.33309944920279 
Si 15.4939077 12.14580771 30.029681424606434 
Si 13.5697329 10.98843579 27.29240993286868 
Si 12.71615319 9.28362213 28.667982207266256 
Si 13.35863079 11.65707513 31.116473247620192 
Si 16.15699215 11.282339969999999 34.40497444179027 
Si 13.46816475 8.43742179 34.10628959395005 
Si 12.21663663 14.932407689999998 4.076677189527987 
Si 14.82710913 14.82533352 1.341921483510343 
Si 16.3056384 13.58483373 2.7056498942708576 
Si 16.290325799999998 16.2896742 5.430715166403633 
Si 13.574799089999999 13.576558409999999 5.4311983076941885 
Si 12.21776064 12.21763032 6.787651991022616 
Si 14.932375109999999 14.93270091 6.787582970838251 
Si 12.21666921 14.933075579999999 9.502146821919867 
Si 14.93318961 12.21702759 9.502422902657328 
Si 13.57561359 13.576688729999999 10.863293877785125 
Si 14.920027289999998 14.947834319999998 12.230583730058882 
Si 12.6923535 13.964292989999999 15.293043820433072 
Si 14.75601957 12.65405571 15.158005829722644 
Si 13.44558681 16.138861379999998 13.787886149889914 
Si 15.87282939 13.437555839999998 19.2923838933799 
Si 13.69513332 14.48487252 19.889201427585412 
Si 14.76157446 15.26346936 23.733453146263734 
Si 15.88672476 13.26463749 24.22152938000194 
Si 13.07987631 14.71666293 22.18336333569886 
Si 13.46858829 15.896971169999999 25.63958357787627 
Si 15.988032269999998 16.15212144 29.866310648214107 
Si 13.59336969 15.9720192 29.53308119809913 
Si 13.587814799999999 14.52476673 27.636441041836804 
Si 15.102426419999999 12.679614719999998 27.82124258547451 
Si 14.1050223 12.9775914 34.50860824861455 
Si 12.98598075 13.504409999999998 32.50191540838198 
Si 15.17400468 14.59743642 32.87634990856296 
