&CONTROL
  dt          = 30.D0,
  prefix = 'x.33_y2.00_z3.16_struc14-scf',
  pseudo_dir = './',
  outdir='./',
  wf_collect= .true.,
  verbosity= 'high',
/

&SYSTEM
ibrav= 6, celldm(1) =30.783621515, celldm(3) =2.1114449815674807, nat=  432, ntyp= 1,
  ecutwfc     = 12.D0, nbnd= 1728,
  degauss     = 0.05D0,
  occupations = "smearing",
  smearing    = "methfessel-paxton",
/
&ELECTRONS
  electron_maxstep=200,
  conv_thr    = 1.D-8,
  mixing_beta = 0.3D0,
  scf_must_converge=.false.,
/
&IONS
/
ATOMIC_SPECIES
Si  28.08  Si.pbe-hgh.UPF
K_POINTS {automatic}
1 1 1 0 0 0
ATOMIC_POSITIONS (angstrom)
Si 1.4817840119999999 1.4317606799999998 1.2997004440362085 
Si 4.07142486 1.355880231 4.071800830071041 
Si -0.0001393242975 -3.9106751399999995e-05 5.431899664551784 
Si 0.000490858425 2.71480995 8.145011873130821 
Si 2.71494027 0.0001422534024 8.144771105059574 
Si 2.7140606099999998 2.71432125 5.430386265246795 
Si 1.357898562 1.357419636 6.787664673750058 
Si -0.001269145755 -0.00040404738599999996 10.862733070502324 
Si 2.71389771 2.71386513 10.8593967129436 
Si 1.358773335 1.3722142139999998 12.241199069275424 
Si 2.68110594 2.8064900699999997 16.6900770943598 
Si 0.0346818987 2.7110469599999996 13.820328057714475 
Si 2.71870326 0.0470199447 13.652925457319519 
Si 3.9977289 1.4853450059999997 15.103140341324563 
Si 3.56724936 2.01640878 20.462224862043158 
Si 1.69759719 0.8049605759999999 19.635564887132045 
Si 3.5720712 3.89085021 18.90500576808769 
Si 1.9760747399999998 0.36681659099999997 17.289245637380173 
Si 1.5046372529999998 0.7393591169999999 23.513685001603335 
Si 3.24118872 2.02053015 24.498048063181976 
Si 3.57837543 3.21673743 22.490592675992488 
Si 2.06219997 3.38186916 26.03373561248011 
Si 0.0717784641 3.3301972799999997 30.047064196676608 
Si 2.3602581 2.77192269 29.94807412395487 
Si -1.1967920909999998e-05 2.11633164 26.294693806274346 
Si 3.48478938 3.62462274 27.978832069216335 
Si 3.24052083 2.3084070299999997 34.18720876354337 
Si 2.4913925999999997 0.39676412699999997 30.16696669615818 
Si 3.26658483 3.79348488 32.02108721740136 
Si 1.360474011 4.07360772 4.072763902356034 
Si 2.71487511 5.407563239999999 2.705644958826471 
Si 1.2561137549999999 6.59999124 1.3314405549144634 
Si 3.05245278 7.393754069999999 0.015953258005462996 
Si 2.71498914 5.4297990899999995 8.14514945488582 
Si 1.3573740239999998 6.787554299999999 6.787630278311308 
Si 1.3583546819999999 4.07178324 9.502187095317835 
Si 1.360742796 6.77830158 12.238688202246694 
Si 1.32208011 4.20630606 15.290629877949364 
Si 2.7043354799999997 5.44563297 13.766739964142388 
Si 0.5709954509999999 5.33940588 20.770029643414528 
Si 2.53105875 5.98375683 19.695584927750332 
Si 2.08888299 7.843863059999999 18.243237526542803 
Si 1.63220913 5.353480439999999 24.78236075988728 
Si 1.4161792949999998 4.22886771 22.651666515657492 
Si 3.2145057 7.172877959999999 24.929366865103646 
Si 3.2674482 7.12853658 29.28056184413878 
Si 1.338441786 8.03606877 28.274323283515304 
Si 0.1484804178 4.90496787 34.03583443760579 
Si 1.9846106999999997 5.95821411 31.043328080062658 
Si 1.482416064 7.71627978 32.6109689919593 
Si 4.032068219999999 9.359435790000001 1.213677451723123 
Si 1.358157573 9.50229909 4.068739636022315 
Si 2.72080467 10.85819724 2.6819155456330295 
Si -0.00012154213349999999 8.14485339 8.144874291375823 
Si 2.7150543000000003 8.14438098 5.429870333665549 
Si -0.00247541211 10.85844159 5.429835938226799 
Si 2.7152171999999997 10.85984253 8.144805500498324 
Si 4.0728583800000004 9.510786179999998 12.225652330960544 
Si 1.357589052 9.50275521 9.502531049705333 
Si 2.71533123 8.14395744 10.862492302431075 
Si -0.000726871203 10.861992809999998 10.86469361051106 
Si 4.07210904 12.21746742 9.502462258827833 
Si 1.33353198 12.245974919999998 12.23033011063051 
Si 3.2527871999999998 8.53206669 16.25518116680816 
Si 1.417469463 9.52370415 14.918264858044742 
Si 2.7232318799999997 10.9532331 13.532128676430451 
Si 2.37320865 9.750672719999999 19.511431748684256 
Si 0.5158652039999999 10.9261917 18.624958105787353 
Si 4.04330832 11.282616899999999 18.902666878252706 
Si 3.6609331499999995 8.2614735 22.86471186327335 
Si 2.1286794600000003 11.517991109999999 23.033043140514547 
Si 1.99513404 9.543659400000001 21.79264043288288 
Si 2.50984917 10.93410864 25.29027820390461 
Si 0.5451546239999999 9.69717636 29.791850041153577 
Si 1.92845907 8.82080694 26.087942823949696 
Si 3.74252976 11.111881409999999 28.45861404433638 
Si 1.4322624119999998 11.53760427 28.616661085391407 
Si 0.012025049940000001 10.995847739999999 34.15628726410736 
Si 1.497101499 10.08284211 32.1582562271353 
Si 3.95156304 10.64631321 31.94754976935442 
Si 0.33767541 15.911371529999998 0.16322836994828888 
Si 2.72272689 16.289006309999998 2.710143882214936 
Si 4.02664365 14.95281906 1.2384834421494315 
Si -0.0072506464199999995 13.56282594 2.715836327328017 
Si 2.05170921 14.157313199999999 0.016062257150860904 
Si 1.3629061079999998 12.29837985 1.2803461306517332 
Si 1.3563086580000001 14.93636616 4.069909080939806 
Si -0.00022579080299999998 13.575434399999999 8.14525264120207 
Si 2.7137348099999996 13.574668769999999 5.4303174743692955 
Si 1.35698958 12.21771177 6.787389510240061 
Si 1.358638128 14.933727179999998 9.502118304440335 
Si 2.71220355 13.57681905 10.861873184533582 
Si 4.01256909 12.265017929999999 14.923802523683449 
Si 1.020241071 15.492734819999999 15.006454762999061 
Si 3.4827857099999995 13.60358352 19.339144995986835 
Si 3.81899502 14.6678418 21.468188259156637 
Si 0.9736972829999999 13.456256759999999 19.391254085692683 
Si 0.0944256366 14.127144119999999 21.58547670529323 
Si 1.77042978 15.709733909999999 21.60625155029807 
Si 0.48073907699999996 16.18725897 25.404436665114975 
Si 0.5367815639999999 13.28157909 29.832092704490766 
Si 1.1245654889999999 12.41032473 26.457865767703087 
Si 1.9117292399999999 14.69577915 26.56992610714972 
Si 1.200608838 15.268405229999999 28.740209501380455 
Si 1.7771249699999998 13.53583341 31.926843715227083 
Si 4.05733401 13.077791190000001 31.733162999627332 
Si 1.514349351 15.79962213 32.024733133908825 
Si 4.0962834 4.01571306 1.2583674452906528 
Si 5.4480276 2.71176372 2.6889838082960997 
Si 6.79923423 1.274827707 1.1583455094064257 
Si 5.42919636 0.0018132724799999997 5.430111101736798 
Si 5.42989683 2.7146470499999995 8.144839895937073 
Si 6.78757059 1.3575597299999997 6.787664673750058 
Si 4.0619603699999995 4.080759029999999 12.239410506460437 
Si 4.072923540000001 1.357895304 9.501499186542842 
Si 6.77945817 1.352076516 12.19521236766703 
Si 7.07298768 3.7676163599999994 14.95228194696823 
Si 8.13618711 0.164983491 13.632185007753428 
Si 5.38208568 0.13406230169999997 16.57406127945695 
Si 6.447858929999999 2.2219397099999996 17.068082966219382 
Si 5.45381055 2.69649999 13.554451316179028 
Si 5.212539359999999 0.23527647 20.83503702265153 
Si 7.127428859999999 0.9861933419999999 22.134978234758986 
Si 6.879381029999999 1.2397520789999998 24.578670971611356 
Si 7.61505372 3.45030345 25.063784239737608 
Si 4.917087629999999 0.9855026459999999 25.791901282630732 
Si 6.08721462 1.8913993199999999 29.929053446326268 
Si 7.40807298 3.8316849299999998 27.417842463208167 
Si 5.4944215199999995 2.42196462 27.686952375986092 
Si 5.61387609 3.5322421499999996 31.618729374906962 
Si 5.0242106699999995 0.33819669 34.12605367344634 
Si 6.788531699999999 4.0725814499999995 4.0734518111310285 
Si 4.073461109999999 6.787619459999999 4.069840290062307 
Si 6.6946198500000005 6.7260269699999995 1.261469913865879 
Si 5.43146067 8.14688964 2.698583575251151 
Si 4.07241855 4.07220678 6.7876990691888075 
Si 5.4295873199999996 5.42849589 5.430833405950541 
Si 6.78757059 6.787407689999999 6.78749269655631 
Si 6.78717963 4.0725814499999995 9.501567977420342 
Si 4.07344482 6.7875054299999995 9.502634236021583 
Si 5.43113487 5.42856105 10.862629884186076 
Si 6.79755636 6.78498048 12.229332642906767 
Si 4.43612538 6.7294152899999995 15.096089276380868 
Si 6.36681618 5.62172787 16.242351668154512 
Si 4.14310086 6.640944299999999 21.266321429134447 
Si 7.01312193 4.68495513 20.291761067599477 
Si 5.821280369999999 6.85390347 19.69444987827159 
Si 5.89357539 4.34478735 18.255998234318955 
Si 5.326162109999999 4.79191527 22.11241482693916 
Si 6.58192563 5.28972138 24.03704599761929 
Si 5.3264390399999995 6.4034360999999995 25.82326992277049 
Si 6.98827968 5.679215279999999 28.9992415506047 
Si 7.07477958 7.9738409699999995 26.310515708099224 
Si 4.725044819999999 5.68366245 28.078957191416812 
Si 7.817636159999999 7.893661589999999 28.513749932652203 
Si 4.9631883299999995 5.719940279999999 34.29765251736877 
Si 6.94838547 5.40401202 31.35918139410147 
Si 8.13178881 10.84977531 2.6887911938391014 
Si 6.78828735 9.503439389999999 4.071904016387291 
Si 6.77520648 12.081217859999999 1.094858408562166 
Si 4.0726629 9.502315379999999 6.787595882872559 
Si 5.42999457 8.14501629 8.14525264120207 
Si 5.43032037 10.85886513 5.4296983564718 
Si 8.145733049999999 8.14387599 10.861941975411082 
Si 6.78835251 9.50282037 9.50163676829784 
Si 5.432503229999999 10.857236129999999 10.863799329103568 
Si 6.800537429999999 12.21500763 12.255576362672814 
Si 7.2927072 9.01500003 15.004803781939074 
Si 6.7114962899999995 10.935004589999998 16.186287102992445 
Si 5.48420769 8.16759423 13.602536139551157 
Si 4.42625364 10.69365195 16.638002400092706 
Si 6.19565715 10.76650083 19.644954841910724 
Si 7.236620729999999 8.66458584 19.832513169413023 
Si 7.81273287 11.7639864 18.111881345957567 
Si 7.81110387 12.19787055 22.26495859779423 
Si 7.572308759999999 8.463974489999998 22.14722301095389 
Si 5.7010764599999995 9.442775430000001 23.184899002594623 
Si 5.69227986 11.38297959 21.867725675673547 
Si 6.27485913 9.97672905 25.4398639670272 
Si 8.111149379999999 11.407284269999998 25.723419964080012 
Si 4.28106087 9.239769449999999 29.80068966891226 
Si 6.60357504 9.299586329999999 29.919525909792593 
Si 6.98669955 11.614134689999998 29.534503368428066 
Si 4.57939593 11.35391823 26.229995985986097 
Si 5.419927349999999 10.504150379999999 33.984103697726184 
Si 7.564554719999999 9.30038454 32.233238283609715 
Si 7.957469519999999 11.8123677 31.63458567217059 
Si 4.07399868 12.216848399999998 4.068430077073567 
Si 5.43502818 13.562516429999999 2.67281451253985 
Si 6.788531699999999 14.93068095 4.066469537064832 
Si 4.072548869999999 14.93296155 6.78749269655631 
Si 5.429733929999999 13.575304079999999 8.145011873130821 
Si 6.787521719999999 12.21719049 6.787389510240061 
Si 6.78688641 14.93265204 9.503115772164078 
Si 4.07717523 14.92981758 12.247940575270373 
Si 5.42771397 16.2909774 10.859706271892348 
Si 5.5172601 13.643347409999999 13.725190274132709 
Si 6.88206888 15.172929539999998 15.137810943584295 
Si 7.69375071 14.061707189999998 18.742659297188943 
Si 5.46101073 15.10491879 18.88323345535911 
Si 7.502147729999999 13.181053499999999 24.360431912744293 
Si 4.1183400599999995 12.849747479999998 22.89050844233565 
Si 5.1795846899999995 13.32144072 24.992207331699408 
Si 4.92358734 12.73614102 29.58609652655267 
Si 4.25828745 15.050721959999999 26.318254681817915 
Si 7.68472605 14.71527828 27.86412328098597 
Si 5.351281289999999 14.706253619999998 28.378919812753242 
Si 4.8221658 16.22335761 30.1190538499798 
Si 7.751889719999999 14.23988721 32.03381352973876 
Si 5.508365759999999 15.11567019 32.19024398517255 
Si 12.190963589999999 1.2531571199999998 1.345453256661105 
Si 8.154741419999999 -0.00882300609 2.6790504055851767 
Si 9.50047461 1.3617381149999999 4.0686708451448155 
Si 10.85231655 2.7192896999999996 2.6887739961197266 
Si 8.144397269999999 0.000303586956 8.144908686814572 
Si 8.14377825 2.71492398 5.431486919286786 
Si 10.86046155 -0.000456154209 5.429182424890554 
Si 10.85943528 2.7156244499999995 8.144943082253322 
Si 12.217516289999999 1.362345732 12.258809533915288 
Si 9.50205474 1.357781274 9.502290281634085 
Si 8.1456516 2.7150380100000002 10.860462971544843 
Si 8.93043864 2.13614028 14.895873427418664 
Si 10.861667009999998 2.90527263 13.696057337511684 
Si 8.6851764 1.352110725 17.11482636748027 
Si 10.8897021 0.37507236299999996 21.446243969234306 
Si 8.400296879999999 2.8995385499999995 21.281764981133076 
Si 12.04375086 4.0632147 17.533728416013286 
Si 11.441476980000001 1.545694569 19.465238674443363 
Si 9.34962921 2.4600995099999996 19.08740477977753 
Si 11.79329211 3.97842525 22.3980001548782 
Si 10.964196269999999 1.98920448 23.15683232457484 
Si 9.86577786 2.88683235 25.00775407001429 
Si 9.98780625 1.234050579 26.690069374702542 
Si 11.285353619999999 3.96534438 28.22813020927441 
Si 9.27741564 2.72935692 28.31642330054498 
Si 8.19587367 2.6391754799999996 34.187415136175865 
Si 9.41232942 2.32109694 32.23839759942218 
Si 11.65479453 1.39600413 32.333432196687696 
Si 8.429081309999999 1.60368534 30.178179609190593 
Si 10.86531597 8.155344150000001 2.6846706202768833 
Si 12.2184774 4.072923540000001 4.066091187238586 
Si 12.170242709999998 6.844846229999999 1.1374330826465873 
Si 9.47032182 4.087926629999999 1.1579740386679285 
Si 8.13703419 5.41763046 2.6883853276618543 
Si 9.50264118 6.787358819999999 4.067707772859823 
Si 9.502185059999999 4.0725 6.78749269655631 
Si 8.145228059999999 5.43012489 8.14504626856957 
Si 10.859484149999998 5.4288542699999995 5.42966396103305 
Si 10.856323889999999 5.430434399999999 10.85936231750485 
Si 12.23502804 6.799283099999999 12.245945639822889 
Si 9.50355342 6.78797784 9.500914464084097 
Si 9.508668479999999 4.07341224 12.19528115854453 
Si 8.287537500000001 5.4353214 13.59950934094118 
Si 9.9991278 6.42474342 14.993074937325414 
Si 8.220145769999998 7.2509396399999995 16.32913136012009 
Si 11.792135519999999 4.68254421 15.140356206051775 
Si 9.693657720000001 4.46331339 17.85649521324079 
Si 9.16066521 5.8022373599999995 19.772183569845993 
Si 9.00389025 7.80776442 18.513241720728217 
Si 10.230624989999999 5.750190809999999 21.92963746542307 
Si 8.43618375 6.59425716 23.282100512501373 
Si 11.773907009999999 7.5595536899999995 22.14085985478519 
Si 9.173550599999999 7.8226209 25.160538608940612 
Si 11.597062769999999 5.8426854299999995 29.574539659132757 
Si 11.138662169999998 6.82366923 25.938150688194604 
Si 11.40617655 4.477404239999999 25.89918065609115 
Si 11.71239597 7.64802468 28.09357525288545 
Si 10.64981556 6.35466384 31.737840779297294 
Si 9.06238764 4.68627462 32.09802981388451 
Si 8.3644263 7.84912473 34.2415879522067 
Si 10.13422077 6.03635724 34.18793106775711 
Si 9.420930539999999 9.452533139999998 1.2451664758985048 
Si 10.258073640000001 11.280108239999999 -0.0007070807925537872 
Si 12.114319140000001 12.107477339999999 1.3234917690193997 
Si 9.5030973 12.220383329999999 4.069840290062307 
Si 12.21663663 9.50156604 4.071388084806045 
Si 8.14382712 8.14599369 5.430558242440544 
Si 9.50236425 9.50262489 6.78752709199506 
Si 10.85984253 8.14526064 8.144736709620824 
Si 8.14557015 10.85971221 8.145355827518319 
Si 10.860168329999999 10.86052671 5.430627033318043 
Si 9.51241518 9.495392129999999 12.239479297337938 
Si 10.859679629999999 10.8590769 10.862629884186076 
Si 12.04989219 9.90044298 15.028605425553888 
Si 10.99436535 8.21527506 13.722645011665229 
Si 8.28598995 10.82768607 13.839933457801822 
Si 10.268987939999999 11.48919039 15.279416964916951 
Si 10.141095149999998 11.29631679 17.72335046984057 
Si 10.93257738 9.597465269999999 21.34883608669506 
Si 10.92264048 9.25161228 18.997391916569477 
Si 9.80933301 10.13549139 24.772695641598606 
Si 9.041031449999998 10.2201831 22.557113454534473 
Si 11.62840473 11.667598469999998 24.40548993750644 
Si 10.436579459999999 11.321957249999999 28.730441196775526 
Si 9.95968971 8.948878919999999 28.99432300286349 
Si 10.20985524 11.88524916 30.993489089314295 
Si 9.84232026 8.52853176 31.363102474118936 
Si 11.08593144 10.26203211 32.37862780320484 
Si 9.606701699999999 14.957885249999999 1.158049708633178 
Si 10.85857191 13.57703082 2.697878468756781 
Si 8.144201789999999 13.57351218 5.431177360338038 
Si 9.50269005 14.9323914 6.787423905678811 
Si 10.86064074 13.574457 8.14514945488582 
Si 12.22712739 12.20932242 12.20694121228069 
Si 9.50383035 12.21811902 9.502255886195336 
Si 8.147117699999999 13.57129674 10.865759869112301 
Si 9.510525539999998 14.93258688 12.26111402831152 
Si 10.85930496 16.28778456 10.8658286599898 
Si 11.13387291 14.906066759999998 16.9363484358079 
Si 8.676037710000001 15.266238659999999 16.861022424945983 
Si 10.99430019 13.37852088 13.779328694724791 
Si 11.24961336 13.14528066 20.796582922129325 
Si 8.86522977 13.721962949999998 20.836000094936523 
Si 11.57468031 13.02085764 18.454081566078674 
Si 8.89420968 15.680786579999998 22.09793434722552 
Si 9.14118237 14.84292672 24.3143076293809 
Si 11.1330747 13.90136472 25.155929620148143 
Si 8.66566098 15.582671909999998 29.853142713005607 
Si 10.95592095 15.17410242 29.578323157395225 
Si 8.27582499 16.149857129999997 25.992151527031684 
Si 11.75354451 14.16475773 27.525740954566086 
Si 8.44496406 12.38126337 27.833752108569954 
Si 8.502027929999999 13.221566730000001 34.255346127706595 
Si 11.338735949999998 13.882093649999998 31.520702374470222 
Si 11.465651339999999 15.87620142 34.09612964173407 
Si 14.941448639999999 4.04638713 1.323202847333902 
Si 16.297167599999998 2.7119103300000003 2.704355129873356 
Si 13.593809519999999 -0.00910769013 2.7140030504426567 
Si 13.268742569999999 2.9620432799999996 0.13648935586424546 
Si 14.934997799999998 1.353492117 4.072316761652288 
Si 13.57551585 -0.000615082707 8.144736709620824 
Si 13.575304079999999 2.7152171999999997 5.4297671473493 
Si 12.21738597 1.35720135 6.787286323923811 
Si 14.933352509999999 1.357792677 9.502324677072835 
Si 13.574310389999999 2.71480995 10.866310196132297 
Si 15.515377919999999 0.769570551 15.11535072208072 
Si 12.293590589999999 0.5949596699999999 17.477182314708724 
Si 14.78364741 1.5663193379999998 21.13778567452669 
Si 12.93193053 3.0089747699999996 20.61236095218575 
Si 15.884525609999999 1.83871746 19.106012712141137 
Si 14.7369114 0.45900333 17.40622452456802 
Si 16.244909279999998 2.36633427 22.819722629388696 
Si 12.79753803 1.119323367 24.40191281187647 
Si 14.7160602 2.48344308 24.556485913617774 
Si 12.322130669999998 0.970437654 26.677790203068888 
Si 12.88714932 2.2912210799999997 28.525616359020862 
Si 15.227012339999998 2.1520719 28.38834416297067 
Si 15.61951989 2.86824546 32.37542902740112 
Si 13.27268475 3.30628356 32.23526761449595 
Si 15.80193531 0.488921544 32.410202815977094 
Si 12.374714789999999 0.6588311309999999 30.197372264012944 
Si 16.28307675 8.15003361 2.68699231239249 
Si 13.56608394 5.43916584 2.6846568621013835 
Si 14.929231139999999 6.78919959 4.071560061999793 
Si 16.2909774 5.430141180000001 5.429285611206803 
Si 14.93263575 4.07271177 6.787595882872559 
Si 13.57507602 5.430206339999999 8.144805500498324 
Si 12.21725565 6.78773349 6.787423905678811 
Si 13.575157469999999 8.14491855 5.4304894515630435 
Si 14.93358057 4.06725462 12.26376247709525 
Si 13.57147593 8.144250659999999 10.860394180667342 
Si 16.292280599999998 5.4286099199999995 10.86335218839982 
Si 12.2179887 4.07373804 9.502221490756586 
Si 14.932733489999999 6.7890204 9.502255886195336 
Si 13.62735063 5.54293314 13.77812485436855 
Si 16.1459964 5.350369049999999 16.79549911412774 
Si 16.28765424 8.08979319 13.654748415573254 
Si 14.95169505 6.9939485999999995 15.280758387028191 
Si 16.154320589999998 7.56896931 17.604479833521488 
Si 13.44796515 7.01315451 20.483206079680496 
Si 13.578252569999998 4.87795905 19.333710516664375 
Si 15.80828841 4.22370378 18.913432650581374 
Si 15.333174269999999 6.79639977 21.852763659817416 
Si 14.36815467 6.13315242 23.962889431674864 
Si 12.703772789999999 7.72779681 24.389736826559066 
Si 13.167679409999998 4.2260658300000005 24.311246435332173 
Si 15.966708659999998 6.33503439 25.60688821759591 
Si 15.66467577 5.56057521 29.98835118273081 
Si 15.63413202 6.809659829999999 27.954480098581524 
Si 13.479030179999999 5.325184709999999 30.88648487936387 
Si 15.42068415 6.72314364 32.67814328383753 
Si 13.814164349999999 8.0756046 34.006598314668516 
Si 14.97617892 9.49803111 1.1482607667650035 
Si 13.58646273 10.83833973 2.6902529999859652 
Si 14.932163339999999 9.50262489 6.787595882872559 
Si 13.57452216 10.860217200000001 8.144908686814572 
Si 12.218607719999998 9.503227619999999 9.501155232155345 
Si 14.93331993 9.49944834 12.240270392429181 
Si 14.232524129999998 8.9337618 16.597415782368017 
Si 13.58998137 10.933391879999999 13.628814254755953 
Si 15.96310857 10.564423380000001 16.3153043937427 
Si 14.678821259999998 10.77805044 19.5509521078077 
Si 13.34224305 8.84962395 18.90744784423892 
Si 12.30007401 11.34818415 22.11138296377667 
Si 16.09401501 8.9243136 22.54627889132831 
Si 14.70675861 10.83957777 21.906936475848248 
Si 16.19473608 8.60472009 24.92365722227119 
Si 14.07297987 9.19433664 25.74288778241236 
Si 14.470602479999998 9.99015201 29.884683330339108 
Si 13.4661285 11.414451869999999 25.823923436106735 
Si 13.92042402 8.49836268 28.01928110518602 
Si 12.62532015 12.06064359 27.943817512569108 
Si 13.414326299999999 9.84852675 32.23237839764097 
Si 14.318942579999998 11.965477409999998 33.07778388667069 
Si 12.216913559999998 14.931055619999999 4.073073461304781 
Si 14.93424846 12.2189661 4.071319293928545 
Si 14.85494874 14.81036301 1.324076491478145 
Si 13.5742941 13.575010859999999 5.4304894515630435 
Si 12.21746742 12.217793219999999 6.787630278311308 
Si 14.93257059 14.932179629999998 6.787664673750058 
Si 12.21872175 14.932538009999998 9.502049513562836 
Si 14.931153359999998 12.217304519999999 9.50153358198159 
Si 13.57470135 13.57561359 10.859499899259848 
Si 14.931462869999999 14.927211179999999 12.232393836955493 
Si 12.658633199999999 14.37797754 15.04415216386877 
Si 14.71143384 12.434580539999999 15.255649716740885 
Si 13.6313091 16.22718576 13.727357186773943 
Si 16.25675211 13.667586929999999 13.797627068139649 
Si 13.88797434 12.655033109999998 18.317669255997227 
Si 14.553095039999999 15.47001027 20.93079392413079 
Si 15.17491692 14.61872745 18.7677335720375 
Si 12.433456529999999 14.942230559999999 21.720616384140936 
Si 16.17354279 12.33161145 23.038787178785753 
Si 12.83270814 15.08994828 24.012900399616978 
Si 14.81831253 14.85540486 25.215777683572686 
Si 15.405453 12.630826169999999 25.263862506944815 
Si 14.46685578 12.34702179 29.47059664323106 
Si 13.701714479999998 15.39843201 27.184606993046224 
Si 15.315255269999998 16.128403199999997 28.728411865889292 
Si 13.16000682 13.73903487 34.37985761598063 
Si 14.34389886 15.770169809999999 30.80273198600827 
Si 13.68884538 13.51657863 31.334829423466655 
