&CONTROL
  dt          = 30.D0,
  prefix = 'x.33_y2.00_z3.19_struc5-scf',
  pseudo_dir = './',
  outdir='./',
  wf_collect= .true.,
  verbosity= 'high',
/

&SYSTEM
ibrav= 6, celldm(1) =30.783621515, celldm(3) =2.126766214129715, nat=  432, ntyp= 1,
  ecutwfc     = 12.D0, nbnd= 1728,
  degauss     = 0.05D0,
  occupations = "smearing",
  smearing    = "methfessel-paxton",
/
&ELECTRONS
  electron_maxstep=200,
  conv_thr    = 1.D-8,
  mixing_beta = 0.3D0,
  scf_must_converge=.false.,
/
&IONS
/
ATOMIC_SPECIES
Si  28.08  Si.pbe-hgh.UPF
K_POINTS {automatic}
1 1 1 0 0 0
ATOMIC_POSITIONS (angstrom)
Si 0.0008172269459999999 2.7339507 2.725277871834814 
Si 2.7182797199999995 -0.006533576909999999 2.7108239688115403 
Si 2.4814556999999997 2.9343339900000003 0.06799154784572219 
Si 1.353791853 1.396971756 1.418931899309944 
Si 1.354829526 4.070985029999999 4.071171136548244 
Si 4.07515527 1.357761726 4.072279777240345 
Si 0.001115273673 0.00281171916 5.429879594761935 
Si 4.93176492e-05 2.71484253 8.144732779588832 
Si 2.71500543 0.0001465687863 8.14476742461046 
Si 2.71549413 2.71581993 5.430052819870076 
Si 1.357699824 1.3575092309999999 6.78792979756469 
Si -0.001358753787 -0.000670214583 10.860971765280857 
Si 2.71578735 2.7115682399999996 10.8620111159297 
Si 1.366543665 1.3481343359999998 12.230974500545331 
Si 1.358265087 4.07316789 9.503371947759266 
Si 0.22299218099999998 2.87023284 13.582061054000825 
Si 2.87239941 0.09594467909999999 13.658903711972112 
Si 2.08976265 3.6834947999999996 15.235217551032356 
Si 3.88811349 1.7596132199999999 15.067119906092461 
Si 0.8721877769999999 1.7710813799999998 17.51666151529081 
Si 0.6199973999999999 3.81524832 20.979431427026707 
Si 3.77538669 1.8135331199999998 20.01640376082838 
Si 1.9276771499999998 3.12551343 19.067927003713883 
Si 1.413331803 3.6211366799999998 24.861406100463498 
Si 3.35497437 1.6329258899999999 22.35625923155193 
Si 1.1394626939999999 2.43538758 22.826115014873213 
Si 3.3433596 2.0505851999999996 27.849088830612256 
Si 3.0159306 3.96682677 29.380745236793786 
Si 3.57625773 0.246865176 29.39397963505575 
Si 1.565239311 1.75285287 26.341129619224393 
Si 1.470222999 0.6719478389999999 30.572256820629914 
Si 3.40763994 3.3173933399999997 31.712147322240064 
Si 3.37730796 1.3710038669999998 33.22260097518515 
Si 4.070496329999999 6.78851541 4.066909798887979 
Si 2.7176607 5.450177879999999 2.6842131276989405 
Si 1.3948328789999997 6.942651389999999 1.1629779440231642 
Si 0.00133178895 5.4307764899999995 5.43091894541078 
Si 2.7147773699999997 5.42968506 8.145287099934883 
Si 1.357051482 6.78766833 6.787479412283524 
Si 2.7147122099999996 8.14633578 5.430433915107986 
Si 4.08128031 4.09458924 12.242580582790769 
Si -0.000384030234 5.42957103 10.860798540172715 
Si 1.366717968 6.78602304 12.255780336031101 
Si 2.9207644200000002 5.53789953 13.846125408850758 
Si 2.65466727 5.02525323 17.765447415602722 
Si 1.617505776 5.926187969999999 21.37216739220368 
Si 1.7264630699999999 6.889757759999999 19.20855114650264 
Si 3.82624407 5.690569409999999 22.10345450873115 
Si 0.215599779 7.2892211399999995 22.74234335257629 
Si 3.54962358 4.62934107 24.258929174349568 
Si 3.8197117799999996 8.03186595 26.531226852898182 
Si 0.607035447 4.4531158500000005 29.670793357864852 
Si 0.196330338 5.54167881 31.972989690078577 
Si 3.1369978799999996 7.57336761 32.34324103621886 
Si 2.3308872299999996 5.15479131 32.79064684552509 
Si 4.05855576 9.64521126 1.2338166197462899 
Si 1.3559437619999999 9.50158233 4.073215192824306 
Si 2.70440064 10.873379519999999 2.7119533965166185 
Si -0.000411346935 8.14486968 8.144490264437435 
Si 0.0032107427099999997 10.86064074 5.431022880475665 
Si 2.7147610799999997 10.86020091 8.144698134567204 
Si 1.358427987 9.50441679 9.502367242132049 
Si 2.7120569399999996 8.13866319 10.864089817227391 
Si 4.07391723 12.21846111 9.502055436937395 
Si -0.00284983776 10.86072219 10.8609024752376 
Si 0.126009666 8.320329269999998 13.602432326718189 
Si 2.7824948999999997 11.00283615 13.619928062640415 
Si 1.7438770799999999 10.861829909999999 15.635090390664729 
Si 2.15757792 10.38075363 20.868705937903062 
Si 2.97530334 8.930015099999999 19.15661825908201 
Si 3.05878959 10.49035275 17.42606478373314 
Si 3.12049611 9.545272109999999 22.873717274590323 
Si 1.154508138 9.080208899999999 24.038205741556478 
Si 1.64520855 8.85092715 26.349479069436786 
Si 2.54469348 8.79427053 30.270325457140384 
Si 0.11379509819999999 8.8958061 29.807502613209625 
Si 1.92894777 11.164139729999999 27.05467848467825 
Si 0.09817461720000001 12.07348011 28.161413700590238 
Si 3.56224833 12.07848114 28.55013084325834 
Si 2.3901176699999995 8.69925096 34.46102191830583 
Si 0.693680328 10.56409758 34.330202316637845 
Si 3.11152032 11.09122569 30.665382638766445 
Si 1.088043309 11.886226559999999 31.889806993149335 
Si 3.21432651 13.264409429999999 0.09685327601350431 
Si 1.4207698169999998 12.24586089 1.2343362950707124 
Si 1.359429822 14.92998048 4.069404240445206 
Si 8.955101699999999e-06 13.574799089999999 8.145079229805113 
Si 2.7164389499999997 13.576167449999998 5.429879594761935 
Si 1.358247168 12.216604049999999 6.787652637391665 
Si 4.10037219 14.93775081 12.237972794914223 
Si 1.357642809 14.93441136 9.50233259711042 
Si 2.7130832099999997 13.574978279999998 10.8647134276167 
Si 1.3530343679999999 12.219617699999999 12.224634461587375 
Si 3.7572559199999995 12.69598617 15.008050144216426 
Si 0.184650408 13.67022591 13.709970473852039 
Si 2.1288097799999997 14.620731119999999 15.102734988326223 
Si 2.5271328599999996 15.18861681 17.653474705700464 
Si 0.15052872239999998 15.636819869999998 20.88699850932274 
Si 2.89227321 12.577883669999999 20.43013460911202 
Si 0.433081053 15.980669189999999 18.47944666633774 
Si 2.26380501 12.81573396 18.205958865604938 
Si 1.8531341099999998 14.219084879999999 21.771208751316973 
Si 3.14524062 15.72646374 23.068664811292052 
Si 0.873106533 13.09022046 23.60940430886458 
Si -0.001141744923 15.11558874 24.437662840929313 
Si 2.50364268 12.54947391 25.22046710461788 
Si 2.0073678299999997 16.04058381 25.16094695746068 
Si 3.34767645 14.507939159999998 26.24679122533088 
Si 2.9100618899999997 14.405817149999999 28.48274627619154 
Si 0.5699708099999999 14.2972443 28.821574587715073 
Si 1.3475755889999999 16.275827699999997 32.88966231733841 
Si 0.8652808169999999 14.483992859999999 31.25895579432193 
Si 5.431688729999999 2.70493821 2.6986878177351916 
Si 6.82972911 1.4368789979999999 1.1660682799523976 
Si 8.145847080000001 2.7166832999999997 5.430122109913332 
Si 5.42996199 2.7146796299999996 8.14497529474023 
Si 6.78704931 1.3576346639999999 6.78775657245655 
Si 8.144266949999999 2.71533123 10.866307098611594 
Si 4.0750901100000005 1.3588955099999998 9.501362536504832 
Si 5.430711329999999 -0.001579004361 10.857992293420832 
Si 6.7824392399999995 1.3443355080000001 12.23779956980608 
Si 7.23303693 3.7004526899999997 14.891850741675533 
Si 5.712577199999999 0.919762722 17.021237706007934 
Si 5.456400659999999 2.72951982 13.629628668696304 
Si 5.950215719999999 2.71816569 19.927643215417 
Si 6.46299234 3.17640339 17.605664575853584 
Si 7.46494137 1.65275082 21.474370206006785 
Si 7.199805329999999 3.0813838199999997 23.339415655316227 
Si 4.85305164 2.6934048899999996 23.96091269830402 
Si 5.0062428 1.65060054 26.137105086856085 
Si 6.959202029999999 2.76819228 26.775578190441685 
Si 8.124898139999999 2.69547372 28.78388080418362 
Si 6.8649480899999995 2.3509728 30.82038446553089 
Si 5.622868169999999 3.7975085099999997 32.38204346044242 
Si 5.86409049 0.23818749299999997 30.36604965189903 
Si 8.000361089999998 3.1815999 34.573271788381106 
Si 5.219104229999999 0.22555134 34.407079619630764 
Si 4.09672323 4.071050189999999 1.3165420023900414 
Si 6.78634884 4.0746177 4.0729380326512805 
Si 6.0290756100000005 4.64665734 -0.00085475504460596 
Si 6.944883119999999 6.659466029999999 0.9827891865350363 
Si 5.43872601 8.14384341 2.6611603303075544 
Si 8.157885389999999 5.432910479999999 2.6901408908995212 
Si 4.0728909600000005 4.07178324 6.7875140573051524 
Si 5.43087423 5.43035295 5.430087464891704 
Si 6.787896389999999 6.7870656 6.787029027002357 
Si 6.78778236 4.07463399 9.502055436937395 
Si 4.07491092 6.788596859999999 9.503579817889035 
Si 5.42670399 5.428170089999999 10.859239514199448 
Si 6.77463633 6.79288113 12.236621639070723 
Si 4.321166849999999 7.32989727 15.493530832292015 
Si 5.810643 7.14718863 17.462164896269694 
Si 5.56749846 4.9404800700000004 20.58856629301766 
Si 7.36000119 6.48607527 20.47053070433047 
Si 4.97742579 5.0440356 18.233709527929108 
Si 4.7390705099999995 7.819525799999999 22.59714606693262 
Si 8.01692802 5.44133241 23.446676642277048 
Si 6.298968329999999 6.980297579999999 24.159844412492994 
Si 4.77911133 6.03814914 25.65744476241403 
Si 4.86258129 5.56155261 29.17387981265197 
Si 6.17998617 5.0036363999999995 27.241103346059447 
Si 4.25068002 7.867450979999999 28.826286310656506 
Si 6.19321365 5.689901519999999 31.16402843506074 
Si 5.55093153 7.6002135299999996 32.602247217911085 
Si 6.786446579999999 9.5027715 4.066632638714953 
Si 4.07196243 12.21362298 4.070374301050796 
Si 4.07178324 9.50282037 6.78737547721864 
Si 5.4302877899999995 8.144266949999999 8.144871359675344 
Si 5.43004344 10.860738479999998 5.430780365324267 
Si 6.787863809999999 9.503667449999998 9.502505822218563 
Si 4.0701705299999995 9.51534738 12.239982206168657 
Si 5.42872395 10.862888759999999 10.860833185194343 
Si 6.77893689 12.20885001 12.242372712661 
Si 5.5772072999999995 8.35113366 13.671722369974535 
Si 7.615623869999999 9.227503079999998 15.025095494857487 
Si 7.263499229999999 12.2095179 17.332246065164043 
Si 4.84852302 10.501478819999999 15.816110628671934 
Si 5.5970159399999995 11.24591553 18.668954934643846 
Si 6.33747789 8.50056183 21.057001630452188 
Si 5.3199067499999995 8.94073392 19.017102756985356 
Si 5.062606199999999 9.920658869999999 25.84837347660689 
Si 4.09162446 11.21118525 24.16278923933139 
Si 7.05936924 8.842342319999998 25.35100954611284 
Si 7.90397316 8.36370954 27.546776371884818 
Si 5.62715244 11.2559013 27.70985048868863 
Si 6.211393289999999 9.28288908 29.02088739714195 
Si 6.667676189999999 9.507006899999999 31.525722460858866 
Si 4.936651919999999 11.54980548 34.54503609575414 
Si 5.18075757 11.30690529 32.10439825711424 
Si 4.1306390099999994 15.025505039999999 1.293319444392677 
Si 5.45239332 13.59299502 2.689136185272304 
Si 6.96791718 12.38758389 1.18026234531346 
Si 6.78537144 14.927080859999998 4.072210487197089 
Si 4.07284209 14.932016729999999 6.787652637391665 
Si 5.42997828 13.574880539999999 8.144836714653716 
Si 6.787521719999999 12.217581449999999 6.787306187175383 
Si 5.431216319999999 16.2911403 5.431126815540549 
Si 6.78696786 14.93560053 9.502263307067164 
Si 7.83408906 15.887979089999998 17.284886320598332 
Si 5.53006404 13.61852145 13.712153110214613 
Si 7.403120819999999 14.579093879999999 15.130624230736903 
Si 5.213826269999999 12.55757004 20.68903685573936 
Si 6.04842813 14.66758116 20.119680570301963 
Si 4.52409138 16.12187091 18.868822064416776 
Si 7.87235427 13.97219364 18.803135103409762 
Si 6.924064499999999 15.674661539999999 22.070957478443926 
Si 5.5884474 12.60073854 23.07614813596374 
Si 5.28506244 14.95026153 23.57482857727966 
Si 7.6308876 12.362383259999998 24.226536079127225 
Si 5.37938154 15.598456919999999 25.856861506905794 
Si 7.76484027 15.51549195 29.26139313728473 
Si 7.310202659999999 12.613656509999998 26.633360376658036 
Si 7.34951043 14.948323019999998 26.95413863191329 
Si 6.05258208 13.40249976 31.231135841954508 
Si 6.2872884 15.45196095 32.50569154263337 
Si 8.15001732 0.011769883379999999 2.678240325970244 
Si 9.4988619 1.3559111819999998 4.06916172529381 
Si 10.88408205 2.71300176 2.6885576134111138 
Si 8.14491855 -0.0001262269746 8.1449406497186 
Si 10.859614469999999 2.7150380100000002 8.1449406497186 
Si 12.209126939999999 1.375395651 12.237522409633055 
Si 9.50428647 1.357259994 9.502228662045537 
Si 9.51243147 4.090891409999999 12.238423180195388 
Si 8.20701603 0.0700004106 13.689945651350953 
Si 9.08939646 2.02926159 15.047822629045568 
Si 10.978091639999999 2.9302452 13.708272867792257 
Si 11.727024389999999 0.45266814899999996 17.04275226443903 
Si 8.81621316 3.1034404799999997 17.31807625131812 
Si 11.29454118 3.1620193199999997 21.02256447895378 
Si 9.727508339999998 1.419740289 20.728947920655013 
Si 9.65708667 1.138872996 18.32676605602238 
Si 12.15691749 3.2392013399999997 23.252837746267424 
Si 8.54138457 2.06808066 25.073191117676522 
Si 10.592442179999999 3.3507552599999997 25.136279702061422 
Si 9.540401399999999 0.8473178339999999 29.092810462042042 
Si 12.06601929 2.63898 26.910797709856443 
Si 11.458532609999999 0.411125391 27.69661609042667 
Si 10.514494529999999 1.7774018999999999 31.114797859327105 
Si 8.71337439 3.04767981 32.15317844756671 
Si 9.66296736 4.1871816 1.260950600685475 
Si 9.49746096 6.78616965 4.070131785899399 
Si 8.14688964 8.14633578 5.4302606899998445 
Si 9.50192442 4.07290725 6.787825862499806 
Si 8.145228059999999 5.43012489 8.145009939761858 
Si 10.86121089 5.43079278 5.431057525497293 
Si 10.85423877 5.43085794 10.860556025021317 
Si 9.50560596 6.78952539 9.501466471569717 
Si 9.126749429999998 7.3134280799999996 14.836384062048829 
Si 12.128165639999999 4.70279268 15.013246897460652 
Si 10.763812979999999 6.33158091 16.204793126318407 
Si 8.167252139999999 5.50413036 13.649688136219016 
Si 9.595314989999999 5.255333189999999 17.925264900373485 
Si 10.68348699 5.31923886 20.084550518370996 
Si 8.164906379999998 7.1055351 18.34817667938859 
Si 11.48246262 8.01784026 17.734232251115735 
Si 11.78980605 6.87042153 22.788005491082224 
Si 9.443313 6.61318614 21.828199811895317 
Si 11.09813265 7.247974859999999 25.01342845536792 
Si 9.50479146 5.51673882 25.32045263703679 
Si 8.32159989 6.03526581 27.32965602134106 
Si 9.42984117 4.6885552200000005 28.904826574687576 
Si 11.83455468 4.1860738799999995 28.70482086482813 
Si 10.0092276 7.05987423 31.363168019379476 
Si 8.57171655 5.285551139999999 31.014743036864942 
Si 8.86923711 7.7631624 34.43424131658725 
Si 11.84229243 5.46418728 32.1449329324192 
Si 10.766468249999999 5.92850115 34.411237022226146 
Si 9.59060718 9.57044016 1.2261808569794403 
Si 10.87396596 8.16441768 2.6961829826714747 
Si 8.141318459999999 10.85678001 2.6794910112510206 
Si 12.214893599999998 9.501484589999999 4.0692656603586945 
Si 9.502413119999998 9.50251086 6.787340832197011 
Si 10.85994027 8.14486968 8.145183164869998 
Si 8.145179189999999 10.860233489999999 8.145009939761858 
Si 10.861992809999998 10.861764749999999 5.431161460562176 
Si 12.219633989999998 9.50547564 9.501916856850881 
Si 8.146433519999999 8.14267053 10.863674076967852 
Si 9.52258014 9.5184099 12.235409063313737 
Si 10.85441796 10.86230232 10.859274159221075 
Si 12.09086154 10.17312129 15.133603702596925 
Si 8.837813699999998 10.57825359 16.753085238605873 
Si 11.0025918 8.393943779999999 13.75584048248774 
Si 8.24682879 10.98205011 13.620482382986467 
Si 10.781634239999999 11.90528586 16.376285983377866 
Si 12.04246395 10.53088227 20.973749643479685 
Si 9.75269268 10.436090759999999 20.383571700043756 
Si 9.52766262 9.12124341 18.413309320049557 
Si 8.51092227 9.06365826 21.84198853050333 
Si 8.43843177 10.11903849 23.93343919615288 
Si 11.968474769999998 11.18834667 24.635035529145014 
Si 10.38586869 9.50474259 25.027979364451756 
Si 11.513315879999999 8.42142501 30.242436214729707 
Si 9.7538004 9.763883909999999 27.264661960766606 
Si 9.407507579999999 12.04995735 27.500733138140976 
Si 11.85662763 9.398710979999999 28.149357233063633 
Si 10.58090886 11.42952012 34.539319667185495 
Si 10.675032479999999 10.50157656 31.00109289834344 
Si 9.011595419999999 9.12257919 32.33128850375715 
Si 12.215414879999999 14.93066466 4.07200261706732 
Si 9.503862929999999 12.2175 4.067083023996119 
Si 9.734822549999999 15.10698762 1.293225902834281 
Si 10.869176699999999 13.587456419999999 2.7074668662157704 
Si 11.560100760000001 16.05487014 0.10170184679036713 
Si 8.14635207 13.576688729999999 5.4303299800431 
Si 9.50272263 14.93183754 6.787548702326781 
Si 10.85984253 13.57509231 8.145113874826741 
Si 10.86244893 16.28993484 5.43015675493496 
Si 12.22007382 14.93463942 9.502505822218563 
Si 9.504824039999999 12.217662899999999 9.502020791915768 
Si 8.146628999999999 13.572518489999998 10.864748072638326 
Si 9.517122989999999 14.952998249999998 12.23305320184302 
Si 10.85378265 16.290488699999997 10.860625315064574 
Si 9.19099719 12.858169409999999 14.898849036044425 
Si 10.996841429999998 13.81476708 13.72053720544863 
Si 9.61300593 12.85028505 20.012696743514166 
Si 11.559563189999999 13.10941008 18.62086764462394 
Si 10.309370849999999 13.83397299 22.01060585076765 
Si 12.02726538 12.30963624 22.620462166488377 
Si 8.52678873 14.439293099999999 23.401984564376708 
Si 11.13436161 16.00969797 21.70223051325528 
Si 8.85486933 15.87144474 25.310648095916015 
Si 11.1019608 15.26482143 25.81476780562756 
Si 10.06666614 12.48674112 29.75581224094039 
Si 11.23386093 12.82083273 26.229295489408653 
Si 8.87629068 13.309402409999999 34.54829272778719 
Si 8.37978777 13.801963139999998 30.811238179821054 
Si 11.09948472 16.19968824 32.454070460407394 
Si 8.82554733 14.96267451 32.78122339964223 
Si 12.496922369999998 1.5202609919999999 1.2916218383328966 
Si 14.92867728 1.358665821 4.0750860239922275 
Si 12.21663663 4.07256516 4.070270365985912 
Si 13.574913119999998 9.498014819999999e-06 8.144663489545575 
Si 13.57590681 2.7152334899999997 5.431403975713574 
Si 12.21771177 1.357330041 6.787687282413294 
Si 14.935176989999999 1.359016056 9.50177827676437 
Si 13.574342969999998 2.71337643 10.863847302075994 
Si 15.143281739999999 2.46404169 16.641181818746876 
Si 13.59565029 0.044796359699999996 13.609499911130335 
Si 15.23999547 1.314286974 14.67081550368779 
Si 13.286922209999998 2.3043019499999997 20.014186479444177 
Si 13.12092711 2.2942836 17.69671169269242 
Si 13.75222977 1.503117396 23.830785997068606 
Si 15.84306756 0.6477653339999999 22.870876382816814 
Si 14.26200903 2.60133381 25.926844450594704 
Si 16.09453629 2.18066085 29.62211710247727 
Si 15.716445389999999 1.4217586199999999 27.365929358985756 
Si 16.02800793 0.475094592 34.62804556757525 
Si 14.36766597 2.31948423 34.54635260657602 
Si 12.35256039 3.2860188 30.836355820501478 
Si 14.34816684 1.9992065399999999 31.262558876571262 
Si 15.05531574 4.1593257 1.2860128093312952 
Si 13.57359363 5.41645758 2.7017608311536105 
Si 12.339642419999999 6.8811892199999996 1.3124608188422429 
Si 14.93501409 6.788466539999999 4.0678105694503115 
Si 14.93226108 4.0725814499999995 6.78775657245655 
Si 13.57505973 5.43004344 8.145009939761858 
Si 12.21707646 6.78778236 6.787583347348408 
Si 13.56979806 8.144266949999999 10.860590670042946 
Si 12.219063839999999 4.07497608 9.502263307067164 
Si 14.93389008 6.789509099999999 9.50364910793229 
Si 14.947475939999999 4.076262989999999 12.231771336042778 
Si 12.224781629999999 6.80765616 12.242476647725884 
Si 13.921205939999998 4.49512776 16.707492390143198 
Si 13.739474699999999 5.589864629999999 13.600422915463755 
Si 15.16590855 6.93519057 15.085654992663535 
Si 14.33873493 5.686790129999999 18.717561899988173 
Si 14.584437 4.246021079999999 20.646562059223218 
Si 12.40802784 6.859507229999999 19.497906367141145 
Si 15.785889659999999 7.550936279999999 18.770187687841368 
Si 13.439445479999998 5.16472821 22.697720564719205 
Si 14.94881172 6.309117 24.221270035839744 
Si 15.668455049999999 4.58902332 25.69406455027501 
Si 12.60613053 7.5738726 26.835271562707028 
Si 16.14146778 7.924742909999999 27.57272549308432 
Si 15.69521952 5.57878743 27.88577790851649 
Si 13.37014782 5.9847505199999995 28.457316830316465 
Si 15.876641249999999 5.887890179999999 34.52546165853423 
Si 15.4196253 7.64207883 31.569860218413158 
Si 13.317368219999999 6.95250684 30.686065716678463 
Si 14.088357629999999 7.66804509 34.50446677542756 
Si 16.2945612 8.15187438 2.6894133454453293 
Si 15.09711588 9.483875099999999 1.0512096397485153 
Si 13.586560469999998 10.86424083 2.657487958014968 
Si 14.932798649999999 9.5021199 6.787444767261896 
Si 13.57486425 10.85998914 8.144802069632087 
Si 13.576004549999999 8.14653126 5.4316464908649715 
Si 14.932440269999999 9.502804079999999 12.225569877171337 
Si 14.932407689999998 12.217728059999999 9.50254046724019 
Si 12.205657169999999 12.23796024 12.231563465913009 
Si 15.067647269999998 8.67336615 16.828161000474125 
Si 13.01689917 9.6700698 17.257863203728355 
Si 13.654115099999999 11.002331159999999 13.56733691980885 
Si 15.8588037 10.85860449 16.24934662413224 
Si 16.07715486 10.529090369999999 21.20230285116074 
Si 12.89298114 8.3414574 21.31957624937211 
Si 15.24252042 8.3592135 20.97593227984226 
Si 13.05882963 11.339859959999998 19.03217334139361 
Si 14.26070583 10.456909379999999 24.935615736791043 
Si 16.05682494 10.96947423 23.482430304597326 
Si 14.5451781 8.20669023 25.75244141171848 
Si 12.65581503 11.73850884 27.817423280844103 
Si 15.756339599999999 11.178800729999999 30.22306964763956 
Si 14.65503786 12.016530269999999 26.639838995702505 
Si 12.26337264 11.208595139999998 32.59133403609821 
Si 12.28935519 12.41570043 1.2025356297182122 
Si 14.930485469999999 12.214470059999998 4.06649405862844 
Si 15.02853498 15.089215229999999 1.3329983876634237 
Si 13.58326989 16.2989595 2.7253887359040245 
Si 16.2958644 13.57603713 2.685529638520811 
Si 13.57567875 13.578366599999999 5.43053785017287 
Si 12.216848399999998 12.218037569999998 6.787791217478177 
Si 14.93227737 14.93268462 6.788172312716087 
Si 13.57533666 13.573658789999998 10.861560730648534 
Si 14.94974025 14.932049309999998 12.241645167206809 
Si 12.427380359999999 15.122055869999999 15.289506299923705 
Si 14.81472873 12.57928461 15.038399183162705 
Si 15.00533802 14.46174072 17.203435874750497 
Si 14.56425369 14.29032105 21.22551501565162 
Si 13.17272931 16.137330119999998 20.492980678345525 
Si 15.02995221 12.22950573 19.956537163454897 
Si 12.89961117 15.098989229999999 18.401911107933884 
Si 16.20744228 12.54717702 17.92474522504906 
Si 13.572730259999998 14.011599149999999 23.38923519641754 
Si 12.25737792 15.93680022 23.817066568503847 
Si 14.553371969999999 14.19735402 25.702448645509026 
Si 12.3406524 13.25344626 29.56793228865081 
Si 15.029268029999999 15.47030349 27.71300318565679 
Si 13.029523919999999 15.473610359999999 29.00141689498692 
Si 13.36706901 14.22317367 34.52857971048077 
Si 13.90540464 12.4613613 31.19129406708211 
Si 13.448877389999998 16.09792461 31.24398914497856 
Si 14.78242566 14.374670669999999 32.30921962498 
