&CONTROL
  dt          = 30.D0,
  prefix = 'x.33_y2.00_z3.18_struc44-scf',
  pseudo_dir = './',
  outdir='./',
  wf_collect= .true.,
  verbosity= 'high',
/

&SYSTEM
ibrav= 6, celldm(1) =30.783621515, celldm(3) =2.1217994675793617, nat=  432, ntyp= 1,
  ecutwfc     = 12.D0, nbnd= 1728,
  degauss     = 0.05D0,
  occupations = "smearing",
  smearing    = "methfessel-paxton",
/
&ELECTRONS
  electron_maxstep=200,
  conv_thr    = 1.D-8,
  mixing_beta = 0.3D0,
  scf_must_converge=.false.,
/
&IONS
/
ATOMIC_SPECIES
Si  28.08  Si.pbe-hgh.UPF
K_POINTS {automatic}
1 1 1 0 0 0
ATOMIC_POSITIONS (angstrom)
Si 2.7251215199999996 0.00137790594 2.6872837701146524 
Si 1.375825707 1.411276005 1.2640441884768823 
Si 1.1064933629999999e-05 2.7146470499999995 8.144929613136416 
Si 2.7148914 0.000235558287 8.14489504902309 
Si 2.71482624 2.7147122099999996 5.43157758875064 
Si 1.3576330349999999 1.3578692399999999 6.787631446903644 
Si 0.00269747739 -0.0008051006699999999 10.859940714961882 
Si 2.71704168 2.7130343399999997 10.863604510974529 
Si 1.364427594 1.33395552 12.229128936179096 
Si 2.12167476 2.38749498 16.490607596475282 
Si 1.4223662369999999 4.0367434499999995 14.973243021425782 
Si 3.9968492399999995 1.244472921 15.0929039817634 
Si 3.62872782 3.49265745 17.90880773038999 
Si 0.954123219 1.565216505 20.90696804858916 
Si 2.8060339499999998 0.475379667 19.886842807859985 
Si 0.17632784699999998 3.47257188 19.787989443745143 
Si 1.9527963299999997 2.67602346 22.764858268134954 
Si 3.65852223 1.321702182 23.673825320404926 
Si 2.79524997 0.7693881029999999 25.77950566839104 
Si 0.33029766899999996 0.234154089 29.255238340427535 
Si 1.93787469 1.9270255499999998 29.364875707900364 
Si 2.1997038599999996 2.7788459399999996 27.16086045749931 
Si 0.01222033446 3.90443607 27.413074792445467 
Si 2.31577011 3.1392621899999997 34.50034253777973 
Si 3.6097662600000002 0.595907748 30.2718726057107 
Si 1.77442083 3.3527426399999998 31.32179211212764 
Si 3.3119036099999994 1.4332300379999998 32.929645535866875 
Si 4.07246742 6.784784999999999 4.07061562650522 
Si 1.359193617 4.07030085 4.070581062391893 
Si 2.7251540999999997 5.43203082 2.698002101657314 
Si 1.2616653869999999 6.647949 1.2717174216354468 
Si 0.000453295314 5.42981538 5.429123536704432 
Si 2.71448415 5.43005973 8.14520612604303 
Si 1.3577356619999998 6.78716334 6.787735139243625 
Si 4.076637659999999 4.07020311 12.224601037333276 
Si 1.3557108150000001 4.07280951 9.50233147170917 
Si -0.001258622415 5.42901717 10.856829944762465 
Si 1.358623467 6.781201199999999 12.21229621298891 
Si 2.7157547699999998 8.1430452 10.860804817795053 
Si 0.6245862929999999 6.951920399999999 17.1687209358351 
Si 2.72225448 5.4191454299999995 13.57350012402762 
Si 2.4053976899999996 8.04418119 16.085343367717755 
Si 0.25798798799999995 7.689417569999999 20.981695661601847 
Si 2.27227581 4.54942233 19.679561820238757 
Si 1.458274284 6.655409819999999 19.25998804856391 
Si 3.37944195 8.00738208 19.035183055485962 
Si 3.0073294799999997 4.66229574 21.940988062875736 
Si 2.5523986499999998 6.709590359999999 23.230678823441156 
Si 1.238699745 6.822936179999999 25.269270227459817 
Si 1.4868159929999998 6.656142869999999 29.30234922689206 
Si 3.7675512 4.6175634 27.019354977539113 
Si 2.58975162 6.6853997099999996 27.219446629588354 
Si 0.405119268 4.85852508 34.31908832749363 
Si 3.03793839 5.2259949 30.46684876898756 
Si 1.87647768 7.006296419999999 32.308148214136466 
Si 2.6140888799999997 7.94409543 34.42796528447327 
Si 3.9589586999999997 9.33998553 1.333642487071863 
Si -0.006172541639999999 8.13942882 2.684563574395828 
Si 1.3582276199999999 9.505882889999999 4.072447524511545 
Si 2.7069581699999996 10.84966128 2.694918982748557 
Si 1.3064465969999999 12.210299819999998 1.3209021548995799 
Si 0.00016666299 8.14452759 8.145240690156358 
Si 2.7161457299999996 8.14527693 5.429711126630989 
Si -0.001505801988 10.86039639 5.430333280670872 
Si 2.71544526 10.8598914 8.14520612604303 
Si 1.35772263 9.50282037 9.502400599935823 
Si 0.00112695849 10.858360139999998 10.862982356934646 
Si 1.3630624919999998 12.22637805 12.246894890429104 
Si 2.87907831 10.932267869999999 13.597729567469752 
Si 1.3155869159999998 9.57892725 14.75137597798062 
Si 3.9760794899999996 9.252785159999998 20.945956368421864 
Si 0.496858032 11.973573539999999 18.59853461182764 
Si 3.2578370999999997 9.98611209 17.44347107267037 
Si 2.8152215099999998 11.093017589999999 24.909561500067102 
Si 1.9709271 8.747192429999998 22.170632031819444 
Si 0.976062591 10.16124588 23.769222273187083 
Si 0.10638933839999999 8.95963032 25.61197341109571 
Si 4.00883868 10.290034619999998 28.543701503480637 
Si 2.3887655999999997 11.41730262 27.250934536829128 
Si 0.492091578 10.089667619999998 27.712918475556044 
Si 1.216788066 8.59699863 30.66614544643028 
Si 3.21944157 9.901599569999998 30.714431512747918 
Si 3.7256696099999997 12.13580565 33.55829762905594 
Si -9.326513699999999e-05 13.58100558 2.7151424454561073 
Si 2.5583770799999996 13.78370205 0.13394250632314483 
Si 1.356206031 14.93107191 4.071721678131681 
Si 0.000310687767 13.574847959999998 8.14520612604303 
Si 2.71404432 13.57554843 5.4304369730108535 
Si 1.356963516 12.21790725 6.787251241657049 
Si 4.0796676 14.926999409999999 12.25104258402833 
Si 1.358608806 14.934623129999999 9.502158651142533 
Si 2.7147610799999997 13.572795419999999 10.859975279075208 
Si 2.6246773799999996 16.156422 13.702216882056874 
Si 1.1274227549999998 14.947703999999998 15.227876844304818 
Si 3.4928366399999997 15.05650491 16.33302980381809 
Si 2.34139428 12.54054699 16.428392192486918 
Si 0.36291024899999996 14.377684319999998 17.93794527792454 
Si 2.55303396 12.966106949999999 20.11728175141021 
Si 2.5542068399999995 14.809076099999999 18.568671217913227 
Si 2.4042899699999998 13.96927773 22.363292399503404 
Si 0.38841387299999997 14.788599569999999 23.23375502952725 
Si 3.9068469899999996 12.86222562 23.823660751676897 
Si 3.6234498599999996 15.92095005 21.929028879664642 
Si 0.782534133 15.93697941 25.359689947922902 
Si 0.5264602199999999 14.975071199999999 27.476569068626922 
Si 2.104668 13.49823609 28.35442841890271 
Si 3.9484842299999996 14.92970355 28.862520884807665 
Si 3.24032535 12.20637393 31.310455082956423 
Si 1.132650216 15.387322229999999 31.204343255042943 
Si 1.192310712 13.07498931 30.48717246762376 
Si 6.788499119999999 4.075171559999999 4.071894498698314 
Si 8.14407147 -0.0206500185 2.7033111494643207 
Si 4.06694511 1.3602084839999997 4.069371318425453 
Si 5.42142603 2.7241604099999996 2.7037673957602353 
Si 6.65524692 1.221404652 1.373716120063034 
Si 5.42992941 -0.00019912244399999997 5.428639639117857 
Si 5.42968506 2.71454931 8.145067869589724 
Si 6.78773349 1.35751086 6.78745862633701 
Si 4.072516289999999 1.356188112 9.501398240649344 
Si 5.430304079999999 0.0037797524099999996 10.861115894814994 
Si 6.784784999999999 1.334800971 12.245616018236012 
Si 7.15394898 3.6296074799999998 14.940683626671873 
Si 5.413606829999999 2.69511534 13.633261475969773 
Si 5.83704909 0.299069739 16.917508960175425 
Si 6.2258751 2.67196725 20.35705300555869 
Si 4.6231671599999995 1.6518711599999998 18.92361009766683 
Si 7.55984691 3.53986587 18.606760870799434 
Si 7.97941215 1.494796464 21.464141555418266 
Si 6.8698025099999995 0.08365452569999998 22.915972571600022 
Si 5.93185689 1.82987199 24.313157724612 
Si 6.409658879999999 0.841862313 26.47175573010155 
Si 5.30982324 2.2369428 30.073993056914382 
Si 6.8603705999999995 1.0920441330000001 28.767953470745358 
Si 7.17204717 2.78630676 31.587624707724576 
Si 7.28138565 0.804859578 32.85104674216158 
Si 5.29649802 0.261019557 34.17443751322069 
Si 4.136764049999999 4.13816499 1.2229025243839116 
Si 6.94706598 6.856542449999999 1.1349472252010309 
Si 5.4516114 8.129866589999999 2.6937991054767667 
Si 8.13779982 5.418102869999999 2.6853170720663533 
Si 4.0721253299999995 4.07240226 6.787700575130298 
Si 5.42795832 5.428544759999999 5.430713485917469 
Si 6.78773349 6.78730995 6.787389498110356 
Si 6.787440269999999 4.07378691 9.502988189862378 
Si 4.07310273 6.7879941299999995 9.502158651142533 
Si 5.428447019999999 5.43080907 10.863016921047972 
Si 6.79196889 6.78936249 12.237769964510813 
Si 5.99626755 4.1682852 17.00813606531847 
Si 5.91010974 6.3542891699999995 16.30365030749025 
Si 4.0820459399999995 6.88263903 14.874804426670865 
Si 7.84961343 7.719602939999999 16.182295705599618 
Si 6.4065800699999995 6.16529259 20.58075194701018 
Si 5.3107029 6.718240349999999 18.56255336985437 
Si 5.40293688 4.39468362 21.762602673995772 
Si 5.82929505 8.0335764 21.930618828877677 
Si 4.699078559999999 7.286614739999999 23.909552573294167 
Si 6.52795686 4.12063695 23.853247632684695 
Si 5.35408317 5.496066809999999 25.40662801382079 
Si 4.880337389999999 4.37192649 29.113560039900708 
Si 6.30313857 6.952995539999999 27.04973683315343 
Si 7.01533737 5.533696709999999 28.831413182813485 
Si 5.66035146 5.53107402 34.17872346327322 
Si 7.570614599999999 4.955580899999999 32.70985233922132 
Si 4.21728552 6.96920409 32.89788111571948 
Si 6.79138245 9.500979599999999 4.072343832171564 
Si 4.0713597 12.2214096 4.068438087365628 
Si 6.62234112 11.993610239999999 1.2755989715620542 
Si 4.07220678 9.50283666 6.787596882790317 
Si 5.42997828 8.145244349999999 8.145275254269684 
Si 5.43118374 10.859663339999999 5.429987639537604 
Si 6.788710889999999 9.50387922 9.502815369295744 
Si 4.0889529 9.49552245 12.21108646902247 
Si 5.42676915 10.85782257 10.863086049274626 
Si 5.52472092 10.90960848 16.75246531903963 
Si 5.54050593 8.30255688 13.625000652884651 
Si 6.9131502 9.675445499999999 15.229950691104431 
Si 4.35358395 12.166968419999998 15.118204912718667 
Si 7.91472456 9.843183629999999 19.438580822123836 
Si 4.48080885 11.519375759999999 20.251874408705035 
Si 6.4308033 11.63713617 18.834814890530108 
Si 7.2108010799999995 11.30082912 23.02502234914629 
Si 7.750114109999999 9.40045401 21.773282985013775 
Si 6.43347486 10.290849119999999 25.056286161139656 
Si 4.33486674 9.2685213 25.136336647604686 
Si 7.70324778 8.452848419999999 25.924674944363883 
Si 7.67558736 10.20979008 29.668452315250242 
Si 6.597971279999999 12.10366548 26.566668785297125 
Si 4.33952568 8.30742759 27.292929934521272 
Si 5.95039491 11.598822089999999 28.79802424933973 
Si 5.24331117 10.548231119999999 34.35175141458752 
Si 7.194820589999999 8.422532729999999 31.1457570829539 
Si 5.10505794 9.09071595 32.15693021833142 
Si 4.199594579999999 15.027964829999998 1.2483347989698208 
Si 5.43432771 13.56898356 2.6911376687505983 
Si 6.793907399999999 14.9279931 4.073104242664755 
Si 4.07235339 14.93242398 6.787354933997029 
Si 5.42991312 13.574978279999998 8.14510243370305 
Si 6.78763575 12.21735339 6.787907959810259 
Si 4.073151599999999 12.21850998 9.502262343482515 
Si 6.7867723799999995 14.93245656 9.50329926688232 
Si 6.80177547 12.22957089 12.259165150660145 
Si 5.632544429999999 13.71821625 13.821151996014626 
Si 7.188907319999999 14.942637809999999 15.573656234026805 
Si 8.094517289999999 16.19002827 13.785309010494665 
Si 8.08414056 13.260222899999999 19.1960444389092 
Si 5.7015651599999995 14.923073519999999 21.443299395082168 
Si 6.77520648 15.19892838 19.32984212159751 
Si 5.46335649 12.57931719 22.09137651996094 
Si 7.466896169999999 14.62866435 24.323354138043427 
Si 5.44349898 13.874046389999998 25.363111795142263 
Si 5.55068718 13.624027469999998 29.969160101193996 
Si 7.41002778 15.204238919999998 29.558538434870805 
Si 4.56349689 15.68642292 26.696007697366266 
Si 8.646927479999999 1.8010061099999999 0.08026236447971952 
Si 9.50125653 1.3619466269999998 4.069025677292184 
Si 10.862888759999999 2.7128225699999997 2.7010783077434053 
Si 12.21593616 4.0716040499999995 4.0701662930319715 
Si 9.417509639999999 3.91714227 1.2361198413201058 
Si 8.14465791 0.00029159425799999995 8.144964177249742 
Si 8.14464162 2.71461447 5.430195024217565 
Si 10.85902803 -0.001084122306 5.4283631262112415 
Si 10.8597285 2.7152009099999996 8.144791356683108 
Si 9.50327649 1.3567110209999997 9.501709317669285 
Si 8.14926798 2.71047681 10.863535382747875 
Si 10.85806692 0.004924076039999999 10.86039004843513 
Si 9.51761169 4.08106854 12.20182328665087 
Si 12.06035037 0.226212714 16.789587176752686 
Si 10.67583069 2.16088479 17.08659660257046 
Si 8.97702804 1.9054901699999998 15.046484377565417 
Si 10.905650009999999 2.8603611 13.640761888561702 
Si 11.64510198 0.926778825 21.12710688636798 
Si 8.65303623 0.235058184 19.652601811843798 
Si 8.37231066 1.577851029 17.57467644685916 
Si 9.67507083 1.321465977 24.88944518611087 
Si 10.00471527 1.9609902 22.583569493735535 
Si 9.00610569 3.39358167 25.891424267343435 
Si 11.252431529999999 0.1202325804 28.06474658511023 
Si 10.772544420000001 1.3999593419999998 30.017135090491685 
Si 8.620391069999998 2.30850477 29.7643677297323 
Si 11.712705479999999 1.0868020109999998 25.952568183818666 
Si 8.618615460000001 3.94872858 28.093158286264913 
Si 10.618652789999999 0.231865344 34.36737439381127 
Si 12.037788719999998 3.28424319 30.83105083111277 
Si 10.861438949999998 8.13126753 2.723679781447844 
Si 12.079197899999999 6.738374789999999 1.2717347036921103 
Si 9.5058666 6.78726108 4.072412960398218 
Si 9.50264118 4.07276064 6.787389498110356 
Si 8.14529322 5.43058101 8.144825920796436 
Si 10.86000543 5.430646169999999 5.431231947617372 
Si 10.85678001 5.4305973 10.857452098802346 
Si 8.14514661 8.14374567 10.863051485161298 
Si 9.505231290000001 6.78809187 9.501674753555957 
Si 8.19103554 5.36747355 13.600321875969268 
Si 9.61181676 6.76315188 14.997748977774533 
Si 11.32759359 6.590950289999999 16.713649819773558 
Si 11.997715320000001 4.39131159 17.107749839926505 
Si 11.1552291 7.40069361 20.941186520782757 
Si 10.65584286 5.1590104199999995 20.680331157504888 
Si 8.503624349999999 5.49192915 19.549531625903082 
Si 10.92914019 7.95531924 18.648445191471637 
Si 8.55365094 7.553379779999999 18.386172699547362 
Si 10.591790579999998 4.206582989999999 22.851303115565454 
Si 8.76975408 4.97591082 24.17873788788381 
Si 9.3299346 7.27084602 24.652888394501783 
Si 10.9691973 6.927583139999999 26.387039088337392 
Si 10.55404665 6.9450460199999995 30.168249393956753 
Si 11.943795419999999 5.20186941 29.362732732874097 
Si 10.86795495 4.70810322 27.29828737208694 
Si 8.27800785 6.3688198499999995 30.705894176756182 
Si 8.8531263 7.56932769 34.28511180409332 
Si 12.068853749999999 4.306733909999999 33.05545890837667 
Si 10.509607529999998 5.54925366 34.484443045649364 
Si 9.522840780000001 9.33004863 1.256996565769534 
Si 8.14622175 10.83907278 2.6856799952562858 
Si 11.33782371 10.224304469999998 0.022955306532565996 
Si 12.21727194 12.129208199999999 1.2226087294206331 
Si 8.14260537 8.14283343 5.4304715371241805 
Si 9.50252715 9.50200587 6.78690560052378 
Si 10.85984253 8.14498371 8.144549407889821 
Si 8.14508145 10.86024978 8.144722228456454 
Si 10.85984253 10.85748048 5.430160460104238 
Si 9.49578309 9.51723702 12.237700836284159 
Si 10.858213529999999 10.860412679999998 10.860044407301862 
Si 11.263443569999998 11.104404299999999 16.590083114630005 
Si 10.864501469999999 8.20701603 13.61376731605342 
Si 8.27900154 10.96947423 13.782336496748554 
Si 9.75492441 12.21007176 15.16199764430381 
Si 11.066464889999999 11.410819199999999 20.87399388447533 
Si 10.28055384 10.19218059 18.979431140689723 
Si 9.792733499999999 8.46389304 22.604688166978253 
Si 11.165573249999998 10.34473644 23.01116213970222 
Si 10.28294847 11.843709659999998 24.587009194500773 
Si 8.94177648 11.62868166 26.55979052674508 
Si 11.16431892 12.109676489999998 29.64145774274196 
Si 8.75273103 9.57226464 27.68094667072869 
Si 10.636571789999998 8.38138419 28.25764890158748 
Si 12.205021859999999 10.09044954 28.776871011983687 
Si 9.30903453 11.417840189999998 30.944974148638124 
Si 11.879547659999998 8.181847979999999 31.79538959293238 
Si 10.222545149999998 9.743928659999998 32.51881648486373 
Si 8.28238986 13.154174999999999 0.1334150579537768 
Si 9.50291811 12.21732081 4.064601470786346 
Si 9.52363899 14.864820479999999 1.2766428077845255 
Si 10.873249199999998 13.5628911 2.695209321300503 
Si 8.14338729 13.576004549999999 5.430851742370776 
Si 9.50251086 14.932016729999999 6.787666011016971 
Si 10.859907689999998 13.574457 8.144791356683108 
Si 9.503374229999999 12.21790725 9.50174388178261 
Si 8.1448371 13.57199721 10.861185023041648 
Si 9.49622292 14.940520109999998 12.239325349610521 
Si 10.90931526 13.62728547 13.609515930114215 
Si 8.93890944 13.688487 16.879108230269274 
Si 9.62792757 13.297755059999998 21.040143577237583 
Si 10.592947169999999 15.319963079999999 20.23030640198907 
Si 11.02015242 14.7523869 18.001923451692576 
Si 8.8055595 13.02455547 23.246716572024823 
Si 8.371268099999998 15.95203137 25.962833725476745 
Si 11.96865396 12.736613429999998 25.9249514572705 
Si 10.386503999999999 13.08987837 27.667432102417887 
Si 9.26138628 15.09309225 27.965443887522138 
Si 8.351768969999998 15.30930942 31.718311620213463 
Si 8.22493503 13.04996787 32.39604475432669 
Si 10.77994008 15.85593666 31.754431118640042 
Si 16.284754619999998 2.7063065699999997 2.704247836935479 
Si 13.581135899999998 -0.010029101399999999 2.705364257795937 
Si 12.23315469 1.341077508 1.3129385831890694 
Si 14.93470458 1.3574961989999998 4.071652549905027 
Si 16.290325799999998 3.4375158e-05 5.430091331877584 
Si 13.57514118 0.000331079589 8.144687664343127 
Si 13.574587320000001 2.71461447 5.431335639957352 
Si 12.21802128 1.357574391 6.787804267470278 
Si 14.93165835 1.3567957290000001 9.502677112842436 
Si 13.576770179999999 2.71435383 10.859975279075208 
Si 12.200265179999999 1.36036161 12.235039399557989 
Si 14.94275184 4.066472699999999 12.201788722537543 
Si 16.281855 2.6951805 13.557462375443952 
Si 13.6117611 0.01536459768 13.60813336558114 
Si 14.53691907 1.7838038699999998 14.8416574419904 
Si 12.8635614 3.56483844 15.019731753850422 
Si 15.860220929999999 2.85288399 17.547509053784243 
Si 12.36070539 2.14088067 19.173750585813373 
Si 14.097023909999999 0.977720913 17.968119748858896 
Si 14.230259819999999 2.93420367 22.637627766978756 
Si 16.213437 3.00711771 23.959635973504795 
Si 13.43478654 0.102509712 24.673834247177865 
Si 13.601579849999998 0.617495256 22.37663414724758 
Si 15.380789939999998 1.2618348029999997 25.37804349209947 
Si 14.405295869999998 0.961748568 29.190810833186255 
Si 12.50801586 3.2495617799999996 26.258667971441408 
Si 14.533481879999998 2.3928869699999997 27.27761803231747 
Si 16.18561368 0.192928986 34.373077472510204 
Si 13.4183988 2.85187401 34.464948885733016 
Si 14.15757384 2.23788762 31.150665187046314 
Si 14.310390329999999 0.994686948 33.185869307958946 
Si 15.74373114 4.05938655 31.335306680438443 
Si 14.96596509 4.077582479999999 1.2850937334929446 
Si 13.574049749999999 5.43820473 2.687726190765236 
Si 14.92955694 6.791529059999999 4.07006260069199 
Si 14.93257059 4.07220678 6.787804267470278 
Si 13.575108599999998 5.43004344 8.144791356683108 
Si 12.21699501 6.78778236 6.787804267470278 
Si 13.577617259999998 8.14475565 10.858592714542134 
Si 12.217809509999999 4.0733144999999995 9.502919061635724 
Si 14.93261946 6.786918989999999 9.501882138235919 
Si 12.207090690000001 6.78928104 12.228817859159152 
Si 16.26004269 8.115205589999999 13.514913951938578 
Si 16.030174499999998 4.98364857 16.325598519452814 
Si 13.399323209999999 7.661317319999999 16.189277656491647 
Si 13.528307429999998 5.32586889 13.540767908707075 
Si 14.99375583 6.56889363 14.882615916282736 
Si 13.347048599999999 8.0501922 21.527532139259744 
Si 14.55775398 4.47039954 20.87471973085519 
Si 12.60621198 4.45880106 19.45306318560779 
Si 14.88383091 6.427577879999999 22.21439019929126 
Si 12.69970029 4.07829924 24.025100404145885 
Si 14.164480799999998 5.84589456 24.472083517688937 
Si 16.120665449999997 4.928197409999999 25.322810039003134 
Si 15.79436046 5.39625798 29.206502940636657 
Si 13.29979131 7.11094338 26.27868059305766 
Si 13.787856 6.626951189999999 28.677602878508925 
Si 13.580044469999999 10.85788773 2.6993915790130543 
Si 15.59609487 11.460764339999999 0.3011035450413425 
Si 12.217679189999998 9.50334165 4.0728622938714665 
Si 14.851902509999999 9.45220734 1.2171614251603187 
Si 13.573903139999999 8.14482081 5.431439332297333 
Si 14.93175609 9.503309069999998 6.787424062223683 
Si 13.57489683 10.86007059 8.145033305476396 
Si 12.21670179 9.50192442 9.502469728162474 
Si 14.919391979999999 9.5016312 12.20655857017665 
Si 12.21401394 12.224960819999998 12.215648931981617 
Si 16.06203774 10.38599901 16.35397565649417 
Si 12.24506268 9.462698099999999 15.06321340841562 
Si 13.51610622 10.800921599999999 13.553452938298035 
Si 14.773547609999998 11.965526279999999 15.139600098867998 
Si 15.179282639999998 11.197517940000001 20.359023160018324 
Si 14.83487946 8.92815804 19.90253491531038 
Si 15.094884149999999 8.513023679999998 17.5828335776043 
Si 13.44530988 9.68771187 23.240391339286006 
Si 15.34084686 11.10704328 22.73257538628766 
Si 14.031391499999998 9.15923169 25.467288032709444 
Si 13.548621059999999 8.66049705 30.122935841385228 
Si 13.20514641 10.90608984 26.833745688973835 
Si 15.0806304 11.77793064 27.923206541036706 
Si 15.34907331 11.97088569 30.29976584516548 
Si 15.4598616 9.73793394 31.056305157663967 
Si 12.995640719999999 8.47591506 34.421985692867715 
Si 12.21903126 14.92981758 4.07006260069199 
Si 14.92988274 12.220024949999999 4.075281781804348 
Si 14.98596921 14.96581848 1.2870431494845802 
Si 13.575923099999999 13.57486425 5.430748050030796 
Si 12.217532579999999 12.2173371 6.787424062223683 
Si 14.93276607 14.9323914 6.787527754563664 
Si 12.216343409999999 14.93131626 9.502435164049148 
Si 14.93281494 12.21837966 9.502538856389128 
Si 13.57514118 13.575238919999999 10.86128871538163 
Si 14.941741859999999 14.928335189999999 12.237493451604196 
Si 12.98334177 12.86818776 16.40409362081813 
Si 12.419479710000001 14.841623519999999 15.046380685225435 
Si 16.20336978 13.514184 13.771172288143976 
Si 13.33864296 13.751203499999999 18.565836960620423 
Si 15.676648919999998 16.140131999999998 21.507554081756815 
Si 13.14405891 12.43085013 20.469248117417706 
Si 14.96923938 15.44288742 19.261577997776943 
Si 13.15981134 14.18990949 22.069566564451687 
Si 14.87573478 13.3100703 23.412105854293884 
Si 13.715479529999998 14.1240816 25.253750940576055 
Si 14.706514259999999 14.036490269999998 27.383522475550993 
Si 13.181542199999999 15.246706949999998 28.78502814272883 
Si 14.0230836 13.179033539999999 34.524675673561845 
Si 14.127779429999999 13.30691004 31.995930578454868 
Si 15.46119738 15.245745839999998 32.410699938377284 
Si 12.23717832 14.0467041 30.616096610332978 
