&CONTROL
  dt          = 30.D0,
  prefix = 'x.33_y.66_z3.19_struc38-scf',
  pseudo_dir = './',
  outdir='./',
  wf_collect= .true.,
  verbosity= 'high',
/

&SYSTEM
ibrav= 6, celldm(1) =30.783621515, celldm(3) =2.1298470991719882, nat=  432, ntyp= 1,
  ecutwfc     = 12.D0, nbnd= 1728,
  degauss     = 0.05D0,
  occupations = "smearing",
  smearing    = "methfessel-paxton",
/
&ELECTRONS
  electron_maxstep=200,
  conv_thr    = 1.D-8,
  mixing_beta = 0.3D0,
  scf_must_converge=.false.,
/
ATOMIC_SPECIES
Si  28.08  Si.pbe-hgh.UPF
K_POINTS {automatic}
1 1 1 0 0 0
ATOMIC_POSITIONS (angstrom)
Si 2.0439062999999997 3.13937622 0.17772273983920905 
Si 1.249522821 1.200299328 1.2085104674815121 
Si -0.00269589726 -0.0009813047129999999 5.429800246922579 
Si -0.00057138804 2.71539639 8.14515140810406 
Si 2.7146307599999995 0.000228626892 8.145290188941042 
Si 2.71319724 2.7142886699999997 5.43087579840919 
Si 1.3574831669999998 1.35767376 6.787527870327187 
Si 0.0020182332599999997 0.001024479729 10.86112708305196 
Si 2.71845891 2.71433754 10.863937395000846 
Si 1.368537561 1.325132856 12.223538559704712 
Si 3.6135944099999997 1.9116803699999998 14.977852440868904 
Si 1.4380714259999998 3.59929179 15.013761982438007 
Si 0.0228134934 3.57423777 17.03864378442456 
Si 2.20441167 3.2870939399999997 20.511842401155754 
Si 2.8059850799999997 1.159090515 19.660213795015423 
Si 0.679371192 0.0847593135 19.49496051337905 
Si 0.7898401979999999 2.2105529999999995 22.193796754959667 
Si 1.96964019 0.492746436 23.309455903458343 
Si 3.7380011399999997 0.513462429 21.778252233826173 
Si 2.6080452899999997 1.4963847389999998 25.354773183690504 
Si 0.60085665 2.7510226199999996 25.707658156926602 
Si 2.2670793 0.30491459099999996 27.39616990527792 
Si 3.5760948299999997 3.70198395 28.711638763821494 
Si 1.8731870999999998 2.0819271599999998 28.97324064153265 
Si 2.27641347 3.0371564699999998 32.54476548126563 
Si 2.67004503 1.230118173 31.031742101278105 
Si 3.9296204099999996 4.12386237 1.2740878824764537 
Si 1.3609154700000001 4.07339595 4.069713349289275 
Si 2.69260668 5.43872601 2.7227238931461524 
Si 1.1821262039999998 6.566547869999999 1.263325428568496 
Si -7.20589779e-05 5.429522159999999 5.4303900654797514 
Si 2.7164878199999998 5.430255209999999 8.14483915122085 
Si 1.3580940419999998 6.787407689999999 6.787493175117942 
Si 1.3585811129999998 4.0718483999999995 9.50426683987849 
Si -0.00459127134 5.4336924 10.866990573414451 
Si 1.3654717829999998 6.794216909999999 12.247998682222798 
Si 2.7255450599999995 8.136431459999999 10.85408395557512 
Si 2.6075077199999996 5.36819031 13.821669287971472 
Si 0.12613167809999998 7.660453949999999 15.885964847660926 
Si 1.8770478299999998 6.77255121 17.703057041476107 
Si 3.3137117999999997 7.92428679 21.309658737756294 
Si 1.071346059 4.6188340199999995 18.897474314962096 
Si 3.4915985999999997 6.064490069999999 22.72314156241844 
Si 1.4725394369999998 6.11502165 24.002215146463474 
Si 1.365056388 4.937938829999999 26.099679326191637 
Si 3.17957994 5.350059539999999 30.336103155905597 
Si 1.295048484 6.63804468 29.67446551559369 
Si 3.51567522 5.2751255399999994 26.937811495935463 
Si 3.56817789 7.61902848 27.58314238790198 
Si 0.1441627533 5.2597152 28.11554037377436 
Si 0.240868827 4.71760029 34.687992641988615 
Si 2.91670821 7.697888369999999 34.64115410950718 
Si -0.001185789825 6.3983862 31.596822974259755 
Si 0.1353835836 4.13924013 32.36199111896027 
Si 3.8932774199999995 9.285821279999999 1.4192838636479954 
Si -0.01608723837 8.140275899999999 2.6821547849753755 
Si 4.07344482 12.2217354 4.0738420791894905 
Si 1.359292986 9.50484033 4.0702337774279576 
Si 2.7038304899999996 10.85259348 2.7041827733253507 
Si 1.308650634 12.085583579999998 1.2090759993922138 
Si -0.00041034835800000003 8.1454887 8.145116712894813 
Si 2.7146633399999995 8.14462533 5.430355370270506 
Si -0.0025244450099999997 10.859402699999999 5.431014579246172 
Si 2.7146633399999995 10.860168329999999 8.144873846430094 
Si 4.07456883 9.47421513 12.221630323196209 
Si 1.356259788 9.50055606 9.504752572807927 
Si -0.00794790729 10.869404759999998 10.859635189054401 
Si 1.3505778359999998 12.203474309999999 12.236202311079325 
Si 0.494976537 8.57618001 13.608814179250258 
Si 3.8776390199999997 11.45996613 14.938369292747511 
Si 2.33030079 10.378147229999998 13.504034647328812 
Si 3.53602143 11.61007848 17.390730767848012 
Si 2.95873641 11.37613779 21.306258607250236 
Si 1.817964 8.325265139999999 19.491699163709974 
Si 2.0672010000000003 10.67884434 19.225239956704442 
Si 0.1051034058 12.039482879999998 19.22180513098914 
Si 2.7391472099999996 9.60692976 22.86004885810123 
Si 0.9438165359999999 8.4517407 23.913499496422702 
Si 0.1180578654 9.405569069999999 25.955937074287483 
Si 0.5458827869999999 9.7269219 29.733482066520303 
Si 3.34362024 11.40371676 27.72390085181102 
Si 1.82754252 9.463919849999998 27.716198515358517 
Si 1.0906155 8.448254639999998 33.28536941782032 
Si 0.07845720119999999 10.572747569999999 34.377539909659774 
Si 2.0672498699999995 9.775889639999999 31.631934526016213 
Si 3.2306653799999996 11.57099877 33.062591479254884 
Si 2.71990872 16.287181829999998 2.6804998234943644 
Si 4.05495567 14.889271769999999 1.188560722165343 
Si -0.01295144595 13.559649389999999 2.6763849716778467 
Si 1.356957 14.93289639 4.063641687671311 
Si -0.000716463522 13.575222629999999 8.144353418291413 
Si 2.7130832099999997 13.5708732 5.430598236735225 
Si 1.35742941 12.21740226 6.787527870327187 
Si 1.3531451399999999 14.92967097 9.501421832720355 
Si 2.71278999 13.579979309999999 10.861265863888942 
Si 2.73685032 16.28542251 13.764075240623923 
Si 1.178952912 14.831279369999999 15.35117289235061 
Si 2.79713961 13.925604239999998 17.474207441292716 
Si 2.28853323 13.63598433 21.65251679552044 
Si 1.411012107 14.09979321 19.45818359157881 
Si 0.850548141 14.63935059 23.286383589310077 
Si 1.086134121 13.29917229 25.296519927367285 
Si 3.3952921199999997 12.371554530000001 25.497682750572764 
Si 1.108112589 13.975989209999998 29.35658800848631 
Si 3.28842972 13.359445289999998 29.08766544162435 
Si 0.642505293 14.84203077 27.219848851892227 
Si 2.5523986499999998 13.4969166 34.44304446471531 
Si 1.187516565 15.673635269999998 31.036530040153988 
Si 0.857345958 14.475131099999999 33.053640115269545 
Si 4.07241855 1.359882684 4.067388770269826 
Si 5.42771397 2.7110958299999997 2.6716768317832305 
Si 6.786951569999999 1.188161649 1.177968274782688 
Si 5.428267829999999 -0.0030091865399999996 5.4301125038057885 
Si 5.429701349999999 2.7152660699999998 8.145359579359532 
Si 6.787928969999999 1.356974919 6.7876666511641695 
Si 4.0681017 4.08740535 12.250878384590177 
Si 8.14236102 2.72126079 10.864284347093301 
Si 4.06889991 1.3539938489999999 9.50225451774225 
Si 5.429424419999999 0.004598895059999999 10.860190312402331 
Si 6.77817126 1.336744368 12.224475330354341 
Si 7.131240719999999 3.1087836 15.601186570173766 
Si 5.5061829 2.74608675 13.644168597471433 
Si 4.17750534 1.322563923 17.373036211132803 
Si 6.1411671 2.58735699 17.896413442601347 
Si 7.1108619299999996 1.82858508 21.419850722320042 
Si 8.05113702 3.96638694 20.968431354826688 
Si 7.233281279999999 0.925586397 19.203937098227698 
Si 4.79962044 2.56238442 24.866056466258225 
Si 5.06286684 2.27411658 22.524303318232413 
Si 6.53250177 1.3405562279999998 25.9716540040757 
Si 4.79002563 0.534901698 30.202977638030568 
Si 5.62104369 2.68245801 29.41945572763918 
Si 7.32439125 2.8236108599999996 27.689275032984 
Si 6.13390176 3.95658036 31.40804634075492 
Si 6.792539039999999 4.07057778 4.06867249301191 
Si 4.072304519999999 6.78779865 4.073113479795335 
Si 6.62084244 6.680203199999999 1.234035732923435 
Si 5.44224465 8.13564954 2.716572432546923 
Si 8.12989917 5.4208558799999995 2.68667904026099 
Si 4.07197872 4.07280951 6.787805432001152 
Si 5.4283329899999995 5.42877282 5.429696161294842 
Si 6.7874728499999994 6.78778236 6.787458479908696 
Si 6.786006749999999 4.07113164 9.502670860253195 
Si 4.072548869999999 6.790486499999999 9.500138109978272 
Si 5.42748591 5.42803977 10.867476306343887 
Si 6.79452642 6.796904759999999 12.23894323260972 
Si 4.191954569999999 7.011737279999999 17.164830260450486 
Si 4.54805397 6.21434178 15.012686430951396 
Si 5.3516233799999995 7.993617029999999 13.73069844932974 
Si 4.215037499999999 4.1573709 21.391921078877402 
Si 5.54260734 7.956557279999999 20.550701035510727 
Si 5.9956974 4.26832209 19.716836376504098 
Si 5.928110189999999 6.407606339999999 18.819722351042902 
Si 6.897267449999999 7.40976714 22.535856822911168 
Si 5.2340095799999995 6.827969789999999 24.14748398757443 
Si 5.3110287 4.8638682 25.45327288273851 
Si 4.7671870499999995 6.8904093600000005 29.58300894402252 
Si 7.44304761 4.936049189999999 26.469009828610112 
Si 8.017058339999998 7.012405169999999 27.496196193532725 
Si 4.60932066 5.9697311399999995 34.4824582224182 
Si 6.8409854999999995 6.07758723 30.58011456252928 
Si 7.2212103899999995 7.858133099999999 32.40376415089187 
Si 4.0870795499999995 4.57509537 32.446543343891584 
Si 6.79030731 9.50295069 4.070684815148149 
Si 6.518655269999999 12.0010059 1.3063578965957041 
Si 4.0725814499999995 9.502347959999998 6.787874822419643 
Si 5.43045069 8.1448371 8.143624818897257 
Si 5.42807235 10.8587511 5.430737017572207 
Si 8.13753918 8.15097843 10.854118650784367 
Si 6.7873262400000005 9.49979043 9.498889082445434 
Si 5.43636396 10.85879997 10.860502569285542 
Si 8.03281077 10.68474132 13.6285904485202 
Si 5.936059709999999 10.88981613 17.208997261820024 
Si 6.01201998 9.938610449999999 14.897290165000824 
Si 5.35471848 11.55094578 21.033415481743532 
Si 6.20505648 9.9869103 19.468939106444918 
Si 7.904119769999999 9.45017109 23.193331038113612 
Si 6.14429478 11.00273841 23.219942263604924 
Si 4.23859284 10.353875129999999 24.47285565987884 
Si 4.95279531 8.56086741 25.86649282485255 
Si 4.719131549999999 10.49766696 29.562469380149174 
Si 7.00709463 10.35350046 29.08898385957568 
Si 7.018970039999999 9.12494124 26.988848148735613 
Si 5.12144568 8.64972936 33.16192386332479 
Si 4.959604529999999 10.61050779 34.52208015137658 
Si 4.117297499999999 8.69374494 30.940910043473355 
Si 7.46740116 13.77521496 0.03761654586398377 
Si 5.4102348000000005 13.57129674 2.6979931479959514 
Si 6.78949281 14.935453919999999 4.074223726491192 
Si 4.07240226 14.932538009999998 6.787493175117942 
Si 5.43009231 13.574880539999999 8.144526894337641 
Si 6.787423979999999 12.2175 6.7877013463734155 
Si 4.0713922799999995 12.2173371 9.503468850065843 
Si 6.78683754 14.93219592 9.502358603369984 
Si 4.06438758 14.92118388 12.238596280517264 
Si 6.797018789999999 12.20239917 12.22943674527645 
Si 7.35662916 12.638677949999998 16.278263578599926 
Si 4.78269513 15.318513269999999 17.05217491603031 
Si 5.06752578 13.1764923 13.53637058234563 
Si 6.18860358 14.467784309999999 15.196501649534117 
Si 7.763944319999999 15.9469326 13.5907032800241 
Si 5.91237405 13.825225259999998 20.777573008767124 
Si 6.37087239 15.02604261 18.779510603527353 
Si 7.807047659999999 14.079153779999999 22.112852831789887 
Si 4.330191510000001 14.64420501 22.32449360818751 
Si 6.87672576 13.07847537 24.02272001512757 
Si 4.887684179999999 14.134165109999998 24.697854091835985 
Si 5.71963077 15.4658889 26.588534824460897 
Si 7.365588659999999 12.685316219999999 29.410365582816855 
Si 7.510423049999999 14.253098399999999 27.593932597977336 
Si 4.1402664 15.47854623 28.328881215425007 
Si 4.171168529999999 12.3108417 31.010022900290416 
Si 6.3155841299999995 13.346103779999998 31.552517192053237 
Si 6.12016929 15.79102101 31.97593752568546 
Si 5.80788999 15.748585559999999 34.44002598151094 
Si 12.026972159999998 1.225723131 1.301233414190142 
Si 9.50236425 1.360236177 4.073703298352509 
Si 10.326768569999999 0.13868214569999998 0.04316951410372791 
Si 10.85417361 2.71031391 2.713446394193902 
Si 9.507414149999999 3.99505734 1.2685019537879263 
Si 8.14449501 9.99901377e-05 8.144977932057833 
Si 8.143761959999999 2.71265967 5.431361531338626 
Si 10.858848839999999 -0.00020988524699999998 5.431604397803345 
Si 10.86065703 2.71577106 8.144735065593112 
Si 9.502168769999999 1.355977971 9.501907565649795 
Si 10.86077106 0.00484184412 10.861578120772151 
Si 9.49992075 4.08351204 12.221213980685262 
Si 8.854983359999999 1.3607362799999998 14.892259359660224 
Si 10.561344570000001 2.43882477 13.542511634382086 
Si 11.63531169 4.01230845 14.88070585498147 
Si 10.48266387 2.8380438 17.62134982370293 
Si 10.43006346 0.23895963899999997 21.574799526810494 
Si 11.409483419999999 2.32619571 21.151309802759776 
Si 10.10527344 3.7771785899999997 19.76502802214611 
Si 9.482685929999999 0.8072493209999999 18.307065939231222 
Si 8.26124544 0.1278318654 22.43881432265147 
Si 11.74829913 3.3277211999999996 23.198743490755916 
Si 8.45279955 0.9480405329999999 24.61468967527449 
Si 10.032506009999999 2.73882141 24.76176266726622 
Si 11.04748704 1.7536836599999999 26.745461255878347 
Si 9.54491373 0.611634114 30.070025596201766 
Si 9.518523929999999 2.38106043 28.45659428065774 
Si 8.29955952 0.6241138829999999 32.07273715948044 
Si 8.368173 3.0494554199999997 32.38738801212798 
Si 8.65741824 2.12265216 34.63959282509113 
Si 11.792005199999998 0.1083560301 30.87193596749328 
Si 12.21688098 4.07175066 4.07144810975155 
Si 12.20054211 6.741697949999999 1.2976598076378545 
Si 9.50477517 6.78779865 4.070823595985131 
Si 11.26324809 5.00409252 0.007354621065445076 
Si 9.50312988 4.07207646 6.787250308653223 
Si 8.145114029999998 5.4297990899999995 8.145567750615006 
Si 10.857789989999999 5.42874024 5.430702322362962 
Si 10.86769431 5.424358229999999 10.855471763944943 
Si 9.500718959999999 6.784442909999999 9.502670860253195 
Si 9.77680188 6.560439119999999 16.931886625576123 
Si 10.34256987 7.73191818 13.588621567469369 
Si 8.974291319999999 4.7736216 15.618985212516714 
Si 8.67975183 5.963524649999999 13.50288970542371 
Si 10.40691537 6.10627392 19.518032827527314 
Si 8.2917729 7.05182697 18.718204168790535 
Si 9.234605519999999 4.96719567 24.817101526012806 
Si 8.65904724 5.77508193 22.55469632153148 
Si 10.6828191 6.897837599999999 21.718472388296156 
Si 11.21530662 6.25065219 25.60964419080803 
Si 10.477467359999999 4.48584246 28.966093428428074 
Si 8.9487486 6.25799898 29.482496922838273 
Si 9.97966125 7.95681792 26.577501747920827 
Si 11.005442549999998 4.05304974 31.203969119972825 
Si 10.693831139999999 5.81004027 32.59601030532124 
Si 8.334990269999999 7.61941944 34.52867224113323 
Si 12.113455769999998 7.167143879999999 31.344727583881866 
Si 9.367336439999999 9.35318043 1.2044476584788626 
Si 10.840995 8.13418344 2.6938782961794336 
Si 8.13472101 10.84599603 2.6845661020179388 
Si 11.10549573 10.49396913 0.10818000937959789 
Si 8.14346874 8.1427194 5.429973722968806 
Si 9.50246199 9.502282799999998 6.787562565536433 
Si 10.86046155 8.14442985 8.145012627267077 
Si 8.143990019999999 10.8600543 8.14421463745443 
Si 10.858588199999998 10.85857191 5.430459455898243 
Si 9.498014819999998 9.47902068 12.221144590266771 
Si 10.8651042 10.86226974 10.864770080022739 
Si 9.88636842 10.16634465 17.196160034399185 
Si 9.31566456 11.70135135 15.322341173467589 
Si 10.81434456 8.366934959999998 15.84897975460521 
Si 11.43385326 9.24503112 21.669968485770934 
Si 9.320274629999998 10.24888608 21.439488210752998 
Si 8.489061089999998 9.40615551 19.30372052001779 
Si 11.54254014 11.536138170000001 18.324725800737188 
Si 11.87959653 11.88529803 24.44572400624885 
Si 8.7842196 9.618088409999999 25.407995634673114 
Si 9.95099085 11.63210256 25.810460061921052 
Si 10.154273759999999 8.13323862 30.273651779263677 
Si 10.70435448 11.510921249999999 28.045213184633706 
Si 11.00790234 9.16108875 28.35035754994798 
Si 12.17038932 9.03809925 32.70793705034726 
Si 8.33992614 9.47465496 30.98525052088912 
Si 10.25923023 10.70560881 32.547749269260734 
Si 8.13330378 16.28638362 2.7178214600797617 
Si 9.50604579 12.21735339 4.0688806642673825 
Si 9.256108320000001 14.74873794 1.3592264564440149 
Si 10.848211469999999 13.573023479999998 2.7036970403959137 
Si 8.14346874 13.57548327 5.430841103199944 
Si 9.50252715 14.932945259999999 6.7877013463734155 
Si 10.860412679999998 13.57496199 8.145428969778024 
Si 9.497574989999999 12.21419313 9.502774945880931 
Si 8.14625433 13.57817112 10.860467874076296 
Si 9.49208526 14.908347359999999 12.251606983984333 
Si 11.69338554 15.12308214 15.251528251397499 
Si 9.580197870000001 15.884313839999999 16.301439978375928 
Si 10.7160507 13.39735212 13.852825585873942 
Si 9.979482059999999 13.263790409999999 19.113347906887668 
Si 9.59477742 12.65480505 21.361979113298528 
Si 10.6966656 15.500977559999999 19.510261100656322 
Si 8.311630410000001 14.167999439999999 17.678839785422742 
Si 11.647708380000001 13.26540312 22.474619778592842 
Si 11.32640442 15.39561384 23.37867284590314 
Si 9.74142 15.337458539999998 25.120198873981597 
Si 8.49041316 13.414717259999998 25.64218829708032 
Si 9.703936709999999 12.97099395 29.605491439613612 
Si 11.142832409999999 15.68637405 26.921886394891775 
Si 9.531800279999999 15.09540543 28.580074530362513 
Si 10.91337147 12.829808519999998 31.65663751499902 
Si 11.431702979999999 15.0107463 32.9105917675503 
Si 16.267210289999998 2.6978683500000002 2.6823317305425274 
Si 14.934004109999998 1.3618619189999999 4.07207262351797 
Si 14.69623527 3.9076777799999998 1.1801367253605326 
Si 13.57514118 -0.000276939774 8.145012627267077 
Si 13.574457 2.71347417 5.429834942131824 
Si 12.21699501 1.358343279 6.7877013463734155 
Si 14.930713529999998 1.354893057 9.502219822533004 
Si 13.57548327 2.7193222799999996 10.860537264494786 
Si 12.192315659999998 1.3585811129999998 12.209486999960282 
Si 14.929084529999999 4.064355 12.226522347699825 
Si 16.16143932 2.5320361499999997 13.544662737355306 
Si 12.73545684 2.81551473 16.6905120548551 
Si 14.55716754 1.4488619219999999 14.93566306642636 
Si 15.45749955 0.9096873569999999 21.166818561292523 
Si 13.6528119 2.42108496 20.427671823526143 
Si 13.733545139999999 1.317970143 18.435819860741315 
Si 15.96073023 1.27744551 17.71218188150768 
Si 15.66241146 3.1599504899999995 23.76129161346264 
Si 13.537283219999999 2.30482323 24.27929108749813 
Si 13.108432679999998 2.84785038 26.558315297208058 
Si 16.02331641 3.11002164 29.089365506877378 
Si 15.17555223 1.95712947 27.27348764538579 
Si 12.71054943 3.01330791 34.515418671201445 
Si 14.83680168 2.60413569 31.113345233423548 
Si 15.291227519999998 0.265528629 31.24955862492143 
Si 12.581565209999999 2.47031334 32.013165485205896 
Si 13.587358679999998 5.430613589999999 2.691827809313024 
Si 14.93465571 6.78634884 4.072384880401179 
Si 14.9325543 4.07219049 6.787319699071714 
Si 13.574945699999999 5.42870766 8.144318723082167 
Si 12.216913559999998 6.78753801 6.787111527816241 
Si 12.19744701 6.78496419 12.240920859536713 
Si 13.57960464 8.142442469999999 10.864561908767266 
Si 12.215219399999999 4.07225565 9.49968707225808 
Si 14.930827559999999 6.78587643 9.502566774625459 
Si 14.32752741 6.39656172 15.418169341403692 
Si 14.12285985 4.70619729 17.134471952360663 
Si 13.352847839999999 5.2154064 13.59743415061773 
Si 15.812702999999999 5.55371712 20.431280125287678 
Si 13.58817318 4.82338755 20.23150511045202 
Si 15.88165857 7.90327269 20.16881086734538 
Si 12.659268509999999 6.369878699999999 18.453549112665772 
Si 15.91622595 5.2766242199999995 22.830696711079526 
Si 12.972590369999999 7.761565979999999 24.875320087126777 
Si 14.15560275 6.779132369999999 23.151211054089565 
Si 12.453525809999999 5.45130189 22.239663821582237 
Si 14.288317379999999 6.1693976699999995 27.92804746301161 
Si 14.26603266 6.533430299999999 30.284407294129785 
Si 12.30072561 4.975210349999999 27.33031839812994 
Si 12.887638019999999 8.68201614 0.2036390202893289 
Si 12.216147929999998 9.50174523 4.0679091984085085 
Si 14.84835129 9.54981702 1.2661461490801562 
Si 13.575043439999998 10.885759919999998 2.7076037209569583 
Si 13.57602084 10.860803639999999 8.145186103313305 
Si 13.57505973 8.14363164 5.430251284642771 
Si 14.932733489999999 9.50308101 6.787215613443977 
Si 12.215463749999998 9.50176152 9.50426683987849 
Si 14.95151586 9.49617405 12.2282571081621 
Si 14.932033019999999 12.21474699 9.499756462676572 
Si 12.206292479999998 12.19899456 12.262431889268932 
Si 14.90370471 9.22579263 16.88869109006546 
Si 15.270034229999998 11.480491529999998 17.164448613148785 
Si 13.14664902 8.63726751 15.318524700450581 
Si 13.423709339999998 10.43327259 13.70620363160241 
Si 14.81427261 11.90763162 14.85256804028336 
Si 14.533384139999999 11.736798389999999 20.76348675381345 
Si 12.821647229999998 10.20337182 19.897043293325286 
Si 13.967746469999998 8.39495376 18.807787199062446 
Si 15.46289154 8.587322369999999 22.362693033566817 
Si 14.741244539999999 10.737455759999998 22.93828655494986 
Si 12.619716389999999 9.81101088 23.643813634957336 
Si 15.65983764 11.5890318 25.054867794972296 
Si 16.162400429999998 12.10347 30.1057269665154 
Si 14.63415408 8.85534174 30.04386540843065 
Si 14.41798578 8.20382319 26.667952158423873 
Si 13.039297920000001 11.893589639999998 28.01655494179691 
Si 13.343986079999999 9.558548459999999 28.227432423591132 
Si 14.13427914 10.06114383 32.060940788336964 
Si 12.23190036 12.27953232 1.2861479372101936 
Si 12.21544746 14.93731098 4.068603102593419 
Si 14.93366202 12.2183145 4.074813545048365 
Si 14.74258032 14.82409548 1.1569568560636063 
Si 13.57147593 16.28216451 2.6846285533945804 
Si 13.574799089999999 13.57261623 5.429800246922579 
Si 12.217662899999999 12.217939829999999 6.787423784699451 
Si 14.93276607 14.9325543 6.787423784699451 
Si 12.214828439999998 14.93040402 9.50225451774225 
Si 13.57953948 13.573023479999998 10.865117032115194 
Si 14.9182191 14.93172351 12.246472093015996 
Si 13.178121299999999 12.41732943 16.796263052635418 
Si 15.36345738 15.906696299999998 16.148711667277187 
Si 13.376891879999999 14.74043004 16.908051016824455 
Si 13.27442778 16.193318849999997 13.633170216140606 
Si 16.25215833 13.50561546 13.714530481821333 
Si 13.580272529999998 13.9013973 21.095554601502243 
Si 12.98800071 15.406967969999998 19.1571332609555 
Si 14.931821249999999 15.32076129 22.522499167351647 
Si 13.41036783 16.190044559999997 24.127568937467508 
Si 13.62036222 12.64866372 25.867256119455956 
Si 13.940200079999999 12.95748954 29.94585144231208 
Si 13.806328859999999 15.390254429999999 29.807903290351927 
Si 13.30796889 15.00186825 26.15571208912314 
Si 14.832289349999998 15.903128789999998 27.651908292626587 
Si 16.1785764 16.10075907 34.45400815083689 
Si 13.435177499999998 12.32890731 32.18716195957214 
Si 13.123028519999998 13.699889999999998 34.29413262663357 
Si 16.08404553 12.330243089999998 32.566623463090295 
