&CONTROL
  dt          = 30.D0,
  prefix = 'x.33_y.66_z3.15_struc33-scf',
  pseudo_dir = './',
  outdir='./',
  wf_collect= .true.,
  verbosity= 'high',
/

&SYSTEM
ibrav= 6, celldm(1) =30.783621515, celldm(3) =2.104478273085783, nat=  432, ntyp= 1,
  ecutwfc     = 12.D0, nbnd= 1728,
  degauss     = 0.05D0,
  occupations = "smearing",
  smearing    = "methfessel-paxton",
/
&ELECTRONS
  electron_maxstep=200,
  conv_thr    = 1.D-8,
  mixing_beta = 0.3D0,
  scf_must_converge=.false.,
/
ATOMIC_SPECIES
Si  28.08  Si.pbe-hgh.UPF
K_POINTS {automatic}
1 1 1 0 0 0
ATOMIC_POSITIONS (angstrom)
Si 2.7094016699999997 0.00466420167 2.67913790420365 
Si 2.73440682 2.9340081899999997 0.03873243395628883 
Si 1.363741785 1.356087114 1.1622678434678546 
Si -0.00023870551499999997 0.00020078402399999998 5.4301924853589405 
Si -0.00019203629399999997 2.7151520399999995 8.14528872803841 
Si 2.71531494 -0.000371483676 8.145425855842685 
Si 2.7146959199999996 2.7146633399999995 5.430329613163214 
Si 1.357277913 1.357698195 6.787346364261387 
Si 2.71363707 2.7147284999999997 10.864635932650383 
Si 1.3323476969999999 1.37037996 12.234508415399269 
Si 1.3594428539999999 4.0733144999999995 9.50237404303872 
Si 4.07337966 1.357712856 9.502579734745131 
Si 2.80852632 0.117165825 13.512470987333323 
Si 3.7963845 1.71017307 14.943742444446013 
Si 1.8823094999999999 3.42777438 15.198731596494017 
Si 2.01069099 0.592138242 18.626583883840073 
Si 2.7310185 2.7821691 17.741115369690046 
Si 1.8786931199999999 3.0864500099999996 24.63466721836185 
Si 2.4136567199999996 2.17337922 22.54566224804763 
Si 1.225273527 0.16978741199999997 22.978197624679744 
Si 1.071640908 3.7188766799999997 21.446994280202183 
Si 3.6632137499999997 2.06623989 25.662817212859263 
Si 2.09927601 3.7740183299999996 28.67386953911367 
Si 0.1369542654 2.82791142 27.715037649676912 
Si 0.1232214696 0.6077098529999999 28.47386863657965 
Si 2.79784008 3.0130635599999995 30.833015381314183 
Si 2.62021392 0.726652917 31.315293868946792 
Si 0.336395016 0.348237846 30.818925499425003 
Si 1.3556586869999998 4.0723696799999995 4.066216498193849 
Si 2.7219938399999997 5.43569607 2.702470200100917 
Si 1.2992887709999998 6.7364362799999995 1.27448981029081 
Si -0.000356521311 8.13560067 2.707509646907996 
Si -0.00102478761 5.43237291 5.42971253804398 
Si 2.71490769 5.43048327 8.145151600234136 
Si 1.357414749 6.7877497799999995 6.787003544750702 
Si 2.7151031699999995 8.14659642 5.430055357554666 
Si 1.358429616 6.7947707699999995 12.231045938341342 
Si 3.80799927 6.89249448 15.191086721405728 
Si 2.64710871 5.405526989999999 13.685217738767836 
Si 2.5328832299999995 7.484130989999999 17.482458048877703 
Si 1.406431359 6.48042264 19.43663210563925 
Si 2.61404001 4.43819421 19.59388341519077 
Si 1.506324897 5.40858951 24.76209323048372 
Si 0.24598714499999996 5.5464680699999995 22.771717433393764 
Si 3.73104531 5.997261239999999 24.32818657580886 
Si 0.644737023 7.458751169999999 21.475414017638023 
Si 1.71607005 6.09925293 28.72515533791225 
Si 0.490200309 6.43033089 26.74972647148819 
Si 3.89655171 6.79555269 28.218433819167753 
Si 1.8969542099999999 4.286680919999999 32.59713030135159 
Si 2.44377693 6.74383194 32.43593656742719 
Si 0.9304945739999999 7.29762678 30.66990185812994 
Si 3.9160834199999996 9.470207789999998 1.3358407899231184 
Si 1.354080186 9.501468299999999 4.076295391808007 
Si 0.324276885 10.43670978 0.037360127455014075 
Si 2.7078704099999995 10.85606325 2.739851239546083 
Si 1.446376068 12.15859536 1.2864062164822438 
Si 0.000301454595 8.145032579999999 8.144980190478794 
Si 2.71500543 10.85976108 8.145083036331998 
Si 1.3584833729999999 9.50418873 9.502236915234446 
Si 2.7163575 8.14423437 10.861687684858486 
Si -0.00011822483789999999 10.85720355 10.862716143390543 
Si 0.033585418799999996 8.17696098 13.627384087315162 
Si 0.940613922 9.95996664 15.01535744022825 
Si 2.73326652 10.92334095 13.692554076296508 
Si 1.371604968 9.55770138 17.353077965544934 
Si 1.5622012259999998 11.30773608 19.36659407960617 
Si 1.9122668099999998 8.973183599999999 22.764723915375775 
Si 3.92119848 8.27709561 23.743987847649407 
Si 0.47187405899999996 9.780858089999999 24.36750797368451 
Si 2.36328804 10.899003689999999 21.526939790094083 
Si 0.8887270139999999 12.06544914 24.863190704184927 
Si 0.43986258 8.78337252 26.50299926964771 
Si 2.39629158 11.94825888 26.67889996058053 
Si 2.02080708 9.91463157 27.8976233210681 
Si 2.1455233199999997 8.66126268 34.072831167049145 
Si 3.0700622699999998 10.2762207 31.98135789625799 
Si 1.6002823589999997 9.57478959 30.27079138378968 
Si 4.07350998 12.217972409999998 4.070810279637037 
Si 3.31043751 13.051466549999999 0.09141865045601665 
Si 1.357460361 14.93113707 4.070090358664597 
Si 9.120428909999999e-05 13.574603609999999 8.145323009989479 
Si 2.71609686 13.57303977 5.431358071695271 
Si 1.3573577339999998 12.21694614 6.787723465723142 
Si 0.001063453554 16.2909774 10.863881729726875 
Si 1.358201556 14.932440269999999 9.502545452794063 
Si 2.7135556199999997 13.57206237 10.859630767794373 
Si 1.3808544299999999 12.21217317 12.218738717907726 
Si 3.97484145 12.582151649999998 14.966471378004474 
Si 0.16478149499999997 13.570270469999999 16.344640092911952 
Si 2.77417071 15.731415899999998 16.722598603442908 
Si 2.53988793 13.43292948 16.65910843006392 
Si 0.1434070602 13.6273995 13.595056207457501 
Si 1.033501131 15.527774609999998 14.974219098945971 
Si 3.3447442499999998 15.771489299999999 20.362484758148053 
Si 3.40345341 12.46417947 18.604677717107258 
Si 2.7087012 14.80213656 22.48230920247292 
Si 1.417057326 12.81692313 22.67541943284216 
Si 0.21321980999999998 16.2308673 25.11365463869188 
Si 3.52145817 13.591398599999998 29.79759761319024 
Si 3.75072363 16.10681895 26.254969353666624 
Si 1.5442138079999999 15.63528861 27.05079056577235 
Si 1.7176338899999999 13.556945249999998 28.2011557158292 
Si 3.3174585 12.666550139999998 32.03593476235915 
Si 6.78626739 4.069127969999999 4.068787644523992 
Si 4.07269548 1.358261829 4.068684798670786 
Si 5.43607074 2.7193385699999997 2.6805194668317127 
Si 6.87571578 1.376715141 1.193913512499249 
Si 4.07277693 4.0723370999999995 6.787586337918867 
Si 8.14482081 -5.35993128e-05 8.144740216821313 
Si 8.14690593 2.71459818 5.431803737059163 
Si 5.43177018 0.0001087220664 5.430363895114283 
Si 5.43002715 2.71502172 8.145185882185205 
Si 6.78713076 1.358014221 6.787929157429553 
Si 5.42800719 0.0014310764999999998 10.860967763886046 
Si 6.7857949799999995 1.365450606 12.228749047619749 
Si 7.508565989999999 3.6320183999999998 15.094857284756259 
Si 5.03497836 0.190535985 16.567164237298023 
Si 5.5331917200000005 2.78278812 13.718471231304347 
Si 5.087969729999999 2.42971866 17.55842685244565 
Si 4.3554898799999995 1.352467476 21.31418600176255 
Si 5.639044139999999 2.7459075599999996 19.865327903751687 
Si 7.988697449999999 2.5989880499999996 19.73553643700609 
Si 5.75499636 0.48973767299999993 22.94048747850432 
Si 5.5267083 2.40127632 24.31001714174252 
Si 7.542937889999999 2.12099058 25.50988542914238 
Si 4.070528909999999 3.5457628499999996 27.36039086587258 
Si 7.71307065 3.2564198699999998 27.606466710642756 
Si 5.30578332 0.21091803299999998 28.080448966116773 
Si 5.7453201 2.4892749 28.590015886799957 
Si 5.108609159999999 3.55973967 30.592081829204293 
Si 4.21756245 4.26517812 1.2605507689863304 
Si 4.071571469999999 6.7899489299999995 4.071118817196654 
Si 6.95076381 6.89967837 1.15323112116618 
Si 8.15562108 5.436494279999999 2.6813696592182135 
Si 5.42919636 5.429391839999999 5.429232590729021 
Si 6.787407689999999 6.78726108 6.787449210114593 
Si 5.429766509999999 8.14495113 8.145083036331998 
Si 6.78879234 4.07430819 9.501585558164143 
Si 4.07471544 6.78809187 9.500831355240635 
Si 4.08486411 4.08636279 12.247398429001048 
Si 5.43129777 5.42875653 10.85969933169651 
Si 6.77637936 6.78199941 12.251615108982483 
Si 5.584488929999999 6.5053300499999995 16.745190409197093 
Si 6.67881855 4.37860539 17.195312426727384 
Si 4.75920495 4.74736212 20.75864698469642 
Si 5.70599604 6.924129659999999 20.295840645270758 
Si 8.12409993 6.7414536 20.027344404501736 
Si 4.668828029999999 7.93914327 18.436250491507387 
Si 5.19592356 4.49993331 23.113028538232424 
Si 7.43812803 5.163701939999999 23.646558542712537 
Si 6.88923648 6.25329117 25.690996976637624 
Si 5.19305652 5.8216550400000004 29.898352267380762 
Si 7.32093777 6.62032116 29.454675256651363 
Si 4.7156292 5.615879759999999 26.388737526736175 
Si 8.116655399999999 5.58476586 27.52096752467775 
Si 5.65662105 5.629644809999999 33.90231274243409 
Si 4.77717282 6.923901599999999 31.988522824031318 
Si 6.97734909 4.2838790399999995 32.364732955057775 
Si 8.16945129 10.85482521 2.6967622552480006 
Si 5.43072762 8.13910302 2.677975746062425 
Si 6.785599499999999 9.50332536 4.066456471851329 
Si 5.082691769999999 11.18712492 0.21961257828181763 
Si 4.07189727 9.50249457 6.787380646212456 
Si 5.42997828 10.862465219999999 5.430055357554666 
Si 6.7887271799999995 9.50321133 9.503916730836805 
Si 4.07438964 9.51088392 12.241433369515118 
Si 5.426557379999999 10.86270957 10.867618462393349 
Si 5.40761211 8.19494514 13.722893602992192 
Si 7.1328697199999995 9.216996029999999 15.105244715930034 
Si 6.633402029999999 10.57900293 17.37460703081599 
Si 4.64996421 10.55246652 21.00599126165613 
Si 4.721330699999999 10.37288556 18.655963515905835 
Si 5.45441328 8.57976381 21.99670536558666 
Si 7.5670307999999995 8.86089663 22.961056649145462 
Si 6.93980064 8.58267972 25.193942968094465 
Si 4.854664349999999 9.54722691 25.55842867185547 
Si 5.55611175 10.07332875 29.424918523123846 
Si 7.5820501799999995 8.95218579 28.913740350740436 
Si 4.6406626200000005 11.936904749999998 25.788597691329834 
Si 4.1763976199999995 9.05434038 27.765603527503046 
Si 5.1360741 9.302225309999999 31.61495240323714 
Si 6.7662306899999995 10.3303035 32.977454266506285 
Si 7.634732039999999 13.94736768 0.07107059839926846 
Si 4.12586604 14.96078487 1.2445685233981643 
Si 5.42070927 13.591007639999999 2.7231730703512245 
Si 6.7959925199999995 12.26273733 1.4364377471387224 
Si 6.783775019999999 14.93232624 4.072044429875505 
Si 8.14886073 16.301402999999997 2.7050482028212732 
Si 4.07277693 14.932472849999998 6.787414928163524 
Si 5.430206339999999 13.574880539999999 8.14484306267452 
Si 6.7872285 12.218037569999998 6.787586337918867 
Si 8.14377825 13.571703989999998 10.864258831188629 
Si 4.073249339999999 12.21956883 9.502236915234446 
Si 6.78700044 14.934297329999998 9.5026140166962 
Si 4.07906487 14.93589375 12.206054396012357 
Si 6.7839705 12.23776476 12.256585991887425 
Si 7.99667955 14.043543839999998 16.099695552527038 
Si 5.89124592 12.66223329 16.44299501052767 
Si 5.5271155499999995 13.89087396 13.683297949507995 
Si 6.696770129999999 15.549847559999998 14.905415223151355 
Si 7.83889461 12.329314559999998 20.896117608481372 
Si 4.74433218 13.985176769999999 19.80694574108192 
Si 5.97877209 14.661211769999998 17.883968259792766 
Si 5.59937799 12.60160191 21.554365350948935 
Si 7.9232930999999995 16.07666616 22.19053551692834 
Si 5.52384126 13.053991499999999 23.90658714156762 
Si 4.4729082 15.14794068 24.091126884169718 
Si 7.823256209999999 12.610936079999998 24.336757063576 
Si 6.284405069999999 13.049886419999998 27.298511944193816 
Si 5.58243639 12.45367242 29.398761394458532 
Si 7.26395535 15.23214369 27.78137322499459 
Si 4.26042144 15.80465574 30.09084542263077 
Si 7.53176295 12.64187079 32.384205103264726 
Si 5.55888105 13.74385671 31.43305237086732 
Si 5.979374819999999 15.77943882 34.24002424241055 
Si 12.10000023 1.195633872 1.3203282070645914 
Si 9.50104476 1.357066143 4.078660846431739 
Si 10.853522009999999 2.69832447 2.703443807511264 
Si 10.8600543 0.0016145719469999999 5.431426635597409 
Si 10.86031494 2.71485882 8.144603089017039 
Si 12.209827409999999 1.349194815 12.258540063098334 
Si 9.50308101 1.3571475929999999 9.50305968206009 
Si 8.138826089999998 2.7177910199999995 10.861961940467035 
Si 12.21746742 4.0738032 9.502682580598337 
Si 10.863801 -0.00175360221 10.86209906827131 
Si 8.345122649999999 0.21502962899999997 13.551998076915382 
Si 9.190508490000001 1.80843435 15.22139196615034 
Si 10.82807703 2.75388966 13.695056658724514 
Si 10.67398992 1.64677239 17.757056476936928 
Si 12.059763929999999 3.66277392 20.477774959591645 
Si 10.860152040000001 3.8907035999999997 18.472897897199687 
Si 8.43804081 1.182619791 17.78527052266636 
Si 11.4075612 1.80747324 21.756320324693867 
Si 9.03223485 1.88511138 21.84785313404694 
Si 8.8475877 3.1974989399999996 23.910975231304395 
Si 10.9204902 3.1988673 25.220408634319398 
Si 9.541362509999999 2.8142278199999997 29.012712343475393 
Si 10.65354597 0.06270069869999999 26.396142428166986 
Si 11.07944802 2.12918445 27.379348784813498 
Si 8.18285796 2.83268439 34.00354734393957 
Si 9.40511295 1.162254033 30.641790658253715 
Si 11.93477076 2.45260611 32.315538355274384 
Si 9.80812755 1.4587727579999998 32.9223631711391 
Si 10.87139214 8.13677355 2.6851749557868247 
Si 12.235272389999999 6.76743615 1.1674684154449562 
Si 9.57182481 4.083560909999999 1.2557581522269448 
Si 9.49908996 6.78672351 4.0686162347686485 
Si 9.50213619 4.07214162 6.787860593527416 
Si 8.14442985 5.43056472 8.14528872803841 
Si 10.860380099999999 5.429212649999999 5.430398177065351 
Si 10.85796918 5.42911491 10.861207737543527 
Si 8.14710141 8.14311036 10.863367500460846 
Si 12.20368608 6.79213179 12.236736742218724 
Si 9.503602289999998 6.786430289999999 9.50401957669001 
Si 9.50404212 4.09659291 12.241467651466188 
Si 8.215372799999999 5.51346453 13.761117978433644 
Si 9.03462948 7.584298199999999 15.094034517930613 
Si 8.61703533 4.71712788 18.755381174004683 
Si 10.73522403 6.452485289999999 23.341003512838395 
Si 8.58665448 6.7853062799999995 22.364584982503455 
Si 11.27411352 5.47661655 25.482219894630045 
Si 10.36599489 4.8620274299999995 29.87644610064795 
Si 10.41923061 5.99543676 27.718808664294453 
Si 8.65056015 5.84014419 31.224309570810814 
Si 12.063266279999999 4.601094209999999 31.454787127844792 
Si 9.43324578 7.924922099999999 32.03267797700763 
Si 11.408147640000001 4.92899562 34.2168496434882 
Si 9.73120617 9.608851979999999 1.2157442589397127 
Si 9.5037489 12.2160339 4.072592941092602 
Si 12.21811902 9.50063751 4.066833573313083 
Si 8.14557015 8.14563531 5.431186661939929 
Si 9.50257602 9.502657469999999 6.78751777401673 
Si 10.859467859999999 8.14465791 8.145151600234136 
Si 8.145114029999998 10.85976108 8.14576867535337 
Si 10.859467859999999 10.86075477 5.428649797560855 
Si 12.217548869999998 12.21706017 6.78751777401673 
Si 9.497216609999999 9.531930599999999 12.226040773485332 
Si 10.85718726 10.85775741 10.86137914729887 
Si 9.50583402 12.21966657 9.502545452794063 
Si 12.21748371 9.50236425 9.501311302555594 
Si 10.87077312 8.279017829999999 13.63413763167567 
Si 8.18595306 10.918225889999999 13.768522879864454 
Si 10.30480965 8.190612 17.183862255070483 
Si 11.20675437 9.226998089999999 20.652167244677447 
Si 9.27839304 8.76804363 19.294636264313247 
Si 8.340023879999999 10.98470538 18.995217703680378 
Si 10.02281346 12.14750187 17.741183933592183 
Si 11.46646584 10.33447374 17.20645406082467 
Si 10.75506525 10.34972118 22.70195366296923 
Si 8.53260426 11.03220702 22.71991740532916 
Si 11.81889999 12.1406112 23.783892038693217 
Si 11.19512331 8.59515786 24.183105358886685 
Si 11.604279239999999 11.43209394 26.052842970166353 
Si 9.68793993 9.30823632 29.915973190230005 
Si 10.28962737 11.60612001 29.708053156999146 
Si 10.55212443 9.32074704 26.29909022469187 
Si 8.16212079 11.954025539999998 26.562512736702743 
Si 8.2653831 9.61527024 26.74136167542746 
Si 11.11526973 8.16620958 28.256966732168824 
Si 8.22884463 8.641209689999998 33.98445229719438 
Si 11.01762747 10.97765181 34.03532671258014 
Si 12.21629454 14.933727179999998 4.069918948909255 
Si 9.45566082 14.89976253 1.3129610157799563 
Si 10.85915835 13.569749189999998 2.7014314569835394 
Si 8.14635207 13.57659099 5.429609692190774 
Si 9.50223393 14.93270091 6.7880662852338265 
Si 10.86020091 13.574913119999998 8.14528872803841 
Si 12.21776064 14.93331993 9.50264829864727 
Si 12.22834914 12.22872381 12.250243830939741 
Si 9.52534944 14.920858079999999 12.246815635832885 
Si 9.52751601 12.41723169 15.315015974518598 
Si 10.96571124 13.61319462 13.836366861029148 
Si 10.910618459999998 14.47087941 21.146787234694738 
Si 8.664976799999998 14.551971029999999 20.48672254882054 
Si 11.69200089 12.935628359999999 19.53858662811717 
Si 8.318569949999999 15.13055925 18.17299938925186 
Si 10.9947726 14.3239599 23.487490289754383 
Si 8.725152060000001 14.772944879999999 24.00134245432114 
Si 8.351883 16.179847019999997 25.87077152804119 
Si 9.066867389999999 15.31579284 29.573187961495403 
Si 10.20376278 12.562522199999998 27.519150581271116 
Si 10.76408991 14.767585469999998 28.042498846283863 
Si 9.575392319999999 13.388311169999998 31.151049041377284 
Si 11.779429319999998 14.18528313 32.540119416724565 
Si 10.947775949999999 15.93810342 34.08722958649795 
Si 16.28581347 2.71122615 2.6821238621417223 
Si 13.57318638 -0.0031890932999999997 2.6975507401225776 
Si 12.86994708 3.04261362 0.14648197744283895 
Si 14.935747139999998 1.3574587319999998 4.068170569404757 
Si 14.75654085 3.9652140599999997 1.235747777388222 
Si 13.574847959999998 -0.000431856045 8.145220164136273 
Si 13.57422894 2.71480995 5.430329613163214 
Si 12.2175 1.35798327 6.787654901821004 
Si 14.932668329999998 1.356463413 9.50237404303872 
Si 13.57947432 2.71248048 10.863470346314053 
Si 14.95311228 4.06295406 12.225663672023579 
Si 16.23811635 2.7215214299999997 13.809009864076433 
Si 13.573903139999999 0.04729329089999999 13.926905493801236 
Si 14.321141729999999 1.90109187 15.336956423202482 
Si 12.60663552 3.6786403799999996 14.910146132398818 
Si 14.470586189999999 1.2827316149999999 17.89229877390243 
Si 15.37427394 2.47392972 21.407467190620125 
Si 15.812865899999998 0.220840272 21.39584560920788 
Si 14.11090299 2.99563326 19.498956692681908 
Si 12.461377589999998 0.227975292 18.500734841467363 
Si 14.51351034 2.82163977 23.622149793551714 
Si 12.36826395 1.8946573199999999 23.886600764094645 
Si 16.12299492 2.2518155699999998 25.350337228869265 
Si 13.194476459999999 1.9291269599999998 28.459881600543675 
Si 14.523479819999999 3.91908078 28.581719654641365 
Si 16.12011159 0.221695497 34.067380336829245 
Si 15.28352235 1.6451108099999998 32.288935561245175 
Si 15.738518339999999 3.9755744999999996 32.45198052052728 
Si 13.25395125 1.2596128469999999 30.85015635684847 
Si 12.22241958 4.07386836 4.070844561588106 
Si 13.568950979999999 5.431346639999999 2.6962137440309033 
Si 14.934883769999999 6.787521719999999 4.071770174266957 
Si 14.932994129999999 4.0723370999999995 6.7872778003592495 
Si 13.57496199 5.42989683 8.144774498772382 
Si 12.21792354 6.78730995 6.787586337918867 
Si 13.57553214 8.146238039999998 10.862613297537338 
Si 16.288501319999998 5.43056472 10.86110489169032 
Si 14.933173319999998 6.787423979999999 9.50189409572376 
Si 13.96978272 7.96393665 16.107854656881358 
Si 12.38400009 4.8453627599999995 16.958629836549992 
Si 13.56212547 5.34367386 13.555494835924376 
Si 15.27534477 6.41526264 14.811928342587372 
Si 12.82850532 7.472776859999999 20.33955013288318 
Si 15.55439247 6.486319619999999 18.51780725309951 
Si 12.351192029999998 7.09786251 17.715301060535413 
Si 14.57884953 4.525003620000001 17.76137600277157 
Si 14.27026806 5.12248824 23.295682773525748 
Si 12.436421309999998 5.61596121 21.808703145926636 
Si 13.518875519999998 6.12733689 25.243274695682132 
Si 14.52163905 5.9200955099999995 27.32504617432089 
Si 13.48494345 7.912476539999999 28.277295929152487 
Si 15.75559026 5.74872471 34.183733278755966 
Si 14.699134889999998 7.310218949999999 31.351529891226267 
Si 14.336177399999999 4.88657646 30.797019332692187 
Si 14.03062587 7.73349831 34.07043143047435 
Si 14.934753449999999 12.21513795 4.066525035753466 
Si 14.906001599999998 9.442107539999999 1.2862930860437176 
Si 13.568592599999999 10.855574549999998 2.706200076377177 
Si 16.29 10.85930496 5.431495199499546 
Si 13.576069709999999 8.144397269999999 5.4301924853589405 
Si 14.93312445 9.502103609999999 6.787826311576347 
Si 13.575304079999999 10.860103169999999 8.145254446087343 
Si 14.92947549 9.503732609999998 12.232245806628743 
Si 12.43705662 9.588603509999999 15.079841790188226 
Si 13.785363629999999 11.03031738 13.687857449000115 
Si 15.61652253 11.826930959999999 15.005312828565161 
Si 15.48340065 8.773533359999998 17.761170311065158 
Si 14.89195962 8.57451843 21.01960119623035 
Si 12.46535235 10.73667384 19.393711102901406 
Si 14.74231968 10.30381596 19.431078429566146 
Si 13.45922154 8.43079176 24.748586141762704 
Si 14.09505282 11.877837210000001 23.304561798852507 
Si 14.71495248 9.599517809999998 23.17864419257766 
Si 14.43917907 9.30271401 26.693504071735738 
Si 13.825046069999999 11.52442566 26.76741595823957 
Si 12.58405758 11.105512019999999 30.182652487592392 
Si 15.915281129999999 10.759561289999999 30.467981166336077 
Si 12.84829767 10.28975769 32.60066134231166 
Si 15.03565371 11.28651021 32.710877814997104 
Si 14.104289249999999 9.2173707 30.09485641090579 
Si 12.302827019999999 12.27726801 1.3029678270434688 
Si 14.85683838 14.97202497 1.1243657183664466 
Si 16.28858277 13.58263458 2.6699263439515257 
Si 13.57290945 13.5733167 5.429849665848255 
Si 14.93258688 14.93234253 6.787483492065661 
Si 14.933368799999998 12.218070149999999 9.503231091815435 
Si 13.57118271 13.57721001 10.863847447775806 
Si 14.930713529999998 14.938174349999999 12.261008363575272 
Si 12.288361499999999 14.94066672 15.426980826708538 
Si 12.75348987 14.301838079999998 17.751399955010616 
Si 12.42443187 16.19416593 20.830227698527587 
Si 15.798465539999999 12.360053789999998 19.74564961257132 
Si 16.09544853 16.210113839999998 19.08047691598791 
Si 15.242569289999999 14.12725815 18.338581212913038 
Si 12.270752009999999 15.94900143 24.662332752874185 
Si 15.409411469999998 13.203989819999999 21.901847206979937 
Si 14.12610156 15.239979179999999 22.289096126250474 
Si 14.97350736 12.86690085 25.25167377369393 
Si 14.405230709999998 15.22152261 25.425551829513704 
Si 14.289946379999998 16.199443889999998 27.67036826743457 
Si 13.87526814 12.564672479999999 28.799512889779972 
Si 16.08437133 12.907853909999998 29.47778129167158 
Si 12.948806969999998 14.668884359999998 28.847953286639857 
Si 13.67845236 13.36169331 33.978761493317 
Si 13.317303059999999 15.23577636 31.074600290494377 
Si 15.600476879999999 14.48640378 31.222904010817004 
