&CONTROL
  dt          = 30.D0,
  prefix = 'x.33_y.66_z3.16_struc1-scf',
  pseudo_dir = './',
  outdir='./',
  wf_collect= .true.,
  verbosity= 'high',
/

&SYSTEM
ibrav= 6, celldm(1) =30.783621515, celldm(3) =2.107444715732142, nat=  432, ntyp= 1,
  ecutwfc     = 12.D0, nbnd= 1728,
  degauss     = 0.05D0,
  occupations = "smearing",
  smearing    = "methfessel-paxton",
/
&ELECTRONS
  electron_maxstep=200,
  conv_thr    = 1.D-8,
  mixing_beta = 0.3D0,
  scf_must_converge=.false.,
/
ATOMIC_SPECIES
Si  28.08  Si.pbe-hgh.UPF
K_POINTS {automatic}
1 1 1 0 0 0
ATOMIC_POSITIONS (angstrom)
Si 3.4775566199999997 3.46361238 1.5694050620497875 
Si 1.7247363299999998 1.6208093879999999 1.3720162832212728 
Si 1.34786718 4.08273012 4.073870674512295 
Si -0.001021861926 0.001031868873 5.429916514073721 
Si -0.00010544435549999999 2.7150868799999994 8.14585318393153 
Si 2.71490769 0.000244131714 8.14537256008966 
Si 2.71656927 2.7160317 5.427753706785306 
Si 1.356913017 1.357354476 6.787369894886337 
Si 2.7114216300000002 2.71578735 10.86034798226373 
Si 1.362278943 1.377291807 12.23373061040689 
Si 4.0728583800000004 1.357849692 9.501384069376666 
Si 2.89520541 0.15531619049999998 13.580953569442562 
Si 0.01285820199 2.7146633399999995 13.787793472818702 
Si 2.51491536 2.35721187 16.199117617754272 
Si 2.06982369 1.89032418 20.37855388610584 
Si 3.42958257 3.5012748599999997 19.002459166283558 
Si 1.83109374 0.9474394319999999 17.81277783655795 
Si 0.1253520387 1.69494192 19.153100410435346 
Si 1.476857916 1.5358668119999999 24.40346958929625 
Si 1.321596297 2.8061154 22.455535488472076 
Si 2.3405472 3.1392296099999997 25.970989919280417 
Si 0.934153308 3.7230143399999998 29.64491289680814 
Si 3.0050163 2.61004896 29.906715569529545 
Si 0.1509147954 0.0367028361 29.5481358532202 
Si 0.46058834699999995 3.27629367 27.390993060084956 
Si 3.75015348 0.720975852 28.69780928612914 
Si 1.5760135169999998 0.802942245 33.20286820734755 
Si 3.4202321099999997 3.94278273 33.603983133662375 
Si 3.42893097 2.07026352 32.22229257910975 
Si 2.71595025 5.42364147 2.7111956589605075 
Si 1.573798077 6.91424163 1.2806496908818101 
Si 0.000541613178 5.43097197 5.43372717453426 
Si 2.7146633399999995 5.430190049999999 8.145544211461758 
Si 1.356693102 6.78678867 6.787816188453787 
Si 4.07378691 4.09480101 12.254740738351488 
Si 1.3590812159999999 4.07337966 9.501109427181312 
Si 0.00282958929 5.42786058 10.861686862966081 
Si 1.354567257 6.786397709999999 12.23942943596049 
Si 3.6242643599999997 7.46924193 15.192965935074113 
Si 2.73160494 5.6021147099999995 13.829127123219513 
Si 1.3551716159999998 4.10993442 15.215452264818738 
Si 3.3200160299999997 5.16234987 20.92193346961415 
Si 1.135593819 6.05567718 20.66617292519054 
Si 1.524737484 6.88930164 18.499314664394642 
Si 3.62773413 7.82763822 17.69416673843935 
Si 0.30840228 5.08528188 17.188344475145726 
Si 0.739945557 7.3898607599999995 22.76886790309681 
Si 3.09961233 4.264852319999999 23.06232308883279 
Si 1.4539574339999999 7.409425049999999 25.16182535121807 
Si 3.0022958699999998 5.50632951 25.31311887058382 
Si 1.7539117199999998 5.89438989 29.53436941317807 
Si 3.51907983 5.93548956 27.945770294700463 
Si 1.457269191 5.377068359999999 33.68174120522204 
Si 1.9607295599999999 6.7165950599999995 31.749290058160955 
Si 0.011208350789999998 8.13318975 2.6954105987825243 
Si 1.3558183289999999 9.50159862 4.068755463623823 
Si 2.7074142899999996 10.87756605 2.692159521795019 
Si 0.00042077232899999996 8.14477194 8.145200908717564 
Si 2.7146796299999996 8.14594482 5.427959688431822 
Si 0.0011308827509999998 10.86121089 5.430328477366752 
Si 2.7152660699999998 10.859809949999999 8.144994927071048 
Si 1.358419842 9.503928089999999 9.501864693218538 
Si 2.7171719999999997 8.14395744 10.86175552351492 
Si -0.00183762603 10.85718726 10.85945539512883 
Si 1.3721050709999998 12.20683005 12.249179233895566 
Si 0.0961821873 8.27536887 13.635710357141308 
Si 1.85075577 9.14963688 15.134673129110181 
Si 2.8426864499999995 10.875138839999998 13.780687106013914 
Si 2.73434166 10.0812294 17.833616313130452 
Si 1.5127366409999998 10.470674429999999 21.427893054005448 
Si 0.7546228469999999 10.30785588 19.180530299696347 
Si 2.89388592 8.72119359 22.374550371117003 
Si 0.1230230574 11.576244149999999 23.105647895149914 
Si 3.8812553999999997 10.17168777 24.106547045843925 
Si 0.65099727 11.261391029999999 25.40903765731128 
Si 2.26468467 9.58158252 25.744581759485293 
Si 0.9326464829999999 9.22294188 29.31458699634586 
Si 3.84079104 11.667419279999999 28.8106528981453 
Si 2.9963174399999994 9.6096339 28.00148833008295 
Si 3.8241589499999997 10.92063681 31.13700961389316 
Si 2.92281696 8.433593639999998 34.25941673287521 
Si 0.267245595 11.40857118 33.56869161155936 
Si 0.48969694799999997 8.70335604 31.64111536346582 
Si 2.0271764699999997 10.08004023 32.76443627273897 
Si 2.73686661 16.27445934 2.7054178737757435 
Si 0.004981693769999999 13.566637799999999 2.678200832216141 
Si 1.501561701 12.31998039 1.102310781328552 
Si 1.35505107 14.93063208 4.068000197586599 
Si -0.0005029521209999999 13.575157469999999 8.14492626652221 
Si 2.71682991 13.57647696 5.429676202152786 
Si 1.3571036099999998 12.21740226 6.787266904063078 
Si 4.0772241 14.927406659999999 12.23043490406264 
Si 1.357536924 14.93281494 9.503409555567403 
Si 2.71461447 13.57408233 10.863643688607981 
Si 0.08835272459999999 13.603274009999998 13.680854668002656 
Si 1.319165829 15.278602769999999 14.877402052612123 
Si 2.11437684 15.04803411 17.2182118138905 
Si 2.84747571 12.325470119999999 20.966906129103403 
Si 2.9255048099999996 16.16463216 21.345088432106156 
Si 1.5347704949999998 14.308516979999998 21.043359650235132 
Si 0.574072632 14.31058581 18.89126340743952 
Si 3.92688369 12.29868936 23.00475121863166 
Si 3.08791611 16.217330309999998 23.688850596984587 
Si 3.4108979399999995 14.000831459999999 24.552462980275912 
Si -0.00369844902 14.580608849999999 25.282152963057634 
Si 0.35076768299999994 12.621768929999998 29.754838435498666 
Si 2.3440169699999998 15.321608369999998 29.590430751304748 
Si 1.7597109599999998 13.280341049999999 26.07195525634751 
Si 2.1793413599999996 13.2577794 28.436315585877512 
Si 3.0772135799999996 13.74151095 34.04835420574549 
Si 2.0695630499999997 14.894435699999999 32.212027827058385 
Si 0.25469740799999996 13.3548678 32.147315259778054 
Si 6.781070879999999 4.07867391 4.066318014140054 
Si 4.08183417 1.350481725 4.078230619363543 
Si 5.42372292 2.6989272 2.7012948078179884 
Si 6.84443898 1.440953127 1.2428108624168834 
Si 5.42997828 0.0009796056659999999 5.4325256149295855 
Si 5.42981538 2.71490769 8.144994927071048 
Si 6.786299969999999 1.3572681389999999 6.788056500374721 
Si 5.42986425 -0.001370590101 10.860897266654439 
Si 6.7986315 1.355857425 12.241866885444258 
Si 5.6760876 0.15897769380000001 16.470807409508428 
Si 4.304355569999999 1.4894012159999999 15.038651351559466 
Si 5.617801979999999 2.89149129 13.66925103524894 
Si 7.1464229999999995 1.334056518 18.03201096899945 
Si 5.618860829999999 1.8981270899999998 19.80111867037361 
Si 5.20696818 3.13181766 23.39443416356487 
Si 4.98531015 1.021852152 24.484248725004807 
Si 6.72855192 3.06437706 21.499300024797545 
Si 5.94485631 0.46990296899999995 29.48699363447947 
Si 5.82688413 3.18977748 27.207772385509276 
Si 7.405482869999999 1.71343107 28.000389761301534 
Si 4.1259312 1.73579724 26.577914840738806 
Si 5.60586141 1.063986237 31.908960164485013 
Si 7.88004315 3.05826831 34.21169765143241 
Si 7.522705709999999 2.61011412 31.828798973716005 
Si 4.079504699999999 6.77867625 4.069751041581982 
Si 7.14427272 7.0375080599999995 1.1938902213694143 
Si 4.0725 4.07240226 6.787129582965401 
Si 5.430206339999999 5.4317376 5.431427046148168 
Si 6.78801042 6.78713076 6.787129582965401 
Si 6.78915072 4.07365659 9.502516968432504 
Si 4.07442222 6.78905298 9.501109427181312 
Si 5.42476548 5.43038553 10.863094404217273 
Si 6.777063539999999 6.807314069999999 12.244887949593156 
Si 7.740372689999999 6.02666469 16.67277241391703 
Si 7.04615805 4.2809794199999995 15.156919146933872 
Si 4.4757915299999995 7.21138752 21.2944169470633 
Si 8.03181708 4.85494128 20.451986343088674 
Si 5.461841519999999 7.97742477 19.323103929359604 
Si 7.5026853 6.755723639999999 19.03232650502833 
Si 6.24856707 7.01737362 22.842334690354065 
Si 5.266117169999999 6.356260259999999 24.89645232995706 
Si 6.25863429 4.275229049999999 25.167180874027476 
Si 7.5464565299999995 6.11943624 29.916259385818105 
Si 4.62541518 4.11832377 28.993598930525625 
Si 6.23920032 8.0143542 26.253116114458035 
Si 4.751793 7.95947319 28.11203181371302 
Si 7.137903329999999 5.30983953 33.91539305291963 
Si 6.154280549999999 4.45699287 30.737645531573715 
Si 4.1252796 7.373945429999999 32.526149837994765 
Si 5.15394423 5.26913082 32.67981214629545 
Si 4.2226938 9.69673653 1.3416545885248645 
Si 5.44638231 8.149007339999999 2.681675055987372 
Si 6.7894276499999995 9.4972329 4.071604876400623 
Si 4.07300499 9.50285295 6.787816188453787 
Si 5.429701349999999 8.14545612 8.145029257345467 
Si 5.4325521 10.86147153 5.430431468190009 
Si 6.78892266 9.50415615 9.502379647334825 
Si 4.07561139 9.51081876 12.238262206630235 
Si 5.42680173 10.85998914 10.85852847771951 
Si 8.11471689 10.835521559999998 13.631041439820287 
Si 5.456221469999999 8.32291938 13.799122463377063 
Si 6.53308821 10.00300482 15.135462725421824 
Si 4.77336096 11.817547919999999 15.01987269145212 
Si 7.8129120599999995 10.13127228 17.46484050531858 
Si 4.26623697 11.53410192 19.143453603323525 
Si 7.24341366 10.710935639999999 21.43548004465211 
Si 6.219082169999999 10.192897349999999 19.389876313105095 
Si 7.22259504 9.14755176 23.224842607933645 
Si 6.10821243 10.118891879999998 25.066661830527835 
Si 6.559233659999999 8.27634627 29.57807185251381 
Si 8.04664098 10.035079829999999 28.83406614529925 
Si 7.30888317 11.42347653 27.116110552809808 
Si 5.646814469999999 11.067018749999999 34.222443027325646 
Si 5.327563049999999 9.10145106 31.397748048107566 
Si 7.1081740799999995 10.049121809999999 32.52203020506445 
Si 4.068671849999999 12.21846111 4.0713988947541075 
Si 4.24738944 15.042690989999999 1.2345818956385828 
Si 5.42654109 13.5909099 2.7092594314832605 
Si 6.883372079999999 12.30963624 1.430951065316845 
Si 6.78514338 14.93123481 4.071089922284334 
Si 4.073493689999999 14.932733489999999 6.78812516092356 
Si 5.43012489 13.575043439999998 8.14489193624779 
Si 6.787342529999999 12.21769548 6.787816188453787 
Si 4.074226739999999 12.21746742 9.501590051023182 
Si 6.788710889999999 14.932472849999998 9.501555720748762 
Si 6.7957481699999995 12.22285941 12.221783674908982 
Si 5.51820492 13.61516571 13.641924136811197 
Si 6.8997924 14.93667567 15.114177955281873 
Si 7.60281993 13.35810951 16.957233067755155 
Si 6.757271189999999 14.66157015 21.24034676485294 
Si 4.9897899 15.953758109999999 20.28527853050867 
Si 4.45197555 15.03039204 17.903718733494614 
Si 5.20276536 12.82148433 17.283919959128994 
Si 6.771964769999999 15.828895259999998 24.847772000830528 
Si 6.13944036 12.60318204 22.25940663071475 
Si 8.07184161 15.78888702 22.84209437843313 
Si 6.8925433499999995 12.39921495 24.442091148017933 
Si 5.52582864 13.90993326 25.574440919463353 
Si 5.59727658 12.90410721 27.73738552897546 
Si 6.58467864 14.51973312 29.127521331035226 
Si 6.6028257 13.40269524 31.249406932341873 
Si 4.655763449999999 12.599940329999999 32.613692037763926 
Si 7.730240309999999 14.628126779999999 32.94439557124481 
Si 5.961406949999999 16.069856939999998 33.961258299543786 
Si 12.0063816 1.212552666 1.2703849388304462 
Si 9.50239683 1.3591968749999999 4.076170802898387 
Si 10.84215159 2.7094179599999997 2.697463549192797 
Si 8.14490226 -6.520935869999999e-05 8.144994927071048 
Si 8.14671045 2.7118940400000002 5.427788037059726 
Si 10.85971221 -1.227658383e-05 5.430019504896979 
Si 10.860363809999999 2.71454931 8.14489193624779 
Si 9.50332536 1.357846434 9.502413977609244 
Si 8.14200264 2.71365336 10.861686862966081 
Si 10.57165614 0.32314473 16.557251040496165 
Si 8.23086459 0.04706132129999999 13.689917860449345 
Si 9.281488139999999 1.7893098899999997 15.268389547973264 
Si 10.81139607 2.77118964 13.72431679541746 
Si 8.26950447 3.21675372 17.00632536017472 
Si 10.14669891 1.6693340399999999 20.26080104484772 
Si 9.729642329999999 3.7677140999999996 19.120314998364936 
Si 9.163401930000001 0.09479721149999999 18.781578180669936 
Si 11.75667219 3.84823557 23.548542765433005 
Si 9.75489183 2.61741204 23.826789639601245 
Si 8.59079214 1.67441652 22.051330837459513 
Si 10.29026268 0.980586324 25.49342147183386 
Si 8.29594314 0.182161296 26.482648329225317 
Si 11.2819653 2.37490281 27.12970534147984 
Si 9.40472199 2.79397935 28.570409637759205 
Si 11.57850846 2.87684658 31.84071157893949 
Si 9.5825925 1.83265758 30.65521854269303 
Si 12.217581449999999 4.073184179999999 4.06700461962844 
Si 9.515184479999999 4.1386699799999995 1.2692039773904233 
Si 8.15747814 5.44970547 2.7056650517515624 
Si 9.499953329999999 6.78284649 4.0719138488703965 
Si 11.337269849999998 5.1536347199999994 0.08848353589373187 
Si 9.50159862 4.07360772 6.787404225160755 
Si 8.14501629 5.42986425 8.144823275698952 
Si 10.860217200000001 5.430401819999999 5.430637449836525 
Si 10.860298649999999 5.42893572 10.857670220859028 
Si 9.503227619999999 6.7862511 9.503306564744147 
Si 9.510281189999999 4.08391929 12.227139197718389 
Si 9.20712429 7.30808496 15.09632621258385 
Si 10.686337739999999 7.6299753599999995 16.987237727597602 
Si 8.32130667 5.64510402 13.586377752800809 
Si 11.89015245 4.7752506 18.707939742040583 
Si 12.076966169999999 5.95689462 22.470331836746784 
Si 8.37789813 5.91219486 22.513073028398782 
Si 8.466255089999999 4.47878889 24.469143404260326 
Si 10.21971069 7.43904027 22.383304591093918 
Si 11.58215742 4.35030966 25.85872992192938 
Si 10.609269750000001 7.96813947 29.94451320166517 
Si 10.976136839999999 5.68938024 29.687963060929913 
Si 8.711468459999999 7.77855645 26.169281584326157 
Si 9.55406871 5.57862453 26.216554372201504 
Si 9.086073299999999 5.069855249999999 28.45907655781749 
Si 10.74014361 5.10395022 32.0482037575296 
Si 8.545750289999999 5.91322113 32.001308602672864 
Si 9.68401404 9.79366203 1.2606797702521169 
Si 10.855411649999999 8.17192737 2.6980608959676924 
Si 8.150538599999999 10.854255059999998 2.719246108311828 
Si 9.50189184 12.21676695 4.074694601098358 
Si 12.21420942 9.50137056 4.070609298442464 
Si 8.14594482 8.14752495 5.430637449836525 
Si 9.502673759999999 9.50236425 6.787850518728207 
Si 10.86008688 8.14454388 8.144651624326857 
Si 8.14447872 10.860298649999999 8.144685954601275 
Si 10.860168329999999 10.86174846 5.430706110385364 
Si 8.14183974 8.14605885 10.861652532691663 
Si 9.5000022 9.510623279999999 12.223397197806689 
Si 10.85860449 10.861667009999998 10.861515211593987 
Si 10.36905741 11.446331399999998 17.008968791305005 
Si 10.88821971 8.22506535 13.609001403643111 
Si 11.88850716 9.64250712 17.057820771803637 
Si 9.57879693 11.078780129999998 21.44028628307081 
Si 10.528601669999999 9.10519776 20.590474670096036 
Si 9.22017258 8.46027666 18.694653925840324 
Si 10.25058024 10.92637089 23.69149402811487 
Si 9.39121758 8.79444972 24.132672384676997 
Si 12.204077039999998 9.00061596 27.171382294624845 
Si 9.876007979999999 8.83509327 27.889846277671463 
Si 8.377116209999999 8.563848479999999 34.05213053593161 
Si 10.36055403 11.6866089 34.28578238362921 
Si 9.075387059999999 8.225374859999999 31.830584147985803 
Si 8.18010495 11.49801957 30.769023402392932 
Si 10.33919784 12.22028559 31.68797618804813 
Si 8.14356648 16.310199599999997 2.703629266478499 
Si 12.2175 14.929524359999998 4.072154160791332 
Si 8.598090059999999 13.28923539 0.287709327706422 
Si 9.5952987 15.00238953 1.4105108199276075 
Si 10.88541783 13.563282059999999 2.7095375067060563 
Si 8.14716657 13.576102289999998 5.430465798464429 
Si 9.502543439999998 14.932472849999998 6.787987839825884 
Si 10.86020091 13.575010859999999 8.14444564268034 
Si 12.204663479999999 12.222272969999999 12.230091601318447 
Si 9.503439389999999 12.21932448 9.501452729925505 
Si 8.14265424 13.575857939999999 10.85990168869628 
Si 9.501614909999999 14.93504667 12.223980812471815 
Si 10.86238377 16.28863164 10.862476459277726 
Si 11.870018009999999 15.052741919999999 14.9573229314602 
Si 9.26918919 12.27878298 15.116443753393545 
Si 10.711065959999999 13.49696547 13.633993843420344 
Si 10.16706141 13.271967989999998 20.78299884903934 
Si 8.40217023 14.2628724 19.564033795234085 
Si 11.52620127 13.40885286 17.66745778494115 
Si 9.96407172 14.28302313 22.90601734940182 
Si 9.190818 12.805715609999998 24.599152153486123 
Si 12.095536769999999 15.75982566 25.175317149064842 
Si 12.02970888 12.2929227 29.890443019454807 
Si 9.95630139 15.90265638 29.839771534411955 
Si 9.28029897 12.82343913 26.956783749229945 
Si 11.52157491 12.50785296 27.55512610208352 
Si 8.68015908 14.82012072 28.097029483791797 
Si 9.93240396 14.78573253 32.01761548302203 
Si 11.11333122 15.73750836 34.107264956648976 
Si 16.27678881 2.71370223 2.677246450587285 
Si 13.56929307 0.0163196478 2.705242789376205 
Si 12.608492579999998 3.1537114199999996 0.12646517830024273 
Si 14.93120223 1.3563966239999998 4.069716711307563 
Si 14.631058979999999 3.94037181 1.194662652543848 
Si 13.574913119999998 -0.000299511198 8.144994927071048 
Si 13.576835339999999 2.7152009099999996 5.430122495720236 
Si 12.217092749999999 1.357468506 6.787369894886337 
Si 14.933303639999998 1.358139654 9.501624381297601 
Si 13.574733929999999 2.7141909299999996 10.863266055589369 
Si 12.21059304 1.366618599 12.24464763767222 
Si 12.53331423 1.7049276899999999 16.613346708897264 
Si 15.8674374 0.6894677339999999 15.033364489298897 
Si 12.427103429999999 3.99461751 15.152799514003561 
Si 12.521080439999999 1.5327912599999998 20.634829384645744 
Si 13.02328485 2.73043206 18.619092991843495 
Si 15.262687439999999 3.4855712999999997 18.38180213505746 
Si 15.419478689999998 3.6396746999999996 22.288518703422294 
Si 13.4322453 2.39809977 22.716548564881837 
Si 13.943914199999998 0.518639391 24.084644330764426 
Si 15.88900536 0.562975884 25.429258188944235 
Si 15.5238813 1.287027288 27.65983343906231 
Si 13.215034439999998 1.5783446159999999 28.387532265927717 
Si 15.49491768 3.22401906 31.44323566171311 
Si 15.817964669999999 0.92274705 31.78293372709185 
Si 13.387382639999998 3.0801783599999997 30.206933819326117 
Si 13.572860579999999 5.45480424 2.6948784795290255 
Si 12.34601181 7.029249029999999 1.2540849245361738 
Si 14.934883769999999 6.781543289999999 4.073355720396006 
Si 14.93268462 4.07386836 6.788296812295656 
Si 13.575238919999999 5.429424419999999 8.144994927071048 
Si 12.2178258 6.78700044 6.7875072159840135 
Si 12.21736968 4.07482947 9.502722950079018 
Si 14.93270091 6.78770091 9.502310986785988 
Si 14.94521163 4.05682902 12.231567803118477 
Si 12.20386527 6.78002832 12.223843491374138 
Si 14.69517642 6.64166106 16.924722297880102 
Si 13.59532449 5.4228432600000005 13.573263587972644 
Si 14.436865889999998 7.37937 14.729095267120849 
Si 12.347673389999999 5.869205549999999 16.72643063283436 
Si 14.165360459999999 8.05001301 20.01454998643825 
Si 13.194460170000001 5.903300519999999 20.349991097789005 
Si 15.34979007 4.830489989999999 20.302512328267145 
Si 15.590409659999999 5.4373739400000005 23.760978503539487 
Si 13.77990648 7.008462989999999 23.701861770989492 
Si 13.571866889999999 7.482339089999999 25.99224035914595 
Si 13.14739836 5.116688999999999 29.0754766350156 
Si 16.25614938 7.190634059999999 28.84985807153212 
Si 15.589725479999998 4.81069764 26.033505348997924 
Si 15.87473532 7.09030395 26.574275831650368 
Si 13.441449149999999 5.2805664 26.76772692800299 
Si 14.998398479999999 7.07521941 32.423879950499746 
Si 14.276376809999999 6.88306257 30.096905289812337 
Si 15.471101699999998 4.74737841 33.3126564249404 
Si 14.93219592 12.217239359999999 4.070437647070368 
Si 15.01685505 9.46945845 1.2347398149009114 
Si 13.588938809999998 10.851290279999999 2.6782523276277694 
Si 13.57509231 10.86002172 8.14496059679663 
Si 13.57602084 8.14589595 5.42902392693882 
Si 14.93312445 9.50187555 6.787541546258432 
Si 12.21642486 9.502250219999999 9.50310058309763 
Si 13.57387056 8.14395744 10.865222881231269 
Si 14.943126509999999 9.530285309999998 12.230984188453348 
Si 12.76116246 9.13676778 14.86233106214206 
Si 13.610588219999999 10.97735859 13.650060411848566 
Si 15.946948889999998 8.33735232 18.47655369245466 
Si 13.80030156 11.80370142 20.307970841899813 
Si 12.64121919 9.80340345 19.56859972173185 
Si 14.27144094 10.873574999999999 22.50232765250555 
Si 12.48784884 11.610550889999999 23.956558076906106 
Si 14.877461519999999 8.54110764 22.25971560318452 
Si 12.807800729999999 11.046134969999999 26.23807945426239 
Si 12.80441241 8.626450949999999 29.487439928046918 
Si 15.51653451 10.77546033 28.958582050617963 
Si 15.020341109999999 11.507402609999998 26.801370596933882 
Si 13.603306589999999 10.611615509999998 30.32887495406339 
Si 14.641272809999998 10.34473644 32.56157868119546 
Si 13.71787416 8.432583659999999 33.92033661243601 
Si 13.123957049999998 14.343801119999998 0.0434840987904325 
Si 12.34350315 12.28467996 1.1356454777896696 
Si 14.931544319999999 15.00590817 1.3398694142550622 
Si 13.57408233 13.57672131 5.42902392693882 
Si 12.2175 12.217679189999998 6.787884849002626 
Si 14.93281494 14.932049309999998 6.787404225160755 
Si 16.285389929999997 16.2924435 10.86275110147308 
Si 12.217614029999998 14.932847519999997 9.502448307883665 
Si 14.9323914 12.21702759 9.501178087730151 
Si 13.57678647 13.57654212 10.86134356022189 
Si 14.93375976 14.924555909999999 12.236236720439498 
Si 13.40709354 14.04544977 16.36527614594357 
Si 14.27375412 16.26194862 16.652139918991047 
Si 14.73063975 12.5806041 15.021863847368438 
Si 13.475674439999999 16.19276499 13.616004779624644 
Si 13.56543234 15.697027709999999 20.329221281765342 
Si 12.352446359999998 13.66468731 19.883717310626388 
Si 15.29513712 16.056515429999997 18.74045051191564 
Si 15.708609899999999 12.21888465 18.836575280289615 
Si 16.262062649999997 13.944451769999999 22.908489129160014 
Si 12.24055035 14.0194998 23.579474342684772 
Si 14.16449709 15.007472009999999 22.5122147715383 
Si 14.738507819999999 13.858456859999999 26.94950573105306 
Si 15.22924407 14.343849989999999 29.2206250352603 
Si 12.220725419999999 15.87437694 29.16082169722192 
Si 12.489543 14.62481991 27.168601542396882 
Si 13.25349513 14.2364826 30.456789556549616 
Si 14.483732219999998 14.57472816 32.43376706953249 
