&CONTROL
  dt          = 30.D0,
  prefix = 'x.33_y2.00_z3.16_struc23-scf',
  pseudo_dir = './',
  outdir='./',
  wf_collect= .true.,
  verbosity= 'high',
/

&SYSTEM
ibrav= 6, celldm(1) =30.783621515, celldm(3) =2.107078964909995, nat=  432, ntyp= 1,
  ecutwfc     = 12.D0, nbnd= 1728,
  degauss     = 0.05D0,
  occupations = "smearing",
  smearing    = "methfessel-paxton",
/
&ELECTRONS
  electron_maxstep=200,
  conv_thr    = 1.D-8,
  mixing_beta = 0.3D0,
  scf_must_converge=.false.,
/
&IONS
/
ATOMIC_SPECIES
Si  28.08  Si.pbe-hgh.UPF
K_POINTS {automatic}
1 1 1 0 0 0
ATOMIC_POSITIONS (angstrom)
Si 1.40675553 1.4638617539999998 1.214727257920502 
Si 4.07370546 1.358177121 4.072133917436841 
Si -0.000378957528 2.71528236 8.144645402353405 
Si 2.7151846199999996 -0.000432163926 8.144679726669743 
Si 2.71402803 2.71438641 5.4303814392630265 
Si 1.357595568 1.357628148 6.787942474762445 
Si 2.71401174 2.71539639 10.863714769731155 
Si 1.348494345 1.3646393639999999 12.235451747878326 
Si 4.073428529999999 1.3550771339999998 9.502446708067191 
Si 1.551283668 3.5682756299999996 17.116541152778197 
Si 0.7387775639999999 0.1577880351 21.207828038731858 
Si 0.49990263299999993 2.76605829 21.20926966001807 
Si 3.99541572 1.9708293599999998 20.47603361439751 
Si 3.7217600099999997 2.78985798 18.13878794196794 
Si 0.8868715829999999 3.4034697 24.773232074065138 
Si 2.72080467 3.60860967 21.584606059178295 
Si 0.1338790392 1.52632413 23.569890191874077 
Si 3.10906053 3.8427295499999996 23.99228522873423 
Si 1.92735135 1.9129998599999998 28.23168153968801 
Si 0.14660380979999998 2.6482327199999998 26.922174547062333 
Si 4.06762929 2.7359055 27.556693858893695 
Si 3.0361790699999998 2.6053248599999996 34.172087995423084 
Si 2.84050359 0.35758993499999997 31.478281324870384 
Si 2.64352491 3.78600777 31.908227711324983 
Si 1.587748833 2.15410815 30.60060855609791 
Si 1.357545069 4.06950264 4.07385013325376 
Si 2.7212445 5.43188421 2.7017836416697407 
Si 1.220081904 6.720830459999999 1.3841486509351306 
Si -0.008769851819999999 8.14400631 2.7358093364559806 
Si -0.000389984229 5.43002715 5.429969547466967 
Si 2.71450044 5.430466979999999 8.144370807822696 
Si 1.3570205309999999 6.787619459999999 6.78804544771146 
Si 1.355754798 4.07365659 9.502137789220146 
Si 1.361109321 6.78061476 12.222580129251432 
Si 3.6364981499999995 7.354478879999999 15.031201637956025 
Si 0.883572858 4.52888064 14.952667602173804 
Si 2.7047915999999996 5.508610109999999 13.717781673267769 
Si -0.029532466799999997 7.97613786 13.703365460405648 
Si 1.4935242149999999 7.812358199999999 17.60809968706019 
Si 2.2617198899999997 5.6836461599999994 20.511181714328018 
Si 1.114192017 5.49238527 18.45886219182337 
Si 4.0158108 5.9409141299999995 24.783254774435942 
Si 1.85955237 7.27579818 22.210509967608726 
Si 0.48261731399999996 7.482534569999999 24.15614951493367 
Si 2.28055113 7.184166929999999 25.653891058359047 
Si 1.3766548680000001 6.29621532 27.543341699838066 
Si 3.09452985 6.427089179999999 29.17601213078963 
Si 1.4829862139999999 5.932671389999999 30.913749294052987 
Si 1.094570712 7.92663255 32.25277519872968 
Si 4.005711 9.52095114 1.2230817965172645 
Si 1.9257223499999998 8.71731657 0.12963779416262491 
Si 1.358760303 9.50400954 4.0731293226106535 
Si 0.21226847399999998 10.49830227 0.2694764318978541 
Si 2.72028339 10.857366449999999 2.714497368441478 
Si 4.07145744 12.21606648 4.071962295855149 
Si 0.000659600019 8.14441356 8.144885672567773 
Si 2.7140769 8.14631949 5.430244141997674 
Si 0.0013510437299999998 10.85860449 5.429626304303582 
Si 2.71533123 10.85979366 8.14495432120045 
Si 1.3573723949999998 9.50229909 9.501245356995348 
Si 2.71446786 8.14431582 10.85805125753532 
Si 1.88416656 8.79581808 14.636163081217568 
Si 2.6136164699999997 10.716637139999998 13.602932510799537 
Si 3.8387385 8.369280719999999 17.923780424424308 
Si 3.28730571 10.47026718 21.374712864769077 
Si 1.25478612 9.33679269 21.327654227069154 
Si 0.294135498 9.22892031 19.16735040536395 
Si 0.224073837 11.302132319999998 17.98257797831196 
Si 3.79602612 10.49310576 18.96823504628499 
Si 2.64039723 11.83123152 17.336010831445822 
Si 3.44456937 8.82615006 26.88201509694642 
Si 0.153725472 8.26181559 27.972532951333214 
Si 1.151241993 11.757193469999999 28.435499330105333 
Si 1.9574064 9.575522639999999 28.66348143922488 
Si 2.1012145199999996 11.60051625 32.143932791620664 
Si 2.5505415899999995 9.35655246 31.0209784582941 
Si 2.7029182499999997 16.28232741 2.686639753301246 
Si 4.01335101 14.841265139999999 1.2431512242803175 
Si 0.007432507979999999 13.58432874 2.698409561373677 
Si 1.4181210629999998 12.21865659 1.3205148008754006 
Si 1.357927884 14.935519079999999 4.073266619876008 
Si -9.75443571e-05 13.574880539999999 8.144851348251434 
Si 2.71529865 13.57492941 5.428939817976815 
Si 1.35803214 12.217548869999998 6.787461934333708 
Si 4.07173437 14.919440849999999 12.200612566794867 
Si 1.3572551069999998 14.931283679999998 9.501794546056763 
Si 2.71679733 13.578122249999998 10.859836121984916 
Si 1.3455540000000001 12.194710289999998 12.232190937826179 
Si 2.76423381 16.26313779 13.556972251222442 
Si 3.44144169 12.384146699999999 15.062127846976908 
Si 2.47629177 15.577915229999999 16.82344581556474 
Si 1.95458823 14.36639535 14.81193790518643 
Si 3.11832954 16.22705544 21.26710613304824 
Si 3.77677134 14.20799139 20.20590124481443 
Si 3.6481455 13.895826119999999 17.858873142228425 
Si 0.204903765 15.98949837 17.23516599004365 
Si 2.74683609 12.69399879 21.69152630457236 
Si 0.43918002899999997 12.705532109999998 21.870012749531956 
Si -0.00700836525 14.785243829999999 22.794023345361246 
Si 3.9421962899999996 13.39003791 23.589626673768645 
Si 3.47410314 15.687009359999998 23.536595605025845 
Si 1.295489943 15.871298129999998 24.38262135413433 
Si 3.3724861199999996 12.46035132 25.640813493834127 
Si 1.0750732109999999 12.47822145 26.166867966036193 
Si 0.752651757 14.841346589999999 26.390696832878795 
Si 2.1813938999999998 15.872861969999999 27.936046203065512 
Si 3.21865965 12.871087379999999 34.12317584464089 
Si 2.4018301799999997 12.812704019999998 30.117974344063896 
Si 1.70821827 15.033926969999998 30.1085008327545 
Si 7.53093216 3.21237171 0.23595427483229833 
Si 5.42434194 2.7147936599999998 2.7359363364264326 
Si 6.58089936 1.3127166179999998 1.3105744788638045 
Si 5.43115116 0.001414087659 5.429591979987244 
Si 5.430304079999999 2.7147284999999997 8.144542429404389 
Si 6.78719592 1.35816246 6.787770853180754 
Si 4.068671849999999 4.0767028199999995 12.25515390545656 
Si 6.78125007 1.362277314 12.217877697913073 
Si 7.22301858 3.69139545 15.02622461208696 
Si 4.630579109999999 0.805402035 14.813757093952365 
Si 5.46246054 2.7133112699999997 13.712907620347718 
Si 4.38073938 0.801080298 17.12090034095317 
Si 6.264629009999999 2.3106224699999998 20.96652809487302 
Si 7.4370366 2.60452665 18.907206411835343 
Si 5.03325162 0.35451601199999994 24.940803386429124 
Si 4.760736209999999 2.66424579 25.21704548432044 
Si 7.47131076 0.44201774699999996 21.848971943616526 
Si 6.66855585 3.9437275499999997 24.48888943751796 
Si 7.793038259999999 1.411660449 28.016914292358745 
Si 5.48073792 1.028669517 28.455544730846952 
Si 7.84081683 2.021589 32.53522999787823 
Si 6.4646702099999995 0.1019506392 32.62406132856197 
Si 5.078505239999999 0.26248239900000003 30.672586647459504 
Si 4.7584556099999995 0.46407114899999996 34.275747430765 
Si 7.29862047 3.6661296599999997 31.00199711135897 
Si 4.1787108 4.11263856 1.3342445274107542 
Si 6.78727737 4.07106648 4.072168241753179 
Si 4.0711968 6.788743469999999 4.070589323201614 
Si 6.814090709999999 6.88824279 1.2577836803353704 
Si 4.07238597 4.07194614 6.787976799078783 
Si 5.430206339999999 5.4285773399999995 5.429797925885274 
Si 6.78784752 6.787586879999999 6.787599231599062 
Si 6.788906369999999 4.07253258 9.503201843026636 
Si 4.07069181 6.78714705 9.502103464903806 
Si 5.427469619999999 5.43279645 10.863508823833124 
Si 6.77263266 6.79361418 12.237236612327921 
Si 8.08332606 5.3303160599999995 13.53596576962335 
Si 7.99011468 8.10435645 16.344347008113576 
Si 4.7032650899999995 4.87351188 17.740145332013956 
Si 5.57886888 6.447044429999999 21.32923314562072 
Si 7.470870929999999 7.7216717699999995 20.832354342306274 
Si 4.2127243199999995 6.495832979999999 19.412700618550723 
Si 7.702026029999999 6.911293139999999 18.569592436331 
Si 7.046923679999999 4.579330769999999 17.490367282019534 
Si 7.85150307 7.32965292 24.79863206815554 
Si 6.5694312 4.367349 22.094974318813723 
Si 4.138718849999999 7.3466271 22.935336555726373 
Si 6.22574478 5.863520339999999 25.738019957704427 
Si 6.66111132 5.19843222 28.045986988297358 
Si 6.98217093 7.14841038 29.265735893698164 
Si 4.55147487 4.59493659 28.858203285812532 
Si 5.90168781 5.12258598 34.31631877267697 
Si 4.91923791 4.10682303 31.11032465372291 
Si 7.54609815 6.06168819 31.405307828334983 
Si 5.34106746 6.15796209 32.177845216162986 
Si 5.41308555 8.150766659999999 2.691627076465213 
Si 6.78815703 9.50493807 4.070005809823861 
Si 4.07235339 9.50317875 6.787599231599062 
Si 5.42989683 8.14501629 8.14471405098608 
Si 5.42966877 10.860152040000001 5.43051873652838 
Si 5.429245229999999 10.85818095 10.859664500403225 
Si 8.14682448 8.14638465 10.860076392199286 
Si 6.78621852 9.501289109999998 9.502584005332546 
Si 4.0909565699999995 9.50075154 12.228964452090372 
Si 6.791740829999999 12.21499134 12.223815804639614 
Si 5.4765025199999995 8.252334809999999 13.745961936981583 
Si 6.64146558 9.8986185 15.253554559196076 
Si 6.66394578 11.85242481 17.087193862308876 
Si 7.645744079999999 10.051988849999999 20.861873254357285 
Si 6.14551653 11.33630874 19.447848718481225 
Si 6.83256357 10.528960049999998 23.03353842477049 
Si 4.656529079999999 9.62647776 23.18940514526309 
Si 7.89491592 9.69657363 25.035538499523064 
Si 4.43532717 10.39702734 25.46644596683514 
Si 5.5545642 10.542415590000001 28.867951391652632 
Si 6.50270736 10.812292020000001 26.622248670897534 
Si 4.818582 8.21099079 28.792403571391848 
Si 8.08800129 8.27779608 33.97654236524331 
Si 5.110466219999999 11.20546746 34.26345932551586 
Si 7.248919679999999 10.746692190000001 30.47827669266791 
Si 6.27599943 9.805325669999998 32.626429706389324 
Si 4.73418351 8.330396489999998 31.48624456626089 
Si 5.44393881 13.584735989999999 2.694750589252006 
Si 6.831146339999999 12.23776476 1.245286196756565 
Si 6.7867723799999995 14.931951569999999 4.072202566069517 
Si 4.07256516 14.932505429999999 6.787667880231738 
Si 5.429766509999999 13.57512489 8.14471405098608 
Si 6.787831229999999 12.21720678 6.787736528864415 
Si 8.14312665 13.575287789999999 10.861826932332542 
Si 4.07284209 12.21777693 9.502858599863252 
Si 6.78665835 14.93454168 9.501897519005777 
Si 5.431346639999999 16.2901629 10.857605041422921 
Si 5.81939073 14.083552079999999 16.863399319782616 
Si 5.2509186 13.40864109 13.557143872804133 
Si 6.161366699999999 15.187574249999999 14.775107913755344 
Si 8.078390189999999 16.22958039 13.567681437920017 
Si 5.948961389999999 13.3877736 20.691555996686226 
Si 7.37244675 15.09856569 19.999303184773698 
Si 6.47786511 16.159256459999998 18.021570401672363 
Si 6.18513381 12.82347171 23.003127080494682 
Si 7.26727851 16.1556075 24.232727064684607 
Si 7.75382823 13.85324406 24.43335269368246 
Si 7.114852979999999 13.160593259999999 26.647030827293847 
Si 4.59478998 12.71973699 29.36513911381412 
Si 4.39678503 15.791183909999999 27.06980343163372 
Si 4.83228189 13.55417595 27.17435529920044 
Si 7.78031577 13.085349749999999 30.502509660002808 
Si 5.78493738 14.282534429999998 30.653879895055084 
Si 12.13476309 1.299129129 1.251378762906628 
Si 8.133580709999999 -0.0018957487499999999 2.6842267538626574 
Si 9.50296698 1.359732816 4.068220945374265 
Si 10.848651299999998 2.71855665 2.691565292695804 
Si 8.14519548 0.00038375004599999996 8.14430215919002 
Si 8.14465791 2.7156570299999996 5.430415763579365 
Si 10.860363809999999 -0.00204169086 5.429969547466967 
Si 10.859809949999999 2.71500543 8.144679726669743 
Si 9.51371838 4.07417787 12.205898511510977 
Si 12.20981112 1.333893618 12.23984526036964 
Si 9.501484589999999 1.3574750219999998 9.501897519005777 
Si 8.145716760000001 2.71217097 10.857708014371939 
Si 10.86327972 0.000833617944 10.859321257239841 
Si 8.481193020000001 0.7532365679999999 17.04514657479436 
Si 8.81872182 1.7622033299999997 14.873550053013828 
Si 10.76754339 2.65649175 13.604854672514486 
Si 9.66081708 1.6752798899999999 19.341477662148574 
Si 11.41720488 3.23089344 19.0401444890139 
Si 9.97280316 3.0444381 22.984797895569987 
Si 9.74762649 1.031728779 21.6745700923012 
Si 8.87565537 3.2302418399999997 25.05578984616271 
Si 9.1364094 -0.008921430269999999 29.340253984468795 
Si 8.24197437 3.5663697 28.8996670599493 
Si 8.67085749 1.060148313 25.822903992009252 
Si 10.94922576 0.421383204 26.202977146824175 
Si 11.357404289999998 0.1087192971 28.521927958645385 
Si 12.22046478 4.0734774 4.074433646631513 
Si 12.14743671 6.69841542 1.2716472717044436 
Si 9.42586641 4.086770039999999 1.3098571006523325 
Si 8.13729483 5.457508379999999 2.710121018108334 
Si 9.500393159999998 6.785632079999999 4.071378782477396 
Si 8.14506516 8.14423437 5.430450087895704 
Si 9.502217639999998 4.07271177 6.787702204548077 
Si 8.145032579999999 5.42997828 8.144370807822696 
Si 10.860282360000001 5.43035295 5.429969547466967 
Si 9.502087320000001 6.786984149999999 9.501622924475068 
Si 10.86055929 5.430255209999999 10.860488283995348 
Si 9.381020040000001 6.71817519 14.906741666913046 
Si 10.824069689999998 8.08930449 13.650368715979182 
Si 12.10943214 4.48864434 16.950960650761832 
Si 9.97708743 5.363547659999999 16.656801259741883 
Si 10.002418379999998 6.68241864 18.539970551330974 
Si 10.56865878 5.14879659 20.178647737641754 
Si 8.891033129999999 4.7492354699999995 21.81516249202322 
Si 8.864529300000001 6.97832649 22.643545542533772 
Si 11.0899062 7.85412576 22.810293071305644 
Si 11.991362220000001 4.21231707 23.108228137122815 
Si 12.159817109999999 6.067764359999999 21.645497396362586 
Si 11.341993949999999 8.05890735 25.149975770195237 
Si 10.906904339999999 6.55136559 29.378868840349476 
Si 9.647345249999999 6.864540839999999 26.263696862426777 
Si 10.34384049 4.57476957 26.423545203614626 
Si 9.09376218 7.7468561099999995 28.464503377411273 
Si 10.53591588 4.29554268 28.788284653431244 
Si 11.25570582 7.412813369999999 31.556197522958517 
Si 9.379716839999999 6.6432737699999995 32.81912641831301 
Si 10.823613570000001 5.314563629999999 34.11716908928167 
Si 9.49483827 9.492590250000001 1.1893101016719285 
Si 10.860445259999999 8.15097843 2.689481806694064 
Si 8.14245876 10.84957983 2.6927872383574503 
Si 12.21609906 9.50604579 4.070760944783305 
Si 9.502250219999999 9.50278779 6.787805177497091 
Si 10.859679629999999 8.145244349999999 8.144748375302418 
Si 8.145 10.85976108 8.144988645516788 
Si 10.85870223 10.85857191 5.429935223150628 
Si 12.21487731 12.22430922 12.219902832577038 
Si 9.49421925 9.492818309999999 12.22834661439628 
Si 10.859109479999999 10.86222087 10.862959634771709 
Si 11.68177077 9.7937109 15.034119204844789 
Si 9.6676263 9.76062591 16.76032339781845 
Si 9.04704246 12.00726126 16.93592660020562 
Si 8.145374669999999 10.89141255 13.632108179687163 
Si 9.9657333 11.809875329999999 14.78516493844249 
Si 9.99572319 10.390152959999998 20.369971476911907 
Si 10.708215209999999 8.90779554 18.639064852599887 
Si 11.378125169999999 11.55203721 24.019847654753953 
Si 11.57195988 10.086816869999998 22.14114052428885 
Si 10.20705336 10.125065789999999 25.484225962698417 
Si 9.22072644 9.870273899999999 29.51187556616071 
Si 10.322924129999999 10.93664988 27.703910851669022 
Si 10.44242757 11.1115719 34.10989233421793 
Si 10.5153579 9.78905196 31.634045072413972 
Si 9.502608599999999 12.21924303 4.068735810119341 
Si 9.57158046 14.897791439999999 1.2972600765561457 
Si 10.88198064 13.56399882 2.7003900744264024 
Si 8.14436469 13.57519005 5.43051873652838 
Si 9.50272263 14.932114469999998 6.7876335559154 
Si 10.86033123 13.574750219999999 8.144919996884111 
Si 9.50229909 12.21557778 9.502343735118174 
Si 9.51881715 14.923920599999999 12.234833910184234 
Si 10.99154718 13.6303317 13.698148164322212 
Si 9.60635961 14.33433663 19.86725753981994 
Si 10.285571159999998 12.26723337 18.952136941922287 
Si 10.1823903 15.78693222 18.134428753792967 
Si 10.07702658 13.61765808 23.799622841126876 
Si 10.58472072 15.009996959999999 21.897506526919003 
Si 11.17305036 14.45377491 25.68931375282026 
Si 12.104545139999999 14.23519569 29.215313472997078 
Si 10.63901529 13.256606519999998 27.683865450927406 
Si 8.54425161 14.007950189999999 28.472638240383468 
Si 10.88305578 16.17991218 34.05548829282159 
Si 8.819210519999999 13.001586569999999 34.260404461361745 
Si 11.487479939999998 13.459531049999999 31.343386761660536 
Si 9.220644989999998 13.90046877 32.083933886661164 
Si 9.23704902 16.294724099999996 31.95607580830069 
Si 15.825735 0.488685339 0.06868604618157648 
Si 16.3134576 2.71639008 2.7110100179014984 
Si 13.55152068 0.00803417913 2.7192821781390486 
Si 14.14773468 2.1542547599999997 0.22620205007423674 
Si 14.930925299999998 1.35725022 4.0694566207624465 
Si 14.959269899999999 4.03441398 1.36418906098436 
Si 13.57483167 -0.0001034411742 8.144817023935095 
Si 13.574587320000001 2.71555929 5.43031279063035 
Si 12.218037569999998 1.357115013 6.787427610017369 
Si 16.28910405 -0.0017848790099999998 10.861209094638454 
Si 14.931918989999998 1.357895304 9.502584005332546 
Si 13.578089669999999 2.7171719999999997 10.861415040536484 
Si 14.922617399999998 4.07512269 12.203633106632644 
Si 16.2096903 2.7510389099999997 13.607909536668602 
Si 15.99427134 1.95949152 16.99015902002027 
Si 14.49868644 1.88371044 14.98376543277638 
Si 12.55805874 3.4322215499999995 14.919544636907263 
Si 13.288372019999999 2.0672335799999995 19.956741032514103 
Si 15.38950509 2.77493634 19.132957440392893 
Si 14.07239343 1.1993284439999998 23.569993164823092 
Si 13.610783699999999 2.93679378 22.097274048008394 
Si 12.835591469999999 1.7516311199999999 25.51367622611675 
Si 13.186250009999998 1.4473045979999999 29.105715930928618 
Si 14.464933559999999 1.270046592 27.13141557946112 
Si 12.33372915 3.36370581 30.07616732676374 
Si 14.35282578 0.554581647 30.913955239951015 
Si 14.94076446 2.47171428 32.293449513590666 
Si 13.56430833 5.41852641 2.7051474246709026 
Si 14.93187012 6.788776049999999 4.074193376417144 
Si 14.084350289999998 7.36501851 0.10264652476677343 
Si 14.93257059 4.07241855 6.78783950181343 
Si 13.57558101 5.42963619 8.144817023935095 
Si 12.21746742 6.787456559999999 6.787805177497091 
Si 13.57729146 8.14408776 10.864675850588629 
Si 16.290325799999998 5.429212649999999 10.858360176382368 
Si 12.21727194 4.07222307 9.502172113536483 
Si 14.93302671 6.7863162599999995 9.5013826542607 
Si 12.2222241 6.78085911 12.239570665838933 
Si 13.82670765 6.30918216 16.966887133542844 
Si 13.52345301 5.27695002 13.650986553673274 
Si 15.282284309999998 6.18194097 15.013455966409081 
Si 14.290272179999999 6.25029381 20.53623846525504 
Si 15.07434246 5.06838915 18.610850264569734 
Si 15.323595749999999 4.5917274599999995 22.01750433683799 
Si 15.87416517 5.30289999 24.20166355839837 
Si 12.417785549999998 4.08158982 25.408506520855944 
Si 15.65868105 5.47013313 29.8201079268794 
Si 14.776854479999999 7.5971673 29.479336114271927 
Si 14.261357429999999 5.436526859999999 25.924881535850588 
Si 13.42462158 7.6352533199999995 26.15808094105357 
Si 15.84454995 4.79069352 27.606395468951675 
Si 12.68529993 7.78178187 28.408932309259427 
Si 15.907901759999998 5.65176663 34.31319525989018 
Si 14.033737259999999 4.63292487 31.25599705226301 
Si 13.4803008 6.85496232 32.23674574299965 
Si 12.224081159999999 12.16706616 1.101144662725156 
Si 14.786563319999999 9.31812435 1.3684761680950244 
Si 13.556163329999999 10.85873481 2.690288428128016 
Si 13.574913119999998 10.86055929 8.144611078037066 
Si 13.57519005 8.14283343 5.43051873652838 
Si 14.93245656 9.50226651 6.787530582966385 
Si 12.216343409999999 9.502869239999999 9.502481032383528 
Si 14.934427649999998 9.49550616 12.254707689344158 
Si 16.2924435 10.86181362 10.860419635362671 
Si 13.4803008 10.8629865 13.652531147908503 
Si 14.230976579999998 11.22227874 17.091930617963577 
Si 13.034981069999999 8.899129259999999 17.75998478685754 
Si 13.833777509999999 10.348157339999998 21.41494096351766 
Si 14.386203989999998 8.63081667 19.825725117050492 
Si 15.94750275 10.59877899 22.580423124787483 
Si 15.76909467 11.07628776 24.870953402680513 
Si 13.54075299 11.93858262 25.22270899651627 
Si 15.18724845 11.692717649999999 28.989940011919252 
Si 15.34131927 9.038571659999999 26.04257961657491 
Si 14.003910269999999 10.72440747 27.225223936013922 
Si 12.278115089999998 10.12001589 28.64374495733031 
Si 12.311770229999999 11.04000993 30.86802930469026 
Si 14.61151098 10.762802999999998 31.128997081810994 
Si 15.13689606 8.53866414 31.59920589133051 
Si 16.07471136 11.757535559999999 32.62876375990033 
Si 12.21943851 14.929964189999998 4.0765617542444925 
Si 14.935176989999999 12.21574068 4.066985269986083 
Si 14.932049309999998 14.99905008 1.370309086587494 
Si 16.289429849999998 16.288403579999997 5.429694952936259 
Si 13.572990899999999 13.57701453 5.431205222855149 
Si 12.217532579999999 12.21746742 6.787427610017369 
Si 14.93226108 14.93235882 6.7876335559154 
Si 12.216555179999999 14.931918989999998 9.502343735118174 
Si 14.931902699999998 12.217043879999999 9.501657248791409 
Si 13.57352847 13.572599939999998 10.860968824424083 
Si 14.94716643 14.93498151 12.240222827849362 
Si 12.8200671 14.453221049999998 15.163212958593451 
Si 14.44918113 12.503894489999999 15.04427920248095 
Si 13.60809585 16.2502524 13.732060588864536 
Si 16.26269796 13.4918667 13.680368168458932 
Si 12.55646232 12.68088534 18.17668198720552 
Si 12.79424745 14.455436489999999 21.328683956559306 
Si 13.57584165 12.43425474 20.254676098331274 
Si 13.5316143 15.99379893 19.689114338023725 
Si 15.79919859 13.05661419 19.755360268556807 
Si 15.81819273 15.42879657 19.431922235700217 
Si 12.40677351 14.995808369999999 17.59134942068706 
Si 14.02629273 15.158887559999998 23.177597580442686 
Si 13.470852599999999 14.25979359 25.276598173167535 
Si 14.410362059999999 13.91403834 28.87334030931776 
Si 14.81979492 15.21090153 26.93662508424079 
Si 13.64113197 13.721718599999999 34.22529068574758 
Si 15.664317389999999 14.94426681 30.556673431184777 
Si 15.53574042 14.07249117 32.78212480530023 
Si 12.68152065 15.232664969999998 32.682961855398645 
