&CONTROL
  dt          = 30.D0,
  prefix = 'x.66_y2.00_z3.16_struc46-scf',
  pseudo_dir = './',
  outdir='./',
  wf_collect= .true.,
  verbosity= 'high',
/

&SYSTEM
ibrav= 6, celldm(1) =30.783621515, celldm(3) =2.108862401886256, nat=  432, ntyp= 1,
  ecutwfc     = 12.D0, nbnd= 1728,
  degauss     = 0.05D0,
  occupations = "smearing",
  smearing    = "methfessel-paxton",
/
&ELECTRONS
  electron_maxstep=200,
  conv_thr    = 1.D-8,  mixing_beta = 0.3D0,  scf_must_converge=.false.,
/
&IONS
/
ATOMIC_SPECIES
Si  28.08  Si.pbe-hgh.UPF
K_POINTS {automatic}
1 1 1 0 0 0
ATOMIC_POSITIONS (angstrom)
Si 0.031209196499999998 2.71223613 2.7265993772715094 
Si 1.496006811 1.5766439399999999 1.2176929361352218 
Si 4.07085471 1.356481332 4.069877922729888 
Si -2.98141209e-05 2.71487511 8.145114970949944 
Si 2.7147122099999996 0.00046020878999999997 8.144977557475837 
Si 2.7156081599999995 2.71661814 5.430717910179128 
Si 1.3571280449999998 1.357821999 6.787435493405162 
Si 2.7130343399999997 2.71533123 10.86171064730647 
Si 1.37147139 1.3598126369999999 12.245464331563038 
Si 0.0335386665 2.73429279 13.698096519715694 
Si 0.0277894368 0.400918077 18.24043631979366 
Si 0.9888241769999999 0.657526302 20.83040547976067 
Si 2.1177488700000002 3.98994228 19.294397666193646 
Si 1.8723888899999999 1.68234975 18.751236556417567 
Si 3.9223550699999996 1.303968888 17.532859988248664 
Si 3.22014204 0.37547309700000003 21.610536125634116 
Si 0.027319796099999998 1.94720886 22.612314705242007 
Si 1.076477409 1.132555734 24.579457293819456 
Si 3.93779799 2.94316317 25.191222080543408 
Si 1.64348181 3.1329416699999997 25.69786555957558 
Si 1.83480786 3.0840716699999997 28.018229483344836 
Si 2.8401289199999997 1.033181847 28.542977187590594 
Si 3.0546845099999995 2.96686512 33.99224591677415 
Si 0.599717979 1.1447830079999999 31.909469889735742 
Si 2.84785038 0.5923988819999999 30.833659800952756 
Si 1.3550917949999999 4.07033343 4.075546228536798 
Si 0.118600974 5.551469099999999 0.0651130311718733 
Si 2.7271088999999997 5.4232667999999995 2.703843705959405 
Si 1.5598261439999999 6.93716166 1.2981416545511113 
Si 2.71485882 5.430369239999999 8.145664624846372 
Si 1.357546698 6.7872936600000005 6.787710320353376 
Si 4.06319841 4.07797344 12.256766589808333 
Si 1.358115219 4.0720927499999995 9.502657035020619 
Si 1.419544809e-06 5.43129777 10.864149736471868 
Si 1.370880063 6.781608449999999 12.227772346771774 
Si 2.7146470499999995 8.14232844 10.859374618246653 
Si 3.3268252499999997 7.509380489999999 15.196968341905324 
Si 0.723417723 4.58289828 15.253410926394738 
Si 2.6495684999999995 5.5276042499999996 13.848667333968338 
Si 3.25977561 4.86849456 17.3142695043131 
Si 0.053177076000000004 5.12256969 19.083845870493338 
Si 0.6940061279999999 7.39512243 18.776486282284708 
Si 2.87906202 7.244097839999999 17.806037974773197 
Si 0.399798954 4.9697532 24.859918194471653 
Si 2.95368651 7.11731277 21.65024861965101 
Si 0.641954691 4.24333323 22.61908231884177 
Si 2.6919225 4.70663712 21.559383959897822 
Si 3.5380088099999996 7.41098889 25.669352263698396 
Si 2.8860667199999996 5.12382402 28.526178390381023 
Si 1.22572476 6.94587681 25.844897976869973 
Si 1.178816076 6.688934639999999 28.185942628492317 
Si 2.7851664599999997 5.12283033 32.93251320446168 
Si 3.72669588 5.4185427 30.702498639917714 
Si 3.64257432 7.04741238 34.22382197401282 
Si 0.6498129869999999 5.4048916799999995 32.13812591064964 
Si 3.7052745299999996 9.14380506 1.3443263231984433 
Si 0.0139087278 8.15713605 2.696907760853859 
Si 1.3533552809999998 9.50604579 4.07530575495711 
Si 2.7028856699999997 10.8496287 2.7114151883826962 
Si 0.000281212641 8.14452759 8.144908850738783 
Si 2.7169602299999998 8.14734576 5.428725414804578 
Si 0.0021840003 10.859663339999999 5.431301917444083 
Si 2.7151846199999996 10.85976108 8.144874497370257 
Si 4.07671911 9.498405779999999 12.224646190235841 
Si 1.3576183739999999 9.500914439999999 9.501832554175976 
Si 1.372746897 12.22512372 12.248109540939597 
Si 0.12182476499999999 8.20685313 13.595139474241092 
Si 1.590972624 9.409706729999998 15.013074760181754 
Si 2.85495282 10.88650926 13.685832367151653 
Si 3.9448026899999995 8.197209449999999 19.766138122802666 
Si 0.8744276519999999 8.18293941 20.9881561480354 
Si 0.918777177 10.50792966 20.630262754723958 
Si 3.1356295199999997 10.47945474 19.48784148436765 
Si 0.681319476 10.74806055 24.890149158775174 
Si 3.00038994 10.9081098 25.36415693770695 
Si 1.013876568 10.27358172 29.827037396382597 
Si 2.43946008 8.59074327 28.976654111871998 
Si 3.6217557 9.35604747 27.025554546396528 
Si 0.375425856 12.178615769999999 28.536106513885247 
Si 1.31046534 11.354390639999998 32.131530063892505 
Si 3.6817028999999994 11.86456086 32.84996205989195 
Si 2.7214073999999995 16.3028691 2.679926890791098 
Si 0.00433261872 13.598549910000001 2.7073443142122784 
Si 1.3982749559999998 12.282708869999999 1.3509874413557756 
Si 1.3555756079999999 14.92835148 4.07121770410243 
Si -0.00044181737999999995 13.57499457 8.144977557475837 
Si 2.713914 13.5738054 5.430717910179128 
Si 1.35682668 12.21741855 6.7881225607756965 
Si 5.08855617e-06 16.2924435 10.865455164475883 
Si 1.358116848 14.931528029999999 9.502176087861244 
Si 2.7151520399999995 13.576232609999998 10.86119534677857 
Si 2.6672757299999996 16.197489089999998 13.730319979393764 
Si 0.659477844 15.37246575 15.02362124431946 
Si 0.8476240859999999 14.630993819999999 17.39465638666564 
Si 3.99798954 14.86172538 20.324723895047246 
Si 2.92851846 13.90292856 18.450197988017855 
Si 2.6856997199999997 13.94951796 23.697778090581 
Si 3.0353808599999996 16.23511899 23.9399349853259 
Si 0.36411570899999995 13.71505599 23.01503924448083 
Si 3.89972826 13.08300399 25.53430917201983 
Si 3.9946500899999995 13.84179219 27.724679949283953 
Si 0.9651059369999999 15.954002459999998 28.155711664188797 
Si 1.93570812 13.916986829999999 28.79104286172209 
Si 2.86389603 13.54715496 34.30269730815019 
Si 1.155330783 13.9245291 32.52552884752554 
Si 2.76208353 14.55845445 30.90291619190264 
Si 6.7888575 4.07399868 4.0731758461084535 
Si 5.442700769999999 2.69358408 2.718048823845207 
Si 6.84341271 1.378717182 1.292614197555161 
Si 5.430190049999999 0.000199058913 5.429927782703014 
Si 5.43032037 2.7145656000000002 8.14473708389615 
Si 6.7878801 1.357393572 6.787366786668109 
Si 6.787391399999999 4.07170179 9.501866907544505 
Si 4.07162034 1.358384004 9.502622681652094 
Si 5.43056472 0.00041166947699999997 10.861023579935935 
Si 6.783465509999999 1.3662423 12.233955953106586 
Si 8.03041614 0.0636367221 16.189402805273943 
Si 4.27682547 1.134657144 15.073399275314689 
Si 5.40963207 2.70011637 13.706513095004743 
Si 5.64088491 2.07475956 19.097518511166975 
Si 7.304142779999999 0.503277921 18.57496942250693 
Si 5.058566279999999 1.79550009 21.436433253940663 
Si 4.68013329 0.7144419329999999 25.464159593488255 
Si 6.84523719 1.233614007 24.72724548522143 
Si 7.27956117 3.55534137 24.849165590122787 
Si 6.72560343 0.440817174 22.536428114166466 
Si 4.33535544 3.5655226199999994 22.870480269720357 
Si 6.637409369999999 3.2784276599999997 28.61082509043088 
Si 5.647857029999999 3.94703442 26.506990448485585 
Si 8.09329554 1.3848471089999999 28.388009142166528 
Si 4.2333637500000005 1.83987405 32.21507745614951 
Si 5.17551219 3.3762002399999997 30.62558144778637 
Si 6.0738894 0.301840668 32.28192911130252 
Si 8.03201256 2.88570834 34.08242350915681 
Si 4.28013234 4.13779032 1.3355799555715386 
Si 4.07567655 6.782146019999999 4.07351937979372 
Si 6.91416018 6.906731939999999 1.3341611614513846 
Si 4.0726629 4.07274435 6.788053854038643 
Si 5.4295547399999995 5.42887056 5.431473684286717 
Si 6.787407689999999 6.78675609 6.7879851473015895 
Si 4.07264661 6.78932991 9.501351607016604 
Si 5.4305973 5.42996199 10.867516366587488 
Si 6.78405195 6.79385853 12.26446174435832 
Si 6.67090161 8.02671831 17.09987013133779 
Si 6.69235554 4.13629164 15.089785832101935 
Si 5.63493906 5.355304919999999 16.937859645365748 
Si 7.087746419999999 4.94158779 20.923846642153368 
Si 7.85858922 7.120684799999999 20.447228007213557 
Si 6.61123134 4.19575014 18.7638785960354 
Si 6.260442479999999 4.81374387 23.134279786637098 
Si 4.32154152 7.87274523 23.500108808078213 
Si 6.492835619999999 7.02545346 23.899707190781104 
Si 7.41059793 7.58340225 26.046071302962485 
Si 7.8731687699999995 5.28038721 29.115716547668185 
Si 4.63219182 5.93491941 27.15286813015658 
Si 6.50371734 6.937373429999999 28.144581172786136 
Si 5.622069959999999 5.52366207 34.340382953424005 
Si 4.11871473 7.838259299999999 30.589304290622145 
Si 8.15532786 5.63309829 31.44071817618855 
Si 6.6142449899999995 4.169946779999999 32.559985276157846 
Si 7.54481124 7.82100819 32.28464302741613 
Si 8.14747608 10.85155092 2.6983265549740127 
Si 5.421149099999999 8.14969152 2.7041254035813242 
Si 6.78916701 9.50205474 4.071011583891269 
Si 4.074096419999999 12.22106751 4.073072786002873 
Si 6.56791623 11.96682948 1.3257755041940107 
Si 8.14309407 8.14273569 5.430202609651227 
Si 4.07220678 9.50257602 6.78777902709043 
Si 5.42999457 8.14501629 8.145252384424051 
Si 5.43048327 10.86114573 5.429549895649219 
Si 8.14627062 8.145097739999999 10.86401232299776 
Si 6.78823848 9.50311359 9.501935614281559 
Si 5.42890314 10.85958189 10.859580738457813 
Si 4.07131083 12.21702759 9.502485268177987 
Si 7.96978476 10.73522403 13.781540851867115 
Si 5.25201003 8.18590419 13.799507663606594 
Si 6.225467849999999 9.7997382 15.322564257239039 
Si 4.50099216 11.6307342 15.316002763850435 
Si 6.258275909999999 8.55361836 19.457095219536228 
Si 6.8574383999999995 10.70671653 20.323624587254393 
Si 4.239814589999999 12.021010019999999 17.790544605567643 
Si 6.545924729999999 11.03507406 24.32829981652055 
Si 7.94754891 10.99175895 22.444704620200106 
Si 4.43519685 10.199543669999999 23.613474924216415 
Si 4.68071973 11.17718802 21.468278826564937 
Si 7.34349942 9.9570996 26.27661675914535 
Si 6.12398115 8.743054769999999 29.618615509530947 
Si 5.640933779999999 10.22919147 27.899126354662673 
Si 4.984854029999999 10.33818786 34.10513108575298 
Si 8.021505509999999 9.567947789999998 30.821223881546082 
Si 5.01186285 8.358382709999999 32.759647054035185 
Si 7.705300319999999 13.785363629999999 0.11658468323546853 
Si 4.21658505 15.01120242 1.262342009209409 
Si 5.42258262 13.559193269999998 2.706890849747726 
Si 6.78932991 14.931821249999999 4.0688473216740855 
Si 6.178063949999999 15.717211019999999 0.11972423758512613 
Si 4.07279322 14.93219592 6.787710320353376 
Si 5.42989683 13.57507602 8.145080617581417 
Si 6.787440269999999 12.217516289999999 6.787641613616323 
Si 8.14661271 13.57339815 10.856935529081255 
Si 6.78784752 14.930860139999998 9.502622681652094 
Si 4.0616834399999995 14.917209119999999 12.244536790612816 
Si 6.7884502499999995 12.2267853 12.255804695489584 
Si 5.3851482 13.59017685 13.77759021448654 
Si 6.005194469999999 15.592429619999999 15.134720038134896 
Si 8.041558499999999 16.187845409999998 13.543472007976895 
Si 4.491169289999999 15.31289322 17.377410995665223 
Si 6.06849741 14.82899877 19.124726379040144 
Si 6.47652933 12.50695701 18.711627122506247 
Si 6.2154332100000005 13.34608749 24.814846574964587 
Si 6.38302473 14.342807429999999 22.655015942320727 
Si 4.30574022 13.41017235 22.05376328636595 
Si 7.5762183599999995 13.64219082 28.776648800309392 
Si 5.5382742 12.40569837 28.872975645658336 
Si 6.694978229999999 15.89890968 29.06246882645176 
Si 4.7085756299999995 16.13029284 27.689948693703432 
Si 5.4963437399999995 12.621492 31.300762552810664 
Si 7.7429465099999994 12.34373121 32.2109550519263 
Si 5.15547549 14.96379852 30.829812223677763 
Si 8.161794989999999 0.0014022676349999999 2.7036650684430663 
Si 9.50311359 1.3558769729999998 4.0723513652638115 
Si 10.86026607 2.71609686 2.6786077214396715 
Si 8.1445113 0.000301889538 8.145286737792578 
Si 8.14563531 2.7158688 5.430374376493861 
Si 10.86018462 0.001204656903 5.430958383758816 
Si 10.859875109999999 2.7151520399999995 8.145458504635211 
Si 12.224032289999998 1.3699743389999999 12.236875989431358 
Si 9.500832990000001 1.356173451 9.502073027755666 
Si 8.14545612 2.7162434699999998 10.85951203172076 
Si 10.86049413 0.0034314396299999998 10.86140146698973 
Si 9.95522625 0.798591186 14.614232151586453 
Si 10.88299062 2.7944028899999998 13.686450727785132 
Si 10.128975389999999 3.10451562 19.447029682557897 
Si 8.982110519999999 3.6402285599999997 21.45429700557456 
Si 9.282937949999999 0.923924817 19.69959564796639 
Si 8.83559826 1.293233778 21.959875530182405 
Si 10.45464507 0.22060080899999998 23.30649322306158 
Si 10.53819648 0.872652042 25.5764264018336 
Si 9.94941072 1.213909623 29.862661839544817 
Si 12.05171667 2.4609465900000003 29.6072445445486 
Si 11.22048684 3.0897243 25.848917320987603 
Si 8.378500859999999 0.332254098 26.248790530638704 
Si 11.676916349999999 3.36696381 31.794729638856474 
Si 8.49143943 0.6628515030000001 31.60733201354318 
Si 9.91415916 1.8955858499999998 32.96731316677925 
Si 8.671362479999999 7.7691408299999996 0.0738868814935994 
Si 10.86442002 8.1601497 2.709618507208748 
Si 12.184610489999999 6.7908123 1.3255384659511762 
Si 9.38722653 4.083805259999999 1.2565706432969188 
Si 8.13553551 5.430206339999999 2.7157849368592957 
Si 9.50347197 6.78507822 4.070461929994842 
Si 10.29259215 5.95495611 0.11248770050497105 
Si 9.50226651 4.07264661 6.787504200142216 
Si 8.14535838 5.429766509999999 8.144874497370257 
Si 10.860412679999998 5.4307602 5.430099549545647 
Si 10.85925609 5.430206339999999 10.862157241097318 
Si 9.50125653 6.787358819999999 9.50148902049071 
Si 9.494626499999999 4.07465028 12.240654859969297 
Si 9.04231836 7.886412539999999 17.163870456903084 
Si 11.76343254 4.7471014799999995 15.268354641703864 
Si 8.214053309999999 5.455406969999999 13.759760816221169 
Si 9.91451754 6.57267291 15.198789070437241 
Si 8.92012707 4.49426439 18.027857675350273 
Si 11.388469319999999 7.1004200399999995 20.55327685585556 
Si 9.645797700000001 6.5449962 18.993290391056885 
Si 11.9125512 5.61708522 22.306878905670875 
Si 8.484418439999999 7.406053019999999 22.686689748102367 
Si 9.722181509999999 5.307298289999999 22.92609837336513 
Si 9.460466369999999 4.433437529999999 25.046937932731154 
Si 11.430611549999998 7.64404992 25.595252047786246 
Si 11.13364485 7.6311645299999995 29.285662661769905 
Si 9.50285295 6.4668367799999995 26.19684823742629 
Si 11.720182589999999 4.111954379999999 27.951961835456782 
Si 10.03665996 5.7524877 28.347231693725302 
Si 10.606076909999999 5.52543768 32.11809789679856 
Si 12.16740825 7.10377578 31.27183701651116 
Si 9.59016735 9.59995764 1.2377037733020404 
Si 12.21719049 9.50137056 4.074859161166263 
Si 9.50270634 9.50257602 6.787538553510743 
Si 10.86002172 8.14465791 8.145114970949944 
Si 8.145309509999999 10.85998914 8.144771437264676 
Si 10.8610317 10.85813208 5.430202609651227 
Si 9.483663329999999 9.498047399999999 12.251304404212583 
Si 10.85775741 10.86244893 10.86404667636629 
Si 12.236314949999999 12.205363949999999 12.230451909516859 
Si 11.80906083 10.028791889999999 15.370693326544984 
Si 10.91860056 8.25873678 13.762165552018041 
Si 9.794932649999998 11.683073969999999 14.987172320312602 
Si 10.83573333 9.346029119999999 21.03875865987527 
Si 9.28438776 9.81138555 19.261761966093257 
Si 10.095939269999999 11.87132121 18.539035799027975 
Si 9.60005538 9.463952429999999 23.024108533771884 
Si 10.72329975 9.8086977 25.097918331624818 
Si 9.89311248 9.65793375 29.268176797189803 
Si 9.46509273 10.65177036 27.03812787927731 
Si 11.142832409999999 10.86894864 34.15453122969441 
Si 11.020038389999998 11.548714050000001 30.148172685370444 
Si 12.2072373 9.10246104 32.76246403025438 
Si 12.21956883 14.934395069999999 4.072110891684125 
Si 9.501484589999999 12.21875433 4.069603095781673 
Si 9.499138829999998 14.83825149 1.2992134796491452 
Si 10.870496189999999 13.56906501 2.713101938777358 
Si 8.1453258 13.576965659999999 5.430614850073548 
Si 9.50314617 14.93245656 6.787950793933063 
Si 10.85971221 13.574782799999998 8.14494320410731 
Si 9.5017941 12.218493689999999 9.501523373859238 
Si 9.49829175 14.908005269999999 12.215405134102152 
Si 11.49533172 15.29212347 14.9702017562604 
Si 9.591666029999999 14.720588819999998 16.82373775511996 
Si 10.771876529999998 13.447997729999999 13.585554884422137 
Si 8.59924665 12.61403118 16.932328753032944 
Si 10.03638303 13.36583097 20.35993609778714 
Si 10.26913455 15.25555242 19.033930426024 
Si 8.42590476 13.26255237 22.07547461527484 
Si 11.739372209999999 13.207606199999999 23.854738631379618 
Si 9.65105937 14.300143919999998 23.776447304507208 
Si 12.100945049999998 13.054024079999998 21.515755181868872 
Si 8.257612769999998 14.29486596 25.68749084228051 
Si 9.38634687 13.08186369 27.310550091694257 
Si 11.368155689999998 14.3014797 28.107376474671693 
Si 9.170406629999999 13.138178219999999 30.46625052455941 
Si 11.609035919999998 15.55243767 32.1587722851342 
Si 10.456453259999998 15.16691853 30.157413741504133 
Si 10.80088902 16.26277941 34.207641537436736 
Si 14.067310949999998 2.3698529099999996 0.10008647800050784 
Si 12.25991916 1.300543101 1.2273943274071697 
Si 14.93281494 1.35563751 4.0693969755705135 
Si 12.21743484 4.07339595 4.06922520872788 
Si 15.041404079999998 4.065283529999999 1.3648421548826046 
Si 13.57538553 -5.41564308e-05 8.144874497370257 
Si 13.57505973 2.71601541 5.429790369228907 
Si 12.21771177 1.3569700319999998 6.78767596698485 
Si 14.931039329999999 1.358419842 9.501798200807452 
Si 13.577682419999999 2.71365336 10.861332760252676 
Si 14.8107051 1.7984648699999999 16.989733231841107 
Si 15.272477729999999 0.9205299809999999 14.824371706864444 
Si 12.43620954 3.3990714 19.30508156380546 
Si 12.766098329999998 1.424107638 18.082101644253974 
Si 12.78382185 0.0585884511 22.886454586085286 
Si 13.934449709999999 2.0818457099999996 22.920911014717593 
Si 13.26615246 3.85423029 21.476592341748407 
Si 13.465314 2.83843476 25.10399887785405 
Si 16.05895893 3.4122174299999997 29.19727144455064 
Si 15.76347462 0.1606907502 29.960809413425675 
Si 14.313322529999999 1.7764407899999999 28.960164494979168 
Si 14.093179469999999 1.12280454 26.707785887524302 
Si 15.9368328 0.734962446 34.29170423022163 
Si 15.984497339999999 3.3485561099999996 31.611969718294286 
Si 13.84625565 3.84211053 32.600213070702644 
Si 13.57351218 5.42101878 2.6945408137623676 
Si 14.932179629999998 6.786365129999999 4.068950381779666 
Si 16.2921177 5.43012489 5.42985907596596 
Si 14.93270091 4.07253258 6.787401140036636 
Si 13.575304079999999 5.42992941 8.145080617581417 
Si 12.21746742 6.7875054299999995 6.787504200142216 
Si 13.573821689999999 8.14706883 5.4310614438643965 
Si 12.22268022 6.8059131299999995 12.246872819672635 
Si 13.575434399999999 8.1410904 10.86140146698973 
Si 12.21872175 4.0716366299999995 9.50234785470388 
Si 14.93234253 6.788368799999999 9.501557727227764 
Si 14.920858079999999 4.06543014 12.246804112935582 
Si 15.387208199999998 6.58559088 15.00242521593847 
Si 15.44779071 8.09707482 16.986297894988432 
Si 15.375186179999998 4.1718852900000005 17.127696359844442 
Si 13.54580289 5.4675918900000005 13.7275373565431 
Si 15.037331579999998 7.339361759999999 21.453197697781704 
Si 15.27850503 5.04015858 21.19620014783326 
Si 13.433483339999999 7.134596459999999 19.53830658273341 
Si 13.08196143 5.00278932 17.560754923492365 
Si 12.96464085 6.6227320800000005 24.133791043922223 
Si 14.331078629999999 5.0078718 25.3093289615383 
Si 15.43508451 5.65548075 28.920314587488164 
Si 13.61523087 5.54052222 27.477370049260045 
Si 12.704668739999999 7.6894990199999995 27.542126148932926 
Si 14.645817719999998 6.260686829999999 32.986447993048635 
Si 14.671800269999999 7.0036248599999995 30.706380570561233 
Si 13.6057338 8.05450905 34.31678218924615 
Si 14.95653318 9.549083969999998 1.2862553890408637 
Si 13.57374024 10.858588199999998 2.709443305029262 
Si 14.932244789999999 9.50345568 6.787950793933063 
Si 13.57509231 10.86000543 8.14494320410731 
Si 12.21821676 9.50205474 9.502760095126199 
Si 14.923790279999999 9.49791708 12.239624258913494 
Si 16.289136629999998 10.8607059 10.867894253641282 
Si 13.499913959999999 10.759789349999998 13.744714040806464 
Si 14.983020719999999 11.96117685 15.162202732956276 
Si 16.26558129 10.25787816 16.539120096876026 
Si 12.696067619999999 10.80292527 21.07245931439999 
Si 13.5995436 10.690540559999999 18.912559975019075 
Si 15.872454719999999 11.28111822 18.812969559660093 
Si 13.30239771 8.640769859999999 17.786903148503807 
Si 12.25472265 11.90862531 17.44398782387002 
Si 12.54771459 11.19680118 24.72422238879108 
Si 16.26587451 11.40229953 22.710771459439606 
Si 14.028182369999998 10.48976631 22.979620921529772 
Si 14.512402619999998 8.26828272 23.578915435478525 
Si 15.945336179999998 8.682211619999999 25.504284327927476 
Si 14.49112788 9.19779012 27.47774793631384 
Si 15.17245713 9.196454339999999 29.861596885120488 
Si 13.65168789 11.30641659 26.79796347990696 
Si 14.547572729999999 10.872874529999999 31.456864259396113 
Si 12.342704939999999 11.53423224 32.09326041135373 
Si 15.967409129999998 11.28403413 34.0722549120729 
Si 14.19207606 13.163329979999999 0.0306439948533167 
Si 12.32429724 12.289892759999999 1.3296093401215934 
Si 14.93025741 12.21728823 4.071458177682117 
Si 15.04633995 15.06816855 1.2513798493125303 
Si 13.573088639999998 16.282083059999998 2.698745666070039 
Si 16.2913032 16.290325799999998 5.429893429334487 
Si 13.5746199 13.57463619 5.429721662491853 
Si 12.21732081 12.217614029999998 6.787435493405162 
Si 14.932375109999999 14.932538009999998 6.787401140036636 
Si 12.21722307 14.93056692 9.502416561440933 
Si 14.93087643 12.21852627 9.501866907544505 
Si 13.578366599999999 13.575010859999999 10.858618844139064 
Si 14.923773989999999 14.90994378 12.229249541618424 
Si 13.45778802 16.14708783 13.613793353351106 
Si 16.23120939 13.52775357 13.700295135301406 
Si 13.45249377 13.85625771 17.99230193892511 
Si 13.521726269999998 14.9832162 21.17016029449 
Si 15.94535247 14.87493657 21.01165385210768 
Si 12.53714238 15.6230874 19.155919237662413 
Si 15.652718909999999 13.621404779999999 18.960895164536183 
Si 13.207003469999998 14.82429096 24.65266432214991 
Si 15.463494269999998 14.229005489999999 25.02240962760307 
Si 12.673652579999999 12.43197414 28.654213394880134 
Si 14.71470813 12.58187472 29.858676848795714 
Si 16.07493942 16.218861569999998 26.12013716550611 
Si 15.77505681 12.24165807 26.307672204293514 
Si 12.26915559 15.86390247 26.529182724553852 
Si 15.30033363 14.40112563 31.179976109070694 
Si 13.35317364 14.06030625 32.369805027993884 
