&CONTROL
  dt          = 30.D0,
  prefix = 'x.66_y.66_z3.18_struc10-scf',
  pseudo_dir = './',
  outdir='./',
  wf_collect= .true.,
  verbosity= 'high',
/

&SYSTEM
ibrav= 6, celldm(1) =30.783621515, celldm(3) =2.120051451958549, nat=  432, ntyp= 1,
  ecutwfc     = 12.D0, nbnd= 1728,
  degauss     = 0.05D0,
  occupations = "smearing",
  smearing    = "methfessel-paxton",
/
&ELECTRONS
  electron_maxstep=200,
  conv_thr    = 1.D-8,
  mixing_beta = 0.3D0,
  scf_must_converge=.false.,
/
ATOMIC_SPECIES
Si  28.08  Si.pbe-hgh.UPF
K_POINTS {automatic}
1 1 1 0 0 0
ATOMIC_POSITIONS (angstrom)
Si -0.00560928231 2.71415835 2.694149307215802 
Si 2.7176607 -0.01085498811 2.7434454771145442 
Si 2.9895896699999995 2.1224892599999996 0.09691287171413367 
Si 1.258928667 1.1468388059999999 1.4051687773259687 
Si 4.06275858 4.02657849 1.1604630596332892 
Si 0.0015315923159999998 0.000942356952 5.430280136169666 
Si 0.0008508837149999999 2.71438641 8.144746759310529 
Si 2.71544526 0.00034335084599999995 8.14491943750129 
Si 2.71371852 2.71340901 5.430418278722276 
Si 1.357737291 1.3572534779999998 6.787979678855155 
Si 2.7151031699999995 2.70980892 10.859800488299982 
Si 1.3708263059999999 1.370300139 12.242987331941944 
Si 2.7011752199999997 -0.00423810414 13.74998443836028 
Si 0.10081066500000001 2.8175184 13.673936963148682 
Si 1.9921529699999998 4.03837245 15.553711747784075 
Si 3.0076064099999997 1.6122017519999998 17.07262364936499 
Si 0.9631038959999999 2.4415452 20.348467070673188 
Si 1.510961031 0.244618785 19.606088992949097 
Si 3.9190481999999998 0.179631459 19.251649738590967 
Si 0.8202438539999999 0.387200268 17.38620724378882 
Si 2.2789058399999997 3.5832298499999995 18.734064129600878 
Si 3.9202210799999997 0.421643844 23.23343613937247 
Si 2.9354417099999996 2.5215779699999996 23.58331668949448 
Si 0.7334425889999999 2.83680576 22.73854044464851 
Si 3.80946537 3.18003606 25.646337570166533 
Si 0.035160824699999996 3.9369509099999997 29.550522392019587 
Si 3.71071539 2.55205656 29.350561047117164 
Si 0.26604665099999997 3.0049348499999997 27.38037196179878 
Si 2.48591916 2.19994821 27.3526398443624 
Si 3.25159803 0.8214085889999999 30.971007724866148 
Si 1.582125525 1.203425379 32.70787403882689 
Si 1.361850516 4.07365659 4.069472386050462 
Si 2.7083428199999995 5.41634355 2.681637045513186 
Si 1.186790031 6.61815459 1.2284913596658962 
Si 2.7147284999999997 5.43009231 8.145437472073576 
Si 1.357333299 6.787863809999999 6.787530715559173 
Si 1.3569097589999999 4.07191356 9.50438029773255 
Si 1.3432310459999999 6.769733039999999 12.248478498408176 
Si 3.6302753699999997 7.1556105599999995 15.076360157241535 
Si 0.842430834 5.97038274 16.583184585469105 
Si 2.68193673 5.34857715 13.70605510663042 
Si 0.55486998 6.97399335 20.424480010246633 
Si 1.95947523 6.09330708 18.721009658379266 
Si 3.11495751 7.717876199999999 22.953593863423535 
Si 0.9943432289999999 6.897756149999999 22.69899713896401 
Si 3.7774881 6.957556739999999 26.524337098915122 
Si 3.4744941 4.79678598 30.176204548426707 
Si 1.4576878439999998 5.8717305 29.400568651161848 
Si 1.570009023 6.300287819999999 27.047552016924055 
Si 2.6247425399999997 7.944779609999999 34.355500263801815 
Si 3.9749554799999998 9.3903705 1.1796786887012876 
Si 1.357849692 9.50145201 4.069990420622748 
Si 2.72406267 10.848227759999999 2.6933964303040794 
Si 1.3840179479999999 12.222891989999999 1.3047978521636348 
Si 0.00024867499500000003 8.14496742 8.144884901863138 
Si 2.7146796299999996 8.145 5.430556421274886 
Si 0.0007206256169999999 10.85945157 5.430832706380105 
Si 2.71497285 10.85994027 8.145299329520967 
Si 4.0635405 9.51578721 12.228758649023153 
Si 1.355872086 9.502673759999999 9.502480837634169 
Si 2.7161945999999997 8.14802994 10.863288587753376 
Si 0.00255129093 10.85748048 10.861596341483907 
Si 0.37576305899999995 8.245232369999998 16.006266750133186 
Si 2.35932957 9.452142180000001 15.794390610068183 
Si 2.7575874899999997 10.82775123 13.766941436693108 
Si 2.53410498 10.80900144 17.896471297490603 
Si 1.1019370499999999 11.15710245 19.88133802902376 
Si 3.9327643799999996 9.38918133 19.248334317328336 
Si 2.6844779699999997 11.59250157 21.723952467007162 
Si 3.8373864299999996 9.50710464 21.611331750992175 
Si 3.13220862 8.71181055 25.075774292250653 
Si 2.73988026 9.30313755 29.633028031565683 
Si 0.6925269959999999 8.15793426 29.44342737810898 
Si 2.20467231 11.597975009999999 29.443945412681266 
Si 0.981860202 8.41500675 26.15090324357317 
Si 1.056083958 12.09506436 27.460356499759747 
Si 0.827911557 11.570607809999998 31.31394661171953 
Si 3.5963921699999997 9.64675881 31.812019585153507 
Si 1.411419357 9.67138929 33.06832249422354 
Si 4.07170179 12.219128999999999 4.069748671155682 
Si 4.06137393 15.054810749999998 1.2903792232350055 
Si 0.00654470298 13.585289849999999 2.6928576743489017 
Si 1.357903449 14.93024112 4.074859945602237 
Si -0.00043537305599999996 13.575287789999999 8.14533386515912 
Si 2.7129366 13.57548327 5.430901777656411 
Si 1.357794306 12.21777693 6.787496179921021 
Si 1.357538553 14.932538009999998 9.50161744668036 
Si 2.71604799 13.57595568 10.863184980838916 
Si 1.346897925 12.213704429999998 12.261463898353481 
Si 1.1658394619999999 14.1431409 17.024929933076518 
Si 0.831109284 15.350571989999999 14.961045661450655 
Si 3.37955598 13.086669239999999 17.244369377896895 
Si 0.09660898529999999 14.81295312 20.486160659986826 
Si 0.570301497 14.402738339999999 22.792657789633328 
Si 1.331277444 12.30470037 23.61097973565456 
Si 2.7942888599999995 14.97616263 22.308157321993246 
Si 2.58677055 12.55836825 25.645923142508703 
Si 3.49102845 13.50835218 30.014957653893127 
Si 2.15409186 15.420358349999999 29.633442459223513 
Si 3.7420736399999996 14.51149038 26.430987268989174 
Si 0.024325042499999998 15.701035049999998 26.55638617112055 
Si 2.2167106199999997 16.10115003 27.327152543405923 
Si 0.854291583 15.335568899999998 33.66703231723363 
Si 2.63884968 13.8349341 34.39642499501242 
Si 6.78932991 4.06984473 4.074894481240389 
Si 4.07381949 1.3607199899999998 4.072822342951246 
Si 5.4302877899999995 2.72132595 2.693075248869262 
Si 6.70550157 1.218900879 1.3257506238306986 
Si 5.42953845 -5.5465169399999994e-05 5.429831172873686 
Si 5.43035295 2.7143049599999998 8.144435938567158 
Si 6.787684619999999 1.3577405489999999 6.787634322473631 
Si 8.144332109999999 2.71396287 10.858315455859428 
Si 4.07329821 1.35855342 9.502135481252646 
Si 5.42991312 0.0032197836599999995 10.859489667556609 
Si 6.793777079999999 1.3503285989999998 12.222265949050502 
Si 7.38251397 3.6319695299999997 14.876295205424656 
Si 8.13563325 0.0421375059 13.729435733659598 
Si 4.566771179999999 0.810870588 15.074771517886525 
Si 5.49179883 2.72049516 13.64575588241632 
Si 7.97173956 2.18489625 19.565889510139694 
Si 5.0457949200000005 0.968028363 21.215691480318224 
Si 7.384354739999999 0.572401278 21.225326923362747 
Si 4.60352142 3.50705781 18.193063357943455 
Si 5.96722248 1.595273184 18.10668972692429 
Si 4.557713939999999 3.4905886199999996 22.15730565454354 
Si 6.82710642 3.72896019 22.938778074656152 
Si 8.13820707 0.46527823799999996 23.488343684575373 
Si 7.4520722699999995 2.34237168 24.70572492944764 
Si 5.58875691 1.6908857099999999 25.99525112242028 
Si 7.630578089999999 1.109881683 29.090887583849234 
Si 5.88192804 2.3173828199999997 28.21350969658739 
Si 7.279170209999999 2.03952429 31.328244365914625 
Si 5.48648829 0.575190126 32.177061280424425 
Si 4.907688299999999 0.607152735 34.50569575412663 
Si 4.07595348 6.78814074 4.068401781267738 
Si 6.76533474 6.65912394 1.1991636957468743 
Si 4.07253258 4.072548869999999 6.787634322473631 
Si 5.4289683 5.427567359999999 5.43017652925521 
Si 6.787358819999999 6.7877171999999995 6.787254430453955 
Si 6.788433959999999 4.070985029999999 9.502170016890798 
Si 4.07186469 6.786365129999999 9.504552975923314 
Si 4.072304519999999 4.07605122 12.236425560692986 
Si 5.4324869399999995 5.428512179999999 10.860905628720857 
Si 6.7657094099999995 6.79975551 12.239119340468875 
Si 5.50378827 6.97269015 16.69311152170821 
Si 6.6894884999999995 4.83407379 16.886338417170915 
Si 4.45899654 4.60184355 16.006404892685797 
Si 5.3954271899999995 6.138707309999999 20.26993302951462 
Si 7.76298321 6.029303669999999 20.127231772668882 
Si 4.10698593 7.149681 18.58452481640096 
Si 6.27578766 5.7557782799999995 23.97225704636687 
Si 7.03959318 7.94595249 23.989041366508935 
Si 4.54069089 5.93817741 22.435317541670397 
Si 5.1660314099999995 5.15593161 25.963858227339745 
Si 5.75108676 5.29638399 29.79593263673058 
Si 6.16605822 7.56300717 29.60253306307711 
Si 6.62892228 4.51716813 27.73743592465649 
Si 8.04393684 7.8985323 28.065731700933252 
Si 5.651196479999999 5.2142661 34.13326343229109 
Si 6.8949542699999995 4.45813317 31.802798569766818 
Si 4.136894369999999 6.601196699999999 32.967582037732974 
Si 8.152786619999999 10.85593293 2.7015261195251554 
Si 5.42243601 8.13809304 2.680694222591625 
Si 6.78822219 9.50339052 4.070059491899053 
Si 6.74762751 12.18040767 1.3073362215678364 
Si 4.072548869999999 9.502673759999999 6.78704721662504 
Si 5.4299457 8.14542354 8.145230258244663 
Si 5.429489579999999 10.85969592 5.429589423406618 
Si 6.787619459999999 9.5029344 9.50306794348276 
Si 5.42991312 10.86165072 10.863392194667831 
Si 6.80184063 12.21067449 12.250377958506558 
Si 6.23186982 10.76628906 16.6706978925473 
Si 5.304154319999999 8.15757588 13.655218647270079 
Si 6.92566092 9.03723588 15.119909596951716 
Si 4.43899242 12.15665685 15.25280273256217 
Si 7.6417856099999995 9.59705802 20.52211225930348 
Si 6.150941099999999 9.51103053 18.731163135996074 
Si 8.06890941 12.1614624 17.316030827063134 
Si 6.11221977 9.50967846 22.397639160446126 
Si 6.16337037 11.29502988 23.941347650220465 
Si 4.21236594 10.83109068 25.30588524926013 
Si 8.1313164 10.85866965 25.243928314414713 
Si 7.153590599999999 8.93125314 26.13943741170657 
Si 5.383486619999999 10.07011962 27.15778977390653 
Si 6.43137345 11.841722279999999 28.248874190055453 
Si 4.39401573 8.3364075 28.315942399347424 
Si 5.45695452 8.14596111 31.832879110597563 
Si 5.74501059 10.53198999 34.36789855789853 
Si 5.1911343 11.385700019999998 32.19021935856049 
Si 7.2937660499999994 9.201618269999999 32.88511093382503 
Si 7.18074603 11.69040447 30.479669200871886 
Si 5.4196992900000005 13.581461699999998 2.695468568593224 
Si 6.793695629999999 14.92616862 4.070370312642425 
Si 4.07253258 14.932016729999999 6.7879106075788505 
Si 5.4297828 13.57533666 8.144815830586833 
Si 6.78794526 12.21735339 6.787599786835479 
Si 4.0716040499999995 12.216685499999999 9.50220455252895 
Si 6.786365129999999 14.93175609 9.502239088167103 
Si 4.04891208 14.93576343 12.232799318686986 
Si 5.47394499 13.66558326 13.628729812807183 
Si 6.406514909999999 15.29725482 15.084096140187674 
Si 4.30310124 13.434737669999999 21.34751401114595 
Si 4.73499801 14.23773693 18.994290163079246 
Si 6.8944981499999995 14.324562629999999 17.515059709735446 
Si 6.3690316199999994 13.309956269999999 22.786993944976338 
Si 7.07839596 14.89727016 24.463526499084825 
Si 5.07729978 15.87392082 25.09773895811559 
Si 5.100056909999999 13.8450339 28.29363237710097 
Si 7.07253156 15.127154639999999 28.602208303992704 
Si 7.79966829 13.825599930000001 34.46456380908711 
Si 4.17455685 13.543294229999999 32.44125891229032 
Si 6.328583549999999 14.65761168 32.60785883073753 
Si 7.6444083 14.029957979999999 30.64630365495724 
Si 8.159498099999999 -0.01181178126 2.693016538284403 
Si 8.511508710000001 2.1562910099999995 0.12020819571707525 
Si 9.5021199 1.3595634 4.0713373105106925 
Si 10.878966989999999 2.6810082 2.7200337680110294 
Si 9.45443907 3.9238374599999997 1.4312880804606325 
Si 8.14441356 0.00041093153999999997 8.144643152396071 
Si 8.14457646 2.7156570299999996 5.43103992020902 
Si 10.858588199999998 0.0001122799653 5.4295203521303135 
Si 10.86002172 2.7150380100000002 8.144401402929004 
Si 9.500588639999998 1.3582064429999998 9.501721053594816 
Si 10.85893029 0.0016702136999999998 10.864428263812401 
Si 9.128248110000001 1.8389781 15.159798259017744 
Si 10.908207540000001 2.80580589 13.68004977110166 
Si 9.4698657 1.491525432 17.793624167072743 
Si 8.33137389 3.9618583199999997 21.115020095103965 
Si 11.6763462 1.9448793899999999 20.839909201581907 
Si 11.58582267 2.3547195 18.54974742878149 
Si 10.55735352 3.71337066 21.915832472581926 
Si 10.487387969999999 0.29732508 23.53344722800241 
Si 10.9768536 2.53140084 23.89620957115527 
Si 9.49558761 2.87696061 25.7190696241155 
Si 12.16942821 4.0312211399999995 29.42443277712516 
Si 9.58383054 1.465606413 27.684561862645158 
Si 11.71163034 1.95784623 28.487549985326723 
Si 10.63499166 3.7360626299999997 32.49713757482091 
Si 9.40094271 1.72833642 32.438910488895964 
Si 10.87105005 8.13840255 2.711455115493972 
Si 12.189774419999999 6.64348554 1.4031967923874662 
Si 8.135877599999999 5.42569401 2.702738320424305 
Si 9.502413119999998 6.78825477 4.069472386050462 
Si 11.13467112 4.85179731 0.16139401635210707 
Si 9.502380539999999 4.07248371 6.78804875013146 
Si 8.14534209 5.4300760200000004 8.144815830586833 
Si 10.86042897 5.4291312000000005 5.430107457978905 
Si 10.857708539999999 5.430678749999999 10.85607063937952 
Si 12.22354359 6.77450601 12.18662517047722 
Si 9.50371632 6.785697239999999 9.50165198231851 
Si 9.50656707 4.07704491 12.218156208110365 
Si 8.20779795 5.49116352 13.598338451233069 
Si 10.104263459999999 6.398027819999999 14.844038919390307 
Si 10.915782389999999 8.11025343 13.501051558557743 
Si 11.61465597 4.537660949999999 15.180381499356578 
Si 10.077580439999998 7.563691349999999 16.973368225314978 
Si 10.8900279 4.4203566599999995 17.67623753299272 
Si 9.1095309 7.78500729 20.903351168867875 
Si 11.31835716 7.30109655 20.22783408660684 
Si 11.83610223 6.4532509199999994 18.13480173638035 
Si 8.673186959999999 5.485494599999999 17.959602444033198 
Si 11.750237639999998 5.741638559999999 22.09728271543466 
Si 10.77112719 6.597140489999999 24.128047310072365 
Si 10.30508658 5.07883104 25.939337924251536 
Si 10.3263939 5.51893797 29.41272519579149 
Si 11.46354993 7.579541519999999 29.116202206614943 
Si 8.769460859999999 5.66830098 27.661043093063373 
Si 9.178258409999998 5.3009289 31.542123572992466 
Si 10.181445479999999 6.57482319 33.32844492078745 
Si 8.4318669 7.8526270799999995 34.50448700679129 
Si 9.52885179 9.44842806 1.3146474161647004 
Si 12.17038932 12.19373289 1.3438852874245264 
Si 9.50093073 12.220872029999999 4.071613595615911 
Si 12.21927561 9.5030973 4.074169232839189 
Si 8.14390857 8.144136629999998 5.430314671807819 
Si 9.50192442 9.502869239999999 6.787461644282868 
Si 10.85969592 8.14475565 8.144505009843462 
Si 8.145097739999999 10.860103169999999 8.145195722606509 
Si 10.859614469999999 10.85925609 5.430314671807819 
Si 12.21499134 9.50063751 9.501824660509273 
Si 8.146368359999999 8.14540725 10.861043771273467 
Si 9.508603319999999 9.493942319999999 12.223198411280617 
Si 10.864582919999998 10.859418989999998 10.860007702128895 
Si 12.202089659999999 12.212417519999999 12.232108605923937 
Si 8.18632773 10.666024109999999 13.761173985121657 
Si 11.129686379999999 9.85025349 16.459270715778278 
Si 9.637880759999998 11.73290508 15.435358115835783 
Si 10.95590466 11.29933044 20.408386402867613 
Si 8.685990899999998 11.57595093 19.81623835110648 
Si 12.1323033 10.32435765 24.821661066725262 
Si 9.96446268 10.395707849999999 23.883362313762575 
Si 9.25356708 8.16651909 23.228877435136354 
Si 9.790925309999999 9.237749489999999 28.94449101372119 
Si 10.41546762 11.413963169999999 28.16802626114067 
Si 10.71634392 10.93181175 34.451854694247025 
Si 10.98503118 10.35270225 32.15571825604624 
Si 8.91571248 10.112571359999999 30.996943989118602 
Si 12.138346890000001 8.469187289999999 31.159917665559803 
Si 9.599012819999999 15.0317604 1.0727045495242138 
Si 10.84259142 13.58263458 2.6939835361526705 
Si 8.14403889 13.573479599999999 5.431316205314238 
Si 9.50257602 14.931821249999999 6.78704721662504 
Si 10.86007059 13.574733929999999 8.144712223672375 
Si 9.5030973 12.217581449999999 9.502031874338188 
Si 8.14527693 13.57310493 10.863633944134897 
Si 9.50181039 14.92892163 12.25255370371016 
Si 10.75480461 13.414326299999999 13.74397523732176 
Si 11.60362764 14.66616393 17.411521866554533 
Si 10.947841109999999 16.0386453 21.33984709947612 
Si 8.888850269999999 15.190962569999998 20.5913216781609 
Si 12.15273096 13.03765263 19.333464665374013 
Si 9.214226729999998 15.40208097 18.19789834728479 
Si 8.42539977 13.135669559999998 21.59192272235052 
Si 10.45778904 12.256661159999998 22.541272879521976 
Si 11.8040598 16.087401269999997 25.382796115425535 
Si 11.190920489999998 12.93939135 29.85426332956999 
Si 8.2515366 14.481402749999999 26.59537690659462 
Si 10.27905516 15.5665611 27.05293957647583 
Si 8.457491069999998 12.217972409999998 27.070276466828336 
Si 11.995027469999998 14.643064709999999 28.45132210090485 
Si 9.85439115 14.14351557 31.469702339786874 
Si 10.96009119 16.23940326 31.910998724098302 
Si 9.511714709999998 12.72633444 33.35603889567122 
Si 11.51569422 15.758994869999999 34.250615530732965 
Si 13.595129009999999 0.01370783952 2.685394522944167 
Si 13.132232369999999 3.1369164299999994 0.03300294653120103 
Si 12.2261337 1.3154842889999998 1.1838402330986522 
Si 14.9271786 1.359245745 4.071924416359283 
Si 13.57564617 -0.000686284668 8.144677688034223 
Si 13.575499559999999 2.7150868799999994 5.431281669676086 
Si 12.21736968 1.358256942 6.787772465026241 
Si 14.93261946 1.357279542 9.502480837634169 
Si 13.576493249999999 2.7123664499999998 10.86308137392446 
Si 12.215496329999999 1.359229455 12.238635841534741 
Si 15.304813379999999 0.919169766 14.685589411547076 
Si 14.86060137 1.1697506909999997 16.953959196673324 
Si 12.96182268 0.285715197 18.221831544524406 
Si 13.99535802 1.7055141299999999 21.286524074168806 
Si 15.084963539999999 3.16487007 19.778490898605902 
Si 14.005669589999998 3.22097283 17.672887576091934 
Si 15.02811144 1.6421948999999998 23.441616966155166 
Si 13.23810108 3.01490433 24.468603237893227 
Si 12.97224828 1.65121956 26.49256431181491 
Si 14.904046799999998 0.5715900359999999 29.874328535336538 
Si 12.51344043 0.225724014 29.85647361041174 
Si 15.082080209999999 1.1701677149999998 27.524489179808764 
Si 16.032732030000002 2.3060123999999997 31.33352831855194 
Si 14.540160779999999 3.67067457 32.753944580122194 
Si 12.22243587 4.07131083 4.074238304115494 
Si 14.82174972 4.079341799999999 1.343823123275852 
Si 13.57962093 5.420269439999999 2.7491922073031043 
Si 14.932863809999999 6.78830364 4.073513055714294 
Si 16.28843616 5.42991312 5.430280136169666 
Si 14.93193528 4.07284209 6.788290499598527 
Si 13.574799089999999 5.4305973 8.144643152396071 
Si 12.21771177 6.787358819999999 6.787841536302546 
Si 16.28938098 5.43411594 10.859489667556609 
Si 12.216913559999998 4.07502495 9.50261898018678 
Si 14.9327172 6.78770091 9.501824660509273 
Si 14.92501203 4.07870649 12.241882191521066 
Si 16.027030529999998 7.95582423 13.643683744127175 
Si 14.81456583 5.391810809999999 16.467213912553333 
Si 13.35134916 5.32274121 13.61198002830327 
Si 14.09418945 7.20575118 14.84735434065294 
Si 14.116246109999999 6.5477003400000005 18.34167020891325 
Si 15.007537169999999 5.49131013 20.232392790842955 
Si 16.20592731 4.93292151 23.527127206220523 
Si 14.077117529999999 7.74786609 23.4061834014108 
Si 14.11797285 5.60758815 22.418049722594198 
Si 12.41693847 8.014875479999999 25.060233255082075 
Si 14.28913188 5.038545869999999 29.335607115797174 
Si 16.27090812 4.91940081 25.965308724142144 
Si 12.65133528 4.40686854 26.27143262072506 
Si 14.361101099999999 5.78220066 27.13427100432474 
Si 13.091588819999998 7.741806209999999 27.30698373072492 
Si 15.578403929999999 5.69850264 34.34234218566575 
Si 12.498176699999998 6.73782093 32.600882631830736 
Si 12.65702049 4.52505249 31.649874764027967 
Si 13.918192289999999 7.4818666799999995 34.50037726585115 
Si 16.2917919 8.14161168 2.693424058814601 
Si 14.835205259999999 9.39138048 1.25669316178115 
Si 13.571036099999999 10.8457191 2.698901411025573 
Si 14.93219592 9.502347959999998 6.787668858111783 
Si 13.575043439999998 10.85982624 8.145161186968357 
Si 13.573984589999998 8.1435339 5.430556421274886 
Si 13.57554843 8.144250659999999 10.86135459201684 
Si 14.935551659999998 9.5202018 12.24105333620541 
Si 12.54717702 9.134291699999999 14.763916238876728 
Si 13.56525315 10.92796731 13.682605408324935 
Si 15.1068573 8.75805786 17.995657650264306 
Si 12.367644929999999 9.43275708 20.14643358748162 
Si 15.985083779999998 9.1968453 20.166913220905997 
Si 13.0621365 10.08271179 17.92517041279525 
Si 13.77910827 11.16260847 23.29546214549419 
Si 16.18178553 8.45708382 24.05148180028848 
Si 15.86932704 10.82576385 24.359712370798697 
Si 14.104859399999999 9.43868664 21.704129010707685 
Si 16.022844 10.310625179999999 26.75980107983822 
Si 12.46430979 11.321892089999999 26.95430579391256 
Si 14.00475735 9.81780381 27.98370956032129 
Si 16.05576609 9.359729009999999 31.303413242083046 
Si 12.912952679999998 11.90491119 31.217592181274316 
Si 13.81937715 9.88750872 30.39743984643101 
Si 16.05211713 11.0454345 34.453201584134966 
Si 13.268677409999999 13.965889409999999 0.17464119643460646 
Si 12.21474699 14.93037144 4.067918282333604 
Si 14.930648369999998 12.220741709999999 4.066951284465337 
Si 15.21415953 15.114676499999998 1.12830347338577 
Si 13.574033459999999 13.574815379999999 5.430072922340753 
Si 12.21756516 12.217728059999999 6.78718535917765 
Si 14.932798649999999 14.931951569999999 6.78704721662504 
Si 16.29 16.28799633 10.863115909562612 
Si 12.21828192 14.93156061 9.502239088167103 
Si 14.93056692 12.21595245 9.502446301996017 
Si 13.57766613 13.575010859999999 10.857693814372684 
Si 14.93494893 14.919799229999999 12.206655840605615 
Si 12.47002758 14.384037419999999 15.062753115809487 
Si 14.241711689999999 12.731775299999999 15.09051976888402 
Si 13.49815464 16.14117456 13.567601733277428 
Si 16.10856198 13.552172279999999 13.713652947023949 
Si 12.72198501 14.52359385 21.059763074060115 
Si 14.344289819999998 15.940660949999998 20.18753099688298 
Si 16.12408635 12.98197341 18.943626381909667 
Si 13.919723549999999 12.332377079999999 17.71191284720415 
Si 13.44687372 14.49709002 24.870425387796455 
Si 12.64405365 13.22449893 23.021490928031163 
Si 15.486007049999998 15.68086803 24.31654282310819 
Si 15.75189243 13.818497489999999 27.862731219873414 
Si 16.159468229999998 14.830872119999999 30.026768842141248 
Si 13.524658469999999 13.472742239999999 27.0381583233466 
Si 16.22738124 13.661136089999998 32.08927168824101 
Si 14.34424095 12.60999126 33.07360644686086 
