&CONTROL
  dt          = 30.D0,
  prefix = 'x.66_y.66_z3.18_struc16-scf',
  pseudo_dir = './',
  outdir='./',
  wf_collect= .true.,
  verbosity= 'high',
/

&SYSTEM
ibrav= 6, celldm(1) =30.783621515, celldm(3) =2.1249479012156414, nat=  432, ntyp= 1,
  ecutwfc     = 12.D0, nbnd= 1728,
  degauss     = 0.05D0,
  occupations = "smearing",
  smearing    = "methfessel-paxton",
/
&ELECTRONS
  electron_maxstep=200,
  conv_thr    = 1.D-8,
  mixing_beta = 0.3D0,
  scf_must_converge=.false.,
/
ATOMIC_SPECIES
Si  28.08  Si.pbe-hgh.UPF
K_POINTS {automatic}
1 1 1 0 0 0
ATOMIC_POSITIONS (angstrom)
Si 2.7024295499999997 -0.013529871269999999 2.68728706534116 
Si 3.1864706099999998 2.0370807899999996 0.004917429294811334 
Si 1.287603954 1.3231177829999998 1.2172159716930695 
Si 3.94810956 3.8481378299999998 1.3079740923898633 
Si 1.3582194749999998 4.07235339 4.069351962696666 
Si 4.07564397 1.355616333 4.070113501525504 
Si -0.0013664410379999998 -0.00205001505 5.431018004059716 
Si -4.67505081e-05 2.7150868799999994 8.144727005221412 
Si 2.7151846199999996 -0.00011768172929999999 8.1446923898201 
Si 2.7153801 2.71437012 5.430048772823013 
Si 1.3573235249999998 1.357326783 6.787491735226145 
Si 2.7164389499999997 2.71860552 10.862970623954823 
Si 1.354664997 1.3487875649999999 12.243190520420463 
Si 1.311447627 4.01001156 15.04838802724661 
Si 1.84748148 2.35380726 16.90501969195283 
Si 0.330623469 1.8134842499999997 21.314398741725512 
Si 2.39624271 2.8901066399999995 20.88873315180657 
Si 3.4764651899999994 1.1403879659999998 19.57487097965374 
Si 2.65825107 2.2535097299999998 24.807923503616973 
Si 3.14584335 3.79666143 23.042711113772583 
Si 4.01817285 1.56289518 28.580794554086612 
Si 1.515043305 3.93295986 29.639471987776204 
Si 1.79732457 1.63031949 29.29518720633896 
Si 0.7589771639999999 2.8282046399999996 26.133554912215477 
Si 0.45512142299999997 0.908874486 27.517617118226614 
Si 1.7572511699999998 0.517003875 31.32659203226342 
Si 0.44350176599999996 4.81327146 0.011641367153230844 
Si 2.71901277 5.41743498 2.7012578413102 
Si 1.273811211 6.7306370399999995 1.3910233632147415 
Si -0.0294831081 8.149561199999999 2.7166824641342937 
Si -0.0012469261949999999 5.42922894 5.429321849395485 
Si 2.71533123 5.429391839999999 8.145384697846316 
Si 1.357308864 6.78760317 6.78773404303532 
Si 2.71337643 8.14338729 5.4302910806321885 
Si 4.05544437 4.07333079 12.234328977684896 
Si 1.357108497 4.07196243 9.502273813828474 
Si 1.3584507929999998 6.790730849999999 12.245544367709597 
Si 2.71384884 8.14576563 10.864701394020363 
Si 2.7192734099999996 5.45276799 13.717979693267216 
Si 2.29597776 5.56929036 16.608019548706142 
Si 3.5068297499999996 6.46662501 20.932487019063423 
Si 2.4833779199999997 4.83516522 19.272990064822228 
Si 0.18515214 6.74107893 22.40322618995681 
Si 2.37179142 6.1616436299999995 22.95544568706805 
Si 3.1220925299999998 8.06737815 24.250477080907803 
Si 3.6154026 5.11396857 26.952382230222515 
Si 2.22848829 7.72852986 29.373487244103995 
Si 1.330806663 4.77204147 27.352501653974084 
Si 4.03949646 6.214814189999999 29.000610141184026 
Si 3.7510982999999998 4.522104 30.552937812966977 
Si 0.8406878039999999 6.82021575 31.0842842230878 
Si 2.4510585599999994 6.759535499999999 32.83994276217041 
Si 4.03175871 9.42101199 1.273981768302655 
Si 1.357219269 9.507414149999999 4.07039042473599 
Si 2.72966643 10.841174189999998 2.7178178492972886 
Si 1.4959188449999998 12.08698452 1.1872874957197495 
Si 8.89414452e-05 8.145048869999998 8.144761620622722 
Si -0.001246676958 10.8592398 5.430221849829567 
Si 2.7146796299999996 10.86024978 8.144519312813546 
Si 1.356378705 9.50370003 9.502412275433718 
Si -2.9147696999999997e-05 10.859663339999999 10.858609083389661 
Si 1.091224746 9.80394102 15.042884178438193 
Si 2.7272880899999996 10.92671298 13.678241212562412 
Si 3.19458303 8.338606650000001 17.118319794829997 
Si 0.5228894519999999 8.80485903 21.1708140570883 
Si 2.70508482 9.80265411 20.940552407568838 
Si 2.3461998299999998 12.096807389999999 20.49075988293627 
Si 3.7312082099999997 8.305423919999999 19.483417089390596 
Si 1.553745087 11.9110851 18.222066481026253 
Si 1.09915146 9.69082326 17.412135321156093 
Si 3.92927832 9.94957362 22.950530300081915 
Si 3.10818087 12.206471669999999 23.7932076295921 
Si 1.6245902970000001 9.36867222 25.588916187991302 
Si 3.1813066799999996 9.85090509 29.773433590849013 
Si 2.6281308599999997 11.49318144 26.00049330957675 
Si 0.8258264369999999 8.50781088 27.623678707842913 
Si 4.04819532 10.551016709999999 27.68082873540705 
Si 2.36804472 8.31638709 34.60951669257996 
Si 0.6674355089999999 10.133748359999998 34.57843206220286 
Si 1.9470948299999997 11.585480579999999 30.85523411261422 
Si 0.18957650399999998 10.60226505 32.33424636442089 
Si 4.07091987 12.215903579999999 4.069801962913706 
Si 1.359395613 14.932016729999999 4.072467348814638 
Si -1.13604831e-05 13.574799089999999 8.144519312813546 
Si 2.7137348099999996 13.57548327 5.429806465013837 
Si 1.357864353 12.21715791 6.787491735226145 
Si 0.0009312373979999999 16.28864793 10.86324754716531 
Si 4.05809964 14.942230559999999 12.222594356640535 
Si 1.358082639 14.93229366 9.501477659598326 
Si 2.7157384799999997 13.57567875 10.861066776882728 
Si 1.3509085229999998 12.20911065 12.220794355772373 
Si 2.58999597 16.16683131 13.736395086764562 
Si 3.6780539399999994 12.31061364 17.07577746661902 
Si 3.3515208899999998 12.938299919999999 14.8413533120067 
Si 1.518848649 14.53740777 15.122395755249107 
Si 0.508534704 15.24139641 17.869439387873108 
Si 3.9540228299999995 13.85804961 20.256448231463445 
Si 2.17274391 15.454811699999999 19.872217276913535 
Si 1.06207542 12.46255047 22.47872238021567 
Si 3.94115373 14.56998777 23.82166148946958 
Si 2.31814845 16.24168386 24.162519346177053 
Si 1.216796211 16.073049779999998 22.031664472286653 
Si 1.04932035 15.38911413 26.048297178786967 
Si 0.705809862 12.446879489999999 29.030656309521806 
Si 1.9582209 13.43789793 27.210682354803726 
Si 3.30498036 13.062331979999998 34.45187815501056 
Si 3.8245336199999995 15.48670752 31.397172835536146 
Si 3.36598641 13.255547669999999 32.01727313461787 
Si 0.664724853 14.135614919999998 33.33085838356022 
Si 6.78817332 4.074161579999999 4.0758942735444075 
Si 4.9849029 0.36684754199999997 0.16485342566460656 
Si 5.4375531299999995 2.7114379200000003 2.7182851572149844 
Si 6.74184456 1.414305945 1.2568021446321036 
Si 5.42875653 -5.65293951e-05 5.430429542237431 
Si 5.430401819999999 2.7151031699999995 8.14510777463583 
Si 6.787652039999999 1.357546698 6.787457119824834 
Si 4.07240226 1.356583959 9.502239198427164 
Si 6.788043 1.370015064 12.225155896337535 
Si 8.116036379999999 0.15974788499999998 13.732345084811199 
Si 4.439920949999999 0.764934417 15.020972629408455 
Si 5.28017544 2.58610266 13.616245028814765 
Si 4.3347038399999995 1.84959918 17.270592945196217 
Si 5.54726628 0.6108424199999999 20.558121453887093 
Si 7.270666829999999 0.1119838131 18.992986083619144 
Si 7.99293285 2.17424259 18.170281840665293 
Si 6.05885373 2.89724166 20.835044664373513 
Si 6.21644319 3.9312656999999995 17.58971232988051 
Si 7.049855879999999 3.9950410499999998 24.61283110182929 
Si 7.012372589999999 0.1456431885 25.776185509082747 
Si 5.5195407 3.94341804 22.810199463167923 
Si 5.3862722100000004 2.9344643099999996 29.928683665727963 
Si 6.51901365 2.44110537 26.26685882266338 
Si 4.21945209 2.77073352 26.530628180651696 
Si 7.143539669999999 3.4738425 28.33055981801082 
Si 6.5622636 1.88682183 31.889473072978387 
Si 7.22471274 3.35112993 33.98457023731473 
Si 4.07430819 6.78574611 4.070459655538611 
Si 6.64353441 6.600317039999999 1.3708979688926406 
Si 5.4288542699999995 8.14001526 2.7039855349334916 
Si 8.14364793 8.14332213 5.4303949268361205 
Si 4.07267919 4.07256516 6.787630196831388 
Si 5.43106971 5.42893572 5.431364158072823 
Si 6.78791268 6.78703302 6.787803273837941 
Si 6.78801042 4.07323305 9.502135352223231 
Si 4.07276064 6.7872285 9.50417766090057 
Si 8.14340358 8.14276827 10.86324754716531 
Si 5.43403449 5.4268506 10.862278315928606 
Si 6.77898576 6.7820157 12.230763591349884 
Si 5.79111129 4.25605572 15.358715099997957 
Si 4.39479765 6.3784961099999995 15.151195769139694 
Si 5.43090681 8.03588958 13.724002773095295 
Si 6.60600225 6.19596666 19.701078732832926 
Si 4.8702701699999995 4.44876642 19.38133627092504 
Si 6.94563246 7.35864912 23.37681896722445 
Si 5.711502059999999 6.064995059999999 21.859868235581143 
Si 6.65697366 6.16442922 25.439273808124703 
Si 4.49892333 6.96737961 25.789408592383474 
Si 7.48398438 5.7990933899999995 27.704471054502328 
Si 6.10778889 7.304224229999999 28.881844699286663 
Si 5.45556987 4.97336958 34.57237436697347 
Si 4.59348678 5.73614883 32.4855156681491 
Si 6.84966807 6.85131336 32.54951954517277 
Si 6.79095891 9.50567112 4.070078886124193 
Si 6.611573429999999 12.19431933 1.1720013345008988 
Si 4.07227194 9.50272263 6.787803273837941 
Si 5.43079278 8.14457646 8.145142390037142 
Si 5.42957103 10.859353829999998 5.430325696033499 
Si 6.788662019999999 9.50308101 9.501893044414055 
Si 4.0801237200000005 9.49993704 12.24609821413057 
Si 5.43009231 10.860380099999999 10.863386008770552 
Si 6.763461389999999 12.227860439999999 12.235609747533395 
Si 8.11403271 10.87886925 13.617456567860645 
Si 6.56260569 9.51676461 17.000938968985064 
Si 4.4087255999999995 10.23741792 16.236111677022876 
Si 7.29036144 8.991835649999999 14.842011004631605 
Si 6.040967309999999 8.43714486 19.21237849712701 
Si 7.1071966799999995 10.072058129999998 20.51066373868998 
Si 7.194820589999999 10.76527908 24.48890796513661 
Si 6.27401205 9.601342289999998 22.727572500239035 
Si 7.37146935 9.764014229999999 26.631635921676615 
Si 5.37387552 8.68193469 27.16339771661317 
Si 7.574801129999999 11.736097919999999 27.90503268969712 
Si 6.82564032 8.43074289 30.798603316069748 
Si 4.941995039999999 11.133335339999999 34.42082814003477 
Si 5.08218678 9.994077899999999 31.151091947617655 
Si 4.093905059999999 14.80668147 1.26057176183485 
Si 5.440648229999999 13.573789109999998 2.7068447670817637 
Si 6.78828735 14.932228499999999 4.068728885473072 
Si 4.07259774 14.93208189 6.78769942763401 
Si 5.429701349999999 13.575010859999999 8.14510777463583 
Si 6.787456559999999 12.217548869999998 6.787214812015658 
Si 8.14390857 13.576770179999999 10.868751395973726 
Si 4.0701379499999994 12.21694614 9.502308429229787 
Si 6.7860719099999995 14.931984149999998 9.502066121420611 
Si 5.4285773399999995 16.291629 10.86238216213254 
Si 6.892934309999999 14.77384083 17.302196806592978 
Si 5.3296155899999995 13.646833469999999 13.70261045508522 
Si 6.33723354 15.46484634 15.076807271722778 
Si 7.3151874 12.23507691 19.405324744033425 
Si 5.35364334 13.27473729 18.438689662429255 
Si 6.857128889999999 13.04022645 24.785735031376745 
Si 7.38813402 14.196751289999998 22.824045623692243 
Si 5.29079652 14.96462931 21.933495194169218 
Si 5.3647205399999995 14.66194482 25.65285083421236 
Si 5.3755371 12.28050972 28.51817529311537 
Si 7.2167958 15.35195664 29.51984116084607 
Si 4.823501579999999 15.724997639999998 29.239387179425947 
Si 4.22738532 14.118445259999998 27.664490265988352 
Si 5.830223579999999 16.008834599999997 32.673684989674626 
Si 7.86912885 14.60861136 32.878954319447686 
Si 5.4450302399999995 12.3074208 30.88756489743851 
Si 7.52360166 13.43359737 30.937272613720822 
Si 12.17705193 1.217757321 1.2046228886961996 
Si 9.50290182 1.358885736 4.069075039486179 
Si 10.866570300000001 2.70420516 2.688450142825203 
Si 9.38576043 4.03227999 1.3183794820238908 
Si 8.14431582 0.00047152871099999995 8.145453928648937 
Si 8.1425565 2.71480995 5.429944926619081 
Si 10.85992398 -0.001247463765 5.430014157421702 
Si 10.8597285 2.7156570299999996 8.145488544050249 
Si 9.50389551 1.357854579 9.502204583025852 
Si 8.14144878 2.71588509 10.863039854757444 
Si 10.85847417 0.0009188684009999999 10.862762931546959 
Si 9.522661589999998 4.087014389999999 12.234467439290139 
Si 11.318536349999999 3.52999413 17.13445057184083 
Si 9.19845801 1.9146288599999999 14.990268768445771 
Si 10.970125829999999 2.7610083899999998 13.662664281972553 
Si 10.09431027 1.459057833 17.162869816317 
Si 11.808816479999999 3.8231001 21.37127184607916 
Si 8.285941079999999 3.31449372 20.22318283080376 
Si 9.70874226 3.1088976299999995 22.056691407434364 
Si 9.393188669999999 0.8034521219999999 22.162891458655906 
Si 12.0016575 1.3458293009999998 24.34345404882862 
Si 11.146074119999998 3.24935001 25.609373890165987 
Si 9.15338358 2.6581207499999997 29.38103340158975 
Si 10.93989159 2.11175415 27.835005732845367 
Si 8.28250389 0.858069234 30.70223403882047 
Si 12.097035449999998 6.88902471 1.2723202290397364 
Si 8.141465069999999 5.4172232099999995 2.7227574670643397 
Si 9.50106105 6.79094262 4.07208657940022 
Si 9.501484589999999 4.07310273 6.78728404281828 
Si 8.14508145 5.4296199 8.144934697629276 
Si 10.859353829999998 5.42947329 5.429321849395485 
Si 12.216652919999998 4.0733144999999995 9.501858429012746 
Si 12.21865659 6.77502729 12.24917898484723 
Si 9.50339052 6.78719592 9.50120073638784 
Si 10.859598179999999 5.42792574 10.859543699225053 
Si 8.162642069999999 4.20571962 15.423584362054402 
Si 9.56405448 5.139674189999999 17.192846753852155 
Si 10.50033852 7.279072469999999 16.96628895227295 
Si 8.33974695 5.654144969999999 13.608110409506727 
Si 9.23602275 7.51100949 14.888049488374971 
Si 9.863643869999999 6.95703546 21.024321678740986 
Si 8.81065827 5.4723811499999995 19.475455547089112 
Si 12.159328409999999 7.44830928 20.859760060909426 
Si 9.2040129 6.636301649999999 23.29519585093358 
Si 9.36036432 4.29362046 24.090830850062382 
Si 10.808545319999999 7.902034649999999 28.563659930437765 
Si 9.58697451 5.95173069 28.694021531774247 
Si 12.07258416 5.06762352 30.99321110223908 
Si 11.6116749 7.0358139 32.15781166393973 
Si 8.4807369 5.05198512 32.71376962439253 
Si 9.731352779999998 4.64201469 30.607110916018385 
Si 8.36599014 7.61309892 34.60342438194926 
Si 10.178301509999999 5.93615745 34.487151248946276 
Si 9.38318661 9.51876828 1.1560713268176674 
Si 10.835782199999999 8.177172749999999 2.7094097683188942 
Si 8.117942309999998 10.85762709 2.68395360219493 
Si 9.50255973 9.502413119999998 6.7873532736209015 
Si 10.85963076 8.14539096 8.144830851425343 
Si 8.14529322 10.86000543 8.14462315901748 
Si 10.86095025 10.859467859999999 5.430706465447918 
Si 12.216978719999998 9.50352084 9.501685352006191 
Si 9.50835897 9.525121379999998 12.216225122799345 
Si 10.85813208 10.86000543 10.857120621133296 
Si 9.50466114 12.21650631 9.502135352223231 
Si 10.998845099999999 8.32927248 13.594783480002068 
Si 8.3230497 10.92850488 17.524323836804403 
Si 9.23043528 9.082408049999998 20.263821311942646 
Si 10.11345102 9.37238634 18.0421356250127 
Si 9.455383889999998 10.58234238 23.869949974298148 
Si 10.013234939999998 8.41404564 24.66340420314437 
Si 10.40093694 10.443079169999999 21.729091249428926 
Si 10.4014908 12.20562459 25.325008368397743 
Si 8.81984583 11.741489909999999 29.917537506505884 
Si 11.0578149 12.143315340000001 29.168944837758463 
Si 9.56954421 8.989131509999998 26.897274511335716 
Si 11.033314739999998 10.875529799999999 27.114797693172804 
Si 10.32973335 11.30214861 34.47288970360622 
Si 12.122008019999999 10.23813468 33.072108258761965 
Si 10.94701032 8.91149337 30.712307120601917 
Si 8.78304672 9.64732896 30.988780330871297 
Si 12.13127703 12.207807449999999 1.3115429402650072 
Si 12.21826563 14.93263575 4.074198118880179 
Si 8.44421472 13.146697889999999 0.03760928737017413 
Si 9.50332536 12.218363369999999 4.067725038835058 
Si 9.54328473 14.89559229 1.3082960156220538 
Si 10.86503904 13.58263458 2.7189151575188406 
Si 8.1428823 16.2970047 2.684815525687569 
Si 8.1443484 13.574473289999998 5.430948773257094 
Si 9.502804079999999 14.93248914 6.787837889239253 
Si 10.86000543 13.57525521 8.144969313030588 
Si 9.512871299999999 14.939656739999998 12.262852068365 
Si 9.36042948 12.3351138 15.111007288217852 
Si 10.974263489999998 13.567941 13.788872035151739 
Si 9.00361332 13.23332811 17.274885254958757 
Si 10.717891469999998 12.57540759 20.87367545223637 
Si 8.62143363 13.59955989 20.936156251602366 
Si 9.250390529999999 15.77391651 20.20410974468151 
Si 11.34248265 16.199704529999998 19.011366861715178 
Si 11.0724759 12.56504715 18.497674306262866 
Si 10.781357309999999 15.674563799999998 24.91010816828646 
Si 8.537246909999999 15.9255927 23.9764961795328 
Si 12.05114652 13.655353139999999 24.50254643325307 
Si 11.60975268 14.54978817 28.9601447370517 
Si 8.54024427 13.246865099999999 26.37904733831169 
Si 10.56518901 16.036038899999998 27.326505487589674 
Si 8.32596561 15.36627555 27.420555532951123 
Si 9.623317499999999 16.118710649999997 32.34570406225477 
Si 11.535388829999999 15.708544739999999 31.094841920487596 
Si 10.94292153 16.06151646 34.43294353049355 
Si 16.294398299999997 2.71047681 2.7104136149569076 
Si 14.934427649999998 1.3559470200000001 4.071463502176625 
Si 14.908005269999999 3.96280314 1.3189783284665675 
Si 13.574847959999998 6.89086548e-05 8.144900082227965 
Si 13.575857939999999 2.71495656 5.429460311000729 
Si 12.2179887 1.356947226 6.78773404303532 
Si 14.933417669999999 1.357574391 9.502412275433718 
Si 13.57281171 2.71730232 10.86501293263216 
Si 12.21777693 1.339795485 12.244644367275516 
Si 14.932114469999998 4.087714859999999 12.249975139077378 
Si 16.22301552 2.65188168 13.66771813056393 
Si 14.63969268 1.6765993799999999 15.195641944422766 
Si 12.78784548 3.5099411399999996 15.13374960687905 
Si 15.93968355 1.23373944 17.31258142698622 
Si 13.2286203 0.525357387 20.47566756796476 
Si 15.113454749999999 1.66964355 19.475697854898286 
Si 14.74300386 3.9674294999999997 19.4206247514128 
Si 15.13130859 3.00571677 22.691399405869248 
Si 12.98897811 2.0295873899999997 22.26376073807559 
Si 14.990286059999999 3.01884651 25.01786591256699 
Si 14.09647005 0.8513137709999999 25.34456607013835 
Si 14.37287877 0.672335541 27.679097965341512 
Si 13.14128961 2.28765357 28.94159088194911 
Si 13.750226099999999 2.3589386099999996 34.57773975417664 
Si 12.94295886 3.3146566199999996 32.55772339528343 
Si 14.48874954 0.316030887 33.04967747871256 
Si 12.89003265 1.405004355 31.14797656149968 
Si 12.21808644 4.0716855 4.068763500874382 
Si 13.56601878 5.4377648999999995 2.6876574501351858 
Si 14.93309187 6.78864573 4.0731250414395435 
Si 14.932440269999999 4.07264661 6.787664812232699 
Si 13.575304079999999 5.42963619 8.145350082445006 
Si 12.21732081 6.787896389999999 6.787803273837941 
Si 13.57637922 8.143973729999999 10.863039854757444 
Si 16.28687232 5.42818638 10.863420624171862 
Si 14.933971529999999 6.78867831 9.503277660466487 
Si 14.48868438 7.48062864 15.192249635094308 
Si 13.621779449999998 5.50160541 13.913072095054899 
Si 15.7762134 5.05064934 17.67351621645396 
Si 15.093825299999999 5.034603689999999 21.50447191032313 
Si 12.43617696 4.25778246 19.126878455889326 
Si 12.62857815 6.608250269999999 18.708828254258762 
Si 14.78679138 7.14549447 17.63765466069597 
Si 12.9590208 5.7156397199999995 22.123533747365528 
Si 15.454616219999998 7.261332659999999 24.50898489789688 
Si 13.269182399999998 6.39639882 24.293330947730578 
Si 13.19312439 4.555856879999999 25.728243178267288 
Si 13.868377469999999 4.561656119999999 29.45234112829 
Si 16.12933173 6.54460524 26.73437443276708 
Si 14.00490396 5.88354075 27.525024814107123 
Si 13.10419728 8.031703049999999 28.000190427900517 
Si 13.962549959999999 7.2352523699999995 32.6662426783928 
Si 14.88308157 4.88603889 32.98532744767578 
Si 15.89460912 4.73556816 30.78364946270348 
Si 14.93473716 12.216490019999998 4.070805809551719 
Si 12.2161968 9.50034429 4.0712558097687594 
Si 14.954610959999998 9.50220135 1.2199332806959675 
Si 13.580761229999998 10.860673319999998 2.690994374821547 
Si 13.57535295 10.859972849999998 8.144900082227965 
Si 13.574277809999998 8.1438597 5.430083388224324 
Si 14.93242398 9.50262489 6.787422504423523 
Si 14.93276607 9.5185728 12.22449820371263 
Si 12.20959935 12.21510537 12.237375133000247 
Si 12.78168786 9.305874269999999 15.211115028808694 
Si 13.621404779999999 10.940168519999999 13.676545057898185 
Si 16.27398693 8.24515092 13.66082966570308 
Si 15.413158169999999 12.16859742 18.339204999062012 
Si 14.05033677 10.52068473 19.3546131811131 
Si 15.73162767 8.86503429 19.01538224826723 
Si 12.223396979999999 10.4519898 17.7069546941202 
Si 12.42335673 9.35358768 22.21810302374664 
Si 15.941051909999999 10.56914748 22.480072380866794 
Si 12.295838609999999 8.511736769999999 24.430442552322667 
Si 15.80680602 9.65143404 24.60351955887668 
Si 13.8202731 11.123431019999998 21.670660452016293 
Si 14.761493009999999 11.14654653 26.152835690745594 
Si 14.259826169999998 9.479672279999999 29.565395028971086 
Si 12.92458374 9.72319149 26.3464050148756 
Si 15.85303704 10.52848764 28.169217432501167 
Si 12.586973489999998 10.9100646 30.645534011473377 
Si 15.537011039999998 8.54739558 31.402330530331458 
Si 13.27131639 8.50996116 34.464443545686386 
Si 16.2930951 15.959215259999999 0.036913171649813885 
Si 14.880605489999999 14.826115439999999 1.4215368394702141 
Si 13.568299380000001 16.284624299999997 2.7090739989261796 
Si 16.313131799999997 13.547562209999999 2.706457074587083 
Si 13.57452216 13.57602084 5.430498773040053 
Si 12.217516289999999 12.21785838 6.787595581430077 
Si 14.932016729999999 14.93283123 6.787837889239253 
Si 12.217109039999999 14.933140739999999 9.501789198210124 
Si 14.93364573 12.2165226 9.50199689061799 
Si 13.57426152 13.575727619999999 10.862486008336472 
Si 14.94045495 14.93480232 12.24049051911822 
Si 12.84152103 14.36463603 15.280657370042096 
Si 14.59994508 12.53636046 15.230188114930947 
Si 13.60136808 16.21454472 13.783956648165605 
Si 16.23775797 13.496574509999999 13.683814292173453 
Si 12.501874529999998 14.39322498 17.78549703969441 
Si 14.09591619 14.695681409999999 21.192621759914104 
Si 14.62957659 14.25106215 18.926870667115512 
Si 15.321999329999999 15.08146119 24.85455044918262 
Si 12.60523458 13.16561058 22.172168386207204 
Si 15.959492189999999 14.464640339999999 22.646883999783554 
Si 13.82665878 14.673787649999998 28.11123663530557 
Si 15.35246163 13.973366519999999 29.789564367859846 
Si 13.97401812 13.48766388 25.962727906746665 
Si 15.248710619999999 12.507054749999998 33.076746722537614 
Si 13.60990404 13.415662079999999 34.59348976177306 
Si 13.779710999999999 13.06029573 31.34538819517519 
Si 12.63268323 14.98124511 33.10793519911864 
Si 16.062216929999998 15.52647141 31.512130583289323 
