&CONTROL
  dt          = 30.D0,
  prefix = 'x.66_y.66_z3.17_struc19-scf',
  pseudo_dir = './',
  outdir='./',
  wf_collect= .true.,
  verbosity= 'high',
/

&SYSTEM
ibrav= 6, celldm(1) =30.783621515, celldm(3) =2.114852743146671, nat=  432, ntyp= 1,
  ecutwfc     = 12.D0, nbnd= 1728,
  degauss     = 0.05D0,
  occupations = "smearing",
  smearing    = "methfessel-paxton",
/
&ELECTRONS
  electron_maxstep=200,
  conv_thr    = 1.D-8,
  mixing_beta = 0.3D0,
  scf_must_converge=.false.,
/
ATOMIC_SPECIES
Si  28.08  Si.pbe-hgh.UPF
K_POINTS {automatic}
1 1 1 0 0 0
ATOMIC_POSITIONS (angstrom)
Si 2.70813105 -0.00279065619 2.7109694644810958 
Si 3.02417334 2.49337998 0.07554301223181663 
Si 1.387831437 1.36422234 1.3481380669001635 
Si 1.360218258 4.07039859 4.075099662921735 
Si 4.07064294 1.356966774 4.069759765487927 
Si 0.0017745185699999998 -9.07421418e-05 5.431502513011386 
Si -2.9574495e-05 2.7146307599999995 8.145513996482194 
Si 2.71531494 0.0001409756148 8.144824977458477 
Si 2.7128388599999997 2.7142072199999996 5.430021122110395 
Si 1.3572323009999998 1.3573495889999998 6.78797426500341 
Si 2.71345788 2.71746522 10.862178203194313 
Si 1.355994261 1.369181016 12.235703176023335 
Si 3.6499211099999997 2.0065859099999996 15.052860807344604 
Si 0.049213393200000004 4.0091319 15.820703607375037 
Si 2.22606108 0.488817288 19.4679224565684 
Si 3.28730571 3.36017088 21.464768489203173 
Si 1.510166079 2.6828326799999997 19.998708261488932 
Si 3.8084065199999997 2.06291673 23.403082355773176 
Si 2.5098003 0.0549864063 23.62298277719251 
Si 0.31345217999999997 0.53411652 24.3760805701154 
Si 3.1912109999999996 3.21279525 25.3712996479725 
Si 2.47257765 1.92331143 30.06014300627032 
Si 0.031173684299999997 1.68274071 30.018801864847287 
Si 0.554065254 1.213820028 26.66713772587741 
Si 0.165446127 0.06449031809999999 34.2525481579799 
Si 2.6690513399999998 3.8625707699999996 31.369520307991273 
Si 1.2532059899999999 3.37688442 33.23962129121327 
Si 0.10908207539999999 5.087562479999999 0.029750153347499957 
Si 2.70866862 5.41613178 2.7217353867266767 
Si 1.2253794120000001 6.621005339999999 1.3929070779661874 
Si 0.01364334741 8.13038787 2.723705981134508 
Si 3.03414282 7.512443009999999 0.23612302982324895 
Si 0.0007595880389999999 5.42937555 5.430124474963952 
Si 2.71528236 5.43002715 8.145824055042866 
Si 1.357416378 6.78724479 6.787457500735621 
Si 1.358326989 4.071538889999999 9.501331180401685 
Si 0.0014818898969999998 5.43001086 10.867449198725748 
Si 1.3696110719999999 6.78369357 12.255064610589788 
Si 2.8127942999999997 5.42758365 13.877497705736644 
Si 2.3621477399999997 7.04633724 15.741983183915348 
Si 2.67152742 4.2313763699999996 16.574490419321638 
Si 1.5818942069999997 6.13900053 17.770592993543485 
Si 2.53369773 7.23175002 19.86204133813463 
Si 2.4925329 5.1759846000000005 22.69859485497354 
Si 1.26353385 4.120034219999999 24.39461518185339 
Si 0.994237344 6.551968319999999 21.565227462861138 
Si 0.327538143 5.493802499999999 26.040474923806627 
Si 2.66743863 7.02149499 28.900696244110225 
Si 1.7409611699999998 7.26226119 26.79936047652874 
Si 1.68637338 5.91299307 30.716295822556194 
Si 2.72365542 7.29546021 32.35888272414678 
Si 4.04402508 9.426452849999999 1.3644747079524977 
Si 1.35721764 9.502478279999998 4.070448784511644 
Si 2.7120243599999996 10.86845994 2.696996158680111 
Si -8.541742949999999e-05 8.14488597 8.145169486970335 
Si 2.7164389499999997 8.14596111 5.42964216164735 
Si -0.000791166204 10.85992398 5.429676612598535 
Si 2.71482624 10.86007059 8.145238388872707 
Si 1.357694937 9.502738919999999 9.50136563135287 
Si 2.7146633399999995 8.14648239 10.862901673169215 
Si -0.0017139523499999998 10.85655195 10.865726651166455 
Si 0.842707764 9.99577206 14.942032097379697 
Si 2.7781454699999997 10.90509615 13.791404778723182 
Si 0.6294944699999999 9.343243529999999 17.21403787713593 
Si 0.413217027 11.538972629999998 18.239642693938958 
Si 2.930571 9.565748639999999 19.935146256551022 
Si 0.517707603 9.80314281 19.749558982512802 
Si 3.73353768 10.39958487 22.200330747972455 
Si 1.9971214199999998 11.92687011 22.758022745769143 
Si 0.898321824 8.41712445 22.989670941542865 
Si 3.1092723 8.63731638 23.690437739614424 
Si 0.38459875499999996 10.449774360000001 21.979017837554494 
Si 3.2735732399999997 8.952218369999999 25.97415684277385 
Si 2.3295025799999998 9.289567980000001 29.664163773340054 
Si 0.047221452 9.32089365 28.97893435425331 
Si 1.99339101 10.862465219999999 26.56388822517339 
Si 0.333215208 9.14124753 26.68684366995572 
Si 3.0177876599999998 11.31247647 28.630359630154786 
Si 2.1569589 9.49672791 31.983126199562612 
Si 4.05803448 15.058150199999998 1.1785325891170597 
Si 0.016578821699999996 13.58773335 2.7119306460191814 
Si 1.530246762 12.43001934 1.271946343257517 
Si 1.357115013 14.931951569999999 4.076133191457311 
Si 8.683482239999999e-05 13.5746199 8.144962781263219 
Si 2.71388142 13.576200029999999 5.43029672971988 
Si 1.357730775 12.21756516 6.787457500735621 
Si -0.0030934221299999997 16.2950499 10.860834616098064 
Si 4.0640292 14.93045289 12.229949867175296 
Si 1.3582373939999999 14.932668329999998 9.502605865595562 
Si 2.7137999699999997 13.57294203 10.859835538513673 
Si 1.382085954 12.21881949 12.241284230115443 
Si 2.67068034 16.3017288 13.630725542392334 
Si 0.06054048179999999 13.54814865 13.702245717054177 
Si 0.9534846509999999 15.360003899999999 15.096785770106576 
Si 1.252564164 15.085940939999999 17.757329377336927 
Si 2.7652600799999996 15.519222359999999 21.43586414115824 
Si 1.5071833799999999 13.611647069999998 21.20473270965231 
Si 2.07251154 13.07380014 18.95449993104554 
Si 1.67985738 12.63783087 25.032095582596533 
Si 2.92425048 14.68988217 25.31455893136939 
Si 3.31382583 15.08045121 29.248237439673172 
Si 2.4927935399999996 16.11074484 27.212702988856677 
Si 3.09552354 16.27633269 31.269681451454648 
Si 2.90603826 13.777137179999999 33.91713369723438 
Si 2.5085459699999997 13.08826566 30.140654879191672 
Si 0.424699848 13.87469799 30.952422641984075 
Si 1.492828632 15.22667025 32.650199967374405 
Si 8.135747279999999 -0.0219822147 2.71566168403261 
Si 5.436934109999999 2.7313605899999995 2.7033523591739024 
Si 6.74345727 1.285929342 1.370190120754232 
Si 8.14400631 2.7159991199999998 5.430572337329368 
Si 5.43095568 -0.000821393928 5.42964216164735 
Si 5.42950587 2.71539639 8.144962781263219 
Si 6.78730995 1.3573919429999999 6.787423049784435 
Si 4.07228823 1.359641592 9.502226905132517 
Si 5.42828412 -0.0009468888299999999 10.863625143144118 
Si 6.8053918499999995 1.3650433559999997 12.247106440865853 
Si 5.06377908 0.6109645949999999 16.296919105617167 
Si 6.449276159999999 2.6225270999999997 16.718702100985645 
Si 5.495089409999999 2.85723342 13.6295886610032 
Si 5.95710639 0.222640317 19.98137943304245 
Si 7.246704239999999 3.65391216 20.650279101267092 
Si 4.42167615 2.9000435399999995 18.13863250506202 
Si 7.0904994299999995 1.542990429 21.628651663994304 
Si 6.12046251 1.96100649 23.75424090121064 
Si 6.66331047 3.9670874099999995 25.04291318126889 
Si 5.99424759 0.387617292 25.530256336744053 
Si 6.27647184 0.52825212 29.15542657717847 
Si 8.114211899999999 2.9478384 26.692286920243088 
Si 4.115065769999999 1.436665599 26.642126335316476 
Si 7.59734649 0.6891973199999999 27.25810934251964 
Si 4.545040319999999 2.1299175 28.818978587897366 
Si 7.80064569 0.45460665899999997 30.951354662497312 
Si 6.73146783 1.9590842699999997 32.662154447435896 
Si 5.12928117 3.9604410899999998 31.585114360512378 
Si 5.04222741 0.7580127959999999 34.23342788007175 
Si 4.10301117 4.1561328600000005 1.3000583194251782 
Si 6.78875976 4.07145744 4.074135036288531 
Si 4.07336337 6.78553434 4.068622884098794 
Si 4.99314564 6.02725113 0.18356018007044791 
Si 6.830348129999999 6.899890139999999 1.4058399650413593 
Si 8.140911209999999 5.4156105 2.699087331417093 
Si 4.07219049 4.07240226 6.787664206442736 
Si 5.42989683 5.4283167 5.4310546506459705 
Si 6.787440269999999 6.78766833 6.787423049784435 
Si 6.7889715299999995 4.0730701499999995 9.502399159888448 
Si 4.07377062 6.788808629999999 9.502468061790818 
Si 4.073249339999999 4.08290931 12.231396807125103 
Si 5.426036099999999 5.4312326099999995 10.859525479953001 
Si 6.797849579999999 6.80118903 12.22426546022963 
Si 6.6161346299999995 4.55171922 15.076597512711661 
Si 4.79566197 6.406449749999999 15.267421331330137 
Si 6.390941669999999 8.07905808 21.085945829963464 
Si 5.05066563 4.30549587 20.144814745468164 
Si 4.83233076 6.665916869999999 19.83134554062803 
Si 7.78681548 7.0343315099999995 17.945569374616465 
Si 5.381368919999999 7.4201112899999995 17.555308999583048 
Si 6.187446989999999 7.492634369999999 23.358916236352904 
Si 4.1103742500000005 6.5033752499999995 23.832651266109654 
Si 7.74553662 5.8539744 24.02068455768207 
Si 4.58820882 5.08487463 25.729968500768482 
Si 5.54733144 4.1938604999999995 29.303393412521732 
Si 4.561835309999999 5.89834836 28.01206840922217 
Si 6.1207394399999995 7.577000279999999 28.36191781851457 
Si 7.86401379 4.28435145 28.66064201624716 
Si 6.2279928 7.63681716 30.85192921737492 
Si 4.91594733 6.23344995 32.222767016011446 
Si 5.4259872300000005 8.16550911 2.7397876851480674 
Si 6.786332549999999 9.50278779 4.0758920347990095 
Si 5.515631099999999 10.710870479999999 0.0856777930516727 
Si 4.07280951 9.50306472 6.787939814052224 
Si 5.42997828 8.14508145 8.145031683165591 
Si 5.4324543599999995 10.860738479999998 5.430503435426996 
Si 5.42787687 10.862057969999999 10.864796475484436 
Si 6.79017699 9.50334165 9.502881473205049 
Si 4.05889785 9.49633695 12.249311301741749 
Si 8.0694144 10.83715056 13.629795366710317 
Si 5.46729867 8.144462429999999 13.649776918398114 
Si 6.30621738 9.902853899999998 14.955054556927951 
Si 4.79761677 11.82127833 15.026161320175564 
Si 6.969855689999999 10.43908812 21.028963956702054 
Si 5.96894922 11.322185309999998 19.048309871124633 
Si 4.57229349 9.60813522 18.19954178675862 
Si 6.6241330199999995 9.53740404 24.569970523389415 
Si 5.8927771799999995 11.25349038 22.929898541235396 
Si 5.5067856299999995 9.26384607 26.71182060956547 
Si 6.7034978999999995 11.097855719999998 29.75111797413316 
Si 5.302443869999999 11.28903516 27.877881954353246 
Si 7.471750589999999 9.90070362 33.39199784830832 
Si 6.01102629 9.801285749999998 31.52844254581164 
Si 4.1127525899999995 10.69298406 32.630494023296094 
Si 4.0745362499999995 12.216473729999999 4.070689941169945 
Si 5.41034883 13.60521252 2.7000691835258896 
Si 6.745705289999999 12.271729409999999 1.3250559296056377 
Si 6.78760317 14.933205899999999 4.074858506263434 
Si 4.07227194 14.93263575 6.787560853589179 
Si 5.4298316699999996 13.574782799999998 8.144824977458477 
Si 6.7877171999999995 12.21719049 6.788077617856966 
Si 8.143973729999999 13.57507602 10.85845750046624 
Si 4.07186469 12.21852627 9.501813493718288 
Si 6.7889389499999995 14.93131626 9.502226905132517 
Si 6.790828589999999 12.23996391 12.223231931694054 
Si 5.693322419999999 12.73011372 17.172145520493924 
Si 7.458343919999999 14.282436689999999 16.902463474611018 
Si 5.52454173 13.71062511 13.633447167536017 
Si 6.567834779999999 15.39631431 15.005042887098632 
Si 4.90990374 14.63739579 20.981593898821497 
Si 4.44088206 13.225280849999999 19.103293589217262 
Si 7.7352250499999995 15.699210569999998 18.709657020967636 
Si 6.10503588 13.7334474 22.90275119170094 
Si 5.26123017 14.463027630000001 25.028994996989802 
Si 6.18549219 13.30596522 26.86933035838722 
Si 5.568133769999999 14.62591134 28.756105601983172 
Si 7.823744909999999 14.440254209999999 31.85855156007454 
Si 4.10107266 12.83476068 31.837157519388125 
Si 6.1786178099999995 13.25689974 30.579181036836474 
Si 8.47777212 2.2440452399999997 0.05225451373968762 
Si 9.50242941 1.3586853689999998 4.065384494687323 
Si 10.86270957 2.7380231999999998 2.6997315642042685 
Si 10.366190369999998 0.614522331 0.23784178777791148 
Si 9.47659347 4.082485769999999 1.1878722419835461 
Si 8.145228059999999 6.79920165e-05 8.144962781263219 
Si 10.86011946 -0.000660002382 5.430055573061581 
Si 10.86018462 2.7146633399999995 8.144928330312034 
Si 12.20448429 1.3818595230000001 12.215687173384351 
Si 9.502347959999998 1.3582227329999998 9.50394945269181 
Si 8.142230699999999 2.7150705900000003 10.861558086072966 
Si 10.86096654 -0.0028017171 10.861971497487197 
Si 8.30074869 0.1284704334 13.731907986025202 
Si 10.00259757 0.915230844 15.30166557680888 
Si 10.85883255 2.65333149 13.739866155749137 
Si 8.580382829999998 1.407446226 17.44330895727782 
Si 10.58548635 0.19695261599999997 20.362269149353306 
Si 10.882615949999998 4.02117021 19.713488836621206 
Si 11.953504259999999 1.96705008 19.29146468459443 
Si 8.74339686 3.3708245399999996 18.810563856991017 
Si 10.501348499999999 2.25199476 23.381929471745057 
Si 9.16338564 0.6595185689999999 22.252696193774963 
Si 10.288910609999999 2.52796365 25.77072397602135 
Si 12.18356793 1.2373558199999999 29.72383282079396 
Si 11.06266932 0.328139244 26.421433542019862 
Si 11.04077556 0.35230057200000003 32.527278973543254 
Si 9.507072059999999 3.68551476 30.279044350105266 
Si 9.991846169999999 1.3939352999999999 30.728422557373616 
Si 9.50606208 6.785257409999999 4.070896646877061 
Si 9.5027715 4.07271177 6.787664206442736 
Si 8.14480452 5.430255209999999 8.144514918897803 
Si 10.861422659999999 5.42966877 5.430262278768696 
Si 10.86158556 5.431248899999999 10.861833693682454 
Si 12.22672014 6.77328426 12.241043073457144 
Si 9.50102847 6.78717963 9.501193376596941 
Si 9.50736528 4.06471338 12.241869896285603 
Si 9.83161773 6.76178352 15.082006312047842 
Si 8.2951938 4.89949443 17.006712052899427 
Si 10.87052877 5.12330274 16.518679878400544 
Si 8.2732023 5.58582471 13.619460081354557 
Si 11.91391956 5.9129442 18.62242721256504 
Si 8.40143718 7.131208139999999 20.327335884850847 
Si 10.53993951 4.24263276 22.048298700389257 
Si 11.66877135 5.974911359999999 23.16323483361722 
Si 8.484288119999999 5.26601943 21.846312773586565 
Si 11.19510702 6.19831242 25.4943239946572 
Si 9.00340155 7.02955854 25.704991561158735 
Si 9.30519009 7.93169874 29.400958506280087 
Si 11.38179042 6.8937325199999995 29.702645485814656 
Si 11.38568373 4.58690562 29.148226328380623 
Si 11.63938419 4.23935847 26.77538261450338 
Si 8.16317964 6.55690419 27.87795085625562 
Si 8.42305401 7.36716879 31.537055283608105 
Si 11.44939392 6.01925274 32.01120372477909 
Si 9.25084665 5.24223603 32.087925993069994 
Si 8.489826719999998 7.85383254 34.43055622275724 
Si 10.34155989 5.970871439999999 34.32165676605874 
Si 9.52056018 9.51179616 1.396996405871949 
Si 10.875106259999999 8.14804623 2.7094432873435625 
Si 8.13051819 10.87354242 2.7079481160620964 
Si 10.972439009999999 10.6908012 0.01957833775511908 
Si 8.1448371 8.146075139999999 5.4298833183056505 
Si 9.502608599999999 9.50251086 6.787629755491551 
Si 10.860103169999999 8.14464162 8.144928330312034 
Si 8.14464162 10.86046155 8.14479052650729 
Si 10.861699589999999 10.85886513 5.4310201996947844 
Si 8.145097739999999 8.142377309999999 10.85969773470893 
Si 9.50881509 9.50117508 12.243936953356755 
Si 10.86011946 10.86031494 10.865485494508155 
Si 9.33035814 8.3271222 16.756081383022302 
Si 11.058466499999998 8.22099285 13.68508914336362 
Si 9.65221596 11.96326197 14.952195127979525 
Si 9.32547114 10.8836748 20.965918716031933 
Si 10.17911601 8.710214129999999 20.443986805566166 
Si 11.197729709999999 8.21941272 18.361323453527415 
Si 11.57586948 8.181847979999999 22.27774203528708 
Si 10.4997195 11.884907069999999 22.841738557150784 
Si 10.88087292 9.791120789999999 23.87578385699435 
Si 8.92867932 9.42467724 25.24830975223898 
Si 8.883409409999999 10.3058685 29.24586032404135 
Si 9.352105289999999 11.04292584 27.044892405630357 
Si 11.67849648 11.17751382 27.115620208414924 
Si 10.07319843 11.23164549 31.110483606024793 
Si 9.20391516 11.52478404 33.270385990622245 
Si 9.502380539999999 12.21595245 4.070655490218759 
Si 9.44671761 14.940552689999999 1.257700874942164 
Si 10.85818095 13.58600661 2.6962313475637854 
Si 8.1440226 13.575434399999999 5.429573259744978 
Si 9.502168769999999 14.9325543 6.787457500735621 
Si 10.859744789999999 13.575304079999999 8.144652722702547 
Si 12.2218983 12.217043879999999 12.253169808274565 
Si 9.5034231 12.22000866 9.501296729450498 
Si 9.497021129999998 14.93030628 12.241353132017815 
Si 11.78153073 15.43229892 15.03608319411709 
Si 9.35182836 13.009275449999999 16.95569019419317 
Si 10.83755781 13.575499559999999 13.708102378755774 
Si 11.438593649999998 13.331833739999999 18.307407714921546 
Si 9.015505019999999 14.55845445 20.31596707095951 
Si 12.16963998 14.79926952 20.155701246042895 
Si 9.504481949999999 12.505083659999999 19.28705496284264 
Si 8.37490077 14.673803939999999 22.645505939196127 
Si 9.601668089999999 13.534432469999999 24.32853825747891 
Si 12.2075631 13.45306392 22.05443096970034 
Si 11.534183370000001 14.64785397 25.240041523954375 
Si 11.078910449999999 14.34886731 29.06478612460847 
Si 8.57676645 13.28552127 26.514347757368125 
Si 9.42220116 15.367578749999998 27.604100245279227 
Si 11.78322489 14.452162199999998 31.98212712197822 
Si 8.15798313 13.49841528 34.10489138119731 
Si 9.829711799999998 13.516757819999999 30.859405073782252 
Si 16.2935838 2.70501966 2.7199577176454866 
Si 12.280135049999998 1.441744821 1.317948698375995 
Si 14.93374347 1.356368931 4.070999999730618 
Si 12.21437232 4.07492721 4.074272840093275 
Si 14.89057497 3.93418161 1.3430186555539447 
Si 13.574913119999998 4.49074575e-05 8.144893879360847 
Si 13.57558101 2.71604799 5.429435455940235 
Si 12.217304519999999 1.3578187409999998 6.787698657393922 
Si 14.931967859999999 1.35648459 9.501710140864729 
Si 13.57520634 2.7146307599999995 10.861592537024151 
Si 16.27708203 2.6776687499999996 13.765738820089718 
Si 13.897569149999999 0.040593213899999994 16.53845472438123 
Si 12.26073366 1.78062732 16.886891644675007 
Si 15.43052331 0.677854593 14.774290416055747 
Si 12.304586339999998 3.7595365199999997 15.215400395039488 
Si 15.71486526 3.0153767399999998 21.11402335517994 
Si 13.762459889999999 1.6609935599999999 20.812646434206044 
Si 12.65874723 1.336314312 22.924661996655146 
Si 16.03844982 2.58064551 23.419894419951873 
Si 13.861828889999998 3.06129825 24.06323148239661 
Si 13.68439821 3.13351182 26.392598095877297 
Si 15.290103509999998 3.6963801899999997 29.432825636127006 
Si 15.920379899999999 3.51976401 27.16967375082554 
Si 13.04527635 1.1345870969999998 27.51687043687663 
Si 15.26560335 0.45404954099999995 28.19703556613905 
Si 13.777967969999999 2.66333355 34.174413400690376 
Si 13.092142679999998 3.33580104 30.239012344827298 
Si 15.79851441 1.82693979 32.57730175466512 
Si 13.57059627 5.42224053 2.692538205596661 
Si 12.25130175 6.83406225 1.2213482312508455 
Si 14.930974169999999 6.78830364 4.069759765487927 
Si 14.93232624 4.07240226 6.787491951686807 
Si 13.575304079999999 5.42997828 8.145066134116778 
Si 12.217532579999999 6.78760317 6.787629755491551 
Si 14.93214705 6.7887271799999995 9.501985748474217 
Si 13.57823628 8.142931169999999 10.86328063363226 
Si 12.21741855 4.07293983 9.502054650376587 
Si 14.932114469999998 4.06512063 12.251619515471203 
Si 13.54500468 5.31622521 13.803669317345348 
Si 14.51919555 7.15178241 15.163241654944096 
Si 15.6760299 7.0705116 17.367516864668932 
Si 15.223770629999999 5.33955249 21.234257174818588 
Si 14.223532049999998 6.34956507 19.305968535043675 
Si 13.92249285 5.36240736 23.268964802806625 
Si 14.74899858 6.60688191 25.11798180390288 
Si 14.839522109999999 7.778067749999999 29.937945482414076 
Si 12.91997367 7.63779456 26.194918537972836 
Si 13.03768521 7.98133437 28.51443217941437 
Si 13.06827783 4.25092437 32.438257715679 
Si 15.67220175 5.693892569999999 30.62448403764588 
Si 14.88660021 5.77092798 32.878127460420046 
Si 13.96404864 7.842576149999999 34.11829280120861 
Si 12.239361179999998 12.20656941 1.317297575398582 
Si 15.967523159999999 11.307084479999999 0.18414550173109567 
Si 12.217239359999999 9.50125653 4.075650878140709 
Si 15.029903339999999 9.41042349 1.2729109698907213 
Si 13.57740549 10.837101689999999 2.703124982896076 
Si 13.57558101 10.85922351 8.145238388872707 
Si 13.57238817 8.14615659 5.429848867354465 
Si 14.931902699999998 9.502185059999999 6.787491951686807 
Si 12.21728823 9.50137056 9.502984826058606 
Si 14.930029349999998 9.502738919999999 12.231948022344076 
Si 12.88165959 8.99709732 15.16654894625794 
Si 13.628067389999998 10.81359522 13.746411836474449 
Si 15.290918009999999 11.83919733 15.050966005029384 
Si 16.263251819999997 8.162837549999999 13.712408747654008 
Si 14.60181843 8.61097545 19.96753015066573 
Si 13.03626798 9.61225659 17.54566273325101 
Si 13.18395312 11.99079207 17.275429472149128 
Si 14.412658949999999 10.751237099999999 22.31188292791227 
Si 14.558763959999999 10.942677179999999 24.597359029582172 
Si 15.553822319999998 8.74264752 24.60180320228515 
Si 13.92695631 8.497759949999999 22.23171556450277 
Si 12.61658871 9.89461116 25.435895181445986 
Si 14.97098241 11.214443249999999 29.110364733027364 
Si 12.817981979999999 10.292380379999999 28.95182145567004 
Si 12.39550083 10.800009359999999 31.25614222763861 
Si 15.312990959999999 12.062647259999999 31.228443662885176 
Si 14.006484089999999 9.01254024 31.99570079674545 
Si 16.15352238 10.22634072 32.514256513995 
Si 14.111489429999999 12.939570539999998 0.051302978467934184 
Si 12.21727194 14.93234253 4.070414333560459 
Si 14.93242398 12.213069119999998 4.067141493197801 
Si 15.025619069999998 14.94618903 1.2587240681923841 
Si 13.57975125 16.28276724 2.693030854198619 
Si 13.57545069 13.575662459999998 5.430021122110395 
Si 12.217516289999999 12.21694614 6.787595304540365 
Si 14.93312445 14.932668329999998 6.788008715954595 
Si 12.21790725 14.93232624 9.50253696369319 
Si 14.931609479999999 12.218233049999998 9.501916846571845 
Si 13.577894189999999 13.57232301 10.861248027512294 
Si 14.92704828 14.9169159 12.24031960348224 
Si 13.46552577 16.255400039999998 13.55496790073463 
Si 15.241933979999999 15.111174149999998 18.33007644080184 
Si 14.16378033 12.628024289999999 21.05411315106773 
Si 14.40259173 15.73742691 20.416184887959176 
Si 14.793225929999998 12.78975141 18.73067210119101 
Si 15.6279744 14.268410999999999 21.827261397580784 
Si 12.96711693 15.24910158 23.513084242909624 
Si 15.231345479999998 14.861024909999998 24.062025699105106 
Si 15.64291233 12.95007759 25.450950247114207 
Si 12.98485674 15.362675459999998 30.088048276730863 
Si 15.18330627 14.70649797 29.266703149508793 
Si 12.321202139999999 13.40469891 27.18979310631808 
Si 14.698955699999999 13.079827439999999 27.656431240130544 
Si 13.35793032 12.6889326 32.31006572631642 
