&CONTROL
  dt          = 30.D0,
  prefix = 'x.66_y.66_z3.16_struc25-scf',
  pseudo_dir = './',
  outdir='./',
  wf_collect= .true.,
  verbosity= 'high',
/

&SYSTEM
ibrav= 6, celldm(1) =30.783621515, celldm(3) =2.110832797198731, nat=  432, ntyp= 1,
  ecutwfc     = 12.D0, nbnd= 1728,
  degauss     = 0.05D0,
  occupations = "smearing",
  smearing    = "methfessel-paxton",
/
&ELECTRONS
  electron_maxstep=200,
  conv_thr    = 1.D-8,
  mixing_beta = 0.3D0,
  scf_must_converge=.false.,
/
ATOMIC_SPECIES
Si  28.08  Si.pbe-hgh.UPF
K_POINTS {automatic}
1 1 1 0 0 0
ATOMIC_POSITIONS (angstrom)
Si 0.019896606 2.7135882 2.7036913885115696 
Si 2.7445554899999998 -0.010681353 2.690851855407708 
Si 1.99770786 1.90643499 1.5285577632185865 
Si 3.79959363 3.84048153 1.3870650080791116 
Si -0.001320501609 0.001596402081 5.429637050790732 
Si 0.0001272359772 2.71498914 8.144747852649362 
Si 2.71528236 -0.0001135328292 8.145263634643358 
Si 2.71337643 2.7151683299999996 5.428846185066606 
Si 1.358004447 1.357649325 6.787725426447176 
Si 2.7147447899999997 2.7147122099999996 10.86432876512262 
Si 1.3324715010000001 1.377220131 12.22444588328878 
Si 2.63570571 0.000316053693 13.600414701403734 
Si 1.75115871 3.7543563 14.776260105848431 
Si 0.526126275 2.61693963 17.70566113347906 
Si 2.6594891099999995 3.40245972 21.365031224478408 
Si 0.181257201 0.304652322 20.703454853513502 
Si 0.320443848 2.62440045 20.034657534632654 
Si 3.73829436 1.285303806 17.47084278434604 
Si 3.2594172299999995 1.6756219799999998 24.700937234310036 
Si 0.48388630499999996 0.40045055399999996 23.02179176012452 
Si 1.588051827 2.5080572699999997 23.321770567832306 
Si 2.8267548299999996 2.50145982 28.02429254895443 
Si 3.10085037 0.5158033019999999 26.777372385737156 
Si 1.2185571599999998 3.89199051 26.853983204578622 
Si 0.796804173 3.5250093899999997 32.92618146348896 
Si 3.06587574 0.992971611 31.724340646546892 
Si 1.76544504 2.14873245 30.10787987736496 
Si 1.524706533 1.375294653 33.59814224526631 
Si 1.349106849 4.08114999 4.07901032131409 
Si 0.272023452 5.33095137 0.05583133772203796 
Si 2.7132624 5.429359259999999 2.7238172019172744 
Si 1.5275230739999999 6.88412142 1.3131878338058214 
Si 0.00539653491 8.156696219999999 2.695652066498493 
Si 2.7151520399999995 5.42988054 8.145229249177092 
Si 1.3575076019999999 6.78753801 6.7891352305640975 
Si 1.356069195 4.07385207 9.502836228305807 
Si -0.000802670202 5.42999457 10.85439136537164 
Si 1.323186201 6.78770091 12.200719911564988 
Si 3.5109674099999997 7.307400779999999 14.658352342021058 
Si 2.6829955799999996 5.4433035 13.472844621555511 
Si 1.550089611 5.4675918900000005 16.33725711794271 
Si 1.4442209009999998 7.34081157 20.560961481305675 
Si 2.90872611 5.52643137 20.1290800250001 
Si 2.26422855 7.823793779999999 22.73570468078834 
Si 2.86808256 5.8717305 23.972309204125708 
Si 1.046673225 4.42889262 24.535096130507345 
Si 2.63256174 7.7466117599999995 26.990149650993438 
Si 0.523637163 5.810626709999999 30.002075797663352 
Si 1.031103243 6.122824559999999 27.691441235496 
Si 0.6301102319999999 7.83246006 31.187789830926494 
Si 2.11970367 4.40310555 31.08294854428034 
Si 3.2340862799999996 7.8240218399999995 34.23159130482533 
Si 1.363171635 9.49415409 4.075812472951318 
Si 2.71906164 10.842298199999998 2.6847759435184413 
Si 0.971542116 11.61459081 1.227650547921606 
Si 0.000263924064 8.14477194 8.14457592531803 
Si 2.71371852 8.14506516 5.431872106098046 
Si 2.7152660699999998 10.859809949999999 8.144919779980695 
Si 4.0757579999999995 9.503162459999999 12.191538992071866 
Si 1.357924626 9.503162459999999 9.50187343525035 
Si 2.71725345 8.147883329999999 10.859446028912798 
Si 0.00370970541 10.854255059999998 10.85800183932961 
Si 0.6354272879999999 10.57882374 16.11120706270761 
Si 2.6994973499999997 11.78324118 16.593360070694615 
Si 1.6557970499999999 8.98408161 14.70188434231428 
Si 2.6391266099999995 10.741121009999999 13.492409951861074 
Si 3.7087931699999994 8.427436019999998 17.172858333681702 
Si 2.71182888 11.17963152 18.83756191203534 
Si 2.02862628 8.84893977 18.737844059862876 
Si 0.925438158 9.26511669 24.03296516661958 
Si 0.6562491659999999 11.30403825 22.959829149912522 
Si 3.36916296 11.81373606 25.485510418109737 
Si 2.84972373 11.785277429999999 29.12022612979609 
Si 2.13614028 9.78783021 25.944797091029603 
Si 1.082830509 10.63504053 27.899714004671385 
Si 1.553095116 12.157292159999999 33.187545392579615 
Si 3.13059591 10.943182169999998 31.480100679656886 
Si 2.84697072 8.554856399999998 31.698517161380845 
Si 4.06665189 14.91075828 1.0409718515614979 
Si 1.3552041959999999 14.935111829999999 4.065428062138875 
Si -6.234183e-05 13.575108599999998 8.144988550913228 
Si 2.7157547699999998 13.574685059999998 5.428330403072611 
Si 1.3565464919999999 12.217809509999999 6.787381571784513 
Si 4.0555584 14.925761369999998 12.233798730113232 
Si 1.3562809649999998 14.929931609999999 9.50280184283954 
Si 2.71942002 13.57615116 10.857073431740417 
Si 1.3630934430000001 12.21223833 12.200135358638457 
Si 0.0512502948 15.29057592 16.748576065420995 
Si 3.0537885599999997 14.02099848 16.16639573606513 
Si 1.341303939 14.80088223 14.811367666906392 
Si 3.87991962 15.879166199999998 20.905228769564545 
Si 1.2496059 12.75844203 19.86128601371763 
Si 1.85031594 15.10952886 19.880473103894264 
Si 2.2662485099999996 15.569933129999999 17.687918232885618 
Si 2.29877964 12.83164929 22.160332673753217 
Si 3.7083859199999996 16.16826483 23.252380696906776 
Si 1.8800289 14.78666106 23.49978412669329 
Si 1.7319853799999998 13.597181549999998 25.49135594737502 
Si 1.9033561799999998 13.927330979999999 29.48137668199175 
Si 1.6154825579999998 15.06144078 27.357420816184508 
Si 0.186152346 15.67282077 33.49835562216131 
Si 2.38581711 14.370272369999999 33.4424448540122 
Si 3.3115615199999997 14.913234359999999 31.216536080725177 
Si 8.155360439999999 -0.00398513673 2.7041624693994186 
Si 4.0821111 1.347272595 4.075365461889855 
Si 5.45148108 2.7094505399999997 2.6849478708497725 
Si 7.04751012 1.414349928 1.1595398163411856 
Si 5.429424419999999 0.0016672489199999999 5.432731742754705 
Si 5.430238919999999 2.71485882 8.145848187569886 
Si 6.787586879999999 1.356219063 6.788206822974906 
Si 4.0720927499999995 1.3564210589999999 9.502939384704606 
Si 5.43362724 -0.00091281015 10.866598205896201 
Si 6.78665835 1.371085317 12.255667886658642 
Si 6.2800882200000006 2.22752718 17.14132686111544 
Si 5.35828599 2.8204180199999995 13.83540497786809 
Si 4.51172727 0.84266541 15.111449631012979 
Si 6.51091752 1.9672618499999999 21.440541708399348 
Si 7.80361047 3.9074008499999997 21.129353238688722 
Si 4.29770925 1.9167954299999999 20.446114023976005 
Si 7.32566187 0.0224643987 20.46120924366694 
Si 7.419590009999999 0.346885776 18.106251815482242 
Si 4.475416859999999 3.48203637 18.12409787247449 
Si 5.13077985 3.15436302 24.696914134756867 
Si 6.5965703399999995 1.57494978 23.77861587264726 
Si 5.12657703 3.18533031 28.26464695815634 
Si 6.509874959999999 1.196785575 27.9860902959325 
Si 5.76644823 3.8389502699999998 30.46476663174359 
Si 5.3566407 1.70096922 31.728845142627783 
Si 6.54877548 0.264653856 30.231667555923885 
Si 6.790062959999999 4.07096874 4.068385212237783 
Si 4.0752692999999995 6.78812445 4.076672109607977 
Si 6.5549331 6.65213553 1.255224253320606 
Si 5.43528882 8.13354813 2.7234183305085846 
Si 4.07248371 4.0728258 6.787759811913443 
Si 5.430190049999999 5.43191679 5.429877749054596 
Si 6.78713076 6.7877497799999995 6.787656655514643 
Si 6.78911814 4.073086439999999 9.501220111391286 
Si 4.0707081 6.78711447 9.503283239367269 
Si 4.077549899999999 4.0713922799999995 12.224996050749043 
Si 5.432438069999999 5.42686689 10.86460384885275 
Si 6.79625316 6.797963609999999 12.24848132420897 
Si 6.914567429999999 4.23966798 15.025657892678394 
Si 6.53287644 6.097477319999999 16.94532970339715 
Si 4.4540118 5.179324049999999 16.265322722513467 
Si 4.913634149999999 6.886646369999999 20.481978065291827 
Si 6.473874059999999 7.644131369999999 18.776734022210142 
Si 7.650940589999999 4.0935141 17.330034299985268 
Si 6.21989667 5.4774799199999995 21.807537789860287 
Si 4.3818959699999995 4.43599506 22.877716656468436 
Si 7.42134933 6.79757265 23.334733888614725 
Si 5.69651526 7.93642284 24.354572432608915 
Si 4.365834029999999 6.56089524 25.78421696356567 
Si 5.6242854 4.67259102 26.489875502284058 
Si 7.832378609999999 5.57466606 26.81186100840232 
Si 4.65468831 8.074317689999999 27.937675559429454 
Si 4.69946952 5.80466457 34.165124198532446 
Si 8.0772336 4.351205609999999 30.26646564778545 
Si 4.42182276 5.39321175 31.662859432862625 
Si 4.557404429999999 7.51087917 30.276678131266557 
Si 8.15055489 10.850720130000001 2.7176450107224617 
Si 4.220005949999999 9.477456839999999 1.2738474218504705 
Si 6.78955797 9.50176152 4.07285532285241 
Si 4.07259774 12.22036704 4.0680069721088525 
Si 4.07269548 9.501191369999999 6.7879661247110405 
Si 5.42996199 8.14521177 8.144954165446961 
Si 5.42909862 10.85650308 5.428983726931671 
Si 6.78784752 9.5030973 9.502973770170872 
Si 5.430222629999999 10.86020091 10.857829911998277 
Si 8.05537242 10.86774318 13.717909839635912 
Si 5.42386953 8.266946939999999 13.638548183493137 
Si 6.253095689999999 9.993247109999999 15.073694389052509 
Si 4.38776037 11.51168688 14.892929992890215 
Si 5.711599799999999 9.62167221 17.599581970047318 
Si 4.94981424 11.11535118 19.462655303291633 
Si 4.49333586 8.430417089999999 22.32947478231748 
Si 7.37717085 10.411916399999999 22.80224055801376 
Si 4.30904709 12.192690329999998 23.301173673538752 
Si 5.23874997 10.59213267 21.80685008053496 
Si 7.0057914299999995 9.754175069999999 25.130927489970958 
Si 7.47667017 9.603427409999998 28.91559822004494 
Si 5.8779207 10.01924595 27.264408129933983 
Si 4.60464543 11.977466849999999 27.49444689925598 
Si 6.461412209999999 8.8589907 30.925772577976776 
Si 7.67009763 8.401078799999999 34.28241302396702 
Si 6.0422868 10.32947271 34.37054297400772 
Si 5.460717509999999 10.802045609999999 32.11103960017846 
Si 5.42079072 13.572632519999999 2.674315884680212 
Si 6.90702516 12.238611839999999 1.322836395640164 
Si 6.784296299999999 14.934492809999998 4.069038536096843 
Si 4.07300499 14.933287349999999 6.7864875496615875 
Si 5.43004344 13.57507602 8.144919779980695 
Si 6.78776607 12.21732081 6.787381571784513 
Si 8.14416921 13.577454359999999 10.859549185311595 
Si 4.07192985 12.216457440000001 9.50156396605395 
Si 6.78823848 14.930843849999999 9.502251675379279 
Si 6.7843288799999995 12.22183314 12.229981943357666 
Si 5.27220963 13.414538069999999 13.654021643313003 
Si 6.4995308099999995 14.99145894 14.93247327909654 
Si 6.93662409 14.4721989 17.220550975393152 
Si 5.8828565699999995 14.54213187 21.026609465484817 
Si 6.18720264 13.074728669999999 19.17381738665415 
Si 6.121830869999999 13.75781724 23.32589682378427 
Si 5.67556632 15.78228957 24.36705435686361 
Si 5.30648379 15.904431989999999 26.68986137408925 
Si 5.869743119999999 13.93818012 27.862990326698903 
Si 6.6471182099999995 12.716983979999998 31.344174931505933 
Si 7.50376044 14.353037549999998 32.90854171929431 
Si 5.464578239999999 14.413603769999998 30.13968643366135 
Si 5.9958928799999995 16.205226839999998 33.92683291730652 
Si 9.5027715 1.357333299 4.072477082723481 
Si 10.85594922 2.71697652 2.703423181874692 
Si 8.14495113 -7.184394989999999e-05 8.145263634643358 
Si 8.14529322 2.7142235099999996 5.430668614778723 
Si 10.86031494 0.00020387097899999998 5.431115625840186 
Si 10.860363809999999 2.71487511 8.145022936379494 
Si 12.21792354 1.358336763 12.220904180263343 
Si 9.50319504 1.3576346639999999 9.502595530041942 
Si 8.14226328 2.71344159 10.86432876512262 
Si 10.02686967 0.75240252 15.013519823086368 
Si 10.884538169999999 2.65383648 13.723996067165059 
Si 9.66462894 0.750711618 17.454716000667116 
Si 11.292130259999999 1.66009761 21.40976671609095 
Si 10.47282471 2.16137349 19.21422030951713 
Si 8.6734476 1.2503161440000001 24.745432027658712 
Si 10.338090119999999 2.27413287 23.510718704965996 
Si 11.998985939999999 2.8047796199999997 25.050190415177525 
Si 10.60623981 0.773379153 28.14594832860484 
Si 11.99427813 2.2689526499999997 29.402840277039367 
Si 12.1492449 0.816032889 26.35883249034293 
Si 8.6683977 1.72975365 27.12377157290454 
Si 8.865930239999999 3.88571886 28.06875295683685 
Si 8.69604183 2.63161692 34.14411467864369 
Si 11.64322863 2.4553917 31.872232536958535 
Si 9.156837059999999 3.6162659699999997 32.134559259104655 
Si 9.993442589999999 0.909988722 32.74909631221717 
Si 10.87118037 8.14589595 2.684370195016498 
Si 12.21609906 4.06974699 4.068557139569115 
Si 9.72957717 4.21215417 1.244564758778032 
Si 8.14644981 5.43038553 2.680811299257929 
Si 9.501223949999998 6.78693528 4.066975408120862 
Si 11.599033859999999 5.08798602 0.07512846139072331 
Si 9.502445699999999 4.0721742 6.78731280085198 
Si 8.14506516 5.43005973 8.144919779980695 
Si 10.85994027 5.429294099999999 5.4292588106618025 
Si 12.212710739999999 6.7790509199999995 12.22454903968758 
Si 9.50272263 6.787521719999999 9.50252675910941 
Si 9.514988999999998 4.065951419999999 12.23789060059893 
Si 10.863377459999999 5.42776284 10.862265637146638 
Si 11.87824446 6.03972927 16.23038708878684 
Si 8.357991749999998 5.56943697 13.668910550206338 
Si 9.844926659999999 6.8831766 15.261163951136744 
Si 8.544724019999999 7.8637694399999996 19.92538052283814 
Si 10.31735295 6.1885384199999995 19.73588221824419 
Si 9.160909559999999 4.15202778 19.182379367754475 
Si 9.37911411 4.26074724 22.87922961698416 
Si 12.057597359999999 7.07215689 23.073507501389134 
Si 11.189340360000001 5.317789049999999 21.77249899973486 
Si 10.96499448 6.67370349 25.19344026764321 
Si 8.893036799999999 5.6780912699999995 24.707573629299443 
Si 11.130810389999999 4.27666257 28.45472981567682 
Si 11.21726142 5.96964969 30.056542376229277 
Si 11.941938359999998 4.819168439999999 26.307529374673514 
Si 8.58121362 7.5691973699999995 28.14783952924949 
Si 8.96251365 6.60596967 30.278500560978678 
Si 11.098947149999999 4.844988089999999 32.16976997656141 
Si 9.4560192 9.49570164 1.2795657248905674 
Si 8.14558644 8.147671560000001 5.431012469441387 
Si 9.50233167 9.50269005 6.787931739244774 
Si 10.860233489999999 8.14464162 8.144851009048162 
Si 8.14441356 10.860380099999999 8.144713467183095 
Si 10.86007059 10.86293763 5.4307373857112555 
Si 8.14317552 8.144674199999999 10.860993374894782 
Si 9.50060493 9.50389551 12.251541630706678 
Si 10.860380099999999 10.85853933 10.865669798307009 
Si 10.12346937 9.86610366 16.474764597541913 
Si 10.97686989 8.190497970000001 13.680670379669436 
Si 9.56029149 11.946727619999999 15.245449793053014 
Si 11.27970099 10.241246069999999 20.20194282801853 
Si 8.325753839999999 11.995841969999999 19.012824633595017 
Si 9.33504966 9.824254649999999 18.862628916943528 
Si 10.91996892 8.97579 22.247327903407125 
Si 9.18270558 11.91000996 22.8323622264631 
Si 10.7966862 10.61220195 23.871284704235123 
Si 8.571472199999999 8.47325979 22.171748648553653 
Si 9.344367539999999 10.050017760000001 25.693301790757396 
Si 8.28810765 11.751394229999999 29.67692682864858 
Si 10.468996559999999 8.306417609999999 26.85807507506432 
Si 10.415940029999998 11.172887459999998 34.26993109971233 
Si 8.5968846 8.354684879999999 32.016410797013414 
Si 10.48476528 11.80899567 30.577482190164744 
Si 10.82025783 9.95333661 32.164577771155194 
Si 11.241044819999999 15.964118549999998 0.08499330780788142 
Si 12.18651642 12.23598915 1.1598630397240897 
Si 8.764362089999999 13.118499899999998 0.13048390425963474 
Si 9.50384664 12.215219399999999 4.075124763625991 
Si 9.602352269999999 14.90098428 1.4151407412856005 
Si 10.89252027 13.54234941 2.7305911387717487 
Si 8.147199149999999 13.57422894 5.430874927576322 
Si 9.502657469999999 14.93274978 6.78720964445318 
Si 10.859467859999999 13.57561359 8.144782238115628 
Si 9.501289109999998 12.218558849999999 9.50252675910941 
Si 9.499334309999998 14.912387279999999 12.230841580014324 
Si 10.861504109999998 16.2911403 10.862231251680372 
Si 11.80593315 15.300659429999998 14.858544526623849 
Si 8.9531469 13.27822335 17.14294297802996 
Si 10.79743554 13.46389677 13.689507444499892 
Si 8.17336089 16.24231917 13.676681665582537 
Si 9.25358337 13.059774449999999 20.867542298536605 
Si 11.07316008 14.58122787 20.219960812342105 
Si 10.47302019 14.923578509999999 17.95536838950542 
Si 9.15994845 15.322504319999998 21.533416852784807 
Si 9.32768658 15.40766844 23.969489595891865 
Si 8.249467769999999 13.37547465 24.32592933920903 
Si 11.40371676 15.2743185 25.10022126859509 
Si 9.68818428 15.13466433 29.233526241143775 
Si 11.449882619999999 13.18453956 26.222528502063053 
Si 9.19878381 12.404118239999999 26.27224988628422 
Si 8.23027815 13.500142019999998 28.11293828098913 
Si 11.494663829999999 13.96766502 30.183699830482304 
Si 8.596607670000001 15.811041419999999 31.34524088096019 
Si 12.23866071 1.417554171 1.293777238098457 
Si 14.935111829999999 1.349913204 4.069657474489638 
Si 13.57435926 0.00038372398199999996 8.144679081716829 
Si 13.57797564 2.71769328 5.429121268796737 
Si 12.21728823 1.3572713969999999 6.787656655514643 
Si 16.2927693 -0.001116238041 10.860924603962252 
Si 14.93177238 1.357662357 9.503008155637136 
Si 13.572225269999999 2.71350675 10.861165302226114 
Si 16.23578688 2.7505990799999998 13.66729443329182 
Si 15.213296159999999 1.0595846789999999 16.885980388621398 
Si 13.570270469999999 0.0342635715 13.618329529328511 
Si 14.378792039999999 1.9309351499999998 14.889628988128644 
Si 12.591485819999999 3.8139776999999997 15.06894919470775 
Si 14.30936406 3.5130688199999995 19.79258385211743 
Si 12.755607569999999 2.22474159 18.48098462685311 
Si 13.75126866 0.0813972204 18.42404229471601 
Si 14.52980034 3.8021185799999997 17.254420659665524 
Si 13.8390066 3.0183741 23.566870171378973 
Si 14.68167201 0.8206901999999999 23.96491632887844 
Si 12.75373422 3.4995481199999996 21.55913718155205 
Si 14.566517999999999 0.997516521 26.292537311381377 
Si 15.898665329999998 0.910384569 29.778535881465697 
Si 14.379899759999999 2.6829792899999996 29.244323277551416 
Si 15.250241879999999 3.1247477999999997 27.117513418044062 
Si 13.186934189999999 3.2766194699999995 34.31827706528284 
Si 15.00654348 4.1629095 1.3837983887838068 
Si 13.58204814 5.45667759 2.708821700078512 
Si 12.502949669999998 7.03622115 1.1951012655538629 
Si 14.93032257 6.7828953599999995 4.073955657772935 
Si 16.2921177 5.43102084 5.4330755974173695 
Si 14.93281494 4.073151599999999 6.788275593907438 
Si 13.574750219999999 5.42988054 8.144747852649362 
Si 12.21769548 6.78770091 6.787415957250779 
Si 12.218428529999999 4.07430819 9.501907820716614 
Si 14.93375976 6.78688641 9.502182904446746 
Si 14.944592609999999 4.0852062 12.219494376146423 
Si 16.13737899 8.007740459999999 13.587038755026118 
Si 15.564247919999998 6.545191679999999 17.123412033190665 
Si 13.57044966 5.4090130499999995 13.62393436032993 
Si 14.42264472 7.12751031 15.052994338360156 
Si 15.349203629999998 7.358355899999999 20.753038695869602 
Si 14.342742269999999 5.84560134 19.161232306000656 
Si 12.288605849999998 6.96851991 18.588714292665642 
Si 14.437370879999998 7.04223216 23.019453548418404 
Si 15.067321469999998 4.97446101 24.082824092705813 
Si 14.24728287 5.09269383 26.265372793030945 
Si 13.38557445 6.790975199999999 30.01806503947721 
Si 15.35448159 7.06984371 26.772730347791196 
Si 14.66095113 4.79553165 30.338984596141216 
Si 14.84647794 4.15592109 32.622454639958136 
Si 15.5637918 6.89453073 32.97813790301744 
Si 12.21401394 9.502168769999999 4.067456804648591 
Si 15.249069 9.88602633 1.3443960829891763 
Si 13.57012386 10.87701219 2.696473879142259 
Si 16.2909774 10.860282360000001 5.4294651234594005 
Si 13.57747065 8.1456516 5.429293196128069 
Si 14.93248914 9.502543439999998 6.7879661247110405 
Si 13.574782799999998 10.85971221 8.144851009048162 
Si 14.94390843 9.5044005 12.210003987456906 
Si 12.22113267 12.216490019999998 12.237718673267597 
Si 12.216652919999998 9.50102847 9.503008155637136 
Si 13.574978279999998 8.14587966 10.861096531293581 
Si 12.88543887 9.0808605 14.84527173664503 
Si 13.704972479999999 10.89776565 13.595944590789108 
Si 15.309781829999999 11.956534199999998 15.010837756717589 
Si 12.39747192 10.387269629999999 16.78509343059588 
Si 15.82386165 11.419224839999998 20.872184336482565 
Si 15.01503057 9.48504798 19.672750502179138 
Si 12.852076949999999 9.3009384 18.76803449924475 
Si 16.24635909 8.92325475 17.711678590075678 
Si 15.142483529999998 8.463599819999999 24.823968432611096 
Si 12.63576204 11.806014600000001 24.684844836097373 
Si 14.35683312 8.25810147 28.50084072594002 
Si 16.08013593 9.51029748 29.572463782131358 
Si 12.306117599999999 10.99713465 29.318974124815696 
Si 13.84529454 10.217446379999998 25.91615399762972 
Si 15.519368969999999 11.680141769999999 26.80886947283715 
Si 12.46683474 9.34255935 27.651072698099284 
Si 14.36113368 10.736527229999998 30.81353841608335 
Si 13.056141779999999 8.87785452 31.912738616220317 
Si 14.082656129999998 8.45086104 34.054437382621 
Si 12.218640299999999 14.9301108 4.071961300729485 
Si 14.926022009999999 12.225840479999999 4.07361180311027 
Si 14.96466189 14.84911692 1.0586666125021704 
Si 13.5967743 16.2958644 2.6782289507413246 
Si 16.28729586 13.546503359999999 2.6680474141798536 
Si 13.576004549999999 13.57505973 5.431459480502849 
Si 12.21738597 12.218607719999998 6.788378750306237 
Si 14.93193528 14.93177238 6.78720964445318 
Si 12.21696243 14.932863809999999 9.502148518980478 
Si 14.9327172 12.21650631 9.50318008296847 
Si 13.57193205 13.57883901 10.862128095281573 
Si 14.933075579999999 14.92774875 12.228915993903408 
Si 12.60305172 14.7869217 17.0659195335933 
Si 15.110522549999999 13.226991299999998 16.948390009894855 
Si 16.266102569999997 13.47187887 13.536045108553095 
Si 12.553008839999999 15.96911958 21.407462889851104 
Si 14.2182378 13.053160709999998 21.239352345274835 
Si 14.542555409999999 15.29407827 20.353823432517075 
Si 12.2316723 12.476657609999998 20.105216511411243 
Si 13.05865044 12.557684069999999 17.793206530593235 
Si 16.051921649999997 12.576987719999998 24.72132781580599 
Si 14.11100073 13.29022908 23.5713402819936 
Si 13.1289255 15.395450939999998 23.572440616914122 
Si 12.58993827 13.119754229999998 28.302367814650548 
Si 15.93570879 13.41955539 30.071706366852744 
Si 15.719459039999998 15.850723859999999 27.725448461633434 
Si 14.826815909999999 13.63026654 28.008922245533366 
Si 15.588015029999998 12.281128739999998 32.13559082309264 
Si 12.94442496 14.16309615 34.214708040888546 
Si 15.33522681 15.508405799999998 31.380245285619353 
Si 13.3872849 14.036392529999999 31.849434972823936 
