&CONTROL
  dt          = 30.D0,
  prefix = 'x.66_y2.00_z3.18_struc10-scf',
  pseudo_dir = './',
  outdir='./',
  wf_collect= .true.,
  verbosity= 'high',
/

&SYSTEM
ibrav= 6, celldm(1) =30.783621515, celldm(3) =2.120051451958549, nat=  432, ntyp= 1,
  ecutwfc     = 12.D0, nbnd= 1728,
  degauss     = 0.05D0,
  occupations = "smearing",
  smearing    = "methfessel-paxton",
/
&ELECTRONS
  electron_maxstep=200,
  conv_thr    = 1.D-8,
  mixing_beta = 0.3D0,
  scf_must_converge=.false.,
/
&IONS
/
ATOMIC_SPECIES
Si  28.08  Si.pbe-hgh.UPF
K_POINTS {automatic}
1 1 1 0 0 0
ATOMIC_POSITIONS (angstrom)
Si -0.00557854308 2.7141746399999995 2.694263274821705 
Si 2.71764441 -0.01079531784 2.7432900667428584 
Si 2.9896222499999996 2.1225218399999997 0.09694878877781217 
Si 1.259023149 1.146723147 1.4052413021660886 
Si 4.0626934199999996 4.02657849 1.160473420324735 
Si 0.0015232681259999999 0.000937280988 5.430280136169666 
Si 0.000780522318 2.71441899 8.144746759310529 
Si 2.7156081599999995 0.000312567633 8.145126651330205 
Si 2.71371852 2.7134253 5.430418278722276 
Si 1.3577535809999999 1.3572534779999998 6.787979678855155 
Si 2.71608057 2.7096785999999997 10.861458198931297 
Si 1.369040922 1.3723657109999998 12.237945128771692 
Si 2.1278649599999997 2.49776199 17.082949805172557 
Si 0.08703453779999999 2.8159219799999997 13.669205580721803 
Si 2.7020711699999995 -0.0070742745899999996 13.763453337239717 
Si 1.518835617 4.000872869999999 15.25235376926619 
Si 0.9611230319999999 2.45306223 20.354441736073554 
Si 1.516278087 0.24268842 19.601633895627437 
Si 3.89489013 0.1579522383 19.263426391200934 
Si 2.42105238 3.8254295699999994 19.084186429189955 
Si 0.809235072 0.404348751 17.39090409057755 
Si 3.92162202 0.42033249899999997 23.23067328832028 
Si 2.93014746 2.51858061 23.57855077142945 
Si 0.7308378179999999 2.83537224 22.736710055826435 
Si 3.8093513399999996 3.17936817 25.646751997824364 
Si 0.035162942399999994 3.9369346199999997 29.550487856381434 
Si 3.7106991 2.55202398 29.350561047117164 
Si 0.26605968299999994 3.0049185599999997 27.380199283608018 
Si 2.48590287 2.1997853099999998 27.352294487980874 
Si 3.2515491599999997 0.821405331 30.970938653589844 
Si 1.5820782839999998 1.2033146069999998 32.707943110103194 
Si 1.36182771 4.0736403 4.069506921688615 
Si 2.7083753999999995 5.416425 2.6818200843953934 
Si 1.186820982 6.61810572 1.228501720357342 
Si 2.7147122099999996 5.43012489 8.145126651330205 
Si 1.3573316699999998 6.787863809999999 6.787530715559173 
Si 1.356720795 4.07171808 9.503102479120914 
Si 1.3453992449999999 6.77049867 12.249100139894919 
Si 3.6314971199999997 7.15593636 15.07528955245881 
Si 0.836807526 5.97111579 16.578556809956684 
Si 2.6939261699999997 5.34973374 13.721043573588563 
Si 0.5531969969999999 6.97581783 20.424652688437394 
Si 1.95379002 6.117742079999999 18.71890298445197 
Si 3.11510412 7.71841377 22.953593863423535 
Si 0.9955503179999999 6.89747922 22.698651782582484 
Si 3.7776835799999997 6.95775222 26.52416442072436 
Si 3.4744289399999997 4.79676969 30.1761354771504 
Si 1.4576650379999998 5.8717305 29.400568651161848 
Si 1.570023684 6.300287819999999 27.0475174812859 
Si 2.6247588299999998 7.94484477 34.355534799439965 
Si 3.97480887 9.39030534 1.1796027102973523 
Si 1.357848063 9.50145201 4.069990420622748 
Si 2.7240138 10.848292919999999 2.693517305037613 
Si 1.3840619309999997 12.22281054 1.3048980055142767 
Si 0.00025359783299999997 8.14493484 8.144815830586833 
Si 2.7146796299999996 8.145 5.430521885636733 
Si 0.000716683437 10.85945157 5.430832706380105 
Si 2.71502172 10.85977737 8.145679221540643 
Si 4.06676592 9.5179212 12.227031867115533 
Si 1.35560493 9.502869239999999 9.503033407844608 
Si 2.7150705900000003 8.14721544 10.863392194667831 
Si 0.0014099483699999999 10.858083209999998 10.860180380319656 
Si 0.375381873 8.24505318 16.00298586450871 
Si 2.741607 10.85293557 13.734754221935066 
Si 2.32577217 9.47009376 15.653865098426046 
Si 2.38304781 10.64737206 17.80899252605056 
Si 1.09703376 11.15487072 19.884722521562697 
Si 3.9257271 9.38442465 19.17763986603036 
Si 2.68649793 11.59202916 21.723296289882267 
Si 3.8372235299999997 9.50503581 21.597137603711534 
Si 3.13255071 8.711647649999998 25.076016041717725 
Si 2.7399454199999997 9.30310497 29.632993495927533 
Si 0.692505819 8.157950549999999 29.443323771194525 
Si 2.20462344 11.59795872 29.444014483957574 
Si 0.981809703 8.414990459999999 26.150937779211322 
Si 1.0560888449999999 12.09506436 27.460391035397897 
Si 0.827962056 11.570672969999999 31.313877540443222 
Si 3.5964247499999997 9.64672623 31.812088656429815 
Si 1.411458453 9.671340419999998 33.06832249422354 
Si 4.07170179 12.21911271 4.069783206793834 
Si 4.0612599 15.054924779999999 1.2904344802560495 
Si 0.00650941884 13.585240979999998 2.692978549082435 
Si 1.35790182 14.93025741 4.074859945602237 
Si -0.00048820641299999996 13.575173759999998 8.145644685902491 
Si 2.71295289 13.57546698 5.430901777656411 
Si 1.357815483 12.217793219999999 6.787565251197326 
Si 1.3569781769999998 14.93327106 9.501893731785579 
Si 2.71627605 13.576086 10.864739084555776 
Si 1.344789999 12.210804809999999 12.26001340155108 
Si 1.1492252909999998 14.138628569999998 17.03390919899614 
Si 0.8310424949999999 15.35140278 14.95938795081934 
Si 3.3164322299999998 13.595666579999998 14.892423348441827 
Si 3.1741064999999997 12.850203599999999 17.164108554830708 
Si 0.09762482969999998 14.814321479999998 20.4843648068029 
Si 0.569974068 14.40299898 22.792312433251805 
Si 1.331487585 12.30463521 23.610599843634883 
Si 2.79508707 14.97518523 22.307950108164327 
Si 2.58677055 12.5582868 25.646164891975776 
Si 3.49097958 13.508303309999999 30.014854046978673 
Si 2.15409186 15.42039093 29.633442459223513 
Si 3.74204106 14.51149038 26.43095273335102 
Si 0.024319178099999998 15.701035049999998 26.556351635482404 
Si 2.21664546 16.1011989 27.327152543405923 
Si 0.854356743 15.335634059999999 33.66696324595732 
Si 2.63888226 13.83495039 34.39639045937426 
Si 6.78931362 4.06986102 4.074894481240389 
Si 4.07381949 1.3607036999999997 4.072822342951246 
Si 5.4302877899999995 2.72129337 2.6931961236027955 
Si 6.70543641 1.218739608 1.3256884596820242 
Si 5.42953845 -5.51528901e-05 5.429831172873686 
Si 5.430206339999999 2.71437012 8.14460861675792 
Si 6.787684619999999 1.35773892 6.787634322473631 
Si 8.14486968 2.71396287 10.85848813405019 
Si 4.07385207 1.3584719699999999 9.501548375404054 
Si 5.429180069999999 0.00379180701 10.858384527135732 
Si 6.79314177 1.3520325329999998 12.224683443721169 
Si 7.37879985 3.64153176 14.866556155465677 
Si 8.13648033 0.0399210885 13.728019772495347 
Si 4.597461539999999 0.797287986 15.04800639831841 
Si 5.49668583 2.70977634 13.643372923383804 
Si 7.9861724999999995 2.19309012 19.57355642180953 
Si 6.0660701999999995 2.88111456 18.329824485026975 
Si 4.26946239 1.4678609489999999 17.29769240320421 
Si 5.04424737 0.953471619 21.221320789337067 
Si 7.38254655 0.5731783109999999 21.222702214863162 
Si 4.65612183 3.9154155299999998 19.867696451953563 
Si 4.559636159999999 3.49309728 22.160275719424646 
Si 6.829403309999999 3.73205529 22.94015950018225 
Si 8.13771837 0.46549652399999997 23.488654505318742 
Si 7.45192566 2.3431536 24.704516182112307 
Si 5.5892944799999995 1.69046217 25.9955274075255 
Si 7.630610669999999 1.1098148939999999 29.09081851257293 
Si 5.88192804 2.3174154 28.213544232225544 
Si 7.27912134 2.03952429 31.32820983027647 
Si 5.486504579999999 0.5752292219999999 32.177026744786275 
Si 4.9077860399999995 0.6071592509999999 34.50573028976478 
Si 4.07593719 6.78814074 4.06843631690589 
Si 6.76526958 6.65909136 1.1991153458534607 
Si 4.07253258 4.07253258 6.787634322473631 
Si 5.42898459 5.427567359999999 5.43017652925521 
Si 6.787358819999999 6.7877171999999995 6.787254430453955 
Si 6.7884502499999995 4.07113164 9.50206640997634 
Si 4.07256516 6.786642059999999 9.504138548265484 
Si 4.0749435 4.074438509999999 12.239740981955617 
Si 5.43251952 5.42849589 10.861838090950972 
Si 6.76738728 6.79970664 12.23791059313354 
Si 5.4994877099999995 6.972820469999999 16.695701694569642 
Si 6.689749139999999 4.81594302 16.888790447479735 
Si 5.390865989999999 6.14662425 20.266721215166445 
Si 7.7676747299999995 6.02793531 20.12761166468856 
Si 4.1096411999999996 7.14924117 18.584006781828677 
Si 6.278019389999999 5.75664165 23.971393655413056 
Si 7.0389741599999995 7.9454475 23.988488796298498 
Si 4.53974607 5.9471532 22.450789507562675 
Si 5.16551013 5.15570355 25.96292576510963 
Si 5.75108676 5.29635141 29.79582902981612 
Si 6.16612338 7.56299088 29.602498527438957 
Si 6.62895486 4.517217 27.737504995932795 
Si 8.04393684 7.89856488 28.065800772209556 
Si 5.65129422 5.21429868 34.13326343229109 
Si 6.89493798 4.45816575 31.802833105404968 
Si 4.13697582 6.601229279999999 32.967616573371124 
Si 8.15273775 10.85594922 2.7015986443652755 
Si 5.42248488 8.13812562 2.680880715037648 
Si 6.7882059 9.50339052 4.0700940275372055 
Si 6.74762751 12.18039138 1.3073638500783584 
Si 4.072516289999999 9.50269005 6.78704721662504 
Si 5.42997828 8.14545612 8.145161186968357 
Si 5.429489579999999 10.85969592 5.429589423406618 
Si 6.7875054299999995 9.50299956 9.503344228587979 
Si 5.42846331 10.86178104 10.863046838286307 
Si 6.796839599999999 12.20450058 12.25255370371016 
Si 6.931297259999999 9.00929853 15.096045470988404 
Si 5.30229726 8.154741419999999 13.654873290888554 
Si 6.53271354 10.53080082 16.759074590579306 
Si 7.63926066 9.594321299999999 20.52370089865849 
Si 6.160503329999999 9.49843836 18.750744842828485 
Si 8.082576719999999 12.172311539999999 17.32058953129925 
Si 6.11191026 9.5097762 22.396499484387093 
Si 6.16337037 11.29522536 23.941416721496772 
Si 4.21230078 10.831041809999999 25.305816177983825 
Si 8.1313164 10.858620779999999 25.243824707500256 
Si 7.153590599999999 8.931269429999999 26.13940287606842 
Si 5.383454039999999 10.07011962 27.157824309544683 
Si 6.43140603 11.84173857 28.248874190055453 
Si 4.393999439999999 8.33639121 28.315976934985578 
Si 5.45685678 8.1459774 31.832982717512017 
Si 5.74501059 10.5319737 34.36793309353668 
Si 5.1911343 11.3855697 32.19021935856049 
Si 7.29365202 9.20163456 32.885041862548725 
Si 7.18087635 11.69038818 30.479565593957428 
Si 5.41974816 13.58142912 2.695575629071496 
Si 6.793663049999999 14.9262012 4.070370312642425 
Si 4.0725 14.93200044 6.787945143217002 
Si 5.429489579999999 13.5755973 8.1450575800539 
Si 6.787928969999999 12.21736968 6.787599786835479 
Si 4.07248371 12.216685499999999 9.501410232851445 
Si 6.78584385 14.932163339999999 9.502100945614494 
Si 4.058751239999999 14.94162783 12.221368022458538 
Si 5.459365439999999 13.690914209999999 13.624378322399982 
Si 6.407361989999999 15.293003129999999 15.080193613076451 
Si 4.303524779999999 13.435535879999998 21.342644486166463 
Si 4.72955715 14.23081368 18.991320098198138 
Si 6.89133789 14.323845869999998 17.51530145920251 
Si 6.368836139999999 13.30967934 22.787408372634165 
Si 7.07836338 14.89717242 24.463595570361132 
Si 5.07772332 15.87385566 25.097773493753735 
Si 5.100056909999999 13.8450339 28.29359784146282 
Si 7.07251527 15.127154639999999 28.602173768354554 
Si 7.799652 13.825599930000001 34.46456380908711 
Si 4.17450798 13.543408259999998 32.44132798356663 
Si 6.328583549999999 14.65761168 32.607962437651985 
Si 7.6444083 14.029974269999999 30.646234583680933 
Si 8.15941665 -0.0117470448 2.693133959454121 
Si 8.51147613 2.1562421400000003 0.12019092789799904 
Si 9.5021199 1.3595519969999998 4.0713373105106925 
Si 10.87886925 2.68120368 2.720006139500507 
Si 9.45463455 3.9238700399999997 1.4313536981731219 
Si 8.14441356 0.000408681891 8.144643152396071 
Si 8.14457646 2.7156570299999996 5.43103992020902 
Si 10.85860449 0.0001116656694 5.4295203521303135 
Si 10.86002172 2.7150380100000002 8.144401402929004 
Si 9.50060493 1.358201556 9.501721053594816 
Si 10.85894658 0.00165433095 10.864393728174251 
Si 9.12673314 1.8374468399999997 15.15655190903142 
Si 10.90768626 2.80632717 13.67991162854905 
Si 9.469963439999999 1.485465552 17.792760776118932 
Si 8.337173129999998 3.96167913 21.117230375945717 
Si 11.67624846 1.94491197 20.839978272858215 
Si 11.583949319999999 2.3540679 18.550818033564216 
Si 10.55578968 3.71415258 21.916212364601602 
Si 10.487094749999999 0.297494496 23.53313640725904 
Si 10.97739117 2.53166148 23.8958987504119 
Si 9.495620189999999 2.87702577 25.71879333901028 
Si 12.169444499999999 4.0311234 29.424536384039616 
Si 9.58381425 1.4656112999999997 27.684561862645158 
Si 11.711614049999998 1.9578951 28.48751544968857 
Si 10.63505682 3.7360626299999997 32.49706850354461 
Si 9.40099158 1.7283527099999998 32.438875953257806 
Si 10.871001179999999 8.13843513 2.711475836876863 
Si 12.189806999999998 6.64337151 1.4032762243552168 
Si 8.13592647 5.4257102999999995 2.7028073917006097 
Si 9.502413119999998 6.78825477 4.069506921688615 
Si 11.134573379999999 4.8518136 0.1614679226177532 
Si 9.502380539999999 4.07248371 6.78804875013146 
Si 8.14534209 5.4300760200000004 8.144815830586833 
Si 10.86042897 5.429147489999999 5.430072922340753 
Si 10.85787144 5.430613589999999 10.855967032465063 
Si 12.22382052 6.77450601 12.186659706115373 
Si 9.503667449999998 6.785697239999999 9.501686517956664 
Si 9.506941739999998 4.07717523 12.218708778320803 
Si 8.20670652 5.48710731 13.599098235272422 
Si 10.10660922 6.39846765 14.842726565140516 
Si 10.91636883 8.110676969999998 13.501431450577421 
Si 11.61405324 4.537660949999999 15.181106747757779 
Si 10.07749899 7.562371859999999 16.974956864669988 
Si 10.88699796 4.421920500000001 17.67672103192685 
Si 9.107657549999999 7.78372038 20.902038814618084 
Si 11.31842232 7.30171557 20.228352121179125 
Si 11.83605336 6.4537396199999995 18.1348362720185 
Si 8.67191634 5.4861462 17.954801990330015 
Si 11.750563439999999 5.740938089999999 22.09738632234912 
Si 10.77115977 6.5970590399999995 24.128047310072365 
Si 10.30493997 5.07878217 25.939268852975232 
Si 10.32645906 5.51897055 29.412621588877034 
Si 11.463566219999999 7.57949265 29.11627127789125 
Si 8.769460859999999 5.66825211 27.661043093063373 
Si 9.17824212 5.30089632 31.542089037354312 
Si 10.18149435 6.574855769999999 33.328513992063755 
Si 8.4318669 7.852561919999999 34.504590613705744 
Si 9.52896582 9.448395479999999 1.3146163340903634 
Si 12.17035674 12.193716599999998 1.3438852874245264 
Si 9.50093073 12.22085574 4.071648131254064 
Si 12.219259319999999 9.5030973 4.074169232839189 
Si 8.14390857 8.14415292 5.430314671807819 
Si 9.50194071 9.502869239999999 6.787461644282868 
Si 10.85969592 8.14475565 8.144505009843462 
Si 8.14521177 10.860038009999998 8.144988508777596 
Si 10.859614469999999 10.85925609 5.430314671807819 
Si 12.21500763 9.500653799999998 9.501859196147425 
Si 8.146075139999999 8.145733049999999 10.861630877122058 
Si 9.50821236 9.49361652 12.222645841070177 
Si 10.86448518 10.85945157 10.860180380319656 
Si 12.20254578 12.212629289999999 12.232143141562087 
Si 8.18689788 10.664769779999999 13.760621414911219 
Si 11.129556059999999 9.850155749999999 16.45854546737708 
Si 9.64038942 11.7358047 15.436428720618506 
Si 10.95593724 11.29933044 20.40883536616359 
Si 8.68830408 11.578296689999998 19.820037271303242 
Si 12.132287009999999 10.32435765 24.821661066725262 
Si 9.96441381 10.395854459999999 23.88294788610475 
Si 9.253746269999999 8.16658425 23.22867022130744 
Si 9.79095789 9.23778207 28.94452554935934 
Si 10.41543504 11.41397946 28.167957189864367 
Si 10.71631134 10.9317303 34.45195830116148 
Si 10.98491715 10.352604509999999 32.15575279168439 
Si 8.915859089999998 10.11258765 30.996771310927844 
Si 12.1383306 8.469171 31.159917665559803 
Si 9.599094269999998 15.03189072 1.0725698605354193 
Si 10.842689159999999 13.582602 2.6941009573223886 
Si 8.14403889 13.573479599999999 5.431316205314238 
Si 9.50257602 14.931821249999999 6.78704721662504 
Si 10.86007059 13.574733929999999 8.144712223672375 
Si 9.50314617 12.21712533 9.502377230719711 
Si 8.1445113 13.57512489 10.86522258348991 
Si 9.50181039 14.92931259 12.252450096795704 
Si 10.754315909999999 13.41431001 13.74414791551252 
Si 11.60522406 14.667385679999999 17.410934760705945 
Si 10.94745015 16.03866159 21.339881635114274 
Si 8.88748191 15.189219539999998 20.589007790404686 
Si 12.15302418 13.037636339999999 19.333913628669993 
Si 9.21222306 15.400777769999998 18.19862359568599 
Si 8.4245364 13.13594649 21.59088665320595 
Si 10.45759356 12.25625391 22.541100201331215 
Si 11.80404351 16.087401269999997 25.382796115425535 
Si 11.190920489999998 12.93932619 29.854125187017377 
Si 8.251520309999998 14.48137017 26.595342370956466 
Si 10.27907145 15.566512229999999 27.05293957647583 
Si 8.45750736 12.2179887 27.070276466828336 
Si 11.99504376 14.64304842 28.45132210090485 
Si 9.85434228 14.143597019999998 31.46980594670133 
Si 10.9600749 16.23940326 31.910929652822 
Si 9.511731 12.726350729999998 33.35600436003307 
Si 11.51559648 15.758994869999999 34.25058099509481 
Si 13.59501498 0.013633068419999998 2.6855568404434833 
Si 13.1323464 3.1369490099999995 0.03299286212486053 
Si 12.226117409999999 1.315538046 1.183778068949978 
Si 14.927211179999999 1.359235971 4.071924416359283 
Si 13.57564617 -0.0006825298229999999 8.144677688034223 
Si 13.57548327 2.7150868799999994 5.431281669676086 
Si 12.21736968 1.358252055 6.787772465026241 
Si 14.93248914 1.357075917 9.501824660509273 
Si 13.57727517 2.71233387 10.863357659029678 
Si 12.214453769999999 1.358787996 12.238635841534741 
Si 15.29780868 0.9187136459999999 14.688766690257095 
Si 14.85139752 1.163470896 16.95620401315323 
Si 12.963158459999999 0.285931854 18.22010476261679 
Si 13.99526028 1.70531865 21.286247789063587 
Si 15.084686609999999 3.1640229899999994 19.778076470948072 
Si 14.00853663 3.2183012699999995 17.672956647368242 
Si 15.02762274 1.6419994199999999 23.44234221455637 
Si 13.23779157 3.0148554599999997 24.468741380445838 
Si 12.972199409999998 1.65120327 26.49256431181491 
Si 14.90399793 0.571482522 29.874293999698384 
Si 12.513521879999999 0.22575985199999998 29.856335467859136 
Si 15.08206392 1.1701758599999998 27.524489179808764 
Si 16.0327809 2.30604498 31.333493782913788 
Si 14.540160779999999 3.67067457 32.7540136513985 
Si 12.22241958 4.07132712 4.074238304115494 
Si 14.821603109999998 4.0793906699999996 1.3436884342870576 
Si 13.57960464 5.42031831 2.749005714857082 
Si 14.932863809999999 6.78828735 4.073513055714294 
Si 16.28843616 5.42991312 5.430280136169666 
Si 14.93193528 4.07284209 6.788290499598527 
Si 13.57486425 5.43054843 8.144712223672375 
Si 12.21771177 6.787358819999999 6.787841536302546 
Si 16.28986968 5.43453948 10.859835023938132 
Si 12.21722307 4.075204139999999 9.502895265291999 
Si 14.93232624 6.78757059 9.501721053594816 
Si 14.924555909999999 4.07898342 12.23922294738333 
Si 16.02750294 7.95380427 13.6418533553051 
Si 14.81194314 5.3955738 16.47146179604608 
Si 13.35130029 5.32272492 13.61111663734946 
Si 14.095834739999999 7.206337619999999 14.846836306080652 
Si 14.11574112 6.54752115 18.34118670997912 
Si 15.005745269999998 5.491359 20.232910825415242 
Si 16.206578909999998 4.93191153 23.52709267058237 
Si 14.07695463 7.74793125 23.406287008325258 
Si 14.11797285 5.607392669999999 22.418187865146805 
Si 12.416922179999998 8.014875479999999 25.060233255082075 
Si 14.28913188 5.0385295800000005 29.335607115797174 
Si 16.270484579999998 4.919824349999999 25.965619544885516 
Si 12.65136786 4.4068359599999996 26.27139808508691 
Si 14.36119884 5.78220066 27.13427100432474 
Si 13.091572529999999 7.7418225 27.30698373072492 
Si 15.57835506 5.6984211899999995 34.3423076500276 
Si 12.49814412 6.73772319 32.600813560554435 
Si 12.65690646 4.525068779999999 31.649840228389817 
Si 13.918241160000001 7.48198071 34.50041180148931 
Si 16.2917919 8.14162797 2.6935414799843196 
Si 14.835140099999998 9.39131532 1.2567311509831178 
Si 13.57105239 10.84580055 2.698987750120954 
Si 14.93219592 9.502347959999998 6.787668858111783 
Si 13.575043439999998 10.85984253 8.145161186968357 
Si 13.573984589999998 8.1435339 5.430556421274886 
Si 13.575434399999999 8.14429953 10.86135459201684 
Si 14.93586117 9.520478729999999 12.240811586738342 
Si 12.546981539999999 9.13377042 14.763778096324119 
Si 13.56450381 10.92777183 13.682743550877545 
Si 15.10868178 8.759132999999999 17.996210220474747 
Si 12.36731913 9.4328874 20.146675336948686 
Si 15.98615892 9.198001889999999 20.167327648563823 
Si 13.06158264 10.08277695 17.92496319896634 
Si 13.77914085 11.16260847 23.29542760985604 
Si 16.18188327 8.45710011 24.051516335926635 
Si 15.869408489999998 10.8256824 24.359539692607935 
Si 14.10441957 9.43811649 21.70419808198399 
Si 16.022844 10.31060889 26.75980107983822 
Si 12.4642935 11.321892089999999 26.95430579391256 
Si 14.00478993 9.81780381 27.98370956032129 
Si 16.055798669999998 9.35968014 31.303482313359346 
Si 12.91306671 11.905008930000001 31.217523109998012 
Si 13.81918167 9.887459849999999 30.39743984643101 
Si 16.05211713 11.04553224 34.45323611977312 
Si 13.268661119999999 13.96584054 0.17472960766827664 
Si 12.21474699 14.93038773 4.067952817971757 
Si 14.930648369999998 12.220725419999999 4.066985820103489 
Si 15.214175819999998 15.114741659999998 1.1282551234923568 
Si 13.574033459999999 13.574815379999999 5.430072922340753 
Si 12.21756516 12.217728059999999 6.78718535917765 
Si 14.932782360000001 14.931951569999999 6.78704721662504 
Si 16.2908145 16.288240679999998 10.863875693601965 
Si 12.21826563 14.9315769 9.502239088167103 
Si 14.93019225 12.215626649999999 9.502239088167103 
Si 13.57821999 13.574847959999998 10.857728350010836 
Si 14.934199589999999 14.91924537 12.206483162414852 
Si 12.470239349999998 14.384803049999999 15.063063936552858 
Si 14.24220039 12.732133679999999 15.090692447074783 
Si 13.49883882 16.141744709999998 13.567118234343296 
Si 16.107584579999997 13.552204859999998 13.71137359490589 
Si 12.72229452 14.523659009999998 21.05952132459305 
Si 14.34389886 15.940726109999998 20.188014495817114 
Si 16.124200379999998 12.98185938 18.945145949988373 
Si 13.918746149999999 12.33177435 17.712396346138288 
Si 13.446890009999999 14.497073729999999 24.87045992343461 
Si 12.64392333 13.22456409 23.021490928031163 
Si 15.48584415 15.680786579999998 24.31650828747004 
Si 15.75190872 13.818481199999999 27.862731219873414 
Si 16.1595171 14.830855829999999 30.0268033777794 
Si 13.524658469999999 13.472742239999999 27.038123787708447 
Si 16.22741382 13.661103509999998 32.08930622387917 
Si 14.34420837 12.60997497 33.0735719112227 
