&CONTROL
  dt          = 30.D0,
  prefix = 'x.66_y.66_z3.15_struc33-scf',
  pseudo_dir = './',
  outdir='./',
  wf_collect= .true.,
  verbosity= 'high',
/

&SYSTEM
ibrav= 6, celldm(1) =30.783621515, celldm(3) =2.104478273085783, nat=  432, ntyp= 1,
  ecutwfc     = 12.D0, nbnd= 1728,
  degauss     = 0.05D0,
  occupations = "smearing",
  smearing    = "methfessel-paxton",
/
&ELECTRONS
  electron_maxstep=200,
  conv_thr    = 1.D-8,
  mixing_beta = 0.3D0,
  scf_must_converge=.false.,
/
ATOMIC_SPECIES
Si  28.08  Si.pbe-hgh.UPF
K_POINTS {automatic}
1 1 1 0 0 0
ATOMIC_POSITIONS (angstrom)
Si 2.70928764 0.00471307167 2.678555111035484 
Si 2.73450456 2.9338941599999995 0.03881505345836407 
Si 1.363829751 1.3564161719999999 1.1627203652219595 
Si -0.00024913274399999995 0.000200505465 5.4301924853589405 
Si -0.000290102094 2.71500543 8.145665829500166 
Si 2.7152660699999998 -0.00043038179999999997 8.145871521206576 
Si 2.7146796299999996 2.7146633399999995 5.430295331212146 
Si 1.357224156 1.357659099 6.787312082310319 
Si 2.7115030799999995 2.71362078 10.867035669225183 
Si 1.340896689 1.371689676 12.22826910030479 
Si 1.3587260939999999 4.074438509999999 9.502271197185514 
Si 4.07398239 1.3570873199999998 9.501962659625898 
Si 2.80168452 0.1301826753 13.527315072146013 
Si 2.67182064 2.02838193 15.098251197912047 
Si 2.03507712 0.58933962 18.633577401858062 
Si 3.5028387 2.57860926 18.484416632758723 
Si 1.8785628 3.08631969 24.6349414739704 
Si 2.41373817 2.17147329 22.545833657802973 
Si 1.2251057399999998 0.169891668 22.977751959315857 
Si 1.054595052 3.71436435 21.47219151423758 
Si 3.66340923 2.06596296 25.66213157383789 
Si 2.09930859 3.7740183299999996 28.67390382106474 
Si 0.1369800036 2.82791142 27.715037649676912 
Si 0.12327913619999999 0.607625145 28.473800072677513 
Si 2.7980355599999998 3.01330791 30.833083945216323 
Si 2.62019763 0.7264574369999999 31.315259586995722 
Si 0.33661493099999995 0.34793648099999996 30.81899406332714 
Si 1.35562122 4.0723696799999995 4.066147934291712 
Si 2.72214045 5.435810099999999 2.7021685189315137 
Si 1.298865231 6.736729499999999 1.274301259559933 
Si -0.00039144869999999994 8.13548664 2.7073793754939355 
Si -0.00104329305 5.432421779999999 5.42971253804398 
Si 2.71485882 5.4305973 8.144911626576656 
Si 1.357346331 6.7877497799999995 6.787037826701769 
Si 2.7151194599999995 8.146628999999999 5.430089639505735 
Si 1.368980649 6.802150139999999 12.225286570561822 
Si 3.80643543 6.9005091599999995 15.190366800433289 
Si 0.79501716 4.5916623 15.005244264663023 
Si 2.6280657 5.4283329899999995 13.66907093981454 
Si 2.53092843 7.48299069 17.47992118449863 
Si 2.53115649 4.453148430000001 19.822269773209566 
Si 1.401842466 6.48833958 19.43358101199415 
Si 1.50604308 5.408915309999999 24.76205894853265 
Si 0.24484521599999998 5.54604453 22.772437354366204 
Si 3.7306706399999996 5.99599062 24.32702098947253 
Si 0.6437759129999999 7.46086887 21.47476266056772 
Si 1.7160537599999999 6.09928551 28.725223901814385 
Si 0.49020519599999995 6.430282019999999 26.74972647148819 
Si 3.89660058 6.79561785 28.21853666502096 
Si 1.89651438 4.2869904299999995 32.596924609645185 
Si 2.44372806 6.743652749999999 32.43597084937826 
Si 0.9302697719999999 7.297854839999999 30.669867576178873 
Si 3.91629519 9.469702799999999 1.3356762365579893 
Si 1.354052493 9.50145201 4.076329673759076 
Si 0.324426753 10.436823809999998 0.03733441599171265 
Si 2.70774009 10.85607954 2.740327758665936 
Si 1.445895513 12.15882342 1.2862450913122219 
Si 0.000404685954 8.14498371 8.145014472429862 
Si 2.71498914 10.85976108 8.145083036331998 
Si 1.35930276 9.50400954 9.501962659625898 
Si 2.71384884 8.14521177 10.860042151207196 
Si -7.6973508e-05 10.85710581 10.862818989243749 
Si 0.03509664209999999 8.1779058 13.62457296732754 
Si 0.940923432 9.95923359 15.01611164315176 
Si 2.73372264 10.922265809999999 13.692725486051852 
Si 1.3715381789999999 9.55704978 17.353695040664167 
Si 1.56227616 11.30866461 19.367074026921127 
Si 1.91234826 8.97339537 22.765340990495012 
Si 3.9208400999999995 8.27735625 23.74409069350261 
Si 0.472012524 9.78097212 24.367405127831304 
Si 2.36325546 10.898791919999999 21.527076917898356 
Si 0.888710724 12.06540027 24.863156422233857 
Si 0.43983 8.783421389999999 26.50296498769664 
Si 2.39627529 11.94825888 26.67889996058053 
Si 2.02075821 9.91466415 27.897554757165963 
Si 2.14568622 8.66121381 34.07279688509808 
Si 3.06972018 10.27641618 31.9815635879644 
Si 1.600259553 9.57474072 30.27061997403434 
Si 4.07354256 12.217972409999998 4.070810279637037 
Si 3.31043751 13.05130365 0.09125169735431274 
Si 1.3574571029999998 14.93110449 4.069987512811391 
Si 9.28029897e-05 13.574587320000001 8.145323009989479 
Si 2.71611315 13.57300719 5.431358071695271 
Si 1.357354476 12.21692985 6.787723465723142 
Si -0.001443064311 16.2901629 10.862956117048023 
Si 1.3587228359999999 14.932472849999998 9.502579734745131 
Si 2.7127737 13.57212753 10.859356512185824 
Si 1.3810906349999998 12.21192882 12.218738717907726 
Si 3.97449936 12.58428564 14.967157017025844 
Si 0.164245554 13.568120189999998 16.34488006656943 
Si 2.77690743 15.74291664 16.71101130398173 
Si 2.5385521499999997 13.434216389999998 16.65886845640644 
Si 0.14268964859999997 13.62606372 13.594713387946818 
Si 1.0348906679999998 15.525151919999999 14.973190640413913 
Si 3.34047627 15.7664394 20.362210502539504 
Si 3.40311132 12.46193145 18.605809021492522 
Si 2.709027 14.80032837 22.48227492052185 
Si 1.417428738 12.81731409 22.675282305037882 
Si 0.213381081 16.230883589999998 25.113517510887604 
Si 3.52111608 13.59138231 29.79749476733704 
Si 3.7506095999999998 16.106900399999997 26.254900789764488 
Si 1.54419426 15.63528861 27.050722001870213 
Si 1.7175035699999999 13.55696154 28.201052869975992 
Si 3.3177517199999995 12.666517559999999 32.03593476235915 
Si 6.78626739 4.0690791 4.068753362572923 
Si 4.07267919 1.358273232 4.0685819528175795 
Si 5.43621735 2.7193874399999998 2.6798886789320515 
Si 6.875536589999999 1.376786817 1.1939615072307452 
Si 4.07284209 4.07240226 6.787620619869935 
Si 8.14478823 -0.000155949057 8.144603089017039 
Si 8.1469548 2.71459818 5.4318380190102316 
Si 5.43178647 0.00010202606189999999 5.430363895114283 
Si 5.430173759999999 2.71494027 8.145220164136273 
Si 6.78713076 1.35803214 6.787963439380622 
Si 5.4285773399999995 0.0019880641799999996 10.859219384381548 
Si 6.78708189 1.3624255529999998 12.230463145173177 
Si 7.5186169199999995 3.6329306399999997 15.095817179386177 
Si 5.037568469999999 0.16357603499999998 16.56579295925528 
Si 5.5249164 2.77734726 13.737360586343126 
Si 4.80374181 2.50668891 16.253450103069564 
Si 7.98560235 2.59963965 19.727068795092155 
Si 4.3600999499999995 1.355844393 21.312437622258056 
Si 5.61009681 2.75656122 19.86783048617969 
Si 5.75502894 0.48929132699999994 22.94216729410668 
Si 5.52766941 2.40091794 24.31029139735107 
Si 7.54311708 2.12089284 25.50988542914238 
Si 4.07041488 3.5457302699999995 27.36032230197044 
Si 7.71308694 3.2564198699999998 27.606500992593826 
Si 5.30592993 0.210864276 28.08072322172532 
Si 5.745336389999999 2.48932377 28.589981604848887 
Si 5.10929334 3.5598536999999997 30.592458930666048 
Si 4.21767648 4.2649826399999995 1.2604513513282316 
Si 4.071538889999999 6.7899978 4.071084535245586 
Si 6.95079639 6.90015078 1.1533613925802406 
Si 8.15581656 5.436624599999999 2.680790294245155 
Si 5.429180069999999 5.42937555 5.429198308777952 
Si 6.787407689999999 6.78726108 6.787449210114593 
Si 5.429766509999999 8.14495113 8.145083036331998 
Si 6.788808629999999 4.07329821 9.50237404303872 
Si 4.07336337 6.78851541 9.501619840115211 
Si 4.0760838 4.075204139999999 12.254494792872244 
Si 5.432389199999999 5.43133035 10.861173455592459 
Si 6.77637936 6.781233779999999 12.25291782312309 
Si 5.5829088 6.5021860799999995 16.748275784793265 
Si 6.6785904899999995 4.37933844 17.2028201740114 
Si 4.76215344 4.75449714 20.772839712438802 
Si 5.70674538 6.92354322 20.29861748330731 
Si 8.123513489999999 6.740492489999999 20.027378686452806 
Si 4.66804611 7.938703439999999 18.436079081752045 
Si 5.19729192 4.5017415 23.112720000672805 
Si 7.43783481 5.1628874399999996 23.646078595397576 
Si 6.88930164 6.25329117 25.690996976637624 
Si 5.193007649999999 5.822013419999999 29.898763650793587 
Si 7.3209051899999995 6.62033745 29.454401001042815 
Si 4.71559662 5.61594492 26.388703244785106 
Si 8.11667169 5.58478215 27.52089896077561 
Si 5.6565395999999994 5.62944933 33.902209896580885 
Si 4.77686331 6.9239830499999995 31.98845426012918 
Si 6.97734909 4.28369985 32.36487008286205 
Si 8.16993999 10.854711179999999 2.6964468612981696 
Si 5.4307439099999995 8.13898899 2.677310676211695 
Si 6.7855506299999995 9.50334165 4.066387907949192 
Si 5.08287096 11.18736927 0.21957418249662083 
Si 4.0718809799999995 9.50249457 6.787380646212456 
Si 5.42997828 10.86251409 5.430055357554666 
Si 6.78875976 9.503227619999999 9.503916730836805 
Si 4.07398239 9.51120972 12.241467651466188 
Si 5.42660625 10.86251409 10.86758418044228 
Si 5.40801936 8.1956619 13.721762298606928 
Si 7.13365164 9.216930869999999 15.105484689587515 
Si 6.633467189999999 10.57763457 17.373681418137142 
Si 4.64993163 10.55251539 21.006094107509337 
Si 4.72137957 10.372787820000001 18.656272053465454 
Si 5.454641339999999 8.580643469999998 21.996842493390936 
Si 7.56704709 8.86086405 22.961159494998668 
Si 6.939751769999999 8.582647139999999 25.193908686143395 
Si 4.85468064 9.54721062 25.55842867185547 
Si 5.5562094900000005 10.073231009999999 29.425055650928122 
Si 7.58211534 8.952218369999999 28.913671786838304 
Si 4.640678909999999 11.93685588 25.788597691329834 
Si 4.17634875 9.05432409 27.765672091405186 
Si 5.1362695800000004 9.30189951 31.61464386567752 
Si 6.7662144 10.330613009999999 32.97765995821269 
Si 7.6347646199999994 13.94779122 0.07125777785210284 
Si 4.126175549999999 14.96071971 1.244623374519874 
Si 5.42051379 13.59131715 2.7233890466429567 
Si 6.7957481699999995 12.26242782 1.4366023005038515 
Si 6.78370986 14.93229366 4.072044429875505 
Si 8.14895847 16.3015659 2.704815085554007 
Si 4.07276064 14.93245656 6.787414928163524 
Si 5.430222629999999 13.574847959999998 8.144740216821313 
Si 6.7872285 12.21805386 6.787586337918867 
Si 8.14366422 13.5716877 10.864190267286492 
Si 4.0730701499999995 12.21932448 9.501756967919485 
Si 6.78675609 14.93454168 9.502922554255816 
Si 4.08215997 14.935030379999999 12.206157241865562 
Si 6.783807599999999 12.23887248 12.25768301432162 
Si 7.9968261599999995 14.04364158 16.099764116429174 
Si 5.89212558 12.66236361 16.442926446625535 
Si 5.52794634 13.88978253 13.683503641214408 
Si 6.69232296 15.54957063 14.902158437799843 
Si 7.838943479999999 12.32926569 20.896186172383512 
Si 4.74454395 13.984003889999999 19.809379759607786 
Si 5.97513942 14.67603567 17.88249413589682 
Si 5.59958976 12.601439009999998 21.55402253143825 
Si 7.924075019999999 16.07557473 22.191598257411464 
Si 5.52390642 13.05400779 23.906552859616554 
Si 4.4729244900000005 15.147517139999998 24.091675395386815 
Si 7.8232725 12.6109035 24.336757063576 
Si 6.284339909999999 13.04998416 27.29868335394916 
Si 5.58237123 12.453525809999999 29.39893280421387 
Si 7.263971639999999 15.23206224 27.781407506945655 
Si 4.26037257 15.80431365 30.091188242141452 
Si 7.5322027799999995 12.64187079 32.38389656570511 
Si 5.55871815 13.743872999999999 31.43312093476946 
Si 5.97932595 15.77925963 34.24009280631269 
Si 12.099951359999999 1.1953276199999998 1.3205853216976058 
Si 9.50104476 1.3570808039999998 4.078763692284944 
Si 10.85335911 2.6980638299999997 2.703303251511883 
Si 10.8600543 0.00163885545 5.431426635597409 
Si 10.86031494 2.71485882 8.144603089017039 
Si 12.20979483 1.349113365 12.25888288260902 
Si 9.50332536 1.357400088 9.502716862549407 
Si 8.13866319 2.71816569 10.862373323879858 
Si 12.21764661 4.073086439999999 9.50233976108765 
Si 10.86406164 -0.00189185544 10.862133350222377 
Si 8.34619779 0.21439269 13.552580870083547 
Si 9.19125783 1.80819 15.219129357379815 
Si 10.827539459999999 2.75406885 13.69471383921383 
Si 10.67366412 1.6481733299999999 17.75633655596449 
Si 12.059242649999998 3.6627413399999997 20.478769136172634 
Si 10.85958189 3.8910945599999995 18.4719037206187 
Si 8.437617269999999 1.179519804 17.78503054900888 
Si 11.40730056 1.8072614699999998 21.756114632987458 
Si 9.0301986 1.88429688 21.848058825753352 
Si 8.84729448 3.19764555 23.910598129842644 
Si 10.920473909999998 3.1988673 25.220442916270468 
Si 9.54152541 2.8141463699999996 29.01295231713287 
Si 10.65356226 0.062670888 26.396176710118056 
Si 11.07946431 2.12916816 27.37928022091136 
Si 8.182711349999998 2.8327821299999996 34.00371875369491 
Si 9.404933759999999 1.1617881389999998 30.64141355679196 
Si 11.93441238 2.45257353 32.31567548307866 
Si 9.808583669999999 1.458580536 32.92202035162841 
Si 10.87158762 8.13664323 2.6847087212522918 
Si 12.235712219999998 6.76741986 1.1675644049079483 
Si 9.57166191 4.083626069999999 1.2555798860813883 
Si 9.499041089999999 6.786707219999999 4.068547670866511 
Si 9.5021199 4.07214162 6.787860593527416 
Si 8.14441356 5.43056472 8.14528872803841 
Si 10.860380099999999 5.42919636 5.430398177065351 
Si 10.85780628 5.42906604 10.861242019494595 
Si 8.14708512 8.14309407 10.863401782411914 
Si 12.203979299999999 6.791577929999999 12.23827943001681 
Si 9.503634869999999 6.786414 9.50401957669001 
Si 9.503993249999999 4.09669065 12.242736083655725 
Si 8.21674116 5.51646189 13.760055237950517 
Si 9.0345969 7.58455884 15.094480183294504 
Si 8.6201793 4.716720629999999 18.75418130571728 
Si 10.73524032 6.452485289999999 23.341003512838395 
Si 8.586605610000001 6.7855832099999995 22.3647563922588 
Si 11.274097229999999 5.47658397 25.482185612678975 
Si 10.36562022 4.86204372 29.87613756308833 
Si 10.41923061 5.99542047 27.718808664294453 
Si 8.65036467 5.8397858099999995 31.22437813471295 
Si 12.063412889999999 4.6011267899999995 31.45526707515975 
Si 9.433571579999999 7.925361929999999 32.03257513115443 
Si 11.40782184 4.92909336 34.216746797635 
Si 9.730847789999999 9.609014879999998 1.2159190968901625 
Si 9.50371632 12.21601761 4.072592941092602 
Si 12.2181516 9.50057235 4.066730727459877 
Si 8.14558644 8.1456516 5.431186661939929 
Si 9.50257602 9.502657469999999 6.78751777401673 
Si 10.85945157 8.14465791 8.145151600234136 
Si 8.145114029999998 10.859744789999999 8.145802957304438 
Si 10.85945157 10.86077106 5.428649797560855 
Si 12.217548869999998 12.21706017 6.78751777401673 
Si 9.49710258 9.53245188 12.226143619338536 
Si 10.85713839 10.857708539999999 10.861413429249938 
Si 9.505882889999999 12.219699149999999 9.502545452794063 
Si 12.21748371 9.50236425 9.501277020604526 
Si 10.870984889999999 8.278887509999999 13.634446169235286 
Si 8.18614854 10.91801412 13.768351470109112 
Si 10.30435353 8.19100296 17.184033664825826 
Si 11.20681953 9.226998089999999 20.65209868077531 
Si 9.27839304 8.76822282 19.294464854557905 
Si 8.3399913 10.984395869999998 18.994840602218627 
Si 10.02297636 12.147469289999998 17.74128677944539 
Si 11.466840509999999 10.333887299999999 17.206179805216117 
Si 10.755016379999999 10.349737469999999 22.70188509906709 
Si 8.53260426 11.03222331 22.71991740532916 
Si 11.818883699999999 12.14057862 23.783926320644287 
Si 11.195155889999999 8.595174149999998 24.183071076935615 
Si 11.60424666 11.43214281 26.052877252117423 
Si 9.68780961 9.30786165 29.916555983398172 
Si 10.28982285 11.606087429999999 29.708018875048076 
Si 10.552140719999999 9.32076333 26.299055942740804 
Si 8.162153369999999 11.954074409999999 26.562512736702743 
Si 8.2653831 9.61528653 26.741258829574253 
Si 11.11528602 8.166193289999999 28.256966732168824 
Si 8.22860028 8.64090018 33.98445229719438 
Si 11.01803472 10.97792874 34.03553240428655 
Si 12.216278249999998 14.93375976 4.069918948909255 
Si 9.45561195 14.89950189 1.312803318805041 
Si 10.85914206 13.56968403 2.701181198740739 
Si 8.146368359999999 13.576623569999999 5.429609692190774 
Si 9.50223393 14.93270091 6.7880662852338265 
Si 10.86020091 13.574913119999998 8.14528872803841 
Si 12.21776064 14.93333622 9.5026140166962 
Si 12.228560909999999 12.22887042 12.250860906058975 
Si 9.52572411 14.92058115 12.24760412070746 
Si 9.527564879999998 12.416857019999998 15.31477600086112 
Si 10.965727529999999 13.613292359999999 13.836401142980218 
Si 10.91065104 14.47078167 21.146650106890462 
Si 8.66440665 14.55249231 20.486482575163063 
Si 11.69200089 12.93569352 19.537661015438317 
Si 8.32031298 15.12816462 18.174164975588187 
Si 10.994707439999999 14.323911029999998 23.487490289754383 
Si 8.7250869 14.77292859 24.00134245432114 
Si 8.351948160000001 16.17978186 25.87077152804119 
Si 9.06673707 15.31561365 29.57366790881036 
Si 10.20379536 12.562505909999999 27.519150581271116 
Si 10.76413878 14.767569179999999 28.042533128234933 
Si 9.575261999999999 13.388506649999998 31.15111760527942 
Si 11.77931529 14.18551119 32.54029082647991 
Si 10.9475316 15.938412929999998 34.08712674064474 
Si 16.2857646 2.7111121199999997 2.681503358827381 
Si 13.57318638 -0.0032637829499999995 2.697252487148281 
Si 12.87009369 3.0426787799999997 0.1462653155120856 
Si 14.93579601 1.357476651 4.06810200550262 
Si 14.75693181 3.9655887299999995 1.2360014638261294 
Si 13.574847959999998 -0.00043953678 8.145220164136273 
Si 13.57421265 2.71480995 5.430329613163214 
Si 12.2175 1.3579914149999999 6.787654901821004 
Si 14.932033019999999 1.3573870559999999 9.502236915234446 
Si 13.578855299999999 2.7150543000000003 10.862304759977722 
Si 14.94381069 4.05546066 12.216407545235064 
Si 16.216776449999998 2.73303846 13.796462669985337 
Si 13.57489683 0.047630331 13.926734084045894 
Si 14.3167923 1.8976058099999997 15.338361983196293 
Si 12.607287119999999 3.67948746 14.910420388007367 
Si 14.4705699 1.2823308809999998 17.892367337804565 
Si 15.374387969999999 2.47357134 21.406233040381657 
Si 15.81245865 0.220576374 21.39587989115895 
Si 14.111163629999998 2.9973762899999996 19.497859670247713 
Si 12.46066083 0.227957373 18.501077660978048 
Si 14.513852429999998 2.8222262099999997 23.621806974041032 
Si 12.36826395 1.8946410299999998 23.88649791824144 
Si 16.12309266 2.2517015399999996 25.350714330331023 
Si 13.19437872 1.92920841 28.459915882494744 
Si 14.52343095 3.9191296499999995 28.581685372690295 
Si 16.120030139999997 0.221583096 34.06727749097604 
Si 15.283359449999999 1.64455695 32.288866997343035 
Si 15.73912107 3.97594917 32.4522890580869 
Si 13.254358499999999 1.2599484209999998 30.850224920750605 
Si 12.22248474 4.07388465 4.070775997685969 
Si 13.56880437 5.43139551 2.6959120628615 
Si 14.93491635 6.7875054299999995 4.071770174266957 
Si 14.933010419999999 4.07238597 6.787312082310319 
Si 13.575043439999998 5.42975022 8.14480878072345 
Si 12.21792354 6.78730995 6.787586337918867 
Si 13.575939389999998 8.145781920000001 10.86329893655871 
Si 16.28926695 5.4305321399999995 10.862441887781996 
Si 14.933205899999999 6.787440269999999 9.501654122066281 
Si 13.971916709999999 7.961590889999999 16.114608201241865 
Si 12.38325075 4.84550937 16.960206806299148 
Si 13.55986116 5.34268017 13.55302653544744 
Si 15.28150239 6.40596105 14.797941306551396 
Si 12.828358709999998 7.47225558 20.33927587727463 
Si 15.5566242 6.48723186 18.515990309692874 
Si 12.35273958 7.09660818 17.714101192248016 
Si 14.58212382 4.52018178 17.763501483737823 
Si 14.27067531 5.12266743 23.296059874987503 
Si 12.43593261 5.61583089 21.809011683486254 
Si 13.518842939999999 6.12725544 25.243274695682132 
Si 14.52163905 5.9201280899999995 27.32508045627196 
Si 13.48492716 7.912541699999999 28.277330211103553 
Si 15.755280749999999 5.74864326 34.18411038021772 
Si 14.699509560000001 7.3098117 31.351872710736952 
Si 14.336047079999998 4.8871629 30.79691648683898 
Si 14.03060958 7.733319119999999 34.07029430267007 
Si 14.934818609999999 12.215089079999998 4.066490753802397 
Si 14.90611563 9.44176545 1.2863959318969236 
Si 13.56854373 10.8554931 2.7059738155001245 
Si 16.29 10.85928867 5.431495199499546 
Si 13.576086 8.14438098 5.4302267673100095 
Si 14.93312445 9.502087320000001 6.787826311576347 
Si 13.575304079999999 10.86011946 8.14528872803841 
Si 14.92988274 9.50306472 12.233342829062938 
Si 12.43736613 9.58847319 15.079636098481815 
Si 13.78500525 11.030301089999998 13.687583193391566 
Si 15.61609899 11.826035009999998 15.004970009054475 
Si 15.48473643 8.77268628 17.7625415891079 
Si 14.891861879999999 8.57528406 21.02038968110493 
Si 12.465107999999999 10.736706419999999 19.3936082570482 
Si 14.74204275 10.303799669999998 19.431181275419352 
Si 13.45917267 8.43087321 24.74862042371377 
Si 14.09503653 11.87782092 23.304630362754644 
Si 14.71496877 9.599697 23.178507064773385 
Si 14.439146489999999 9.30263256 26.693504071735738 
Si 13.82502978 11.52437679 26.76745024019064 
Si 12.58400871 11.10534912 30.18316671685842 
Si 15.915199679999999 10.7597079 30.468255421944626 
Si 12.84821622 10.28964366 32.60055849645845 
Si 15.035572259999999 11.286803429999999 32.71094637889924 
Si 14.104289249999999 9.21751731 30.094787847003655 
Si 12.30258267 12.27715398 1.3026867150447066 
Si 14.857082729999998 14.97189465 1.1244205694881562 
Si 16.28859906 13.5827649 2.669131002686735 
Si 13.57287687 13.57330041 5.429849665848255 
Si 14.93258688 14.93234253 6.787483492065661 
Si 14.933368799999998 12.218070149999999 9.503231091815435 
Si 13.57111755 13.57727517 10.863916011677944 
Si 14.930029349999998 14.937701939999998 12.26196825820519 
Si 12.28805199 14.9405364 15.4262609057361 
Si 12.75397857 14.30188695 17.751502800863822 
Si 12.424725089999999 16.19429625 20.83012485267438 
Si 15.798530699999999 12.36002121 19.745238229158495 
Si 16.09417791 16.21276911 19.083116626220185 
Si 15.241591889999999 14.126802029999999 18.337792728038462 
Si 12.270752009999999 15.94898514 24.662367034825255 
Si 15.409525499999999 13.20387579 21.902018616735276 
Si 14.12606898 15.24020724 22.288890434544058 
Si 14.973523649999999 12.86686827 25.25160520979179 
Si 14.405295869999998 15.22152261 25.425586111464774 
Si 14.28988122 16.199476469999997 27.670436831336705 
Si 13.87531701 12.56475393 28.799684299535315 
Si 16.08427359 12.90783762 29.478055547280128 
Si 12.94882326 14.66893323 28.848056132493063 
Si 13.67841978 13.3615467 33.97865864746379 
Si 13.31733564 15.235222499999999 31.074531726592244 
Si 15.60046059 14.48676216 31.223143984474483 
