&CONTROL
  dt          = 30.D0,
  prefix = 'x.66_y.66_z3.16_struc22-scf',
  pseudo_dir = './',
  outdir='./',
  wf_collect= .true.,
  verbosity= 'high',
/

&SYSTEM
ibrav= 6, celldm(1) =30.783621515, celldm(3) =2.1107125888071807, nat=  432, ntyp= 1,
  ecutwfc     = 12.D0, nbnd= 1728,
  degauss     = 0.05D0,
  occupations = "smearing",
  smearing    = "methfessel-paxton",
/
&ELECTRONS
  electron_maxstep=200,
  conv_thr    = 1.D-8,
  mixing_beta = 0.3D0,
  scf_must_converge=.false.,
/
ATOMIC_SPECIES
Si  28.08  Si.pbe-hgh.UPF
K_POINTS {automatic}
1 1 1 0 0 0
ATOMIC_POSITIONS (angstrom)
Si 0.01421683686 2.71870326 2.6839697633728656 
Si 1.3876017479999998 1.534206861 1.0268256467015149 
Si 7.14520125e-05 2.7151846199999996 8.14483415903309 
Si 2.71557558 -7.40929473e-05 8.144696625000803 
Si 2.71292031 2.7141746399999995 5.429946745202179 
Si 1.3574994569999999 1.357219269 6.787063808790953 
Si 2.71746522 2.71295289 10.858586917097634 
Si 1.380065994 1.370528199 12.221377259518235 
Si 4.07399868 1.361542635 9.502329441210653 
Si 2.68385895 0.027121220999999997 13.705025632810749 
Si 0.229348539 2.9168385299999997 13.571686388508818 
Si 3.3482466 3.1980365099999997 16.77055606195654 
Si 1.565113878 4.0702194 15.33091857899576 
Si 3.9391337699999998 2.16872028 19.97434257705851 
Si 1.572937965 2.91162573 18.2909260218696 
Si 0.26840870099999997 1.017932778 18.598417734554534 
Si 1.63224171 3.30662565 24.803128067135628 
Si 2.3406449400000002 3.86247303 22.62551735043262 
Si 2.1162013199999996 0.1006404345 22.677161379556267 
Si 3.58158456 1.9357895699999998 22.282266789353148 
Si 1.374532281 1.63427796 27.95413589734759 
Si 2.1162501899999997 3.51964998 29.132011733358752 
Si 2.71687878 1.621348587 26.03185711158479 
Si 2.71314837 3.15649701 34.100153581650346 
Si 0.565412868 3.60963594 30.913077451471203 
Si 0.0761083461 1.319481855 31.58063326068266 
Si 4.0702194 6.78815703 4.067912839959156 
Si 1.357046595 4.0705452 4.072417079516545 
Si 2.71653669 5.43326886 2.6940991448507794 
Si 1.2915559079999999 6.8453186399999995 1.3246521552675043 
Si -0.00708746949 8.151955829999999 2.738835527202828 
Si 0.000448949142 5.4312651899999995 5.434072766170779 
Si 2.7147936599999998 5.430173759999999 8.14462785798466 
Si 1.357447329 6.786462869999999 6.788129697541175 
Si 2.71388142 8.144397269999999 5.431700304113834 
Si 1.3586071769999999 4.07240226 9.502776426815585 
Si 1.364237001 6.78996522 12.249331051580501 
Si 0.80848899 6.25426857 16.505803049804687 
Si 2.30663142 8.06325678 15.98729974808392 
Si 2.79098199 5.46337278 13.681816764862374 
Si 3.1653913499999997 6.6111336 19.84471675162832 
Si 0.231168132 4.3988701500000005 19.594920565487644 
Si 0.9214829459999999 6.561856349999999 19.043409096018074 
Si 0.16492973399999997 4.2427956600000005 21.936471848676373 
Si 0.470955303 8.035205399999999 23.63068482539979 
Si 2.6735147999999995 7.16419539 23.895094002470923 
Si 3.51963369 5.791697729999999 22.116435129923488 
Si 1.9642644899999997 5.58017208 25.539932261603425 
Si 2.5365647699999996 5.52688749 27.793496147636752 
Si 1.66902453 7.49972052 28.802101973411087 
Si 1.546601922 4.841909279999999 32.756274168669165 
Si 3.50435367 6.4888445699999995 32.57754869371263 
Si 2.6826372 8.095087439999999 34.236346657122226 
Si 4.06428984 9.522905940000001 1.2386830700359106 
Si 1.3600227779999998 9.50510097 4.075133376654207 
Si 2.7042377399999995 10.84599603 2.7053287985869865 
Si 4.07499237 12.21657147 4.072176394960043 
Si 1.109360403 11.92959054 1.3152551425115173 
Si -0.000446204277 8.145 8.144971693065376 
Si -0.000653268096 10.85811579 5.429946745202179 
Si 2.71539639 10.85982624 8.145659363226809 
Si 1.3580712359999998 9.50365116 9.50250135875101 
Si 2.71120986 8.146368359999999 10.86285047209852 
Si -0.0018635597099999999 10.856340179999998 10.863916360848743 
Si 1.396919628 12.213329759999999 12.227291222906562 
Si 0.1117414179 8.277633179999999 13.687455660186126 
Si 3.0109947299999997 10.89546876 13.868175378610818 
Si 1.113623496 10.05296625 15.05461270813183 
Si 3.3264994499999996 9.70564716 17.390146877408018 
Si 3.23978778 10.56867507 21.228687335021068 
Si 0.9447027119999999 11.027645819999998 21.1594733332728 
Si 3.7986651 8.88433794 19.624009013316275 
Si 0.374065641 11.590921439999999 18.92736475627619 
Si 2.0300435099999996 11.67271353 17.25281914616977 
Si 3.06587574 11.93525946 24.92120103385374 
Si 3.07485153 10.74442788 27.00999914920763 
Si 1.141093323 9.51876828 27.60455877078293 
Si 3.08750886 8.143990019999999 30.646433346375414 
Si 0.11721664979999999 10.33778061 31.483465466872122 
Si 1.78153956 12.148772489999999 32.19544476851217 
Si 2.02411395 9.352040129999999 32.33222236362127 
Si 3.5981189099999997 12.11436801 30.63072008318666 
Si 2.68949529 16.2970047 2.681091863747267 
Si 3.7270542599999996 14.596328699999999 1.4262829284257437 
Si 1.354044348 14.940911069999999 4.070250918508029 
Si 3.472311239999999e-05 13.574847959999998 8.145109227097661 
Si 2.715543 13.57452216 5.427986885242094 
Si 1.3570954649999998 12.217043879999999 6.78802654701696 
Si 1.360219887 14.93371089 9.501813688589577 
Si 2.7159828299999997 13.57206237 10.861647049316012 
Si 0.1158596928 13.58141283 13.606448115169275 
Si 0.6820541549999999 15.514058429999999 14.837068252562378 
Si 3.4806842999999996 15.358407479999999 17.6375018344756 
Si 2.0799886499999998 14.681215889999999 21.118075589554508 
Si 1.3925995199999999 15.24919932 18.86612772840055 
Si 3.9457800899999995 13.016736269999999 17.858415873836073 
Si 0.6360984359999999 13.09702968 22.150990555535515 
Si 0.8687831669999999 12.68376867 24.45633600472478 
Si 2.55884949 15.800566949999999 24.914702550828196 
Si 2.19188466 16.063568999999998 29.135897069770852 
Si 0.7855657019999999 14.564498039999998 25.856776288483854 
Si 1.3745778929999999 14.14009467 28.09301088644906 
Si 3.2038683299999997 12.63180357 28.36147731747265 
Si 3.7879462799999994 16.2714294 32.48240952687832 
Si 2.93588154 12.72288096 34.35576058065514 
Si 1.68256152 15.886219769999999 31.465551659166785 
Si 0.14387311709999998 13.937495939999998 31.78906608661312 
Si 6.7893462 4.072027589999999 4.070560370080675 
Si 8.13029013 -0.015596941949999998 2.72650216285752 
Si 4.0718483999999995 1.3595650289999999 4.068394209072159 
Si 5.4263619 2.71345788 2.697451536887767 
Si 6.60394971 1.123408899 1.3607892222508287 
Si 8.1453258 2.71549413 5.430049895726394 
Si 5.4320634 -0.000866002464 5.430703182379756 
Si 5.4301086000000005 2.71482624 8.144799775525017 
Si 6.78760317 1.3572730259999999 6.787476410887813 
Si 5.42903346 -0.0014190121259999998 10.865635536252325 
Si 6.796904759999999 1.3723917749999999 12.246924206015484 
Si 4.34983725 0.892460682 15.322150784437484 
Si 5.44129983 2.66613543 13.784623453996662 
Si 7.4477391299999995 3.24197064 17.512655316667374 
Si 5.71519989 3.78020853 19.343955340072533 
Si 7.028401949999999 0.47879568 19.192186535444186 
Si 5.846252939999999 2.4032474099999996 23.004251691842054 
Si 7.33255254 0.926084871 21.526070296332932 
Si 6.6166559099999995 2.17645803 25.283775126469493 
Si 7.63188129 1.10908836 29.25531099330376 
Si 4.78331415 2.65823478 26.696146487529436 
Si 5.39733312 1.576200852 28.672751216045473 
Si 4.2472917 2.2459511699999997 32.509950716843726 
Si 6.67093419 2.30270553 32.736159816447234 
Si 4.20208695 2.92640076 30.21612374285848 
Si 7.21511793 0.378923319 31.443580597508987 
Si 4.18452633 4.1744753999999995 1.2374899623058238 
Si 6.89267367 6.842809979999999 1.2328963256274486 
Si 5.43934503 8.15299839 2.682745710485514 
Si 8.14436469 5.4181680299999995 2.6950240612179073 
Si 4.0725 4.07232081 6.787063808790953 
Si 5.42893572 5.42960361 5.429706060645677 
Si 6.78797784 6.786544319999999 6.7872357263313114 
Si 6.78980232 4.07430819 9.501469853508858 
Si 4.07375433 6.787375109999999 9.502019989638006 
Si 4.07922777 4.06226988 12.246992973031627 
Si 5.43097197 5.4273555899999995 10.861887733872514 
Si 6.80750955 6.76404783 12.222064929679666 
Si 5.73922764 6.083647109999999 16.281656960685478 
Si 6.73870059 4.2463305899999995 15.190633866063353 
Si 4.12964532 7.0765389 14.852437680670416 
Si 7.581300839999999 7.7008531499999995 16.45553436100391 
Si 6.952523129999999 5.09885145 20.911568240076065 
Si 7.50493332 7.388753039999999 20.833036307640374 
Si 4.27886172 5.24264328 17.999766475518705 
Si 5.62795065 4.94668656 22.81871828228733 
Si 8.065944629999999 7.752850829999999 23.161934459858728 
Si 6.149898539999999 6.8678802899999996 24.22655102028181 
Si 7.789649939999999 4.195228859999999 25.747161664751374 
Si 5.198318189999999 4.97467278 29.756038021351472 
Si 6.555470669999999 6.08558562 26.38862039133643 
Si 7.984396889999999 7.64009145 27.4982793473334 
Si 4.7796489 4.98949668 27.45805064288955 
Si 5.48033067 5.59944315 34.07794183543605 
Si 7.45352208 5.0928893099999994 30.272787764160586 
Si 7.22393082 4.60822923 32.59515304984532 
Si 8.14187232 10.850166269999999 2.6654714360303076 
Si 6.7887271799999995 9.50166378 4.068738044152876 
Si 4.07210904 9.50270634 6.7876827119362435 
Si 5.42991312 8.14488597 8.145315528146092 
Si 5.42878911 10.85800176 5.43121893500083 
Si 6.788368799999999 9.50283666 9.503085878388228 
Si 4.049319329999999 9.52596846 12.208896046088219 
Si 5.4228432600000005 10.862676989999999 10.8617845833483 
Si 4.84146945 10.704321899999998 15.651819859828647 
Si 5.52265209 8.2617993 13.433980438681784 
Si 6.80571765 9.42749541 14.99822375489429 
Si 6.09461028 9.09697131 20.05345902913142 
Si 6.49106001 11.276540729999999 20.829047820704062 
Si 8.11608525 8.484418439999999 18.734438892486057 
Si 4.4702040599999995 8.49528387 24.672883338560148 
Si 6.2468403299999995 11.82543228 23.11747658392206 
Si 4.26418443 10.5344172 23.425621583260355 
Si 6.766833419999999 9.679127040000001 27.580902917229622 
Si 6.78571353 10.292885369999999 29.88882712952426 
Si 8.02093536 11.546710379999999 26.846711869375277 
Si 4.56698295 8.89893378 27.05060607224027 
Si 4.57566552 9.998020079999998 30.770901645594854 
Si 4.88633211 11.3681394 34.329972949601384 
Si 7.90902306 8.424748169999999 31.722465231478292 
Si 5.42266407 13.583221019999998 2.7121057880279125 
Si 6.67655424 12.24299385 1.250125901522162 
Si 6.78753801 14.933238479999998 4.07602734786407 
Si 5.033479679999999 15.972573059999998 0.10265024417256413 
Si 4.07256516 14.93265204 6.787751478952386 
Si 5.4297990899999995 13.574750219999999 8.144971693065376 
Si 6.786951569999999 12.21764661 6.787579561412028 
Si 4.07215791 12.21984576 9.499956979153707 
Si 6.78763575 14.93169093 9.501710538065362 
Si 4.05811593 14.93457426 12.24805886178185 
Si 6.804218969999999 12.22176798 12.253800907629817 
Si 5.711420609999999 12.86597232 16.128272131177763 
Si 5.626370519999999 13.80390165 13.646917504169629 
Si 6.40974033 15.61308534 14.986327061101495 
Si 7.926942059999999 13.10281263 17.136671655903672 
Si 4.413840659999999 14.462848439999998 21.15954210028894 
Si 4.488057899999999 12.333289319999999 20.198076064080862 
Si 4.76655174 16.23122568 19.496686882926884 
Si 7.74262071 15.10509798 22.520819568354387 
Si 5.65017021 14.09746374 23.166679383972614 
Si 4.235823539999999 14.09951628 25.146481778739318 
Si 4.486526639999999 15.777728369999998 28.918008779120687 
Si 4.9169735999999995 13.99239324 27.455575030308392 
Si 7.171786529999999 13.4868168 27.929723606616705 
Si 7.3340838 12.651188669999998 30.135735100986913 
Si 5.35657554 15.310677779999999 31.05112723637896 
Si 5.55067089 13.042637369999998 31.66923956098335 
Si 8.39567052 2.12410197 0.16325427166460715 
Si 9.502478279999998 1.359519417 4.066640650160505 
Si 10.34970489 0.6339872520000001 0.16755805536993795 
Si 10.8680364 2.73484665 2.688910673482764 
Si 9.400079339999998 4.02061635 1.213249589115297 
Si 8.14457646 -1.72111995e-05 8.14507484358959 
Si 10.86000543 2.7151357499999995 8.145006076573447 
Si 9.50339052 1.3590225719999998 9.503464096977016 
Si 8.14082976 2.713914 10.859205820242924 
Si 10.86226974 -0.00425230902 10.863469375243811 
Si 8.32150215 0.21276694799999998 13.681919915386588 
Si 10.23951933 1.10029176 15.187161131748113 
Si 10.90553598 2.79772605 13.644201207031967 
Si 11.09065554 2.16741708 17.586304790956888 
Si 9.47978631 1.83936906 21.35043933710285 
Si 11.04023799 1.10695437 19.720661054505737 
Si 10.598176259999999 0.843670503 23.18981948490485 
Si 10.73828655 2.8042420499999996 24.455442033514913 
Si 8.32471128 0.531945063 25.938437120154067 
Si 12.210250949999999 1.7804969999999998 29.542894654815196 
Si 8.630588609999998 3.2273585099999997 29.4515032903607 
Si 10.18030518 1.9177728299999999 26.485478733574322 
Si 9.43638975 3.9082153499999994 27.41232057715423 
Si 11.84651154 0.6388709939999999 27.493843874792155 
Si 10.52391015 2.87889912 30.773170957127583 
Si 10.562615189999999 0.718424838 32.165084130884885 
Si 12.209338709999999 4.07779425 4.068875578185162 
Si 9.50821236 6.7816736099999995 4.067225169797723 
Si 9.502738919999999 4.0725814499999995 6.78720134282324 
Si 8.144609039999999 5.43012489 8.14504046008152 
Si 10.86222087 5.43069504 5.431081400968544 
Si 10.86117831 5.42911491 10.862781705082377 
Si 8.14368051 8.14462533 10.862300335969374 
Si 9.503292779999999 6.78937878 9.502398208226795 
Si 9.496939679999999 4.07248371 12.215153844557262 
Si 8.20941066 5.38809669 13.67019513913415 
Si 9.41786802 6.847973909999999 15.066784469989198 
Si 10.86285618 5.61649878 16.412383058373965 
Si 10.754136719999998 4.791752369999999 20.17318240423697 
Si 11.46166029 6.950079629999999 19.515838496922807 
Si 11.456203139999998 7.88704785 17.394616733457333 
Si 9.819905219999999 4.11092811 18.00354866140659 
Si 12.02159646 7.25481666 23.106680162387555 
Si 9.20798766 4.42662831 23.890452228881248 
Si 9.9300582 6.60284199 24.02623270225627 
Si 9.000420479999999 4.13596584 21.584212808482125 
Si 10.00696329 7.32683475 26.277492893248795 
Si 10.88347932 6.56120475 29.871463457948067 
Si 8.57585421 7.10918406 29.77474264974246 
Si 10.989152549999998 5.69154681 27.679205366806524 
Si 11.03701257 4.98747672 31.750590941080922 
Si 8.54413758 7.67006505 34.040566962162146 
Si 9.33553836 5.39733312 33.576080151621966 
Si 9.65630475 9.34669701 1.0610234838295969 
Si 10.886721029999999 8.14372938 2.6804867140052053 
Si 9.502217639999998 12.218493689999999 4.066743800684719 
Si 12.206357639999998 9.50987394 4.075167760162278 
Si 8.14350132 8.145733049999999 5.429706060645677 
Si 9.50311359 9.50301585 6.787717095444315 
Si 10.860363809999999 8.14469049 8.145177994113805 
Si 8.14486968 10.860282360000001 8.14507484358959 
Si 10.861438949999998 10.8598914 5.432353590767195 
Si 12.218607719999998 9.502673759999999 9.501916839113791 
Si 9.50723496 9.508668479999999 12.231520394399377 
Si 10.85824611 10.85893029 10.862506637017804 
Si 9.504058409999999 12.22007382 9.502982727864014 
Si 11.5800723 11.45902131 16.27137629177205 
Si 10.90087704 8.195547869999999 13.608751810210077 
Si 8.265057299999999 10.86145524 13.763615130564874 
Si 11.8679166 8.582158439999999 21.15686018665935 
Si 9.42611076 10.30736718 19.58577455234058 
Si 11.431002509999999 10.53710505 18.41340007762088 
Si 10.221355979999998 10.190242079999999 21.82658215687932 
Si 9.148203359999998 9.729854099999999 23.86143254806876 
Si 8.184731309999998 11.743819379999998 24.514340982841684 
Si 10.74257082 9.46043379 25.666635488847522 
Si 11.09270808 10.49885613 29.724955330054684 
Si 10.33528824 11.05719588 27.426692883528187 
Si 11.195009279999999 10.583287200000001 34.08705346507504 
Si 9.09848628 10.34014266 31.17126321358137 
Si 9.46126458 11.841201 32.988706683233644 
Si 9.49057029 14.959155869999998 1.3224859942589893 
Si 10.87165278 13.56779439 2.6918401483704706 
Si 8.142018929999999 13.57470135 5.431184551492758 
Si 9.502022160000001 14.933173319999998 6.7876139449201 
Si 10.860217200000001 13.574978279999998 8.145006076573447 
Si 10.85922351 16.287523919999998 5.430703182379756 
Si 12.217516289999999 12.230874089999999 12.242179281901592 
Si 8.14394115 13.57589052 10.860821845122294 
Si 9.49545729 14.93408556 12.235646415367977 
Si 11.884271759999999 15.668520209999999 14.686124652127752 
Si 9.56697039 12.29728842 15.337795280610093 
Si 10.858783679999998 13.6449927 13.704888098778465 
Si 9.34987356 13.878998549999999 21.069147857568524 
Si 8.242218719999999 12.29316705 19.707010801801285 
Si 10.3257423 15.21497403 19.33955425103936 
Si 8.426246849999998 15.37473006 17.841327270324456 
Si 10.872955979999999 12.468756959999999 22.30000867951813 
Si 9.27371781 15.47748738 24.236040868509594 
Si 10.131093089999998 13.22091513 24.44629602036785 
Si 11.39718447 12.972199409999998 26.492321051680584 
Si 8.42668668 15.53596848 27.896990506932475 
Si 10.767934349999999 14.86767123 27.890182572334286 
Si 8.23628916 13.50432855 34.19893740034025 
Si 9.40754016 13.382218709999998 31.14640393724555 
Si 8.860196160000001 15.32748906 32.35711602346516 
Si 11.37266802 14.27222286 30.094990643921985 
Si 12.29368833 1.496453157 1.2491356564896978 
Si 14.93470458 1.355577237 4.068600510120589 
Si 13.574538449999999 4.35894336e-05 8.14504046008152 
Si 13.576004549999999 2.71632492 5.428915239960029 
Si 12.21657147 1.3572762839999999 6.787098192299024 
Si 16.28995113 -0.000933201972 10.863503758751882 
Si 14.932603169999998 1.358595774 9.50226067419451 
Si 13.57261623 2.71296918 10.858793218146063 
Si 12.213704429999998 1.387461654 12.214328640363542 
Si 14.926250069999998 4.10061654 12.248884065975568 
Si 14.78457594 1.24418133 16.90877776440465 
Si 13.734343349999998 0.16837343999999999 13.45450739300057 
Si 15.48287937 1.1200678199999998 14.652841416314377 
Si 12.837920939999998 3.9656864699999996 21.029297371713458 
Si 13.032325799999999 1.6147674269999999 20.933436151209644 
Si 15.10141644 0.6671406599999999 20.383575090127515 
Si 13.304222189999999 3.05149167 17.29366675375891 
Si 12.7136934 3.9671362799999996 24.842772251942264 
Si 16.11045162 0.49153283099999995 22.544647339448055 
Si 12.886742069999999 0.6118849799999999 23.027804394871147 
Si 15.92033103 2.59338429 23.549402212318363 
Si 13.92353541 2.04524208 24.578294307854986 
Si 13.872971249999999 3.2503599899999998 28.76661819308113 
Si 14.85828819 0.0753692688 29.970419194178326 
Si 13.9779603 0.6292598939999999 26.440058119411646 
Si 15.3007083 1.5006624929999999 28.109274285766958 
Si 15.753049019999999 1.2290984189999998 33.809716088968955 
Si 13.840651889999998 2.7099229499999997 34.09351756459251 
Si 14.97347478 4.12164693 1.2688855435260646 
Si 13.58823834 5.43281274 2.7014125170176233 
Si 12.9334455 7.27043877 1.3765128004920029 
Si 14.94219798 6.77735676 4.080875422502175 
Si 14.933499119999999 4.07297241 6.78782024596853 
Si 13.574799089999999 5.43054843 8.14507484358959 
Si 12.21714162 6.78770091 6.7876827119362435 
Si 16.285650569999998 5.431558409999999 10.861578282299869 
Si 12.219633989999998 4.07271177 9.501916839113791 
Si 14.933173319999998 6.78913443 9.501401086492718 
Si 12.22758351 6.7836447 12.240735174562584 
Si 12.34681002 4.1524839 15.19534440666917 
Si 13.632172469999999 5.58403281 13.803465616419938 
Si 15.105554099999999 7.10577945 15.245131726356945 
Si 15.496400069999998 8.044490699999999 19.798470933271926 
Si 14.19438924 4.38749973 19.130571288979755 
Si 13.745925539999998 6.69357729 18.85254624271224 
Si 15.58982322 5.96220516 23.276809760326174 
Si 13.319127539999998 5.32339281 22.982521314740758 
Si 16.066582649999997 4.91097888 25.295190451149285 
Si 15.68000466 6.63099111 29.153982795016553 
Si 14.247690119999998 8.10696285 26.362385774677744 
Si 14.8937841 5.94229878 26.998893276100482 
Si 12.978682829999999 4.6509579 27.079144383939756 
Si 16.084892609999997 5.732662769999999 34.2407477461554 
Si 14.83250112 4.7122408799999995 30.378035682367965 
Si 13.34533815 4.80185217 32.40466841512828 
Si 13.92004935 6.8134228199999995 33.640480462240205 
Si 12.29231997 12.173631030000001 1.25739801347932 
Si 14.936007779999999 12.217304519999999 4.0737580363313395 
Si 16.1062488 10.240789949999998 0.06992298968470745 
Si 14.57604765 9.13145724 1.5036458215869988 
Si 13.581575729999999 10.8571221 2.722891894509995 
Si 14.932863809999999 9.502380539999999 6.787751478952386 
Si 13.5752715 10.85963076 8.144971693065376 
Si 13.576004549999999 8.14488597 5.428090035766309 
Si 13.577193719999999 8.143990019999999 10.860959379154579 
Si 14.94667773 9.491352209999999 12.219761234638865 
Si 12.407620589999999 9.640031039999998 14.993650748320759 
Si 13.69583379 10.93164885 13.560924350482384 
Si 15.50434959 11.85104016 14.904150476810205 
Si 13.800334139999999 8.51427801 16.671531558710136 
Si 15.0135156 9.93501036 18.48687763437004 
Si 13.15676511 10.288405619999999 19.97434257705851 
Si 12.787552259999998 8.851220369999998 24.656757473274535 
Si 15.782990039999998 9.285674669999999 21.895761775119517 
Si 14.06345022 10.3400775 23.275331269479093 
Si 13.1028615 11.8726407 21.76826772718977 
Si 15.278700509999998 11.341309769999999 25.021772794963372 
Si 16.15182822 9.215757989999998 25.656526737474454 
Si 14.26557654 8.51512509 28.713220605045827 
Si 12.31579386 8.48484198 30.028836774392094 
Si 15.756697979999998 10.31311755 29.151988551548396 
Si 12.918751919999998 8.930487509999999 32.50465565660069 
Si 14.524750439999998 10.67382702 32.80444546347757 
Si 12.21642486 14.933629439999999 4.07272653108919 
Si 14.81202459 14.7155715 1.3910570244063187 
Si 13.569749189999998 16.2906516 2.6895502067328976 
Si 16.3040094 13.54537935 2.719855830747266 
Si 16.28809407 16.28740989 5.42956852661339 
Si 13.5738054 13.57444071 5.42936222556496 
Si 12.21644115 12.217304519999999 6.787992163508888 
Si 14.93252172 14.932863809999999 6.78782024596853 
Si 12.21930819 14.933368799999998 9.502054373146079 
Si 14.93257059 12.218672879999998 9.502054373146079 
Si 13.57224156 13.574945699999999 10.858827601654136 
Si 14.940520109999998 14.90585499 12.220723972864873 
Si 13.40209251 15.546198599999999 16.485860615123123 
Si 15.38414568 14.067408689999999 16.196970380304958 
Si 14.27484555 14.77546983 19.770723442258088 
Si 15.91277247 13.741918199999999 18.456482613234684 
Si 12.35800125 14.55578289 18.362168650594096 
Si 14.47034184 15.22759878 23.401621894626334 
Si 14.64396066 13.60258983 21.7581589758167 
Si 14.748151499999999 14.83654104 25.696927359458662 
Si 15.758717939999999 14.152426199999999 29.475915581091584 
Si 13.85148474 12.74241267 26.44954796763943 
Si 14.47524513 12.32480223 28.741174397108093 
Si 13.999006979999999 12.852321299999998 32.18385752629202 
Si 13.297184909999999 13.800334139999999 34.24501130115629 
Si 12.636723149999998 12.29148918 30.218393054391203 
Si 12.536213850000001 16.21374651 30.972629687451338 
Si 15.90747822 15.21767817 33.80387089259678 
