&CONTROL
  dt          = 30.D0,
  prefix = 'x.66_y.66_z3.17_struc8-scf',
  pseudo_dir = './',
  outdir='./',
  wf_collect= .true.,
  verbosity= 'high',
/

&SYSTEM
ibrav= 6, celldm(1) =30.783621515, celldm(3) =2.1173634481158685, nat=  432, ntyp= 1,
  ecutwfc     = 12.D0, nbnd= 1728,
  degauss     = 0.05D0,
  occupations = "smearing",
  smearing    = "methfessel-paxton",
/
&ELECTRONS
  electron_maxstep=200,
  conv_thr    = 1.D-8,
  mixing_beta = 0.3D0,
  scf_must_converge=.false.,
/
ATOMIC_SPECIES
Si  28.08  Si.pbe-hgh.UPF
K_POINTS {automatic}
1 1 1 0 0 0
ATOMIC_POSITIONS (angstrom)
Si 2.73393441 -0.00218619945 2.688001652680953 
Si 1.277753391 1.234966077 1.2759535789438319 
Si 3.96438327 3.90171564 1.1944320901220917 
Si 1.358524098 4.0728258 4.067761905099677 
Si 4.0735262699999994 1.3546063529999999 4.071693976064635 
Si 0.001190021967 0.000866144187 5.430465937411632 
Si 0.00016325512199999998 2.7147122099999996 8.145491955014029 
Si 2.7146796299999996 0.000196136487 8.14500906910605 
Si 2.7169276499999997 2.7153801 5.43081085591733 
Si 1.357909965 1.357574391 6.787375338827859 
Si 2.7141909299999996 2.71842633 10.861207809627823 
Si 1.34340372 1.361886354 12.221290461296471 
Si 2.71029762 0.05941011869999999 13.587271219412559 
Si 3.36994488 2.20299444 14.826597902236312 
Si 2.1133505699999997 4.02351597 15.941374512652489 
Si 0.6212126339999999 2.73369006 17.44232188204823 
Si 1.6974179999999999 2.74887234 19.527526708245944 
Si 1.76764419 0.45805851000000003 19.38473044688694 
Si 3.95698761 2.30150007 18.810993004508767 
Si 2.88455175 2.8847961 23.427796186978636 
Si 2.49624702 0.567958995 23.433245899368668 
Si 0.32068005299999996 0.211952448 24.253531089619827 
Si 1.5762252869999998 3.8449612799999997 21.694787646949226 
Si 2.39265891 3.9146010299999996 25.50589569195897 
Si 0.7637338439999999 0.520906959 29.570035952748814 
Si 0.05671835909999999 3.73102902 25.994093344924025 
Si 0.0325741356 1.401972786 26.254782751530627 
Si 1.85235219 1.449800226 27.7223420095748 
Si 3.14452386 3.36126231 27.69885305933676 
Si 2.7376811099999996 2.21711787 34.17055898174974 
Si 3.9684231899999998 0.709408323 32.75801422536441 
Si 1.32533811 3.46656087 32.76015272009974 
Si 2.71632492 5.425205309999999 2.6775540711433585 
Si 1.42201926 6.7952268899999995 1.1405627179021665 
Si -0.00163393587 5.43085794 5.430086527055364 
Si 2.7152009099999996 5.43005973 8.145216020209471 
Si 1.3575434399999997 6.787456559999999 6.787685765482987 
Si 1.35819504 4.07350998 9.501642535717721 
Si 0.0021681501299999997 5.42680173 10.862725451052894 
Si 1.3724732249999998 6.78760317 12.234431856363567 
Si 0.13952922569999998 5.38526223 16.46820303825573 
Si 2.80487736 5.46110847 13.698610913051896 
Si 2.5266930299999997 6.42117591 16.34575696873291 
Si 2.84242581 6.60140847 19.49234502066474 
Si 0.6053364 6.6730030199999995 18.632221743005452 
Si 0.381793617 7.574801129999999 22.419357951869173 
Si 4.01649498 6.8542944299999995 23.146791080386414 
Si 2.1948494399999996 6.19414218 21.72348486662331 
Si 3.63086181 5.85390924 25.234306860572303 
Si 0.20355169499999998 4.49011044 29.976005033955452 
Si 2.46697389 4.833340740000001 29.40830366542699 
Si 2.28846807 7.34126769 26.499467939472844 
Si 3.02371722 7.053309359999999 28.73978261768298 
Si 0.237957804 5.25016926 33.968574704812944 
Si 3.2801381099999998 4.1896251 31.517825246276416 
Si 1.3575271500000001 9.501777809999998 4.0694175139270286 
Si 2.71663443 10.87644204 2.7014776186985765 
Si 0.0001256623632 8.14526064 8.144595166899213 
Si 2.71448415 8.144397269999999 5.430362461859922 
Si -0.0013497551910000001 10.860168329999999 5.429776100400236 
Si 2.7146470499999995 10.859663339999999 8.144836609853202 
Si 4.07144115 12.21600132 9.502401356430255 
Si 1.3571541089999999 9.50185926 9.502504831981966 
Si 2.7143049599999998 8.14408776 10.861380268880671 
Si 1.324855926 10.15898157 17.0323517461755 
Si 3.4942538699999997 9.21152259 16.925599468661947 
Si 0.1249268697 8.225847270000001 13.627109306820685 
Si 1.7488455299999999 9.46955619 14.88933857842279 
Si 2.85738003 10.997362709999999 13.564472106185915 
Si 3.1414450499999997 10.31505606 20.905372662958044 
Si 3.83707692 8.71923879 19.287325460877806 
Si 1.004195421 9.75406104 21.748318999033568 
Si 0.995506335 10.655289 23.89798909394625 
Si 2.54773971 9.36725499 25.246482483823446 
Si 2.8918008 10.393801919999998 29.471354768268597 
Si 2.38037625 10.64743722 27.17178309077953 
Si 0.0459975843 10.99443051 27.320167031930843 
Si 3.8045783699999998 8.162023049999998 32.404679708127304 
Si 2.5116899399999997 8.639955359999998 34.381925042041516 
Si 0.701071101 10.384190819999999 34.26472173380532 
Si 1.453744035 12.110621309999999 30.390321142999976 
Si 2.3146949699999997 8.37972261 30.49969480115684 
Si -0.0216676548 10.712564639999998 31.976670334406563 
Si 0.5569550999999999 15.62214258 0.16523769409523686 
Si 1.337871636 12.239801009999999 1.2572038089740842 
Si 1.361992239 14.93007822 4.067692921398537 
Si 0.0001311610527 13.57525521 8.14500906910605 
Si 2.71549413 13.57455474 5.431017807020749 
Si 1.357659099 12.21707646 6.787444322528998 
Si 1.3575906809999998 14.934688289999999 9.501366600913162 
Si 2.71218726 13.575792779999999 10.86341528806429 
Si 1.349404956 12.21894981 12.230948179456016 
Si 4.0016385 12.50319402 15.042447903102167 
Si 2.4635692799999998 13.888414169999999 16.45882125490074 
Si 1.147845528 15.130803599999998 14.9934004915919 
Si 2.6396967599999996 15.80604039 21.327794356886475 
Si 1.567205514 13.715609849999998 21.37739363800586 
Si 2.80534977 12.35925558 19.80763502672335 
Si 1.32150996 12.34058724 17.899890771707298 
Si 3.18655206 15.841976129999999 17.682626604968082 
Si 1.64483388 12.92300361 23.615673297032377 
Si 3.7125235799999996 13.375849319999999 24.613591517718046 
Si 0.367308549 14.277940649999998 25.070505062216288 
Si 3.9328947 15.70983165 24.93822881528108 
Si 3.47089401 12.650944319999999 26.809446200543704 
Si 1.6894033199999998 14.18112918 27.122632203717554 
Si 3.2057416799999996 15.994255049999998 27.147776762782946 
Si 0.187387128 13.06379808 28.57104848469548 
Si 2.38376457 14.02951815 34.25640919781799 
Si 2.8296707399999996 13.59024201 31.792242409409802 
Si 2.6861884199999997 15.67622538 30.617208536048174 
Si 6.78638142 4.074226739999999 4.070417777593553 
Si 8.14154652 0.0080283636 2.7042059240786482 
Si 5.43299193 2.7059319 2.6795339033660652 
Si 6.918591059999999 1.360403964 1.1715088062333978 
Si 5.42922894 0.001027293012 5.430052035204794 
Si 5.43005973 2.71529865 8.144871101703773 
Si 6.78730995 1.35765747 6.787444322528998 
Si 6.78620223 4.07320047 9.502090929775129 
Si 4.073119019999999 1.358698401 9.502159913476268 
Si 5.4271112399999994 -0.0001501934742 10.86148374443238 
Si 6.7877497799999995 1.356460155 12.25012564837283 
Si 5.40655326 2.8308761999999996 13.704509019499334 
Si 4.6447839900000005 1.354567257 16.735928782378576 
Si 5.31394461 2.02803984 20.708355212503307 
Si 7.56761724 2.4785235 20.385718442273326 
Si 6.870682169999999 0.0024412845599999997 17.247615385581668 
Si 6.927941519999999 3.86755551 17.31753036668667 
Si 6.55400457 2.1901090500000002 24.140949689359978 
Si 5.070962969999999 3.3428057399999997 22.680357785130905 
Si 6.701201009999999 3.36606786 26.265958111115246 
Si 5.80935609 1.489712355 29.864492881063263 
Si 5.428170089999999 3.1623777 28.231855626191994 
Si 5.044964129999999 2.57266341 31.7925873279155 
Si 6.858497249999999 3.8661545699999995 32.708863338302436 
Si 4.073037569999999 6.78794526 4.0674169865939795 
Si 6.67060839 6.730539299999999 1.2134646932665116 
Si 5.42171925 8.14949604 2.691064529011552 
Si 8.1264294 5.43900294 2.6966487596188036 
Si 4.07232081 4.07280951 6.787892716586406 
Si 5.43038553 5.43001086 5.4298105922508055 
Si 6.78709818 6.7875054299999995 6.787651273632417 
Si 4.07438964 6.788743469999999 9.502884242338233 
Si 4.07497608 4.076181539999999 12.222704627169833 
Si 5.43217743 5.4293429699999995 10.857758624570842 
Si 6.80703714 6.779213819999999 12.242123539040636 
Si 6.4830942 4.62556179 15.064591671167982 
Si 4.61213883 6.29496099 15.207974293986672 
Si 5.33243376 7.973775809999999 13.661877092195052 
Si 7.1730082799999995 6.529716179999999 20.538103438090733 
Si 8.032061429999999 4.62070737 19.434053793201766 
Si 5.87806731 5.651277929999999 22.347201000477135 
Si 7.51936626 5.9363692200000004 24.008500983171913 
Si 5.95840959 5.498233379999999 25.730817049524685 
Si 5.710931909999999 5.0770228500000005 29.68399702703146 
Si 5.33319939 7.2603715499999995 28.97953547099371 
Si 6.56320842 7.30112913 27.03702343060329 
Si 5.48740053 5.15023011 34.31532127859122 
Si 7.863345899999999 8.05397148 34.06273745686852 
Si 7.86917772 5.21786619 30.48148310405598 
Si 4.57250526 5.9254712099999995 32.33642033584966 
Si 4.11584769 9.63734319 1.2565346670730302 
Si 6.78898782 9.50223393 4.068382758409934 
Si 4.06896507 12.21616422 4.069762432432726 
Si 4.07227194 9.502282799999998 6.787444322528998 
Si 5.43015747 8.145 8.144871101703773 
Si 5.42965248 10.860152040000001 5.429879575951945 
Si 6.789753449999999 9.50269005 9.501125157959173 
Si 4.08121515 9.49257396 12.228982143973539 
Si 5.4336924 10.85567229 10.862139089593207 
Si 4.96017468 11.21076171 16.91031957885952 
Si 7.028222759999999 9.12083616 14.758062595154103 
Si 6.5147293799999995 9.44798823 16.979337771849707 
Si 6.895882799999999 10.12107474 21.040373766088273 
Si 6.2146675799999995 8.4901851 19.42832814600718 
Si 6.46541955 9.109188810000001 25.553149527239604 
Si 5.00792067 10.645824509999999 22.37920943780592 
Si 4.574443769999999 9.05680017 24.062791155968792 
Si 6.461917199999999 8.98738848 30.17502301174324 
Si 5.1430788 10.98791451 29.858629266466394 
Si 7.0687359899999995 11.191881599999999 26.633089368580276 
Si 6.160438169999999 9.07572915 32.62987700049758 
Si 5.47150149 11.001500369999999 34.014000472013386 
Si 4.26939723 15.0058593 1.1108100476006504 
Si 5.4372762 13.574473289999998 2.6754017796678022 
Si 6.92044812 12.243857219999999 1.1488200669285784 
Si 6.785762399999999 14.930224829999998 4.069279546524749 
Si 4.0723370999999995 14.932538009999998 6.787375338827859 
Si 5.430173759999999 13.575043439999998 8.145078052807191 
Si 6.78763575 12.217809509999999 6.7874788143795675 
Si 6.78779865 14.93305929 9.502849750487663 
Si 4.090190939999999 14.93724582 12.236915269604594 
Si 6.7807287899999995 12.2302062 12.236949761455163 
Si 5.58805644 13.72349421 13.733102763621703 
Si 7.409180699999999 14.831279369999999 15.284925612607912 
Si 8.12566377 13.91024277 21.45462089143166 
Si 4.90934988 15.94851273 20.71677122404234 
Si 7.173089729999999 12.253386869999998 19.982543200962844 
Si 5.045110739999999 12.732573509999998 18.916469083551235 
Si 5.1783303599999995 15.060463379999998 18.53867984426013 
Si 7.485645959999999 12.717879929999999 24.83330460584772 
Si 6.171890039999999 14.827646699999999 22.337232855662464 
Si 5.5566330299999995 12.7557216 23.38557816188119 
Si 6.13561221 16.16960061 24.295818098418415 
Si 7.8604137 15.049141829999998 25.41725163599456 
Si 5.532295769999999 12.42400833 27.989826310743656 
Si 4.5086973299999995 15.92746605 29.108259057320232 
Si 6.32750841 14.484791069999998 28.95480481413516 
Si 8.07578379 15.541637399999999 27.7000602741067 
Si 7.8279966 14.877037979999999 32.88911774938025 
Si 7.0433398799999996 13.66009353 31.062774261708945 
Si 5.044165919999999 12.419772929999999 31.79958917358117 
Si 5.8727241900000005 16.09259778 34.17397367495615 
Si 12.200493239999998 1.317675294 1.435581863380901 
Si 9.503374229999999 1.3563168030000001 4.0782819195234685 
Si 10.842770609999999 2.7029182499999997 2.730809488423141 
Si 9.403809749999999 3.9651326099999995 1.3803707581738098 
Si 8.14490226 -0.00020916848699999998 8.144802118002634 
Si 8.14519548 2.7133112699999997 5.429983051503655 
Si 10.858278689999999 0.00041662326599999994 5.4301210189059335 
Si 10.86008688 2.7151031699999995 8.144802118002634 
Si 9.50848929 4.06318212 12.233121166041915 
Si 9.50176152 1.356456897 9.502159913476268 
Si 8.1428823 2.71500543 10.86341528806429 
Si 8.34655617 0.0397086669 13.638215682704162 
Si 9.77043249 1.369527993 14.962357826079074 
Si 11.01943566 2.8543663799999996 13.645424479473252 
Si 8.253344789999998 1.9609250399999998 16.64524970723055 
Si 12.098680739999999 0.48604635899999993 17.508304792188277 
Si 10.24728966 1.9973169 18.004194127830395 
Si 11.80500462 4.0672872 20.991188387175725 
Si 8.57018529 0.72537741 19.102276682570785 
Si 11.83015638 1.97690553 22.19064249074078 
Si 9.89659854 0.654758631 22.42001329703 
Si 8.34556248 2.3977413899999998 22.596508096395706 
Si 10.45528038 3.33972693 25.425909090487583 
Si 11.28724326 1.083353418 25.675285170107294 
Si 8.874547649999998 3.4879659299999997 27.138981340887646 
Si 11.397477689999999 0.905119641 28.071882423249228 
Si 9.091579320000001 1.3992279209999998 28.181221589555516 
Si 8.50802265 2.66108553 34.103127413885765 
Si 10.40364108 1.5492832559999998 32.930645937466295 
Si 8.167447619999999 1.389621708 30.279498827119188 
Si 10.85291928 8.15619123 2.686208076451323 
Si 9.50580144 6.78524112 4.0677274132491075 
Si 11.200352399999998 4.98276891 0.3329588014314999 
Si 9.502250219999999 4.072304519999999 6.7874788143795675 
Si 8.144674199999999 5.42991312 8.14514703650833 
Si 10.85984253 5.4297828 5.430603904813911 
Si 10.85754564 5.43102084 10.862277056995486 
Si 8.144055179999999 8.14542354 10.862139089593207 
Si 9.50143572 6.78905298 9.50333263639564 
Si 8.32964715 5.41541502 13.767560122340942 
Si 10.356530399999999 6.22662444 15.259125708381697 
Si 10.871929709999998 8.13836997 13.720754681117713 
Si 12.13267797 4.4792124300000005 14.99481465746526 
Si 10.95064299 6.31926567 17.758715627325074 
Si 9.38132955 7.331216759999999 21.100424077930306 
Si 10.37857077 4.306733909999999 19.045882506889154 
Si 10.73131443 5.7064521599999996 22.348097788591954 
Si 9.265898609999999 4.32131346 23.568729888406867 
Si 11.74768011 6.278019389999999 24.422955059618722 
Si 10.2280023 7.71590511 25.632032389492757 
Si 11.71314531 5.31506862 29.226635088475813 
Si 8.85136698 7.257097259999999 27.551365906300262 
Si 9.37380357 5.27012451 28.61271464018381 
Si 10.24629597 5.03991423 32.72069404304788 
Si 8.88288813 6.8102788499999996 32.08038732906997 
Si 9.41193846 9.54839979 1.177710440965849 
Si 8.13861432 10.863181979999998 2.693040912049202 
Si 12.13951977 12.118049549999999 1.3206032795064475 
Si 8.14495113 8.14488597 5.429638132997956 
Si 9.50278779 9.50270634 6.7874788143795675 
Si 10.8600543 8.145 8.145078052807191 
Si 8.14501629 10.85995656 8.144629658749784 
Si 10.86111315 10.86075477 5.430638396664481 
Si 9.499236569999999 9.486123119999998 12.229154603226387 
Si 10.86492501 10.85717097 10.859172790444203 
Si 11.65323069 10.150592219999998 14.931487619819094 
Si 8.14913766 10.85208849 13.593376276963413 
Si 9.94566402 11.826523709999998 14.799832226194141 
Si 8.42484591 9.55545336 18.241222124946113 
Si 10.72416312 11.76945984 20.04780178224092 
Si 11.97425772 9.90736623 19.27080386445487 
Si 10.25527176 8.20906857 19.05271189330197 
Si 8.958375989999999 11.867297579999999 18.484907049221803 
Si 10.32983109 10.96025409 22.24141449477954 
Si 8.29967355 8.22475584 24.311580874128815 
Si 8.76942828 9.240388470000001 22.2604195044435 
Si 11.82057786 9.31129884 26.34446156301213 
Si 8.759247030000001 8.71425405 29.436104096986252 
Si 10.78655382 11.125711619999999 27.36542033987843 
Si 8.732140470000001 10.78257906 28.36026878586339 
Si 10.794943169999998 10.96147584 34.27206849797668 
Si 10.544256359999999 8.254273320000001 31.07391512944299 
Si 12.13965009 9.63222813 32.85200451816714 
Si 12.21965028 14.92805826 4.072142370122043 
Si 9.50223393 12.218493689999999 4.070797187949821 
Si 9.59932233 15.004197719999999 1.3758040371583675 
Si 10.87132698 13.571834309999998 2.7121252529694764 
Si 8.145602729999998 13.57533666 5.430258986308213 
Si 9.50283666 14.932033019999999 6.787927208436976 
Si 10.86007059 13.57502715 8.144871101703773 
Si 12.229114769999999 12.20650425 12.199595087288062 
Si 9.504335339999999 12.218004989999999 9.502573815683105 
Si 8.14457646 13.5738054 10.860690431869276 
Si 9.504058409999999 14.93032257 12.201526630919972 
Si 10.86007059 16.28910405 10.859276265995913 
Si 9.43414173 13.393442519999999 16.58143978367641 
Si 10.81522422 13.50475209 13.474172441394158 
Si 11.70148167 14.36132916 17.13148132471313 
Si 9.667772909999998 15.451667729999999 20.57507870190157 
Si 11.56229991 14.00765697 20.035764126392056 
Si 9.21451995 12.722636609999999 23.232917231259222 
Si 10.954259369999999 13.83990255 24.322100888552605 
Si 9.926881649999999 15.885388979999998 24.49524997841304 
Si 11.047845419999998 13.301762399999998 26.619085677248936 
Si 8.85413628 12.518734679999998 29.979040316805595 
Si 11.187809099999999 15.51778884 29.75208394005626 
Si 9.80519535 14.129017469999999 28.478575833317826 
Si 10.439234729999999 12.51432009 32.395435892174596 
Si 11.95073496 14.456690819999999 32.970070122667586 
Si 8.698192109999999 13.36296393 34.41265728089922 
Si 11.05380756 16.18372404 34.43224865202287 
Si 9.42453063 16.13695545 31.524620140838667 
Si 16.280796149999997 2.7156570299999996 2.686404679999571 
Si 13.60104228 -0.017133496199999997 2.708462218438963 
Si 12.97575063 3.26441826 0.3170104595650323 
Si 14.933417669999999 1.3565921039999997 4.0712455820072275 
Si 12.215789549999998 4.07228823 4.067692921398537 
Si 13.575173759999998 -5.53858371e-05 8.144836609853202 
Si 13.574473289999998 2.7146470499999995 5.4301210189059335 
Si 12.21692985 1.3574896829999998 6.787547798080707 
Si 14.93403669 1.3577584679999999 9.502159913476268 
Si 13.575369239999999 2.71448415 10.862242565144916 
Si 12.217174199999999 1.3634241299999998 12.229430538030945 
Si 16.21706967 2.67160887 13.658807317494338 
Si 16.26760125 0.49211601299999996 16.433745679536493 
Si 13.552660979999999 0.01571853051 13.61890024638507 
Si 14.617326509999998 1.616132529 15.082320482360863 
Si 14.723928269999998 3.07747422 18.45734806061653 
Si 13.515698969999999 0.618715377 21.2251811014413 
Si 14.00330754 0.8848793159999999 18.911329797816332 
Si 15.58014696 3.5211812399999998 22.3376467578693 
Si 14.93131626 1.321231401 22.998096712579972 
Si 13.00393233 2.0152359 24.30219909077383 
Si 15.12207216 0.40632146999999996 28.04587556791959 
Si 13.394696849999999 1.9776711599999999 28.691907929092086 
Si 13.96256625 1.7971127999999998 30.985615991984286 
Si 12.59985888 2.7225151199999997 32.59000442123888 
Si 16.268220269999997 2.3086676699999997 30.918770785579998 
Si 16.2930951 8.131609619999999 2.6828934096115646 
Si 14.9885919 4.2001158599999995 1.2265336554474116 
Si 13.59941328 5.44229352 2.715967645122953 
Si 12.33100872 6.8506943399999995 1.3474103457693019 
Si 14.933042999999998 6.786674639999999 4.075039685569907 
Si 14.932244789999999 4.0728583800000004 6.78720287957501 
Si 13.574815379999999 5.4297990899999995 8.144629658749784 
Si 12.2178258 6.787554299999999 6.787513306230138 
Si 13.57191576 8.145439829999999 10.860448988915286 
Si 12.21763032 4.071506309999999 9.502228897177407 
Si 14.93340138 6.78828735 9.502435848280827 
Si 14.935747139999998 4.0759209 12.23394897045559 
Si 12.21683211 6.8132925 12.221911314606727 
Si 13.9435884 4.46360661 16.668255771560613 
Si 13.649342129999999 5.58504279 13.576923664241615 
Si 15.10265448 6.80483799 15.008094019934639 
Si 14.18220432 4.142807639999999 20.51564924336979 
Si 14.740821 6.2565491699999995 19.768659235579467 
Si 13.373813069999999 6.5052974699999995 17.835597962245178 
Si 14.38767009 7.66079604 21.61007566194978 
Si 13.5681039 7.597884059999999 23.833144414875015 
Si 15.042919049999998 4.6929861 24.321411051541208 
Si 15.678717749999999 6.935337179999999 24.540365318958347 
Si 12.774113009999999 4.23753399 25.33357440651221 
Si 12.49978941 7.4750574599999995 29.992940532585223 
Si 16.25745258 7.04798253 26.840212931251973 
Si 13.28087862 4.20798393 27.731482349975796 
Si 15.541914329999999 4.96955772 27.85834337637155 
Si 12.231004409999999 4.7502454499999995 31.500268894336386 
Si 13.591089089999999 6.65207037 32.03461664336384 
Si 15.95004399 6.34976055 31.59550089375962 
Si 13.3964073 8.00959752 34.08801998333619 
Si 12.219422219999998 9.50125653 4.069934891685575 
Si 15.08072814 9.441211589999998 1.0831993212195197 
Si 13.589378639999998 10.84565394 2.685876954685853 
Si 14.932472849999998 9.50236425 6.787409830678429 
Si 13.574782799999998 10.86013575 8.144974577255482 
Si 13.57548327 8.14436469 5.430603904813911 
Si 12.21811902 9.504302759999998 9.501470076464871 
Si 14.93569827 9.507414149999999 12.23943317469619 
Si 16.28687232 10.86270957 10.860207545961298 
Si 14.347775879999999 8.30742759 16.74379292430849 
Si 12.858804719999998 10.16585595 16.98033803551623 
Si 13.53397635 10.891738349999999 13.663015323263854 
Si 13.61669697 9.78510978 20.978978272074016 
Si 15.681177539999998 10.253268089999999 20.048422635551177 
Si 16.138095749999998 8.83074384 18.212524905272037 
Si 12.63180357 11.02679874 22.773761716473945 
Si 13.332403889999998 9.774504989999999 24.622352447762783 
Si 15.335976149999999 10.908533339999998 25.177671241936682 
Si 15.596274059999999 8.9233362 28.174047284637 
Si 13.241766329999999 8.99286192 28.279868282185166 
Si 12.73990401 11.28203046 28.691942420942656 
Si 13.923665729999998 11.33945271 32.48318316002419 
Si 16.26336585 8.67105297 30.496625026456122 
Si 14.933629439999999 12.21686469 4.070590236846401 
Si 14.85201654 14.834374469999998 1.1425218550145313 
Si 16.26949089 13.577682419999999 2.692827062575669 
Si 13.57535295 13.57514118 5.431397217377016 
Si 12.21722307 12.217939829999999 6.788030683988685 
Si 14.93248914 14.932049309999998 6.787375338827859 
Si 16.28768682 16.28995113 10.85634445869748 
Si 12.21837966 14.93234253 9.501849486821138 
Si 14.93219592 12.21846111 9.502504831981966 
Si 13.573626209999999 13.57499457 10.85996610300731 
Si 14.938109189999999 14.9343462 12.227774929203594 
Si 12.46367448 14.552410859999998 14.822182945363375 
Si 14.25707316 12.773021579999998 14.89661635889302 
Si 13.703995079999999 12.42951435 17.218021377792773 
Si 16.2181611 13.54207248 13.691436608133376 
Si 13.471911449999999 14.565361409999998 21.37904924683321 
Si 15.643677959999998 14.15400633 20.41034562358017 
Si 15.477927209999999 12.33807858 18.971656044462925 
Si 15.95297619 15.88659444 18.78443427957001 
Si 13.051336229999999 13.329325079999998 23.348016536610672 
Si 14.59365714 13.12333803 25.137177809367728 
Si 13.32665352 13.07456577 27.150708570081378 
Si 14.550097679999999 14.46683949 28.55659639930673 
Si 13.555251089999999 13.22948367 34.33115303800277 
Si 12.608394839999999 12.30857739 30.817295761203624 
Si 13.19752269 14.55936669 30.51152550590228 
