&CONTROL
  dt          = 30.D0,
  prefix = 'x.66_y2.00_z3.17_struc42-scf',
  pseudo_dir = './',
  outdir='./',
  wf_collect= .true.,
  verbosity= 'high',
/

&SYSTEM
ibrav= 6, celldm(1) =30.783621515, celldm(3) =2.118804555752091, nat=  432, ntyp= 1,
  ecutwfc     = 12.D0, nbnd= 1728,
  degauss     = 0.05D0,
  occupations = "smearing",
  smearing    = "methfessel-paxton",
/
&ELECTRONS
  electron_maxstep=200,
  conv_thr    = 1.D-8,  mixing_beta = 0.3D0,  scf_must_converge=.false.,
/
&IONS
/
ATOMIC_SPECIES
Si  28.08  Si.pbe-hgh.UPF
K_POINTS {automatic}
1 1 1 0 0 0
ATOMIC_POSITIONS (angstrom)
Si -0.0021234014999999998 2.69619048 2.713715750523653 
Si 1.3209740189999999 1.314624177 1.3286502249140875 
Si 3.9224691 3.9991135499999997 1.2568169279991726 
Si -0.0005544643589999999 0.00028088032499999996 5.430158211818148 
Si 9.244672739999999e-05 2.71485882 8.144823133812665 
Si 2.71484253 0.0005785719299999999 8.144857649138878 
Si 2.71445157 2.71394658 5.429502420620098 
Si 1.357603713 1.35729909 6.787853083740646 
Si 2.7143049599999998 2.71388142 10.859867724395526 
Si 1.3633019549999998 1.3484161529999998 12.2256046673257 
Si 4.06396404 4.088806289999999 12.236787633018777 
Si 0.19802775599999997 2.8345088699999996 13.625097599292383 
Si 2.3001317099999996 3.47569956 14.62618012078008 
Si 3.74942043 1.4225698619999998 15.077122857755558 
Si 3.97816461 0.8982599219999999 17.501686462928117 
Si 0.5992553429999999 0.0716095368 21.39694811804519 
Si 1.4644661129999998 3.2447562299999997 20.026862244012158 
Si 1.79281224 1.608080382 18.29433092941429 
Si 3.1350105 3.08122092 21.70085556535243 
Si 2.72233593 0.791780337 22.315953193797895 
Si 2.98178676 0.5432877899999999 24.70292960872428 
Si 3.91753323 4.01936202 25.329935024713297 
Si 2.04230988 3.92997879 29.934935332752435 
Si 1.23202899 0.389130633 29.028804473677255 
Si 2.20981995 2.4777252899999995 25.974094557830277 
Si 2.4945039899999997 2.21179104 28.34816224075292 
Si 1.9919574899999999 3.2610136499999998 34.34816848835102 
Si 3.16967562 3.66303456 32.24559836142142 
Si 0.497648097 1.3760032679999998 33.08380305850903 
Si 4.0710339 6.787456559999999 4.070772088911205 
Si 1.358678853 4.0754322 4.070150813039367 
Si 0.392598774 5.04791262 0.04054964069505559 
Si 2.72477943 5.43219372 2.7067125908349943 
Si 1.343395575 6.783432929999999 1.3444133743956566 
Si -0.000759257352 5.43048327 5.430330788449215 
Si 2.7150380100000002 5.4295547399999995 8.145168287074798 
Si 1.357659099 6.78714705 6.78757696113094 
Si 1.3576314059999999 4.07093616 9.501344484643912 
Si 1.3601710169999999 6.786951569999999 12.2496618496963 
Si 4.03804665 7.014604319999999 15.61887541799797 
Si 2.84107374 5.60046942 13.834812721363795 
Si 0.007887617999999999 8.11595493 13.74883504376671 
Si 1.0586805839999998 5.598416879999999 19.80534288037583 
Si 3.14501256 6.71504751 19.919450548836675 
Si 3.9739129199999996 6.755039459999999 22.199325906523487 
Si 2.96293923 4.86124551 23.33208439751455 
Si 0.665816283 5.132539169999999 23.63792470308973 
Si 0.367256421 6.56837235 21.904047290769547 
Si 1.1460813209999998 7.972733249999999 26.696017120905598 
Si 3.18785526 5.82895296 29.160135289918486 
Si 1.3283370989999999 7.27195374 28.88449589477986 
Si 1.514968371 7.4490912 32.60956247633963 
Si 3.2994743399999997 5.955623999999999 32.792700797226885 
Si 2.09868957 8.661865409999999 0.07477055117565853 
Si 1.3591805849999998 9.502217639999998 4.069667598472383 
Si 2.7250726499999995 10.85717097 2.6926165316095227 
Si 1.438257132 12.158562779999999 1.1371868073442157 
Si -0.000233088723 8.145228059999999 8.144788618486452 
Si 2.71435383 8.144397269999999 5.431469794214251 
Si -0.001235083365 10.85870223 5.429882089208443 
Si 2.7152009099999996 10.859972849999998 8.14454701120296 
Si 1.3576183739999999 9.50308101 9.50251800573516 
Si 2.71559187 8.14324068 10.86421665549839 
Si -0.00453062367 10.86653772 10.862732496471223 
Si 2.62804941 10.762069949999999 13.567215397232843 
Si 1.189209096 9.69126309 15.280176521867824 
Si 2.78743077 8.96252994 16.967596305105033 
Si 0.46912267799999996 9.64960956 20.86844944306865 
Si 0.48388304699999996 11.957495309999999 20.553289999415906 
Si 3.9865050899999996 10.26845037 20.495787465944712 
Si 2.33010531 8.897321069999998 19.54288833985064 
Si 2.62899423 11.58939018 17.87051723884239 
Si 0.822267072 8.752616999999999 22.99248810290286 
Si 2.73857706 9.51378354 24.07181686891589 
Si 2.5713602099999995 11.64909303 24.977706120707577 
Si 3.3807940199999997 8.67471822 26.202033772142258 
Si 1.452251871 11.39487129 27.031368030393068 
Si 3.3093134999999996 10.342064879999999 27.920620894949995 
Si 0.436005108 10.45697454 34.219391806249575 
Si 1.508006025 8.79844077 30.705800628398077 
Si 0.0436257603 10.59095979 31.473801151968026 
Si 3.34018305 12.1658607 31.529405342497494 
Si 3.4879496399999996 9.94592466 30.225036649574395 
Si 2.72741841 16.274768849999997 2.68680415067522 
Si 4.02742557 14.65638993 1.1304425126021562 
Si 0.00666464625 13.563493829999999 2.6824552195723563 
Si 1.35721764 14.93542134 4.0690463226005456 
Si -0.00030026053799999997 13.57525521 8.145168287074798 
Si 2.71536381 13.574978279999998 5.430089181165722 
Si 1.357745436 12.21777693 6.787266323195021 
Si -0.0009915218009999998 16.2906516 10.85893581058777 
Si 4.063328729999999 14.931479159999999 12.238547914655648 
Si 1.3568934689999999 14.933042999999998 9.50272509769244 
Si 2.71401174 13.576167449999998 10.862111220599383 
Si 1.3481571419999998 12.228007049999999 12.238824037265355 
Si 2.54311335 16.15826277 13.713836502986524 
Si 3.53315439 12.51616086 14.788126031372423 
Si 0.749077731 15.35140278 15.159234818816765 
Si 0.911901168 14.26943727 17.451639239918972 
Si 2.80751634 12.29828211 20.404252820827303 
Si 0.42068925 16.006847219999997 19.02412298686622 
Si 3.2775805799999995 13.71450213 17.299426651318758 
Si 2.0017966499999997 13.492159919999999 23.725766208302325 
Si 3.7613935799999996 13.620215609999999 22.12919076365826 
Si 1.551415617 15.15049821 25.377221021625385 
Si 2.1034462499999997 14.88632328 27.719845242367796 
Si 0.783399132 13.146551279999999 28.394792446466955 
Si 0.472362759 15.77952027 34.501312990759004 
Si 1.518228 16.2970047 31.41571185795121 
Si 3.27593529 12.844599839999999 34.168930399325866 
Si 3.8353175999999998 16.136222399999998 32.0944212326076 
Si 0.28014401699999997 14.413180229999998 32.170562042233925 
Si 1.119987999 12.64224546 30.701658789252495 
Si 6.78586014 4.07631186 4.069736629124809 
Si 8.12779776 -0.0201429108 2.6839255724690383 
Si 4.075318169999999 1.356083856 4.068286985423855 
Si 5.41971558 2.7161783099999997 2.6867075077618225 
Si 6.64105833 1.2467730689999998 1.226174221387092 
Si 5.430678749999999 -0.00049018239 5.4311246409521186 
Si 5.430434399999999 2.7146633399999995 8.14444346522432 
Si 6.78763575 1.357188318 6.787680507109579 
Si 4.0738357800000005 1.3580728649999998 9.50120642333906 
Si 6.7849479 1.334543589 12.238720491286715 
Si 7.01810667 3.4142048099999998 15.019827416241643 
Si 5.285990969999999 2.5886601899999997 13.580676374455992 
Si 6.1355144699999995 2.2590320399999997 17.342329201801764 
Si 5.42269665 3.00814398 21.09390355389328 
Si 5.84626923 4.0353099299999995 18.94843087648067 
Si 6.24319137 0.8241371639999999 21.657538830954863 
Si 6.70357935 4.04278704 22.72240567528456 
Si 6.71024196 0.8740138859999999 24.013796605551494 
Si 6.04837926 2.9923589699999997 24.718530536172644 
Si 7.560221579999999 3.0835829699999997 26.51253364675622 
Si 5.98072689 3.7011857399999997 28.099168677450884 
Si 4.78468251 1.72931382 28.623870666543972 
Si 7.48709577 1.033040124 31.555913113029234 
Si 5.5730533499999995 3.20328189 32.40281567232256 
Si 5.27067837 1.2979806839999999 30.895186223329915 
Si 4.73392287 0.22479874199999997 34.46151681963518 
Si 6.656419799999999 6.778220129999999 1.1605640377884172 
Si 5.42877282 8.135519219999999 2.6956228165226928 
Si 8.13346668 5.4257102999999995 2.6824414134418713 
Si 4.072027589999999 4.07269548 6.787715022435792 
Si 5.4293429699999995 5.42950587 5.430261757796789 
Si 6.78763575 6.7872936600000005 6.7872318078688085 
Si 6.786918989999999 4.07223936 9.502034791168176 
Si 4.07197872 6.78616965 9.502897674323506 
Si 5.43230775 5.429391839999999 10.860972214834348 
Si 6.77246976 6.79252275 12.25559848580497 
Si 8.03639457 5.33212425 13.72015280768354 
Si 7.4097019799999995 7.33367655 20.907279185058503 
Si 6.40332207 7.751124089999999 18.75093417988873 
Si 8.07102711 4.697368109999999 18.444127445179586 
Si 4.74794856 6.21769752 18.03180735823668 
Si 6.2139019499999995 6.3211390199999995 22.69096221310433 
Si 6.90287121 6.7812174899999995 24.955581796604914 
Si 7.60453038 4.46305275 29.59347521052523 
Si 5.3680762799999995 7.41871035 26.67434149604371 
Si 4.504755149999999 5.32409328 27.26051528112251 
Si 5.10776208 5.49614826 34.38420248891761 
Si 4.5984715199999995 6.42221847 30.997903834140402 
Si 6.57734814 5.26044825 31.62608277122067 
Si 4.13236575 9.5131971 1.2289906720060895 
Si 6.78682125 9.50557338 4.0702198436917945 
Si 4.07012166 12.21666921 4.070634027606353 
Si 6.899955299999999 12.174771329999999 1.2262190913111692 
Si 4.072548869999999 9.50255973 6.7875079304785135 
Si 5.43005973 8.145 8.14520280240101 
Si 5.42900088 10.85920722 5.4311246409521186 
Si 6.786365129999999 9.5008167 9.502276398451668 
Si 4.087046969999999 9.48622086 12.234923805403264 
Si 5.43292677 10.85963076 10.862939588428501 
Si 6.7870656 12.215724389999998 12.248798966540969 
Si 8.1611271 10.854287639999999 13.733682815559115 
Si 6.937503749999999 9.47401965 15.194474966880444 
Si 5.38154811 8.18189685 13.876231112819637 
Si 8.009418329999999 10.791799199999998 19.8803101689109 
Si 5.908480739999999 10.00919502 19.13146565138928 
Si 6.13101843 11.39441517 17.337358994827063 
Si 5.92478703 10.52742879 23.646519019316816 
Si 4.38329691 9.141785099999998 22.535056484599302 
Si 4.87522233 11.772554940000001 25.42215997635497 
Si 4.934697119999999 12.00209733 27.735584231121017 
Si 6.77458746 10.819231559999999 28.58048490149398 
Si 6.39542142 8.47244529 28.619659796745964 
Si 7.79409711 8.31275442 34.25487356159674 
Si 5.22736326 11.13178779 34.35579637544414 
Si 7.59343689 11.35365759 30.74463037038793 
Si 6.51512034 9.903261149999999 32.62996103413164 
Si 5.31717003 8.58021993 30.718260661161047 
Si 5.45154624 13.56976548 2.689199514314416 
Si 6.787407689999999 14.93470458 4.07394749892282 
Si 4.07238597 14.932603169999998 6.787611476457153 
Si 5.430206339999999 13.574603609999999 8.144857649138878 
Si 6.787652039999999 12.21720678 6.787611476457153 
Si 4.0711968 12.21740226 9.502621551713801 
Si 6.784687259999999 14.931951569999999 9.50251800573516 
Si 5.42989683 16.2930951 10.859004841240196 
Si 7.39437309 13.271805089999999 16.912406298490126 
Si 5.34248469 13.53936834 13.668172726406457 
Si 6.793597889999999 14.783109839999998 15.178494370843731 
Si 8.12685294 16.17404778 13.800400941129233 
Si 4.345960229999999 15.725828429999998 21.234311900928585 
Si 7.474096349999999 12.88713303 20.786130390050165 
Si 4.49872785 15.0783498 18.918229966044123 
Si 6.756326369999999 14.26507155 18.921888590622718 
Si 5.85993654 12.64555233 22.520283924980053 
Si 5.93627148 13.67902251 24.628963264649386 
Si 5.1863939100000005 15.88415094 25.211789063085508 
Si 7.92876654 12.899888099999998 25.63929589356222 
Si 5.56516899 16.05806298 27.5551381056784 
Si 7.820600939999999 15.91140411 28.219661681261172 
Si 4.3192283399999996 14.251860359999998 28.443390025775145 
Si 6.8826227399999995 13.527183419999998 31.338604619190917 
Si 4.59143424 14.045742989999999 30.845139000320774 
Si 9.504302759999998 1.357338186 4.068390531402494 
Si 10.32139287 0.596038068 0.18354456627677687 
Si 10.870984889999999 2.7188335799999996 2.7254509614361417 
Si 12.21401394 4.074405929999999 4.072083671307307 
Si 9.4332132 3.90969774 1.3123969578002908 
Si 8.1448371 0.00024710301 8.145064741096157 
Si 8.144266949999999 2.7147936599999998 5.429640481924951 
Si 10.859109479999999 -0.000468818055 5.430158211818148 
Si 10.85963076 2.71529865 8.145340863705863 
Si 9.50075154 1.357242075 9.502207367799242 
Si 8.14855122 2.7147447899999997 10.863526348974125 
Si 10.858083209999998 0.00272060919 10.86356086430034 
Si 12.21644115 4.07341224 9.502345429104095 
Si 8.922798629999999 1.7899777799999999 14.941822778999809 
Si 10.83345273 2.79143811 13.764781124477208 
Si 12.19488948 3.5751337199999997 17.37632679812177 
Si 8.43698196 0.5500008989999999 20.835763429144745 
Si 12.151085669999999 2.03696676 21.345623827966158 
Si 9.90414081 2.38633839 20.574447894384598 
Si 9.842287679999998 3.11438736 18.315868492971326 
Si 8.43942546 1.4878161989999998 17.302256908068237 
Si 11.970071189999999 3.6726456599999997 24.778897841719534 
Si 8.965494719999999 3.9868960499999995 22.06630383929781 
Si 11.693141189999999 0.0523855449 22.453151615495372 
Si 8.938062359999998 0.00958524777 24.66620530163343 
Si 11.361998069999999 1.567966257 28.065136565804664 
Si 8.67058056 2.48806944 30.14692846635392 
Si 12.19889682 3.25611036 29.519474351124128 
Si 8.95959774 1.67557311 27.93256319781976 
Si 8.47420461 2.0985103799999996 34.442050175650934 
Si 10.64178459 2.9570096699999997 31.35814029382759 
Si 11.01912615 0.777404412 32.502944633667056 
Si 9.504237599999998 6.786414 4.067320556289885 
Si 10.551114449999998 5.616906029999999 0.03624937620215281 
Si 9.50275521 4.07256516 6.787542445804727 
Si 8.1453258 5.43001086 8.144926679791304 
Si 10.86109686 5.429245229999999 5.430744972363773 
Si 10.85757822 5.4299457 10.860316423636297 
Si 12.21991092 6.7932558 12.239928527704178 
Si 9.502738919999999 6.78703302 9.501413515296338 
Si 9.496255499999998 4.07481318 12.238306307372158 
Si 8.319188969999999 8.03628054 16.701172502065333 
Si 10.82077911 8.081029169999999 13.719669593116555 
Si 11.697246269999999 4.57749 15.138560138415057 
Si 9.699180029999999 6.39693639 15.151434355092581 
Si 11.808360359999998 7.31526885 18.21208090704823 
Si 8.91302463 5.63728482 20.407635322796192 
Si 11.08700658 6.44355837 20.218801973083767 
Si 9.99873684 4.79240397 24.05787267712575 
Si 10.584769589999999 7.10077842 23.757865461680606 
Si 8.426931029999999 5.11869267 25.839795423534706 
Si 11.99859498 7.36166277 28.966228187252717 
Si 9.13411251 5.58211059 28.07507697975407 
Si 11.533776119999999 5.17772763 28.268431837200424 
Si 8.6350032 7.78328055 28.72645021604961 
Si 10.25616771 7.734459419999999 30.492806550336415 
Si 10.32282639 5.68576386 31.85202009661229 
Si 8.31112542 6.3324931499999995 33.02616246373298 
Si 12.21613164 9.502543439999998 4.069495021841317 
Si 9.39121758 9.41215023 1.3297581668855314 
Si 10.86621192 8.14488597 2.7032852189420233 
Si 8.1427194 10.84874904 2.7143508325259758 
Si 12.0783834 12.090047039999998 1.263119426565703 
Si 8.14428324 8.14576563 5.430158211818148 
Si 9.50290182 9.502738919999999 6.78757696113094 
Si 10.86000543 8.14488597 8.144961195117517 
Si 8.145114029999998 10.860217200000001 8.14499571044373 
Si 10.86124347 10.86121089 5.429744027903591 
Si 8.14759011 8.14529322 10.86497599267508 
Si 9.494561339999999 9.49669533 12.243345544999283 
Si 10.861227179999998 10.86213942 10.861179306791627 
Si 11.819372399999999 9.64151343 15.261434699734055 
Si 10.12856814 11.686022459999998 14.83240919490396 
Si 10.41592374 9.0049491 17.34239823245419 
Si 8.727823619999999 9.207450089999998 21.450308812370803 
Si 11.950344 11.474008109999998 19.685643729068445 
Si 9.94318794 11.0618874 18.512157153145804 
Si 8.75263329 8.179893179999999 24.80119474245326 
Si 10.890760949999999 8.26139205 21.66720312229456 
Si 8.19790992 10.02550131 23.54414656176846 
Si 9.29380338 12.03251076 23.998299224081766 
Si 11.44473498 11.85643215 24.931559129560522 
Si 10.495500389999998 11.95896141 28.317581661728024 
Si 12.13486083 10.871946 27.02512075634848 
Si 9.33777009 9.005682149999998 26.87259752981234 
Si 11.62640106 8.634791429999998 27.035751476822146 
Si 8.56904499 11.21643063 27.179438779847704 
Si 10.38116088 11.031734609999999 34.40698260421832 
Si 10.719341279999998 9.78054858 31.928644120805597 
Si 9.95907069 11.49070536 30.582649944469374 
Si 9.501223949999998 12.221148959999999 4.071773033371389 
Si 9.47946051 14.83590573 1.191199841335255 
Si 10.8616833 13.57401717 2.6943284917896975 
Si 8.1423936 13.573756529999999 5.430883033668626 
Si 9.50242941 14.93229366 6.787197292542595 
Si 10.86000543 13.57442442 8.145064741096157 
Si 9.503227619999999 12.215659229999998 9.502483490408949 
Si 8.142996329999999 13.57470135 10.866701758985739 
Si 9.49768902 14.940845909999998 12.237650516174106 
Si 9.80480439 12.835347119999998 16.910542470874613 
Si 10.88988129 13.53396006 13.574360069758976 
Si 11.815707149999998 14.316743429999999 17.041321041896435 
Si 11.72497185 12.88499904 21.55375124503177 
Si 8.43916482 15.88436271 18.737162564729665 
Si 11.398536539999998 16.267161419999997 24.748662415956765 
Si 9.45559566 13.305672 22.026783790783693 
Si 9.471853079999999 15.55843239 22.467751598483556 
Si 12.069863729999998 14.08736394 25.519769318885906 
Si 10.891608029999999 14.15846979 27.544852538466866 
Si 11.748185099999999 15.717211019999999 29.051550073651754 
Si 8.87484087 14.792949 26.510393696531 
Si 8.82538443 12.928053509999998 34.23675301533481 
Si 8.23723398 15.26579883 30.488457619233547 
Si 10.53547605 15.32929725 31.0397364095108 
Si 10.6917786 13.17092112 32.12431150510824 
Si 12.2634378 1.4542832339999998 1.3455558316933136 
Si 14.93234253 1.358273232 4.074603290120871 
Si 15.017751 4.05119268 1.3012899258248827 
Si 13.575434399999999 -6.693789059999998e-05 8.144857649138878 
Si 13.574978279999998 2.71484253 5.430434334427854 
Si 12.21728823 1.35749457 6.787093746563955 
Si 14.933108159999998 1.3555544309999998 9.50099933138178 
Si 13.57660728 2.7125945099999997 10.865562753220704 
Si 12.213313470000001 1.3554452879999999 12.256495884286513 
Si 14.9315769 4.07759877 12.24762544544972 
Si 13.46627511 1.460620044 16.679911061118 
Si 15.26032539 1.03825944 14.94323790737455 
Si 16.01846199 2.22013152 21.305275411622926 
Si 14.08853682 2.0433524399999996 19.948132784919842 
Si 14.385438359999998 0.18361436399999997 18.541495180427027 
Si 13.134627 3.68028567 22.766171108922897 
Si 15.471737009999998 3.30664194 23.352137802044417 
Si 16.067217959999997 2.9202757200000002 25.686340283190816 
Si 14.50647306 2.70081684 30.072202785102338 
Si 12.43878336 1.6446221099999998 25.975820324140937 
Si 14.760108359999998 1.093158369 26.365015142520996 
Si 15.189529049999999 0.765590904 28.716682378731274 
Si 13.499881379999998 3.08117205 34.28697281497502 
Si 14.560914239999999 1.8818370899999999 32.424732904467945 
Si 16.27105473 8.14242618 2.6933655141883492 
Si 13.58141283 5.43796038 2.6806742287397554 
Si 12.29318334 6.96700494 1.1868509102323914 
Si 14.929801289999999 6.788499119999999 4.072601401200505 
Si 13.574587320000001 8.14338729 5.430779487689986 
Si 14.932309949999999 4.07287467 6.787542445804727 
Si 13.57519005 5.43001086 8.145168287074798 
Si 12.217516289999999 6.787521719999999 6.787300838521234 
Si 13.575287789999999 8.14539096 10.86228379723045 
Si 16.28828955 5.42992941 10.863871502236258 
Si 14.933368799999998 6.78926475 9.501931245189537 
Si 13.49393553 5.42623158 13.74572866440752 
Si 14.812285229999999 6.85571166 15.181566234876707 
Si 15.475711769999998 5.85915462 17.935923782016403 
Si 12.99441897 5.32010223 21.043925361536566 
Si 13.951586789999999 4.249311659999999 19.080659091203447 
Si 14.05704825 7.783410869999999 18.56386111181318 
Si 14.38118667 6.97835907 21.96983350253191 
Si 14.3386209 7.704453239999999 24.218507005321992 
Si 12.340131119999999 7.280424539999999 25.297904801987446 
Si 16.12436328 6.53084019 25.32199649968426 
Si 14.142473009999998 7.652276369999999 29.776233862824135 
Si 12.800828609999998 5.20651206 26.291808135622794 
Si 15.139095209999999 4.9595556599999995 26.749205238600144 
Si 15.625612349999999 6.05696409 28.848082225624932 
Si 16.07446701 4.47595443 30.470992864169666 
Si 13.87854243 6.824907269999999 32.27659312436088 
Si 16.00938846 5.83383996 32.477817476183844 
Si 12.369567149999998 5.12323758 33.13529992521912 
Si 14.99670432 9.55077813 1.0680629635370371 
Si 13.57949061 10.85414103 2.6783271865572575 
Si 14.93490006 12.21663663 4.068217954771429 
Si 14.93221221 9.502478279999998 6.787197292542595 
Si 13.574815379999999 10.860152040000001 8.144857649138878 
Si 12.21720678 9.50255973 9.50217285247303 
Si 14.93724582 9.49040739 12.240825926185721 
Si 12.222126359999999 12.20474493 12.21300657325788 
Si 15.63548409 10.81361151 16.515997776931506 
Si 13.96663875 8.86193919 16.42204705897917 
Si 13.47759666 10.762770419999999 13.642286231746557 
Si 12.61509003 9.846816299999999 21.298890076273484 
Si 14.575803299999999 8.82181692 20.597607678273658 
Si 12.72682314 11.411812889999998 23.055305996610887 
Si 14.788599569999999 11.94853581 23.977244875091714 
Si 15.444956249999999 9.74409156 24.399229253374315 
Si 16.020661139999998 9.89583291 26.658637022616706 
Si 14.383060019999999 9.99303534 30.077034930772186 
Si 14.2861671 11.03699628 27.938085650013875 
Si 13.04294688 10.22932179 32.116994255951035 
Si 13.575809069999998 8.52734259 33.92290515407817 
Si 13.24606689 13.73509269 0.05825565788916586 
Si 12.216278249999998 14.93004564 4.070357904996647 
Si 14.959644569999998 14.85726192 1.1816943204961392 
Si 13.59035604 16.280258579999998 2.6956021073269647 
Si 13.574815379999999 13.57541811 5.4301927271443615 
Si 12.21727194 12.217516289999999 6.787853083740646 
Si 14.93252172 14.932798649999999 6.787645991783366 
Si 12.2183145 14.93063208 9.502414459756523 
Si 14.93123481 12.21712533 9.501137392686633 
Si 13.577421779999998 13.57243704 10.860143847005231 
Si 14.93476974 14.927944229999998 12.21528458478795 
Si 12.785467139999998 14.26842729 14.873551463750095 
Si 14.5826451 12.414804479999999 14.905961355064292 
Si 13.58463825 16.186900589999997 13.657783613216283 
Si 16.22943378 13.640757299999999 13.716010968537955 
Si 15.776604359999999 12.344594579999999 18.40015491958397 
Si 13.111006499999998 14.785260119999998 21.574287864128618 
Si 12.83337603 14.882560289999999 19.232526526541534 
Si 13.42364418 12.818633579999998 18.355526602790295 
Si 16.28213193 13.04822484 22.571470153754227 
Si 15.282121409999998 15.14680038 22.588244602293845 
Si 15.5240442 15.57723105 24.965729302511594 
Si 14.397444089999999 13.66087545 25.665147872895908 
Si 14.0064678 15.093124829999999 29.401708058084683 
Si 14.80036095 13.33396773 27.967044008706747 
Si 14.25047571 14.513363729999998 31.693180565379137 
Si 13.01002479 12.654267479999998 32.519684566880464 
Si 13.18890528 16.239028589999997 32.94615593757078 
