&CONTROL
  dt          = 30.D0,
  prefix = 'x.66_y2.00_z3.16_struc25-scf',
  pseudo_dir = './',
  outdir='./',
  wf_collect= .true.,
  verbosity= 'high',
/

&SYSTEM
ibrav= 6, celldm(1) =30.783621515, celldm(3) =2.110832797198731, nat=  432, ntyp= 1,
  ecutwfc     = 12.D0, nbnd= 1728,
  degauss     = 0.05D0,
  occupations = "smearing",
  smearing    = "methfessel-paxton",
/
&ELECTRONS
  electron_maxstep=200,
  conv_thr    = 1.D-8,
  mixing_beta = 0.3D0,
  scf_must_converge=.false.,
/
&IONS
/
ATOMIC_SPECIES
Si  28.08  Si.pbe-hgh.UPF
K_POINTS {automatic}
1 1 1 0 0 0
ATOMIC_POSITIONS (angstrom)
Si 0.0201748392 2.7135719099999998 2.703529776820118 
Si 2.7449790299999997 -0.01083227985 2.690514877838298 
Si 1.99757754 1.9065816 1.5281416990767636 
Si 3.7994958899999998 3.8404000799999998 1.3868277483618736 
Si -0.001339125966 0.001618895313 5.429637050790732 
Si 0.00018747998099999998 2.71484253 8.144816623581896 
Si 2.7151683299999996 -8.939886840000001e-05 8.145091707312027 
Si 2.71334385 2.7151846199999996 5.428811799600339 
Si 1.358014221 1.3577030819999998 6.787759811913443 
Si 2.7146959199999996 2.71484253 10.863503513932228 
Si 1.326082563 1.365685182 12.218944208686162 
Si 2.61508257 0.0168075333 13.586591743964654 
Si 1.75034421 3.75381873 14.768076364877036 
Si 3.4000813799999996 1.86579144 14.969059415203954 
Si 2.5995093299999996 1.494772029 17.197615869393484 
Si 2.6632032299999997 3.40188957 21.369707647890632 
Si 0.18010875599999998 0.30344197500000003 20.704658344832822 
Si 0.312917868 2.6229832199999996 20.03603295328331 
Si 0.538290018 2.5884647100000002 17.727908530153403 
Si 3.2588144999999997 1.6758500399999998 24.70114354710763 
Si 0.48394657799999996 0.40139537399999997 23.022101229320914 
Si 1.5886170899999998 2.5095396599999997 23.32077338931058 
Si 2.82668967 2.50139466 28.02429254895443 
Si 3.10089924 0.515891268 26.777338000270888 
Si 1.2184805969999999 3.8920068 26.854051975511155 
Si 0.7971576659999999 3.52538406 32.926043921623894 
Si 3.06585945 0.9928934189999999 31.724271875614356 
Si 1.7656730999999999 2.14878132 30.10787987736496 
Si 1.52471142 1.375227864 33.598279787131375 
Si 1.348989561 4.08126402 4.079113477712889 
Si 0.271963179 5.3310654 0.05577391399337313 
Si 2.71324611 5.4293429699999995 2.7239444281424596 
Si 1.527540993 6.88412142 1.3130778003137689 
Si 0.005472446309999999 8.156859119999998 2.695380421314989 
Si 2.7152497799999997 5.429733929999999 8.145263634643358 
Si 1.3575076019999999 6.78753801 6.789169616030364 
Si 1.355766201 4.073461109999999 9.501804664317817 
Si -0.00029295773099999995 5.4298316699999996 10.855698013089762 
Si 1.321596297 6.785729819999999 12.202095330215641 
Si 3.50111196 7.29329364 14.63118782367063 
Si 0.930716118 4.7272602599999995 16.831032413527744 
Si 2.68916949 5.44455783 13.46926853306381 
Si 1.453618602 7.345796309999999 20.56140849236714 
Si 2.8960524899999998 5.53744341 20.153837560711885 
Si 3.0574049399999996 4.86640944 17.95168914461492 
Si 2.25825012 7.818190019999999 22.739659009408975 
Si 2.8693857599999997 5.870850839999999 23.971174483738917 
Si 1.047187989 4.429348739999999 24.535268057838675 
Si 2.6324314199999996 7.7461230599999995 26.989805796330774 
Si 0.523844046 5.810431229999999 30.002041412197084 
Si 1.031184693 6.122873429999999 27.691406850029733 
Si 0.6300841679999999 7.83276957 31.187617903595164 
Si 2.11952448 4.40292636 31.08315485707794 
Si 3.2340862799999996 7.82397297 34.23135060656146 
Si 1.3632514559999998 9.49404006 4.075846858417584 
Si 2.7191268 10.84203756 2.6843530022833644 
Si 0.971237493 11.614672259999999 1.2275026904166608 
Si 0.00030133242 8.14477194 8.144472768919233 
Si 2.71370223 8.14506516 5.431872106098046 
Si 2.71528236 10.85985882 8.144713467183095 
Si 4.07854359 9.50773995 12.192054774065863 
Si 1.357694937 9.503357939999999 9.501632736986483 
Si 2.7168462 8.14734576 10.860443207434521 
Si 0.0038057675399999994 10.855281329999999 10.857623599200679 
Si 0.647491662 10.574311409999998 16.13194149886623 
Si 2.6392732199999998 10.74815829 13.500559307366203 
Si 1.65827313 8.98339743 14.701368560320283 
Si 2.6427918599999995 11.87474211 17.06598830452583 
Si 2.97818667 11.11606794 20.38662716733519 
Si 2.77485489 8.970903 19.14685918110132 
Si 0.925009731 9.264497669999999 24.034065501540105 
Si 0.653857794 11.307980429999999 22.961032641231846 
Si 3.3692607 11.81525103 25.485682345441067 
Si 2.8496097 11.78511453 29.120294900728627 
Si 2.13620544 9.78812343 25.94424692356934 
Si 1.0826659799999998 10.635203429999999 27.899817161070185 
Si 1.5531358409999998 12.15701523 33.18778609084349 
Si 3.13035156 10.94306814 31.48023822152195 
Si 2.84698701 8.554791239999998 31.698826630577244 
Si 4.06666818 14.911165529999998 1.040865256616072 
Si 1.3551716159999998 14.93514441 4.065324905740076 
Si -2.61149877e-05 13.57507602 8.144954165446961 
Si 2.7157547699999998 13.574685059999998 5.428296017606344 
Si 1.3565302019999999 12.217809509999999 6.787347186318247 
Si 4.06489257 14.93242398 12.238887779120656 
Si 1.355828103 14.9307624 9.502457988176877 
Si 2.7161945999999997 13.576965659999999 10.859136559716399 
Si 1.3606613459999999 12.20997402 12.200444827834856 
Si 0.0501603309 15.286226489999999 16.750570422464445 
Si 3.05253423 13.99338693 16.170418835618296 
Si 1.339215561 14.79759165 14.815321995527025 
Si 3.88000107 15.88053456 20.904884914901878 
Si 1.24968735 12.7506717 19.841858225277136 
Si 1.85481198 15.1097895 19.881023271354525 
Si 2.25163638 15.548576939999998 17.68317303854086 
Si 2.3052793499999997 12.82343913 22.16562803555824 
Si 3.7079949599999997 16.166733569999998 23.251624216648914 
Si 1.8782044199999999 14.79478977 23.50466686290311 
Si 1.73221344 13.59721413 25.49001491419063 
Si 1.9034702099999998 13.92737985 29.48137668199175 
Si 1.615410882 15.06145707 27.357420816184508 
Si 0.18628266599999999 15.672739319999998 33.49863070589144 
Si 2.3859637199999995 14.370337529999999 33.442479239478466 
Si 3.31131717 14.913315809999999 31.216536080725177 
Si 8.155507049999999 -0.004041516419999999 2.70400773480122 
Si 4.08224142 1.347127614 4.075399847356121 
Si 5.45179059 2.7093853799999996 2.6845249296146965 
Si 7.04728206 1.4144655869999998 1.1592337856914148 
Si 5.42940813 0.00169075539 5.432766128220972 
Si 5.430238919999999 2.71494027 8.14571064570482 
Si 6.78760317 1.3562728199999998 6.788172437508639 
Si 4.07171808 1.356056163 9.50307692656967 
Si 5.433301439999999 -2.37063483e-05 10.867148373356462 
Si 6.78269988 1.365097113 12.26024115367207 
Si 6.28592004 2.2381645499999996 17.139538816869592 
Si 5.35080888 2.8396239299999997 13.834098330149967 
Si 6.51091752 1.9650626999999998 21.441538886921073 
Si 7.80458787 3.90906243 21.12673994325248 
Si 4.30021791 1.9163555999999997 20.45811455170297 
Si 7.32616686 0.0214972614 20.461725025660936 
Si 4.24869264 2.7744802199999996 18.229214242850773 
Si 7.42195206 0.349835895 18.104910782297853 
Si 5.13063324 3.15437931 24.696570280094203 
Si 6.59637486 1.575347256 23.7777562359906 
Si 5.12651187 3.1853954699999996 28.26468134362261 
Si 6.50989125 1.1967953489999998 27.986124681398767 
Si 5.76641565 3.83878737 30.46521364280505 
Si 5.35691763 1.7007737399999998 31.728845142627783 
Si 6.548808059999999 0.264722274 30.231977025120283 
Si 6.790095539999999 4.07093616 4.06831644130525 
Si 4.075318169999999 6.78814074 4.07674088054051 
Si 6.5551448699999995 6.652151819999999 1.2548803986579422 
Si 5.43537027 8.13338523 2.7235352410938902 
Si 4.07241855 4.0728258 6.787794197379709 
Si 5.430190049999999 5.43193308 5.42984336358833 
Si 6.78711447 6.78776607 6.787656655514643 
Si 6.78822219 4.07390094 9.501598351520217 
Si 4.07220678 6.787407689999999 9.502286060845544 
Si 4.08888774 4.07875536 12.219735074410288 
Si 5.4305973 5.4269320500000005 10.862231251680372 
Si 6.796709279999999 6.79675815 12.24772484395111 
Si 4.2447178800000005 6.298838009999999 16.587961552490793 
Si 6.53589009 6.09746103 16.94220062596691 
Si 6.92313597 4.240954889999999 15.024798256021736 
Si 4.91104404 6.90065577 20.486723259636587 
Si 6.47130024 7.6578149699999996 18.78667142196112 
Si 7.6406616 4.0854994200000005 17.327764859211687 
Si 6.22045053 5.47466175 21.811148263818257 
Si 4.38204258 4.43487105 22.88232430894813 
Si 7.421056109999999 6.79872924 23.3341493356882 
Si 5.69718315 7.93516851 24.35546645473184 
Si 4.36578516 6.560471699999999 25.78466397462713 
Si 5.624236529999999 4.67257473 26.489806731351525 
Si 7.83236232 5.57461719 26.811757852003524 
Si 4.65476976 8.07423624 27.93764117396319 
Si 4.69930662 5.80456683 34.16522735493124 
Si 8.0767449 4.3511567399999995 30.26629372045412 
Si 4.42174131 5.3932280399999994 31.66251557819996 
Si 4.55733927 7.51074885 30.277297069659355 
Si 8.150636339999998 10.85058981 2.717679396188728 
Si 4.2198104700000005 9.477652319999999 1.273775212371311 
Si 6.789574259999999 9.50174523 4.07285532285241 
Si 4.07259774 12.22039962 4.06793820117632 
Si 4.07269548 9.50117508 6.7879661247110405 
Si 5.43002715 8.14529322 8.145022936379494 
Si 5.42908233 10.856454209999999 5.428983726931671 
Si 6.78766833 9.50334165 9.503042541103405 
Si 5.43066246 10.858913999999999 10.858036224795875 
Si 8.057832209999999 10.866391109999999 13.709794869597049 
Si 5.42458629 8.2709217 13.633768603682112 
Si 6.22971954 10.008901799999999 15.069121122039082 
Si 4.226359049999999 11.728490489999999 14.97713999977655 
Si 4.5537066 11.473568279999999 18.712123731095634 
Si 6.67161837 10.1639826 18.62313414439828 
Si 4.6384960500000005 8.59843215 17.276943140069996 
Si 4.49753868 8.434815389999999 22.327411654341496 
Si 7.380999 10.41274719 22.808567483806772 
Si 4.31556309 12.192087599999999 23.311454927952397 
Si 5.23106109 10.601874089999999 21.808328655584415 
Si 7.005416759999999 9.754305389999999 25.130652406240827 
Si 7.4764909799999995 9.60345999 28.91559822004494 
Si 5.87796957 10.019099339999999 27.264476900866516 
Si 4.60477575 11.977417979999998 27.494584441121045 
Si 6.461509949999999 8.859446819999999 30.925875734375573 
Si 7.67024424 8.4012417 34.282688107697155 
Si 6.04236825 10.32953787 34.37071490133905 
Si 5.46076638 10.80194787 32.11090205831339 
Si 5.4206604 13.572599939999998 2.673741647393564 
Si 6.90692742 12.23833491 1.3227538705211248 
Si 6.784247429999999 14.93452539 4.068969765164311 
Si 4.07293983 14.933303639999998 6.786453164195321 
Si 5.430141180000001 13.574880539999999 8.144747852649362 
Si 6.78778236 12.217304519999999 6.787347186318247 
Si 8.1440226 13.57751952 10.859789883575461 
Si 4.07287467 12.21676695 9.502286060845544 
Si 6.78825477 14.93087643 9.502148518980478 
Si 6.78291165 12.22111638 12.230566496284194 
Si 5.27996367 13.42343241 13.647969801250122 
Si 6.528331529999999 14.96023101 14.927624928352982 
Si 6.939474839999999 14.472687599999999 17.218247149153306 
Si 5.8811786999999995 14.53903677 21.028603822528268 
Si 6.18195726 13.09388571 19.169037806843125 
Si 6.11959914 13.75752402 23.325931209250538 
Si 5.676185339999999 15.781898609999999 24.36750136792507 
Si 5.306500079999999 15.90448086 26.68989575955552 
Si 5.869743119999999 13.93814754 27.86302471216517 
Si 6.647329979999999 12.71708172 31.344003004174603 
Si 7.50387447 14.35305384 32.90840417742925 
Si 5.4644805000000005 14.413668929999998 30.139961517391484 
Si 5.99561595 16.20516168 33.92693607370531 
Si 9.5027715 1.357330041 4.072477082723481 
Si 10.85588406 2.71699281 2.7032581316366135 
Si 8.145048869999998 -0.0001576443573 8.145194863710826 
Si 8.145309509999999 2.7142072199999996 5.430703000244989 
Si 10.86031494 0.000206726616 5.431150011306452 
Si 10.860380099999999 2.71487511 8.145022936379494 
Si 12.21720678 1.3584491639999998 12.220801023864546 
Si 9.50296698 1.35702216 9.503145697502204 
Si 8.14185603 2.7150705900000003 10.865360329110612 
Si 10.025582759999999 0.7516434059999999 15.013898063215295 
Si 10.886721029999999 2.65800672 13.726231122472374 
Si 9.663732989999998 0.751806306 17.454131447740586 
Si 11.29343346 1.6618406399999999 21.408116213710166 
Si 10.473753239999999 2.15990739 19.21226033793995 
Si 8.67336615 1.250149986 24.745294485793643 
Si 10.338155279999999 2.27393739 23.510787475898525 
Si 11.99909997 2.8046981699999995 25.05032795704259 
Si 10.606256099999998 0.773379153 28.14598271407111 
Si 11.99421297 2.2690015199999998 29.40318413170203 
Si 12.14927748 0.816013341 26.3587637194104 
Si 8.668381409999999 1.72978623 27.123737187438273 
Si 8.86596282 3.88570257 28.068684185904313 
Si 8.69587893 2.63135628 34.144458533306356 
Si 11.64314718 2.45547315 31.871957453228404 
Si 9.15708141 3.6161519399999995 32.13459364457092 
Si 9.99363807 0.9100994939999999 32.749337010481035 
Si 10.87134327 8.14591224 2.6839369381415414 
Si 12.21608277 4.06969812 4.068522754102848 
Si 9.72931653 4.211893529999999 1.2448467196014161 
Si 8.1464661 5.430401819999999 2.6803264641835733 
Si 9.50120766 6.78693528 4.066906637188329 
Si 11.599245629999999 5.08827924 0.07507344464469712 
Si 9.502445699999999 4.07215791 6.78731280085198 
Si 8.14506516 5.43005973 8.144919779980695 
Si 10.85992398 5.429294099999999 5.4292588106618025 
Si 12.212580419999998 6.779246399999999 12.224239570491182 
Si 9.50272263 6.787489139999999 9.50252675910941 
Si 9.514255949999999 4.06588626 12.238784622721855 
Si 10.863752129999998 5.4276651 10.862471949944236 
Si 11.87845623 6.0400062 16.22914921200125 
Si 8.358122069999999 5.566244129999999 13.669770186862998 
Si 9.845969219999999 6.88131954 15.26308953724766 
Si 8.5572999 7.85805165 19.93170744863115 
Si 10.31647329 6.19103079 19.736466771170715 
Si 9.16128423 4.15235358 19.18251690961954 
Si 9.37937475 4.260763529999999 22.87905768965283 
Si 12.057483329999998 7.07218947 23.073473115922866 
Si 11.19026889 5.31625779 21.772051988673397 
Si 10.96514109 6.67355688 25.19364658044081 
Si 8.893036799999999 5.678482229999999 24.707436087434377 
Si 11.13090813 4.27659741 28.454661044744288 
Si 11.21726142 5.9696334 30.056817459959404 
Si 11.94198723 4.81928247 26.307529374673514 
Si 8.58127878 7.56918108 28.147908300182024 
Si 8.96261139 6.606295469999999 30.278672488310008 
Si 11.099093759999999 4.8448740599999995 32.169701205628876 
Si 9.45566082 9.49557132 1.2795794790770738 
Si 8.145602729999998 8.14772043 5.431012469441387 
Si 9.50233167 9.50270634 6.787931739244774 
Si 10.860233489999999 8.14462533 8.144851009048162 
Si 8.14436469 10.860363809999999 8.144782238115628 
Si 10.86007059 10.86297021 5.4307373857112555 
Si 8.14311036 8.14456017 10.861406000489978 
Si 9.50047461 9.50453082 12.251679172571743 
Si 10.86049413 10.85845788 10.865807340172074 
Si 10.12315986 9.86699961 16.475830546996168 
Si 10.97758665 8.19074232 13.680120212209173 
Si 9.558124920000001 11.94516378 15.245140323856615 
Si 11.282193359999999 10.241979119999998 20.20603469850423 
Si 8.327366549999999 11.99317041 19.01096781841663 
Si 9.343178369999999 9.812542139999998 18.85829634819396 
Si 10.91938248 8.975040660000001 22.245333546363675 
Si 9.183454919999999 11.9089674 22.83490675096681 
Si 10.79759844 10.612348560000001 23.87197241356045 
Si 8.57047851 8.474139450000001 22.16861957112341 
Si 9.3436182 10.04985486 25.692510925033268 
Si 8.28794475 11.75158971 29.677167526912445 
Si 10.468996559999999 8.30640132 26.858006304131784 
Si 10.415972609999999 11.17285488 34.270034256111124 
Si 8.59693347 8.35466859 32.01634202608088 
Si 10.4848956 11.808620999999999 30.57765411749607 
Si 10.81983429 9.95338548 32.16450900022266 
Si 11.240800469999998 15.964004519999998 0.08479112126623518 
Si 12.186304649999999 12.236168339999999 1.160000581589155 
Si 8.76415032 13.118548769999999 0.13043610846152448 
Si 9.503862929999999 12.21518682 4.075159149092257 
Si 9.6021405 14.901358949999999 1.4149137972082424 
Si 10.892992679999999 13.541877 2.730807767209227 
Si 8.14723173 13.57421265 5.430874927576322 
Si 9.502657469999999 14.93274978 6.78720964445318 
Si 10.859467859999999 13.57562988 8.144747852649362 
Si 9.501289109999998 12.218363369999999 9.50252675910941 
Si 9.499464629999999 14.91233841 12.229913172425134 
Si 10.86158556 16.2911403 10.862231251680372 
Si 11.80572138 15.30051282 14.858613297556381 
Si 8.94856941 13.281758279999998 17.14012336979612 
Si 10.79769618 13.46420628 13.689851299162557 
Si 8.17186221 16.23976164 13.682836664044217 
Si 9.25456077 13.062299399999999 20.87211556555003 
Si 11.073860550000001 14.58170028 20.21861977915772 
Si 10.473362279999998 14.92305723 17.95660626629101 
Si 9.159638939999999 15.323563169999998 21.53338246731854 
Si 9.32791464 15.40763586 23.969867836020796 
Si 8.249435189999998 13.375833029999999 24.326101266540363 
Si 11.40368418 15.27435108 25.10022126859509 
Si 9.688086539999999 15.1347132 29.233835710340173 
Si 11.449866329999999 13.184588429999998 26.222494116596785 
Si 9.198963 12.40419969 26.27235304268302 
Si 8.23021299 13.50006057 28.112972666455395 
Si 11.494957049999998 13.96748583 30.1840092996787 
Si 8.596428479999998 15.811122869999998 31.344897026297527 
Si 12.238921349999998 1.417681233 1.293949165429789 
Si 14.93514441 1.34980569 4.0695887035571054 
Si 13.57435926 0.00038913226199999997 8.144679081716829 
Si 13.57800822 2.71772586 5.429121268796737 
Si 12.21728823 1.3572681389999999 6.787656655514643 
Si 16.2909774 0.00223308207 10.858276923059739 
Si 14.931902699999998 1.3567256819999998 9.502389217244344 
Si 13.57297461 2.71388142 10.860958989428516 
Si 16.234956089999997 2.74826961 13.662067842419331 
Si 15.20482536 1.065704832 16.88663371248046 
Si 13.571198999999998 0.0369600552 13.621114752096087 
Si 14.377896089999998 1.93570812 14.888975664269584 
Si 12.58487208 3.8076246 15.06279419624607 
Si 14.29791219 3.5166526199999995 19.788870221760664 
Si 12.75029703 2.21923557 18.48717401078106 
Si 13.74732648 0.08521999469999998 18.42328581445815 
Si 13.8385179 3.0184881299999997 23.566835785912705 
Si 14.681720879999999 0.8209003409999999 23.964606859682043 
Si 12.758556059999998 3.49933635 21.559034025153252 
Si 14.56659945 0.9974904569999999 26.292571696847645 
Si 15.898600169999998 0.910511631 29.778432725066896 
Si 14.37986718 2.6829792899999996 29.244357663017677 
Si 15.25025817 3.1246989299999997 27.117513418044062 
Si 13.18709709 3.2766520499999996 34.31824267981658 
Si 15.00633171 4.162811759999999 1.383767441864167 
Si 13.582145879999999 5.45705226 2.708732297866219 
Si 12.50299854 7.0360745399999995 1.1950015477016902 
Si 14.930289989999999 6.782830199999999 4.073955657772935 
Si 16.2921177 5.43103713 5.433144368349902 
Si 14.93281494 4.073151599999999 6.788309979373705 
Si 13.574750219999999 5.42988054 8.144713467183095 
Si 12.21769548 6.78770091 6.787415957250779 
Si 12.21844482 4.07432448 9.501770278851549 
Si 14.93371089 6.786739799999999 9.50187343525035 
Si 14.9454234 4.084717499999999 12.222485911711598 
Si 16.13943153 8.01023283 13.587279453289982 
Si 15.560224289999999 6.54631569 17.138438481949066 
Si 13.56979806 5.40694422 13.625859946440848 
Si 14.42437146 7.12641888 15.052237858102295 
Si 15.345766439999998 7.3550001599999995 20.74715878113805 
Si 14.341487939999999 5.84780049 19.156590268054696 
Si 12.288931649999999 6.96581577 18.591430744500684 
Si 14.43807135 7.0420041 23.019934944946133 
Si 15.06737034 4.974200369999999 24.082273925245552 
Si 14.24736432 5.09269383 26.265304022098412 
Si 13.38537897 6.79126842 30.01868397787001 
Si 15.35464449 7.069892579999999 26.772386493128533 
Si 14.661114029999998 4.79549907 30.339053367073753 
Si 14.84610327 4.15610028 32.62242025449187 
Si 15.56366148 6.89435154 32.97834421581504 
Si 12.213965069999999 9.502152480000001 4.067353648249791 
Si 15.24937851 9.885879719999998 1.3442688567639909 
Si 13.5700587 10.87725654 2.696212549598635 
Si 16.2909774 10.860282360000001 5.4294651234594005 
Si 13.57750323 8.1456516 5.429293196128069 
Si 14.93248914 9.502543439999998 6.7879661247110405 
Si 13.574782799999998 10.85969592 8.144851009048162 
Si 14.944560029999998 9.50446566 12.209316278131578 
Si 12.221018639999999 12.21644115 12.237821829666398 
Si 12.21663663 9.50101218 9.503008155637136 
Si 13.574978279999998 8.14570047 10.861440385956247 
Si 12.88496646 9.08131662 14.843896317994377 
Si 13.705037639999999 10.89700002 13.596632300114434 
Si 15.310221659999998 11.95894512 15.012694571895974 
Si 12.39638049 10.38702528 16.785471670724807 
Si 15.824024549999999 11.4204303 20.872459420212696 
Si 15.019705799999999 9.48424977 19.671478239927282 
Si 12.85061085 9.30049857 18.767484331784484 
Si 16.27643043 8.91343188 17.72529523471716 
Si 15.14249982 8.4639582 24.824518600071357 
Si 12.6358272 11.805949440000001 24.684844836097373 
Si 14.35689828 8.25795486 28.500737569541222 
Si 16.079663519999997 9.51006942 29.572773251327757 
Si 12.30649227 10.99734642 29.31893973934943 
Si 13.84570179 10.21749525 25.91577575750079 
Si 15.519434129999999 11.6800929 26.80856000364075 
Si 12.466851029999999 9.3426408 27.651141469031817 
Si 14.361035939999999 10.736087399999999 30.81340087421829 
Si 13.05619065 8.87796855 31.912463532490186 
Si 14.08263984 8.45056782 34.054746851817406 
Si 12.21865659 14.93007822 4.071961300729485 
Si 14.92592427 12.22595451 4.07361180311027 
Si 14.964580439999999 14.849524169999999 1.0586666125021704 
Si 13.597083809999999 16.2960273 2.677713168747329 
Si 16.28726328 13.54609611 2.6673872132275394 
Si 13.57602084 13.57505973 5.431459480502849 
Si 12.21738597 12.21862401 6.788413135772504 
Si 14.93193528 14.93177238 6.78720964445318 
Si 12.21696243 14.932863809999999 9.502114133514214 
Si 14.93270091 12.21629454 9.50307692656967 
Si 13.571801729999999 13.578822719999998 10.862231251680372 
Si 14.932977839999998 14.92934517 12.229500546829936 
Si 12.60300285 14.78669364 17.066400930121027 
Si 15.11048997 13.230933480000001 16.94955911574791 
Si 16.26662385 13.47194403 13.534222678840978 
Si 12.55346496 15.968663459999998 21.40928531956322 
Si 14.21620155 13.05433359 21.239111647010972 
Si 14.5411056 15.294469229999999 20.35341080692188 
Si 12.22950573 12.47677164 20.104116176490717 
Si 13.056728219999998 12.556967310000001 17.792690748599238 
Si 16.05250809 12.57662934 24.721052732075858 
Si 14.110723799999999 13.290001019999998 23.57192483492013 
Si 13.12916985 15.39572787 23.572303075049057 
Si 12.58990569 13.11985197 28.302230272785483 
Si 15.93592056 13.419881189999998 30.07211899244794 
Si 15.719377589999999 15.85077273 27.725551618032235 
Si 14.826750749999999 13.63025025 28.009025401932167 
Si 15.58775439 12.281373089999999 32.135350124828776 
Si 12.944538989999998 14.163112439999999 34.214776811821075 
Si 15.33503133 15.50799855 31.38027967108562 
Si 13.387447799999999 14.03647398 31.849434972823936 
