&CONTROL
  dt          = 30.D0,
  prefix = 'x.66_y2.00_z3.15_struc2-scf',
  pseudo_dir = './',
  outdir='./',
  wf_collect= .true.,
  verbosity= 'high',
/

&SYSTEM
ibrav= 6, celldm(1) =30.783621515, celldm(3) =2.102903110474409, nat=  432, ntyp= 1,
  ecutwfc     = 12.D0, nbnd= 1728,
  degauss     = 0.05D0,
  occupations = "smearing",
  smearing    = "methfessel-paxton",
/
&ELECTRONS
  electron_maxstep=200,
  conv_thr    = 1.D-8,
  mixing_beta = 0.3D0,
  scf_must_converge=.false.,
/
&IONS
/
ATOMIC_SPECIES
Si  28.08  Si.pbe-hgh.UPF
K_POINTS {automatic}
1 1 1 0 0 0
ATOMIC_POSITIONS (angstrom)
Si 0.00487139418 2.7151683299999996 2.7019718567002524 
Si 2.7039771 0.00899559864 2.685045822986289 
Si 1.2614975999999998 1.379846079 1.1754840948682874 
Si 4.06600029 1.362845835 4.069887244393509 
Si -0.000985901751 -0.0005450275619999999 5.430238842886111 
Si 0.000335220507 2.71492398 8.144844419954122 
Si 2.7157221899999997 -0.0001477382454 8.145289751745826 
Si 2.7143049599999998 2.7157547699999998 5.431369300511209 
Si 1.3573153799999997 1.358020737 6.787199068503421 
Si 2.71596654 2.7151846199999996 10.857702926146983 
Si 1.379287332 1.3622219279999999 12.20548246559683 
Si 1.357522263 4.07131083 9.502626796571501 
Si 0.0839817918 2.68372863 13.588648754341406 
Si 2.80199403 0.06087703319999999 13.551583446754869 
Si 1.285253307 4.0133673 15.168925745353022 
Si 1.66718376 1.484641278 17.824233681540907 
Si 2.97727443 2.3141736899999996 21.108076057283128 
Si 1.0628589689999999 1.268427366 20.128380371823436 
Si 2.80137501 3.6985304699999997 17.177372125943318 
Si 2.4734573099999997 2.23735005 23.404754875981677 
Si 0.9874835099999999 4.04426943 23.639855805710337 
Si 1.508328567 0.33044265 24.3990779979843 
Si 1.6430582699999998 0.7027131329999999 26.75368420589619 
Si 0.326741562 3.19293774 29.466748249839068 
Si 0.16505028 2.4864730199999996 27.25944409610658 
Si 3.919374 0.667060839 27.605192847928137 
Si 3.88231425 0.7943166899999999 31.229679788033142 
Si 0.213420177 1.163373156 30.672706741776658 
Si 2.04099039 2.29415328 31.706767162116055 
Si 1.8383753699999998 3.21290928 33.890914062679876 
Si 1.3601726459999999 4.067417519999999 4.073929486810525 
Si 2.7358566300000002 5.4225337499999995 2.6939147768995557 
Si 1.469061522 6.77939301 1.2689900686097044 
Si 0.000975790548 5.430238919999999 5.429108385261014 
Si 2.7146307599999995 5.430336659999999 8.144673138495774 
Si 1.3586772239999998 6.78687012 6.787438862545108 
Si 0.000566820324 5.433480629999999 10.861573887105651 
Si 1.3381176149999998 6.7831722899999995 12.220144158431433 
Si 3.58609689 7.198062299999999 14.940813099124968 
Si 2.5849460699999995 5.40841032 13.656270674097252 
Si -0.0019014991199999998 8.10676737 13.652947813805298 
Si 3.18570498 4.759758809999999 20.803434855465127 
Si 2.04103926 5.253166619999999 18.848051470671084 
Si 2.4652634399999998 7.5750291899999995 18.68968463428239 
Si 0.0446637591 7.23593655 22.17539933683373 
Si 1.9391778899999998 5.84833806 22.499737906361773 
Si 3.4698677399999998 7.221014909999999 23.568328668704147 
Si 3.9927767399999996 6.73922187 25.8095122948979 
Si 0.854680914 4.3468236000000005 25.96815318161995 
Si 3.1650818399999996 4.60379835 26.365526164987635 
Si 0.41253936299999994 7.432247339999999 28.411346159789495 
Si 4.00070997 4.8237948 28.56241640605256 
Si 0.42235734599999997 5.218191989999999 34.14115627332651 
Si 1.5389700569999998 6.425036639999999 30.437468786881322 
Si 3.4823295899999995 7.531339409999999 31.32631678683316 
Si 0.059618142 6.79451013 32.314405263751915 
Si 2.32798761 4.232435219999999 30.106518753061046 
Si 3.3686091 7.4780874 33.97110804147847 
Si 4.0488795 9.35593344 1.1940681330990608 
Si 1.360425141 9.50334165 4.074785894102265 
Si 2.70721881 10.828728629999999 2.697141719574835 
Si 1.193556897 12.067811189999999 1.3840843573613208 
Si -0.00013993435799999998 8.14485339 8.144912932537462 
Si 2.71438641 8.145 5.4305814058028075 
Si -0.000804051594 10.858913999999999 5.430033305136093 
Si 2.7152660699999998 10.86018462 8.14518698287082 
Si 1.357194834 9.502673759999999 9.502387002529815 
Si 2.71723716 8.14410405 10.865033772564283 
Si 0.00013692836429999997 10.85883255 10.8606147109389 
Si 1.354837671 12.20252949 12.253955118309355 
Si 1.76867046 8.97258087 15.001309710213532 
Si 2.74418082 10.83262194 13.797680646109479 
Si 1.7327673000000001 11.126770469999999 17.065114258141946 
Si 0.853869672 8.80078653 17.336869419957107 
Si 2.19258513 9.29976552 20.32329867142362 
Si 3.27627738 9.319134329999999 22.474456763109586 
Si 2.00116134 10.91666205 23.740021202552327 
Si 0.42762390299999997 12.154359959999999 22.447154498648892 
Si 0.7110519839999999 9.58510116 25.227189592805892 
Si 3.5135249399999995 10.90341828 29.87542580945773 
Si 3.69139545 8.533402469999999 27.26119116698173 
Si 1.51027848 9.26829324 27.395921162118377 
Si 1.7025982199999998 11.36126502 28.45252222237639 
Si 2.86876674 9.821306159999999 31.923095644009756 
Si 0.5428007189999999 9.279598499999999 32.619697335111645 
Si 4.051942019999999 14.90868945 1.3099468909299117 
Si 0.00953538408 13.579702379999999 2.727804526248319 
Si 3.1089302099999996 12.90506832 0.2756377699129956 
Si 1.3582585710000001 14.932912679999998 4.070366832476884 
Si -0.000341252694 13.57486425 8.144912932537462 
Si 2.71459818 13.574538449999999 5.430375868052789 
Si 1.357162254 12.21741855 6.787712912878464 
Si 1.356621426 14.93315703 9.502387002529815 
Si 2.71559187 13.57734033 10.862087731480695 
Si -0.01372486257 13.458016079999998 13.789150829483741 
Si 1.097410059 15.359857289999999 14.738221390190787 
Si 2.8792900799999996 16.029148229999997 16.61995374789513 
Si 0.09640975859999999 15.50550618 20.910211716599356 
Si 3.51106515 13.2245478 20.26417231200184 
Si 3.0922329599999996 12.798776069999999 24.854344114273662 
Si 1.7210385 13.971151079999999 21.695914022333948 
Si 2.8921591799999997 14.83460253 23.549864527494222 
Si 3.9934935 14.658719399999999 28.079608231260817 
Si 1.1315604149999998 15.38996121 29.942396859671856 
Si 2.34010737 13.25264805 27.09552774046741 
Si 0.792238086 14.973768 27.650137102598688 
Si 3.3829768799999997 14.89873626 30.30321837982805 
Si 0.46230857099999995 13.613992829999999 31.331523743166947 
Si 3.9661100099999995 12.79167363 31.175041002820084 
Si 2.1309763499999996 12.333321899999998 32.470888004098775 
Si 5.44529088 2.6997416999999997 2.698957303033325 
Si 6.800016149999999 1.252886706 1.355709870971368 
Si 5.432389199999999 0.00018317942099999997 5.429211154136022 
Si 5.43015747 2.7147447899999997 8.14501570141247 
Si 6.787586879999999 1.3576770179999997 6.787473118836778 
Si 4.07227194 4.05689418 12.25998422564321 
Si 4.07129454 1.359744219 9.503517460154914 
Si 5.4329756399999996 -0.0022901622299999996 10.862190500355704 
Si 6.80798196 1.355569092 12.245356789100278 
Si 6.55768611 1.77833043 16.99389542776079 
Si 4.854257099999999 0.70201755 15.275497068737234 
Si 5.48005374 2.5677764099999996 13.779250761191218 
Si 5.15088171 2.9322651599999996 18.43827770971899 
Si 8.073275129999999 0.16092548909999999 17.774459289744936 
Si 6.2884775699999995 0.562557231 21.278740902381216 
Si 4.5213057899999995 1.059486939 19.854364294758078 
Si 4.14648918 3.01474143 24.88589415890139 
Si 6.40775295 2.8372292999999997 21.936598727604753 
Si 5.28312393 1.4775453539999999 29.48774735663255 
Si 6.0058134899999995 3.64255803 28.940057765418537 
Si 5.45304492 1.375328862 25.946708743034762 
Si 7.01418078 2.8595140199999998 26.987620421708083 
Si 4.11447933 3.5290818899999996 33.33116625679815 
Si 5.379300089999999 1.606506768 32.795980212043546 
Si 7.80592365 2.83589352 34.00077399006437 
Si 4.39023645 4.25296062 1.287265800215451 
Si 6.78721221 4.075350749999999 4.070127038435197 
Si 4.071538889999999 6.78517596 4.071976878185356 
Si 6.8136345899999995 6.975035909999999 1.2143684115424824 
Si 4.07207646 4.0729887 6.787507375128448 
Si 5.4295873199999996 5.42965248 5.430444380636129 
Si 6.787358819999999 6.787554299999999 6.787575887711787 
Si 6.788841209999999 4.07171808 9.502249977363137 
Si 4.07235339 6.78678867 9.50194167073811 
Si 5.42960361 5.430271499999999 10.864999516272613 
Si 6.77447343 6.801384509999999 12.230900634015695 
Si 8.078211 5.38900893 13.565148938256042 
Si 5.16567303 4.89120282 16.759445367573854 
Si 6.7485234599999995 4.16108502 15.06040181334364 
Si 5.32669968 6.01464267 20.63551051370061 
Si 6.49457865 4.122119339999999 19.970630148684794 
Si 4.27610871 7.097813639999999 17.194191965153106 
Si 5.49464958 6.262462439999999 22.924139103856792 
Si 6.87929958 8.06366403 23.359913390186133 
Si 5.84972271 4.149128159999999 23.79476275664039 
Si 7.32777957 4.68008442 25.557077681584413 
Si 4.4217576 7.142627429999999 29.105036066099466 
Si 6.742593899999999 7.00134426 28.816940653157893 
Si 6.3327374999999995 6.61338162 26.470864261871743 
Si 5.32736757 5.84868015 33.99830753706416 
Si 7.475041169999999 5.13175725 30.09319305560156 
Si 7.29511812 4.9940253 32.578726810274766 
Si 8.14745979 10.85127399 2.7235190641604485 
Si 5.432421779999999 8.15048973 2.704530801687974 
Si 6.78597417 9.502217639999998 4.073107335810454 
Si 5.00052501 11.283561719999998 0.1396591329449902 
Si 6.7844592 12.17104092 1.390161423503513 
Si 4.07228823 9.50213619 6.787712912878464 
Si 5.42963619 8.14514661 8.144947188829132 
Si 5.43004344 10.85958189 5.430238842886111 
Si 8.14920282 8.1415791 10.862053475189025 
Si 6.787586879999999 9.50303214 9.50290084690486 
Si 4.07367288 9.5228082 12.240732189724879 
Si 5.42471661 10.860445259999999 10.860888761272259 
Si 8.09060769 10.80061209 13.608551659801462 
Si 7.0484060699999995 9.26544249 15.122268676098987 
Si 5.455276649999999 8.243473049999999 13.668637195389989 
Si 4.48849773 11.91391956 15.150769910768117 
Si 7.719195689999999 11.371625459999999 18.496273611515672 
Si 5.95225197 8.28620172 19.938977335182063 
Si 6.0853901399999994 9.556235280000001 17.487254540386775 
Si 6.34019832 11.547785519999998 22.90492132423013 
Si 5.572010789999999 9.51642252 21.97924781073344 
Si 5.35613571 12.081217859999999 25.05131779137402 
Si 6.91199361 8.71723512 25.61123687871409 
Si 7.30577178 9.177590519999999 29.583356666682487 
Si 5.6628601199999995 10.67897466 28.813617792865937 
Si 5.31692568 10.17145971 26.52916847029345 
Si 7.966494179999999 8.53511292 34.06274362169473 
Si 7.45974486 10.01673729 32.10951838327587 
Si 5.8800384 12.01651398 32.29926398283394 
Si 4.07482947 12.218363369999999 4.068311454976706 
Si 5.4392635799999995 13.58247168 2.7150646113763846 
Si 6.786365129999999 14.93172351 4.075436763643989 
Si 4.07263032 14.93252172 6.787473118836778 
Si 5.42965248 13.57535295 8.144810163662452 
Si 6.787652039999999 12.21746742 6.787644400295126 
Si 4.07316789 12.21688098 9.502455515113155 
Si 6.78714705 14.93170722 9.503483203863242 
Si 4.07693088 14.91689961 12.232990267807542 
Si 6.77862738 12.22562871 12.236518665849514 
Si 5.45196978 13.576086 13.71899394414434 
Si 6.4811231099999995 15.27439995 15.015080739464722 
Si 7.175256299999999 12.74493762 16.53701926576296 
Si 6.4750795199999995 14.84193303 18.314543984208296 
Si 7.30855737 13.268693699999998 19.90773559717936 
Si 4.1437687500000004 15.16164057 18.94513380126281 
Si 5.13615555 15.35454675 22.72928931683995 
Si 6.49309626 15.963401789999999 24.554807099914434 
Si 5.5595000699999995 13.2954093 21.53802677402863 
Si 6.74744832 13.928129189999998 25.82804494869117 
Si 6.8811566399999995 12.597936659999998 29.467262094214114 
Si 7.1256043799999995 16.28014455 29.101404899182487 
Si 6.25190652 14.341259879999999 28.068235142426502 
Si 8.08609536 15.477128999999998 31.346185436001548 
Si 6.61287663 14.373155699999998 32.839417189880635 
Si 5.602440509999999 16.04480292 34.22227517200019 
Si 9.505215 1.3560805980000001 4.073038823227114 
Si 10.673142839999999 0.1424342214 0.005868548094799003 
Si 10.86316569 2.71368594 2.7022287788877746 
Si 9.3783159 3.9500317799999998 1.3138966413594197 
Si 8.145048869999998 7.734117329999999e-05 8.145221239162488 
Si 8.14583079 2.7162434699999998 5.429553717052719 
Si 10.859386409999999 -0.0017361556199999998 5.430889712427835 
Si 10.85925609 2.71529865 8.14504995770414 
Si 9.50057235 1.358007705 9.502112952196459 
Si 8.14452759 2.71502172 10.85708631289693 
Si 8.43134562 3.3249681899999994 16.68277978681723 
Si 8.23290084 0.10935477 13.85553952273948 
Si 9.84515472 1.3248412649999999 15.422011228208234 
Si 10.801198529999999 2.72886822 13.713067605685495 
Si 12.05577288 3.23353242 20.58111152252924 
Si 9.815050799999998 2.55811644 20.330149929757543 
Si 9.56345175 0.34820526599999996 19.696305764994413 
Si 8.64871938 2.6382958199999997 22.37257855168411 
Si 11.903200739999999 3.33948258 22.95562063590118 
Si 8.555393969999999 0.611344152 23.64040390637705 
Si 11.840614559999999 1.161286407 23.91921586427615 
Si 9.879852419999999 1.0690491690000001 25.549438528542087 
Si 10.36061919 1.4796092969999999 29.204379311941388 
Si 10.957273019999999 3.33308061 26.076540088462654 
Si 8.568181619999999 1.2777680519999999 27.699397650019616 
Si 10.99172637 3.6016864199999996 28.442553641500528 
Si 8.870019029999998 0.993279492 32.91697343422067 
Si 10.639455120000001 1.64348181 31.53264243155933 
Si 11.2171311 4.01155911 32.02086310043487 
Si 10.85278896 8.12271528 2.7084599983424797 
Si 12.092897789999999 6.69367503 1.2360971773485274 
Si 8.13726225 5.43957309 2.6886667130157687 
Si 9.502543439999998 6.78879234 4.0744090748939 
Si 9.50275521 4.07223936 6.787747169170134 
Si 8.1453258 5.42975022 8.144775907370784 
Si 10.85964705 5.43110229 5.43030735546945 
Si 9.489201929999998 4.05601452 12.223501275015057 
Si 10.861357499999999 5.43230775 10.861025786438937 
Si 12.20911065 6.79859892 12.215519559056034 
Si 9.50171265 6.786576899999999 9.502044439613119 
Si 8.58171861 7.74547146 16.188598523191175 
Si 10.90521018 8.08902756 13.723824081269758 
Si 11.6356212 4.58003124 14.90850941608051 
Si 9.878239709999999 6.216883019999999 14.856131546117647 
Si 10.15479504 6.028147079999999 19.482820555309292 
Si 8.67711285 4.20549156 19.068079632065103 
Si 9.59148684 7.96944267 18.285734442914137 
Si 9.224424269999998 7.8799454099999995 23.051058664492768 
Si 9.88301268 4.43588103 23.191372435171566 
Si 10.36425186 6.26376564 21.84465484076347 
Si 10.20094461 7.491656969999999 25.264563207017456 
Si 9.59862186 5.162822279999999 25.370072585359914 
Si 10.39686444 7.14964842 30.973956570719366 
Si 8.989196669999998 6.6870449999999995 32.96986514855858 
Si 9.886759379999999 4.9632209099999995 30.098365755643673 
Si 10.61384724 5.326129529999999 34.113751239990805 
Si 9.47281419 9.49439844 1.3659079690014162 
Si 11.07433296 10.56214278 0.09052259329990901 
Si 12.192690329999998 12.187428659999998 1.4185804430726363 
Si 9.50132169 12.21756516 4.070640882810241 
Si 12.21984576 9.502413119999998 4.073004566935445 
Si 8.14436469 8.14311036 5.431095250177852 
Si 9.5021199 9.50252715 6.787747169170134 
Si 10.860347519999998 8.144739359999999 8.144947188829132 
Si 8.144674199999999 10.86049413 8.144741651079114 
Si 10.859875109999999 10.85881626 5.429690742219398 
Si 9.51047667 9.4964184 12.239430450641434 
Si 10.86202539 10.859353829999998 10.85883338377208 
Si 12.19891311 12.20852421 12.216444478931113 
Si 9.64130166 11.99343105 14.917895639997987 
Si 11.51077464 11.47133655 18.54234832381132 
Si 11.873829869999998 9.105295499999999 20.989789082147905 
Si 8.1489096 9.23812416 19.610253960320307 
Si 11.55001725 9.12124341 18.673618433489338 
Si 9.61422768 12.179576879999999 17.20977857786279 
Si 9.5552253 9.65338884 21.561526590113996 
Si 8.76014298 11.5654113 22.792183868345386 
Si 9.669222719999999 11.4238512 25.001132324078014 
Si 11.95645275 11.898378899999999 25.223455657013904 
Si 11.06327205 8.946468 29.479217540006815 
Si 9.08234289 9.390842909999998 26.132549125342496 
Si 9.23032125 9.92831517 28.416210553206582 
Si 11.352826799999999 10.71704439 30.968475564052227 
Si 9.47041956 11.444506919999998 32.37586105100723 
Si 12.21642486 14.93579601 4.076875527894114 
Si 9.53553069 14.873193539999999 1.3239919705144592 
Si 10.861292339999999 13.581038159999999 2.7290617321525943 
Si 8.17515279 16.266526109999997 2.725488800931452 
Si 8.144136629999998 13.57637922 5.430101817719432 
Si 9.50233167 14.932603169999998 6.787781425461804 
Si 10.860152040000001 13.57489683 8.144912932537462 
Si 9.503586 12.21629454 9.501633364113083 
Si 8.14478823 13.574913119999998 10.864622697064249 
Si 9.48653037 14.950212659999998 12.24802877985051 
Si 10.86072219 16.28843616 10.865958692439362 
Si 11.82217428 16.20905499 16.475906041424345 
Si 10.82002977 13.543163909999999 13.602522552467606 
Si 9.29903247 13.333853699999999 21.31162694238406 
Si 11.532994200000001 12.632520329999998 20.61505950757384 
Si 11.48855508 15.6696768 18.716164747743015 
Si 12.148234919999998 14.22659457 24.638632245630014 
Si 9.61351092 15.60163347 21.885659621892017 
Si 11.97512109 15.46489521 22.55119085644955 
Si 11.332936709999998 15.77313459 28.341840143991824 
Si 10.747213469999998 13.763095199999999 29.413788022917828 
Si 8.988137819999999 13.34410011 26.237613171893244 
Si 10.588141619999998 15.187395059999998 26.152726081135906 
Si 9.16102359 12.30430941 28.36414098986875 
Si 8.25098274 13.343709149999999 34.22285752895857 
Si 8.908267949999999 13.29728265 30.779209552577534 
Si 12.08403603 16.10672121 32.38528153121638 
Si 12.216750659999999 4.07300499 4.0697502192268304 
Si 15.60090042 0.36239548499999996 0.09748449945592753 
Si 13.553768700000001 -0.00463113297 2.7167945541057006 
Si 12.233089529999999 1.3767265439999998 1.2840628369443408 
Si 14.93623584 1.358217846 4.071326008643633 
Si 14.99795865 4.065983999999999 1.2294685849104543 
Si 13.575369239999999 -0.000600364692 8.144741651079114 
Si 13.573153799999998 2.7132949799999997 5.429896279969415 
Si 12.217597739999999 1.3572534779999998 6.787781425461804 
Si 16.289348399999998 -0.0009686636729999999 10.86256731956407 
Si 14.93309187 1.3571508509999999 9.502284233654807 
Si 13.576362929999998 2.7147284999999997 10.863046907647444 
Si 12.218428529999999 1.364846247 12.252208047434205 
Si 14.928156 4.07008908 12.245596583141968 
Si 15.6659301 1.5530609069999999 16.926273508004947 
Si 15.43938507 4.02338565 16.49854945021797 
Si 15.60466341 0.7034738759999999 14.717222283397305 
Si 15.635956499999999 2.82667338 20.40034107138861 
Si 13.68146601 1.63101996 20.05212586656684 
Si 13.98823929 0.18935496 18.123359620400098 
Si 15.228136349999998 3.9118480199999994 22.513269141571275 
Si 15.364825739999999 0.33560658 24.031439475785852 
Si 13.692380309999999 3.9046804199999996 24.328098961644834 
Si 14.30340192 0.10709958239999999 21.87873985097475 
Si 13.804162289999999 1.70456931 25.109108155420685 
Si 14.143971689999999 1.94914737 27.367933771824294 
Si 13.259310659999999 3.99531798 28.119482554764268 
Si 13.95223839 2.32808535 34.116217692991015 
Si 13.40898318 2.8125173699999997 31.75010137107813 
Si 14.293367279999998 0.33695376299999996 30.807470993204976 
Si 13.577926769999998 5.42900088 2.6811680107692872 
Si 14.93318961 6.78599046 4.068996580810098 
Si 13.57416378 8.14615659 5.430375868052789 
Si 14.933010419999999 4.07186469 6.787199068503421 
Si 13.574945699999999 5.430401819999999 8.144604625912436 
Si 12.21740226 6.787521719999999 6.787849938045143 
Si 12.21629454 4.07238597 9.503243409821556 
Si 14.93232624 6.78669093 9.502489771404823 
Si 13.482206729999998 5.453256689999999 13.6464048620964 
Si 14.586554699999999 7.070918849999999 14.976782205378077 
Si 16.10017263 4.45443534 18.75812870503831 
Si 14.384412089999998 5.92306029 19.29886426904339 
Si 12.23621721 4.975487279999999 18.954862588096983 
Si 15.125574509999998 8.054704529999999 18.58945072485706 
Si 12.55757004 7.21471068 22.29169944705212 
Si 15.838294589999999 7.714829969999999 24.44309733277977 
Si 14.471498429999999 5.967922949999999 21.61188333886835 
Si 12.473953469999998 7.485434189999999 26.049991462418692 
Si 15.900554969999998 6.27060744 26.39574021424025 
Si 13.67209926 5.40969723 26.23802424739328 
Si 14.464607759999998 6.4796570099999995 30.97923203963649 
Si 12.56323896 7.232678549999999 32.06553330477207 
Si 14.5723824 4.32781317 30.04389825188896 
Si 14.930648369999998 12.21771177 4.075573788810667 
Si 16.293257999999998 8.13951027 2.69141749323684 
Si 12.854080619999998 8.723294999999998 0.07179296582953984 
Si 14.80943448 9.46264923 1.3635648386512136 
Si 13.571459639999999 10.85844159 2.7372661140074706 
Si 14.93219592 9.5027715 6.788363782420189 
Si 13.575157469999999 10.86008688 8.144878676245792 
Si 12.21688098 9.50223393 9.5018389018631 
Si 13.57307235 8.145032579999999 10.862121987772364 
Si 14.945944679999998 9.51578721 12.232133860515802 
Si 12.99541266 8.86741263 14.848800699700348 
Si 13.492599749999998 10.82850057 13.611566213468388 
Si 15.67762632 10.53725166 16.17218975948142 
Si 13.63324761 11.56946751 17.314431548913504 
Si 16.139789909999998 9.00110466 20.58734616761311 
Si 15.246837269999999 11.150162909999999 20.839609499468253 
Si 15.410665799999999 12.141686339999998 18.705922116533795 
Si 13.39942095 9.206114309999998 17.252496173574816 
Si 13.01022027 11.05014231 21.596502263908686 
Si 13.44011337 10.7515629 23.870674698980288 
Si 13.55313339 8.35826868 24.17487056900659 
Si 15.18428367 10.97126613 25.673686098427826 
Si 16.07394573 11.91673773 29.78382448553315 
Si 14.792411429999998 8.301595769999999 29.46304857033875 
Si 13.29702201 11.05486641 27.105393552468264 
Si 12.939554249999999 8.848206719999999 28.001675167712413 
Si 15.279661619999999 10.049887440000001 31.038837987141644 
Si 13.1533605 9.58404231 32.06988385381411 
Si 15.862354919999998 10.99636902 34.23995141850172 
Si 13.998762629999998 13.00350879 0.14880693307244772 
Si 14.825740769999998 14.818508009999999 1.4389903416494008 
Si 13.57496199 13.574685059999998 5.431198019052861 
Si 12.21769548 12.217597739999999 6.787815681753473 
Si 14.932163339999999 14.93248914 6.787815681753473 
Si 12.217744349999998 14.9315769 9.502387002529815 
Si 14.931674639999999 12.218558849999999 9.50187315815477 
Si 13.57953948 13.57274655 10.859484253313802 
Si 14.948192699999998 14.906588039999999 12.230934890307367 
Si 12.54284388 14.52958857 14.949034609125679 
Si 14.178001499999999 12.620270249999999 15.089005816887779 
Si 13.59306018 16.17851124 13.64818618926322 
Si 12.81803085 14.5661922 20.33350704634117 
Si 15.030278009999998 14.392329029999999 19.359874724506994 
Si 15.270571799999999 12.68870454 24.212929309051546 
Si 14.40990594 14.700356639999999 25.052688043040806 
Si 14.791662089999999 14.586212609999999 27.393797272034863 
Si 14.17210452 12.631526639999999 28.619761438307513 
Si 13.635511919999999 16.25652405 28.55022116621817 
Si 15.20676387 15.10985466 32.42440221630309 
Si 13.12770375 13.93109397 32.36623503304806 
Si 12.543218549999999 12.68279127 30.34662110137347 
