&CONTROL
  dt          = 30.D0,
  prefix = 'x.66_y2.00_z3.18_struc39-scf',
  pseudo_dir = './',
  outdir='./',
  wf_collect= .true.,
  verbosity= 'high',
/

&SYSTEM
ibrav= 6, celldm(1) =30.783621515, celldm(3) =2.1207375915848425, nat=  432, ntyp= 1,
  ecutwfc     = 12.D0, nbnd= 1728,
  degauss     = 0.05D0,
  occupations = "smearing",
  smearing    = "methfessel-paxton",
/
&ELECTRONS
  electron_maxstep=200,
  conv_thr    = 1.D-8,  mixing_beta = 0.3D0,  scf_must_converge=.false.,
/
&IONS
/
ATOMIC_SPECIES
Si  28.08  Si.pbe-hgh.UPF
K_POINTS {automatic}
1 1 1 0 0 0
ATOMIC_POSITIONS (angstrom)
Si 2.695995 -0.01029987378 2.6962856629863876 
Si 1.394314857 1.3930817039999999 1.2035384990711204 
Si 4.03428366 3.9640085999999997 1.365424875880494 
Si -0.000270619254 2.7147284999999997 8.145379033580975 
Si 2.7147610799999997 0.000190448019 8.145068112242674 
Si 2.7126107999999998 2.71450044 5.429826611664459 
Si 1.357186689 1.357421265 6.787723736476501 
Si 2.71678104 2.71529865 10.864731605187854 
Si 1.3529757239999998 1.3492746359999999 12.25171714853884 
Si 1.3558232159999999 4.07222307 9.502619768901047 
Si 0.308871432 3.84615045 17.290473810249797 
Si 0.7593909299999999 0.01584352368 21.33227847410226 
Si 4.05272394 3.8780462699999996 21.52829710449415 
Si 0.726594273 2.37167739 20.875155013167216 
Si 1.8786442499999998 2.94041016 18.77070120827609 
Si 3.870504 2.0291475599999997 17.3181458093587 
Si 2.0542830299999997 3.3006472199999997 22.621461983149505 
Si 2.48714091 1.9887320699999997 24.56969508895143 
Si 1.47466854 2.74261698 26.694807889431964 
Si 4.05433665 0.951090021 28.61419440440251 
Si 2.72391606 2.89875663 28.72895892505141 
Si 3.3518304 2.09192922 34.505911937522654 
Si 1.6945835399999998 2.33251623 30.829128924837033 
Si 3.63667734 2.1058082999999996 32.17058176553442 
Si 0.282911688 0.31788306 30.578768153872986 
Si 4.07271177 6.78828735 4.069234835253796 
Si 1.3573626209999998 4.07458512 4.074451404374201 
Si 2.70407484 5.4121570199999995 2.709669099259531 
Si 1.364416191 6.58601442 1.174532992889057 
Si 0.0186619869 8.123578649999999 2.7023279009940615 
Si -0.000655856577 5.429359259999999 5.430863016125466 
Si 2.7152497799999997 5.430336659999999 8.145275393134876 
Si 1.35767376 6.78714705 6.787551002399667 
Si 1.368413757 6.787375109999999 12.234512834486114 
Si 4.01734206 6.87037266 15.24682240040445 
Si 0.6262201799999999 4.457530439999999 14.946437840789107 
Si 2.65118121 5.430678749999999 13.769531481684341 
Si 0.550346247 6.57386208 21.045436266110748 
Si 2.50707987 6.63064902 19.601172102881414 
Si 3.4717899599999997 4.53311604 19.392612978511337 
Si 0.542790945 7.52672934 18.214393840422627 
Si 1.3523795099999998 5.54260734 22.982303469656955 
Si 3.40180812 6.49159758 23.754217512215348 
Si 3.2848947899999996 5.34357612 25.837770493809483 
Si 0.923664177 7.993568159999999 29.051177071978643 
Si 1.0109525129999999 5.0300262 26.50749505651254 
Si 0.0616452696 5.320900439999999 34.159269192131006 
Si 1.371119526 7.9460013599999995 31.38118703440037 
Si 0.9817706069999999 4.39188174 32.00510251992689 
Si 2.73730644 6.19440282 32.11717238897717 
Si 3.25382976 7.24652505 34.47412886738509 
Si 3.99764745 9.32402133 1.1596122233320856 
Si 1.361731599 9.50102847 4.072274955006084 
Si -0.001010411685 10.739231369999999 0.2625906890720904 
Si 2.7193059899999996 10.828207349999998 2.7086914243846474 
Si 1.305123849 12.17317491 1.4506173225753114 
Si 0.000329216013 8.14488597 8.144619003642903 
Si 2.71243161 8.145114029999998 5.429377503064688 
Si 3.92189895e-05 10.85893029 5.42993025211056 
Si 2.7152009099999996 10.8597285 8.144964471796573 
Si 1.3586527889999997 9.50319504 9.501237896286371 
Si 2.71235016 8.145602729999998 10.86051689371309 
Si 0.000444751209 10.860363809999999 10.859584129698183 
Si 1.3404324239999998 12.226215149999998 12.248158826556049 
Si 2.12634999 8.32658463 16.603544933494017 
Si 1.1126900789999998 9.54768303 14.91458567702081 
Si 2.67608862 10.850980769999998 13.635248010353136 
Si 0.07515375209999998 11.35553094 16.05048496628504 
Si 0.03373659 11.46293091 18.42122562402436 
Si 0.20135417399999997 8.86228128 21.433535189942695 
Si 3.48987186 10.35250677 20.29957052233901 
Si 2.4024492 12.193569989999999 18.953902970166855 
Si 2.1929109299999996 9.94563144 22.22033890992423 
Si 1.498911318 12.12681357 22.87634838692662 
Si 3.35789028 8.844134219999999 23.979462748407652 
Si 2.0600822699999997 9.28787382 25.887068799338078 
Si 3.89811555 9.914647859999999 29.448050886913787 
Si 1.9490985 11.55070143 26.608060836045635 
Si 2.97116568 8.35470117 27.91607235946785 
Si 3.88690803 11.700178469999999 27.975596522345047 
Si 0.890975034 11.859755309999999 31.231046574815746 
Si 2.49300531 10.10814048 31.369890225775386 
Si 3.87773676 14.714056529999999 1.346071749911947 
Si 3.0284739 12.888485099999999 0.07844199897212191 
Si 1.3566507479999999 14.938304669999999 4.074693232081769 
Si 2.1752037e-05 13.57525521 8.145482674027075 
Si 2.713914 13.574782799999998 5.429653877587624 
Si 1.357603713 12.21715791 6.787861923737968 
Si 4.0718483999999995 12.216685499999999 9.50258522208568 
Si 4.06068975 14.9450976 12.24701878164894 
Si 1.3574815379999998 14.93270091 9.50234339437811 
Si 2.7146633399999995 13.57685163 10.86407521569588 
Si 2.5676786700000003 16.27346565 13.88374325328737 
Si 1.2688883729999998 14.90271102 15.59453609707247 
Si 3.37287708 12.83476068 14.863352749831671 
Si 4.048553699999999 12.42646812 17.098738984963408 
Si 0.26473693499999995 16.276772519999998 17.385892114293224 
Si 2.7554372099999997 13.26993174 21.232610911768706 
Si 2.98266642 15.56761995 21.774166789460494 
Si 3.71051991 16.2370575 23.97217337036523 
Si 2.02821903 13.17639456 24.934578552856806 
Si 0.078969033 14.570411309999999 25.01431260272365 
Si 3.8822653799999998 14.470863119999999 25.545884450774405 
Si 3.18658464 15.22766394 27.798198625435926 
Si 0.923369328 15.150775139999999 28.759152841682095 
Si 0.339268572 15.164458739999999 32.51408075072768 
Si 2.01658797 13.482402209999998 32.54216731162098 
Si 4.07487834 1.356119694 4.0693384756998965 
Si 4.93275861 0.0709268229 0.05864010987195872 
Si 5.43712959 2.7110306699999995 2.718820550650227 
Si 6.6514839299999995 1.256983641 1.3008050577366754 
Si 8.14363164 2.7152497799999997 5.43138121835597 
Si 5.43069504 -0.0009534260069999999 5.42993025211056 
Si 5.43004344 2.71502172 8.144722644089004 
Si 6.787554299999999 1.3573919429999999 6.787447361953566 
Si 8.147036250000001 2.71168227 10.863038811234874 
Si 4.07256516 1.355834619 9.501203349471004 
Si 6.785387729999999 1.360812843 12.246396938972335 
Si 4.08559716 1.5081558929999999 14.978255457742037 
Si 5.51069523 2.87959959 13.65559608460425 
Si 5.16248019 3.92346279 17.8566615672982 
Si 5.2553168999999995 0.28613547899999997 18.164991894447937 
Si 7.5617202599999995 1.2499105229999998 18.100596630604002 
Si 5.58833337 2.23321239 21.063089688763245 
Si 4.897278989999999 0.0668813643 20.565857375187207 
Si 6.884349479999999 3.19829715 19.3091133257695 
Si 6.843608189999999 2.1125686499999996 23.006486240413796 
Si 6.12023445 0.13434314129999997 23.976388081839996 
Si 6.149996279999999 3.96322668 24.26848140576728 
Si 4.3246692 3.1844506499999996 25.469086880213744 
Si 8.00629065 3.17321055 29.75676122903256 
Si 7.00424388 0.399766374 26.109066634885885 
Si 5.53804614 1.9222525799999999 27.116693598692756 
Si 6.505167149999999 3.7918233 28.089877387578813 
Si 4.8809727 0.49921356599999994 30.819006707934527 
Si 7.1975736 1.183460355 30.85469356820855 
Si 5.24956653 3.8787793199999996 32.81539807435793 
Si 7.4007099 2.90090691 32.70971936615053 
Si 6.78993264 4.07129454 4.073242265836358 
Si 5.065685009999999 5.611514039999999 0.0474849431899812 
Si 6.78900411 6.70888989 1.264828004213568 
Si 5.44123467 8.15065263 2.68421155101565 
Si 8.13442779 5.422468589999999 2.7087570633338447 
Si 4.07238597 4.07238597 6.787343721507465 
Si 5.42950587 5.42776284 5.430344813894962 
Si 6.787684619999999 6.787489139999999 6.787378268322832 
Si 8.14464162 8.145309509999999 5.430310267079595 
Si 6.785632079999999 4.07196243 9.502481581639579 
Si 4.073493689999999 6.78784752 9.501997926224442 
Si 4.0580833499999995 4.08621618 12.239003920483816 
Si 5.43041811 5.430222629999999 10.860033238297953 
Si 6.77652597 6.791920019999999 12.230470857088186 
Si 5.79202353 5.73836427 16.507332052697155 
Si 6.99240105 4.2495723 15.028935635885304 
Si 5.27704776 8.11196388 13.640706407181108 
Si 7.212413789999999 6.2800556400000005 21.575798975623663 
Si 6.694815329999999 8.01052605 20.01922311563648 
Si 7.412813369999999 6.972266609999999 17.899119603384143 
Si 5.283547469999999 5.487758909999999 22.71567114865509 
Si 7.325938799999999 4.864128839999999 26.106441076918 
Si 6.55472133 7.04241135 26.483381379386433 
Si 4.397029379999999 6.551137529999999 27.450554022398645 
Si 7.816756499999999 8.01336051 28.1850193170993 
Si 4.438845809999999 4.683749669999999 28.934996131899705 
Si 6.92005716 6.537470219999999 31.936907106392596 
Si 4.8503475 5.588740619999999 31.180159115780278 
Si 8.13877722 10.858620779999999 2.6680470961054694 
Si 6.787684619999999 9.50347197 4.068889367100127 
Si 4.07680056 12.21308541 4.069200288438429 
Si 4.07276064 9.50226651 6.787412815138199 
Si 5.4301086000000005 8.14462533 8.144999018611939 
Si 5.42992941 10.85964705 5.430517547971797 
Si 8.14074831 8.14485339 10.86276243671194 
Si 6.78779865 9.503586 9.501652458070772 
Si 4.0638825899999995 9.51801894 12.221074123308385 
Si 5.43416481 10.859663339999999 10.859549582882815 
Si 6.79605768 12.19858731 12.224321523952876 
Si 7.894655279999999 10.899280619999999 16.90133848195684 
Si 6.96899232 9.34239645 14.824971237959025 
Si 4.5390456 9.40806144 17.223729362960913 
Si 4.32592353 8.27150814 19.629949600082053 
Si 4.8436686 12.11892921 21.033103053024757 
Si 7.736283899999999 10.047590549999999 20.79023894099533 
Si 6.3630369 11.126477249999999 22.500202661211627 
Si 5.45384313 9.89115768 24.316466932311926 
Si 7.2879831 8.49275892 24.68065945990997 
Si 5.63624226 11.08319472 26.436985006348664 
Si 7.59475638 11.741261849999999 29.458760399677534 
Si 7.6904438399999995 10.34615367 27.50389430532516 
Si 4.881770909999999 11.22584625 34.47198696483234 
Si 6.06128094 10.221355979999998 30.420509192677137 
Si 7.32444012 8.279750879999998 30.456852442443136 
Si 4.661774459999999 11.170997819999998 32.062553873882074 
Si 5.43934503 13.57339815 2.691953492339376 
Si 6.73985718 12.283832879999999 1.0835228624864506 
Si 6.78990006 14.93229366 4.071791299590948 
Si 4.07284209 14.93248914 6.7877582832918675 
Si 5.4300760200000004 13.57519005 8.144964471796573 
Si 6.78781494 12.21748371 6.7875164555843 
Si 8.144185499999999 13.578920459999999 10.858098616637404 
Si 6.7879941299999995 14.931609479999999 9.502205207116644 
Si 5.4268506 16.2930951 10.86307335805024 
Si 5.350026959999999 13.45622418 13.59956115007911 
Si 7.0331423399999995 14.26728699 15.20336250667287 
Si 8.01163377 16.06940082 13.654732414220078 
Si 5.55397776 14.3462772 17.313171067945863 
Si 6.951040739999999 15.130917629999999 20.77244733108137 
Si 6.375010049999999 13.20162777 19.55360113812117 
Si 7.692968789999999 14.944364549999998 22.98866008368447 
Si 7.51798161 12.7382913 23.71766698155715 
Si 6.08149683 13.226127929999999 25.581882232386732 
Si 6.8557279499999995 13.98872799 29.129252874707877 
Si 4.47686667 13.736689109999999 29.07812358796484 
Si 7.467840989999999 14.5132497 26.964065768401717 
Si 7.81265142 15.10086258 32.50081477362678 
Si 4.09796127 13.464369179999998 31.472286986522928 
Si 5.440599359999999 15.180797609999999 32.46747709679771 
Si 12.21883578 4.071082769999999 4.070893082391408 
Si 8.14017816 -0.016218209969999998 2.6798482882348083 
Si 8.451577799999999 2.30208651 0.194797400468667 
Si 9.501289109999998 1.3572681389999999 4.066712917732011 
Si 10.86095025 2.7210164399999996 2.7044628941837368 
Si 8.145032579999999 -0.000250926273 8.145171752688775 
Si 10.860233489999999 -0.000388348713 5.4300338925566605 
Si 10.860673319999998 2.71492398 8.145033565427306 
Si 9.50409099 1.3582276199999999 9.502136113485909 
Si 10.8611946 0.000594154944 10.861311470466529 
Si 9.55835298 0.204791364 17.116565141692735 
Si 8.466792660000001 3.30755418 16.750472539249515 
Si 10.76220027 2.3759942400000003 16.948736712640255 
Si 10.01486394 0.45871336799999995 14.805106819123049 
Si 10.802452859999999 2.5523334899999996 13.707381760839258 
Si 10.268711009999999 1.2892671629999999 20.973647983778296 
Si 11.34982944 2.5945082999999998 19.279437611369314 
Si 8.97710949 2.69408907 22.348542141750862 
Si 11.53879344 0.1367047026 22.65131043162652 
Si 10.08706122 2.83732704 24.380136713033156 
Si 9.19865349 0.9962198369999999 25.575076509759448 
Si 10.46316474 1.059379425 27.550048850655365 
Si 10.193662980000001 3.00019446 28.884765062356205 
Si 11.691821699999998 1.69916103 32.9213186102729 
Si 11.72298447 3.56495247 30.6179096956837 
Si 10.87157133 8.14869783 2.6860978071346837 
Si 9.507772529999999 4.12210305 1.2953570249533128 
Si 9.50418873 6.78814074 4.0689930075462275 
Si 9.50242941 4.0728583800000004 6.78717098743063 
Si 8.1443484 5.43038553 8.144895378165838 
Si 10.860233489999999 5.42908233 5.428962941280286 
Si 9.50246199 6.78683754 9.502827049793249 
Si 9.52575669 4.04863515 12.223216025861134 
Si 10.862562959999998 5.428104929999999 10.861138736389693 
Si 11.045255309999998 6.336549359999999 16.542500710740676 
Si 8.28033732 5.508300599999999 13.537204148341825 
Si 9.54737352 7.070136929999999 14.847979416993391 
Si 8.44527357 4.377220739999999 20.791862641317575 
Si 10.60378002 4.79396781 19.864142461454385 
Si 9.3133188 5.31655101 17.847195739887667 
Si 8.6439627 7.505145089999999 22.978330585889758 
Si 10.33496244 6.67204191 24.362103275411624 
Si 9.606050100000001 4.7763420299999995 25.53044202430539 
Si 10.871994869999998 7.590830489999999 30.091727150830188 
Si 10.75126968 4.899510719999999 27.510700027952446 
Si 10.013234939999998 7.138440899999999 27.986927877785394 
Si 10.793688839999998 5.4852665400000005 31.702817885466363 
Si 8.41857426 4.74561909 31.525074520403578 
Si 8.546059799999998 7.419606299999999 34.30381306762619 
Si 10.48851198 5.80694517 34.295383644676654 
Si 9.5951358 9.481284989999999 1.161736852477151 
Si 9.502413119999998 9.50288553 6.787481908768933 
Si 10.86020091 8.14506516 8.144826284535105 
Si 8.145048869999998 10.860363809999999 8.144964471796573 
Si 10.85963076 10.85995656 5.431312124725236 
Si 9.52261272 9.51252921 12.222110527769392 
Si 10.85922351 10.858685939999999 10.857649508037635 
Si 12.19555737 12.22406487 12.228225314089338 
Si 9.50233167 12.21719049 9.502861596608614 
Si 12.21580584 9.50255973 9.502723409347146 
Si 8.580008159999998 8.55537768 16.509024846650135 
Si 11.01956598 8.30281752 13.593446363759167 
Si 8.28853119 10.934646209999999 13.641604624380648 
Si 9.74866905 9.01296378 21.483524431778623 
Si 12.095145809999998 11.72645424 20.765607061638722 
Si 11.45863035 8.252253360000001 19.887116093673384 
Si 8.1959877 11.71669653 19.145326874114943 
Si 10.82986893 8.45275068 17.575208662503925 
Si 11.08058832 10.5867081 22.595379137547486 
Si 9.67684644 11.75131278 24.218872178900387 
Si 9.00537264 9.93383748 25.600710246761704 
Si 10.65354597 8.31223314 26.062773902294214 
Si 9.99547884 11.487447359999999 27.923776299294673 
Si 11.236451039999999 10.7870751 34.32547392086124 
Si 9.42796782 9.08421624 31.214084088470592 
Si 9.83929032 11.30889267 30.39055710375402 
Si 9.577379699999998 11.44981746 32.852224979539066 
Si 12.21575697 14.93582859 4.067922056269853 
Si 9.50296698 12.21903126 4.07154947188338 
Si 9.48584619 14.770664279999998 1.1336261088130906 
Si 10.848162599999998 13.57025418 2.7029186515368355 
Si 8.14358277 13.57374024 5.430793922494733 
Si 9.50205474 14.93252172 6.78717098743063 
Si 10.8597285 13.575043439999998 8.144619003642903 
Si 12.21689727 14.93322219 9.501825192147608 
Si 9.486237150000001 14.92921485 12.2092591124529 
Si 11.07972495 12.27443355 16.863198797791767 
Si 11.91211137 15.276859739999999 14.72060530873557 
Si 9.101662829999999 12.55669038 15.289038608782823 
Si 10.69135506 13.540720409999999 13.635006182645567 
Si 8.754441479999999 16.25737113 19.77221338576302 
Si 10.461177359999999 12.61619775 19.144152282392465 
Si 10.44521316 14.96151792 18.692383577839294 
Si 9.80729676 15.551492849999999 24.00513103222527 
Si 10.69933716 13.67511291 25.161689317078917 
Si 9.71670807 13.78148661 27.302175450397733 
Si 10.44180855 15.42531051 28.94390921026437 
Si 8.4145995 13.306356179999998 33.964356059830855 
Si 8.396419859999998 15.442805969999998 30.289093107021383 
Si 11.36413206 15.820782839999998 34.53845503759829 
Si 16.2957015 2.71857294 2.6842910086909937 
Si 13.58929719 -0.0007925117579999999 2.722019585753204 
Si 12.24240741 1.3317123869999998 1.3746592396280708 
Si 14.932049309999998 1.355482755 4.071756752775581 
Si 14.94635193 4.0116242699999995 1.1333220968378614 
Si 13.574847959999998 0.000309014784 8.145068112242674 
Si 13.57582536 2.7157221899999997 5.430724828863998 
Si 12.21784209 1.357585794 6.7872400810613644 
Si 16.28938098 -0.000252589482 10.862900623973406 
Si 14.93032257 1.357577649 9.501168802655636 
Si 13.57486425 2.71591767 10.855369418223418 
Si 12.21732081 1.3625965979999999 12.219795891139809 
Si 12.43388007 3.4299246599999997 15.209131824839144 
Si 16.15700844 2.70391194 13.607541464428868 
Si 13.64122971 0.1557169245 13.666754705967763 
Si 14.31829098 2.01368835 15.016947890952984 
Si 15.14347722 1.9260807299999998 17.280247952901192 
Si 14.819908949999999 3.33891243 21.136570765048678 
Si 13.71652209 2.1883985999999997 19.406604438734938 
Si 14.11298811 3.1542001199999996 23.419147949971624 
Si 12.23984988 1.86336423 24.140761829355785 
Si 15.866199359999998 1.78922844 24.22149773686827 
Si 12.52529955 1.1256487739999999 26.42468634007804 
Si 13.882647509999998 2.98328544 29.813210725342103 
Si 15.722928809999999 1.7242965 26.56836654518905 
Si 13.84229718 2.792106 27.453386861258732 
Si 16.06928679 0.08207618759999999 34.43654193226588 
Si 13.340776949999999 2.72448621 34.4709851071867 
Si 14.16327534 0.7783932149999999 30.667829843888896 
Si 14.20491258 1.101176307 33.01663327387022 
Si 13.584866309999999 5.42101878 2.679554640304189 
Si 12.288931649999999 6.81034401 1.1694304282593633 
Si 14.936643089999999 6.78519225 4.069683943853566 
Si 14.932880099999998 4.07241855 6.787723736476501 
Si 13.575157469999999 5.42975022 8.145068112242674 
Si 12.21727194 6.787863809999999 6.787585549215033 
Si 16.289169209999997 5.43212856 10.861829672697032 
Si 12.21947109 4.07277693 9.502308847562745 
Si 14.93296155 6.78776607 9.502067019855176 
Si 14.92647813 4.06759671 12.2002769404575 
Si 12.217972409999998 6.78618594 12.231783636072128 
Si 16.199867429999998 8.04227526 13.603326752954104 
Si 13.294399319999998 5.40575505 16.389872880449634 
Si 13.45392729 5.24116089 13.577451188244282 
Si 15.2404353 6.18783795 14.832606084155115 
Si 14.696430749999998 5.5672541099999995 20.368422325365277 
Si 12.35788722 6.271975799999999 20.851628631902344 
Si 15.15289284 5.662599479999999 18.03744505211328 
Si 12.40136523 6.774098759999999 23.228587716407706 
Si 13.866438959999998 5.293859039999999 24.47455315943094 
Si 16.13900799 6.06071079 24.720837406181687 
Si 13.04117127 4.89877767 26.723619933447974 
Si 13.187553209999999 7.533538559999999 29.93571373263319 
Si 14.10852465 6.5774621699999996 27.946508103806107 
Si 16.28244144 5.87998953 28.506339246826993 
Si 15.48320517 4.68589995 30.427556743011987 
Si 13.9282758 6.01949709 31.64059907099055 
Si 15.681861719999999 7.10691975 32.751244638221564 
Si 13.881653819999999 8.08546005 34.13508642137416 
Si 12.21176592 9.50172894 4.073104078574891 
Si 14.838218909999998 9.39307464 1.4215945429855645 
Si 13.571264159999998 10.86508791 2.7204684337432297 
Si 13.57561359 8.14671045 5.429826611664459 
Si 14.932309949999999 9.50233167 6.7877582832918675 
Si 13.574913119999998 10.85995656 8.144964471796573 
Si 14.929784999999999 9.504270179999999 12.229572639888646 
Si 14.93219592 12.21526827 9.50268886253178 
Si 13.576134869999999 8.145472409999998 10.863004264419507 
Si 12.639508739999998 9.35994078 14.946714215312042 
Si 13.64178357 10.977602939999999 13.580836776150242 
Si 12.28733523 10.24121349 17.143477110863564 
Si 13.12457607 9.943171649999998 19.4796364064206 
Si 15.52332744 9.39946032 19.328355901928866 
Si 15.15157335 9.52178193 23.230004135837753 
Si 12.82047435 9.174674609999999 23.570255720386516 
Si 15.39510885 11.87567064 23.1267782515214 
Si 16.205129099999997 8.42772924 25.120924074945957 
Si 13.85376534 9.774048869999998 30.158540691749803 
Si 12.46360932 11.58357465 29.61477381787453 
Si 12.64507992 9.521537579999999 25.93733441569694 
Si 14.561126009999999 8.520256439999999 26.783109549509806 
Si 16.04806092 11.76440994 27.410963371988156 
Si 12.29217336 11.50241787 27.23518917540128 
Si 15.583176899999998 9.70879113 28.50775566625704 
Si 13.54160007 9.981860399999999 32.68101096258062 
Si 15.40032165 11.470684949999999 32.816503572449676 
Si 12.245600249999999 12.24670797 1.3257720412023466 
Si 14.93374347 12.2165226 4.0718949400370485 
Si 14.91048135 14.904861299999999 1.359686649848049 
Si 16.284168179999998 13.58183637 2.724652053084163 
Si 16.2890226 16.28907147 5.431312124725236 
Si 13.574408129999998 13.57432668 5.429342956249322 
Si 12.21692985 12.21738597 6.787689189661134 
Si 14.932049309999998 14.933287349999999 6.787654642845768 
Si 13.571703989999998 13.57701453 10.866873507740602 
Si 14.94258894 14.9439573 12.249989807770493 
Si 14.57834454 12.52298637 15.167226537799072 
Si 12.83810013 13.81703139 16.259009543839756 
Si 16.222673429999997 13.67581338 13.931210577601513 
Si 13.96520523 12.994744769999999 21.4898119521754 
Si 13.90136472 16.20335349 19.875922925494503 
Si 16.0479306 15.27433479 19.442464033085795 
Si 14.927569559999998 13.183106039999998 19.306522314616977 
Si 12.918181769999999 14.48679474 18.488280992651546 
Si 13.553589509999998 15.30145764 22.03433885598875 
Si 15.58563669 15.958873169999999 23.20371400934353 
Si 14.99246892 12.689812259999998 25.33950177577244 
Si 12.85862553 15.367073759999998 29.489230690831153 
Si 16.187584769999997 13.07832876 29.373775233874916 
Si 12.871690109999998 13.434281549999998 26.021835926084417 
Si 15.816645179999998 15.728597729999999 26.981995565577147 
Si 13.488331769999998 15.39742203 27.20527163329353 
Si 13.180320449999998 14.09001921 34.49205866456052 
Si 13.916872799999998 13.388131979999999 30.255789977007677 
Si 14.591930399999999 13.685538509999999 32.521370128770094 
