&CONTROL
  dt          = 30.D0,
  prefix = 'x.66_y.66_z3.17_struc36-scf',
  pseudo_dir = './',
  outdir='./',
  wf_collect= .true.,
  verbosity= 'high',
/

&SYSTEM
ibrav= 6, celldm(1) =30.783621515, celldm(3) =2.1196850800590985, nat=  432, ntyp= 1,
  ecutwfc     = 12.D0, nbnd= 1728,
  degauss     = 0.05D0,
  occupations = "smearing",
  smearing    = "methfessel-paxton",
/
&ELECTRONS
  electron_maxstep=200,
  conv_thr    = 1.D-8,
  mixing_beta = 0.3D0,
  scf_must_converge=.false.,
/
ATOMIC_SPECIES
Si  28.08  Si.pbe-hgh.UPF
K_POINTS {automatic}
1 1 1 0 0 0
ATOMIC_POSITIONS (angstrom)
Si 0.011526136109999998 2.72653875 2.6945055300381107 
Si 2.71655298 -0.012787063559999999 2.6963045258427223 
Si 4.04013177 4.00589019 1.228123677193696 
Si 1.358263458 1.32445845 1.3039991739509733 
Si 0.0008863454159999999 -0.0006909403499999999 5.430515723361124 
Si -0.000269109171 2.71528236 8.145238375157396 
Si 2.7147284999999997 -0.00017562900599999998 8.145031197137673 
Si 2.71388142 2.71590138 5.431378965109978 
Si 1.357665615 1.357284429 6.787359104209948 
Si 2.7110795399999996 2.7198272699999997 10.86728131698395 
Si 1.343343447 1.34573319 12.234000183439667 
Si 0.8803230029999999 2.8074837599999998 15.60851576872008 
Si 4.00997898 1.3139383679999999 15.084838794195248 
Si 2.21004801 0.9942129089999999 16.812772538041457 
Si 2.95971381 1.5707225249999999 19.558399244446708 
Si 1.370425572 0.654704874 21.128083510892992 
Si 1.123983936 1.459199556 23.414223899218193 
Si 2.7491329799999997 3.08944737 23.815700371775247 
Si 1.8052578 0.12015650609999999 25.26926135816568 
Si 2.05196985 0.809024931 29.099706705520855 
Si 2.21188878 3.43565874 26.148662992558293 
Si 2.9059568099999997 1.385356986 26.921747773162043 
Si 3.17278701 2.1335013 34.48795811285809 
Si 3.12355863 2.02219173 30.89411006402883 
Si 1.72757079 1.339663536 32.66037174152416 
Si 4.07196243 6.78889008 4.066524700831788 
Si 1.3578448049999998 4.07362401 4.073879520532025 
Si 2.7060622199999997 5.405771339999999 2.6946160249819635 
Si 1.306992312 6.705045449999999 1.2727705404444285 
Si 0.00381661668 8.151825509999998 2.6961940308988686 
Si 3.26287071 7.43159574 0.05618978661970944 
Si 0.00024211338299999998 5.4276651 5.43023948600149 
Si 2.71502172 5.43038553 8.144858548787901 
Si 1.3573495889999998 6.78779865 6.787255515200085 
Si 2.71445157 8.1453258 5.430274015671444 
Si 4.07175066 6.78571353 9.502530641715625 
Si 4.08014001 4.08821985 12.25029818765803 
Si 1.357216011 4.07274435 9.501874577986495 
Si 0.0037106991 5.4259872300000005 10.861169565402065 
Si 1.365512508 6.79869666 12.230650805454111 
Si 2.31085053 6.915886919999999 15.640179476068047 
Si 0.6737804639999999 5.23513359 16.074562724091415 
Si -0.0037637882099999997 8.06250744 13.743361116476025 
Si 3.21747048 6.0808941 13.581313375381141 
Si 3.3963998399999995 4.35516408 16.291167343713877 
Si 0.73629171 6.39224487 19.927176119557167 
Si 3.098358 6.8854897799999994 19.76146823344714 
Si 0.540028161 4.57154415 18.335496453350082 
Si 3.78089271 6.77414763 17.443905845463647 
Si 2.4000219899999995 5.124540779999999 22.711303407961303 
Si 2.95090092 6.5292926399999995 24.495796751192433 
Si 0.1483064406 5.828578289999999 22.176853176410773 
Si 0.9509531849999999 7.45656831 25.31649794666297 
Si 3.76180083 6.185785409999999 30.0569036863202 
Si 3.5862760799999998 5.25740202 26.324280893945165 
Si 3.7703693699999996 6.988572899999999 27.822799510615916 
Si 2.7130180499999996 8.117991179999999 30.86558855664669 
Si 2.4488757 4.35263913 30.814795412144118 
Si 0.270531288 4.62800529 31.845747767965552 
Si 1.7612910899999998 8.07190677 32.95825920421872 
Si 1.356520428 9.504335339999999 4.0711862062756 
Si 2.71642266 10.848716459999999 2.6855174569490416 
Si 0.0010218228299999999 8.14552128 8.14468590043813 
Si -0.000409248783 10.85853933 5.431344435440024 
Si 2.71404432 10.85951673 8.144340603738588 
Si 1.356636087 9.501191369999999 9.500769628547962 
Si 2.70617625 8.15058747 10.856059174248848 
Si 0.00175371624 10.86213942 10.858925136855044 
Si 1.337814621 9.184432319999999 15.366980727390713 
Si 2.56678272 10.755439919999999 13.610629065172226 
Si 0.18871965 9.88633584 17.74234578287747 
Si 3.35033172 12.14914716 17.278163429683662 
Si 3.41238033 11.05328628 20.84010606347527 
Si 1.6365259799999998 11.295013589999998 19.218040287708526 
Si 0.5676739199999999 9.72788301 21.89471124321531 
Si 2.2164173999999996 11.1682611 22.86105858655251 
Si 3.4947751499999997 10.410678359999999 24.674246085515545 
Si 2.4074991 10.60685883 26.77085311546235 
Si 0.833360562 8.55335772 29.508537997778145 
Si 0.058873851899999996 10.87021926 29.32846576896718 
Si 0.32621050799999995 11.60361135 27.094050826233314 
Si 1.9054413 8.397999989999999 27.31341781945211 
Si 3.8715628499999997 11.35642689 28.51719117339413 
Si 3.70853253 10.31735295 30.708616677035067 
Si 2.91975444 12.07113435 32.388588709314945 
Si 1.405079289 10.35045423 33.03412088910802 
Si 1.39942503 12.30781176 1.290719062886602 
Si 1.355852538 14.93604036 4.072325685384088 
Si 8.33262822e-05 13.57489683 8.144893078457855 
Si 2.71278999 13.573789109999998 5.430101367321675 
Si 1.357344702 12.217662899999999 6.7874972228897645 
Si 4.07909745 14.935030379999999 12.247363165711926 
Si 1.3556912669999999 14.932244789999999 9.501874577986495 
Si 2.7174000599999997 13.57654212 10.865175007116747 
Si 1.331873658 12.207677129999999 12.226679893409385 
Si 2.65240296 16.25662179 13.675475785346142 
Si 3.40496838 12.59130663 14.85366265385213 
Si 1.6894358999999999 14.479138439999998 15.053485853876868 
Si 0.535253562 14.56226631 17.466453719943715 
Si 2.9596812299999997 14.564269979999999 17.33959171253212 
Si 1.90630467 14.630912369999999 21.044936065643363 
Si 0.629587323 13.39411041 19.490893739686317 
Si 1.74490335 13.496769989999999 23.113194236557803 
Si 3.2875826399999997 14.79430107 24.38903101169416 
Si 0.46347167699999997 13.89137895 27.62456467540907 
Si 2.28317382 14.670171269999999 29.017664209709768 
Si 2.7001815299999996 13.67279973 34.31109714335287 
Si 1.64942766 13.749688529999998 31.14596947667449 
Si 1.240164216 15.309146519999999 33.10425064878492 
Si 8.149284269999999 -0.00529297938 2.6790465967996315 
Si 4.07170179 1.358084268 4.0693561337680295 
Si 5.4332525700000005 2.7270926099999997 2.706663426828971 
Si 6.82243119 1.4914570139999999 1.2922521802325668 
Si 8.14377825 2.71551042 5.430688371710895 
Si 5.4298316699999996 -0.0001069614432 5.429721540952178 
Si 5.43080907 2.71546155 8.144478722418405 
Si 6.78779865 1.3577095979999998 6.787946108599169 
Si 4.07424303 1.3555756079999999 9.502427052705762 
Si 6.76020339 1.360456092 12.19860727173665 
Si 7.266675779999999 3.46388931 14.983425153539873 
Si 5.44012695 2.67151113 13.64260353954978 
Si 8.06131827 -0.015520558139999998 13.555105355885932 
Si 6.22493028 3.9715671599999998 17.085729579029113 
Si 6.35715621 0.356307912 18.083222684664968 
Si 4.6595916 2.82541905 20.631408738272313 
Si 6.386510789999999 2.52394002 18.946222725829358 
Si 4.852497779999999 2.07544374 23.053423377867148 
Si 7.148785049999999 2.89517283 23.46884983708568 
Si 4.941050219999999 1.8160906499999998 25.741316476109038 
Si 6.87713301 2.25984654 29.391137119933987 
Si 6.851932379999999 0.600558543 26.258674521032255 
Si 7.07725566 4.00979979 27.81433974147715 
Si 7.438877369999999 0.225023544 28.46108045971862 
Si 7.86288978 2.9313366299999997 34.28053838544343 
Si 5.1628874399999996 0.49265846999999996 34.441515706769735 
Si 5.47550883 2.1373294499999997 31.293238519029 
Si 6.5256599699999995 0.189266994 32.48927722690129 
Si 6.7858275599999995 4.0716855 4.072118507364363 
Si 6.70287888 6.69347955 1.2576672628064776 
Si 5.44799502 8.13937995 2.7086799595542943 
Si 4.0728583800000004 4.07246742 6.787359104209948 
Si 5.43149325 5.429245229999999 5.430308545341399 
Si 6.787521719999999 6.78753801 6.787877049259261 
Si 6.7853062799999995 4.07377062 9.499457501089704 
Si 5.43602187 5.42318535 10.854332690751141 
Si 6.7821948899999995 6.76590489 12.204649963978627 
Si 8.10953667 5.3702754299999995 13.592052102736885 
Si 6.01840566 7.6803114599999995 17.218979575382228 
Si 5.15716965 7.826155829999999 13.4644304425863 
Si 4.10275053 5.1139522799999995 21.04738767221011 
Si 7.958300309999999 5.45840433 20.420294336172564 
Si 7.30181331 5.8402419299999995 18.105943207494807 
Si 6.14385495 5.89243509 22.034176580160175 
Si 6.8213886299999995 5.085737999999999 24.191935655595803 
Si 5.570121149999999 4.1169717 26.005295802908613 
Si 7.732162529999999 7.465430069999999 27.133518238990924 
Si 7.4629376999999995 6.022103489999999 28.94760350937277 
Si 5.03716122 5.821850519999999 34.29566238088335 
Si 8.047097099999998 7.89113664 34.163137507599274 
Si 6.2306317799999995 7.665406109999999 32.52542979134329 
Si 5.987829329999999 6.02114238 30.792040359644325 
Si 6.596163089999999 4.11959439 32.211416972780135 
Si 8.136089369999999 10.82895669 2.6975683117630447 
Si 4.07913003 9.357709049999999 1.243710370211005 
Si 6.789818609999999 9.50451453 4.075709593039596 
Si 6.741697949999999 12.041763479999998 1.1987320221287125 
Si 4.07241855 9.50278779 6.787393633879902 
Si 5.42996199 8.14495113 8.144858548787901 
Si 5.43032037 10.858523039999998 5.43023948600149 
Si 6.78638142 9.50047461 9.503117646104846 
Si 4.07121309 9.508635899999998 12.2251605879314 
Si 5.4345069 10.86059187 10.863310404939224 
Si 7.0123562999999995 8.72300178 14.953971345068972 
Si 5.63739885 11.422564289999999 17.454230216779937 
Si 4.27345344 8.867754719999999 20.519359959271057 
Si 7.91097786 9.522971100000001 19.806978338446722 
Si 5.81686578 9.418405589999999 18.76487289923009 
Si 7.608814649999999 9.37698012 22.205443743132818 
Si 5.62769001 8.15832522 22.35906624475889 
Si 7.26841881 11.25189396 23.707898742178347 
Si 4.51566945 8.286934769999998 24.477634144796546 
Si 5.47010055 11.51297379 25.28445441294551 
Si 5.521886459999999 8.21920095 26.70780193812605 
Si 5.740025849999999 10.474388549999999 27.40865064918569 
Si 7.707287699999999 10.886085719999999 28.657657870767665 
Si 5.186719709999999 10.85308218 34.27245844267416 
Si 5.76646452 9.96526089 32.06003889970109 
Si 7.72255143 11.01466269 31.09054935639806 
Si 4.073151599999999 12.21642486 4.067146234890964 
Si 4.13498844 14.983102169999999 1.2133967729582456 
Si 5.44195143 13.570840619999998 2.6773788137408454 
Si 6.78713076 14.931544319999999 4.067491531590505 
Si 4.07222307 14.932603169999998 6.787428163549856 
Si 5.42966877 13.57569504 8.145203845487442 
Si 6.78776607 12.2170113 6.787255515200085 
Si 8.14486968 13.57442442 10.864139117018123 
Si 4.07121309 12.21673437 9.502116285676175 
Si 6.78587643 14.933173319999998 9.502530641715625 
Si 6.78721221 12.204174779999999 12.257998304057809 
Si 5.42891943 16.290488699999997 10.857302242367199 
Si 7.076082779999999 14.71865031 15.1047624137588 
Si 5.41533357 13.51783296 13.750784995516172 
Si 5.348006999999999 15.96463983 16.12494151255454 
Si 5.170869539999999 12.73990401 20.587970413469975 
Si 4.188696569999999 14.85879318 20.807613644048406 
Si 6.5605205699999996 13.1235498 18.714355992087153 
Si 7.950171599999999 15.08550111 18.690081634109376 
Si 4.22274267 16.0018299 18.807102685584034 
Si 6.9469682399999995 12.99759552 22.16349019413851 
Si 4.65708294 15.991550909999999 22.828255400096054 
Si 6.80882904 15.13349145 23.132289144042456 
Si 6.88177566 14.73994134 25.405342787455034 
Si 4.82700393 13.731720659999999 25.873185285663986 
Si 6.414969419999999 14.44973499 29.243937136919392 
Si 4.3441357499999995 13.71572388 28.22831595455761 
Si 6.2879888699999995 14.342318729999999 31.57282525664785 
Si 9.502657469999999 1.356623055 4.067111705221009 
Si 10.86376842 2.71008585 2.6723029522575836 
Si 9.48283254 4.01928057 1.115536235341153 
Si 8.14469049 4.4448568199999996e-05 8.14468590043813 
Si 10.86109686 -0.00165306033 5.430757431050803 
Si 10.859907689999998 2.7152660699999998 8.144547781758313 
Si 12.21461667 1.3265077319999998 12.223986579152958 
Si 9.5017941 1.355624478 9.50208175600622 
Si 8.144397269999999 2.71653669 10.86020273464335 
Si 9.51435369 4.07647476 12.215354161664418 
Si 10.02804255 0.988115562 16.93538739604869 
Si 9.0139086 1.75962951 14.926485727785458 
Si 10.76959593 2.62484028 13.558316615191668 
Si 11.940749189999998 2.04806025 20.239427924952658 
Si 8.47658295 3.19523463 19.783532692547848 
Si 10.48020408 2.811654 18.45776601465777 
Si 11.137717349999999 2.87899686 22.28513822138703 
Si 8.720900369999999 0.0460042632 22.4532977140638 
Si 11.995092629999998 1.214906571 23.705309016931785 
Si 9.97376427 0.40157456399999997 24.460093072459827 
Si 8.81807022 2.3656012200000003 21.921126440730244 
Si 8.43002613 1.9986363899999997 25.22140323560921 
Si 10.35045423 3.9882155399999997 30.159629454433837 
Si 9.072047609999998 3.8639717099999995 26.53242574442886 
Si 10.7098605 2.9325258 27.994550088967923 
Si 9.825052859999998 0.585566856 28.179042115533015 
Si 8.448645599999999 2.95927398 31.009715399035365 
Si 8.7143355 1.233747585 32.691413914812955 
Si 10.85800176 8.13760434 2.6813773495215374 
Si 12.219422219999998 4.07466657 4.071496973305188 
Si 12.12813306 6.66611235 1.2237487680105037 
Si 8.150001029999999 5.41510551 2.6817606288580285 
Si 9.502608599999999 6.787489139999999 4.066835467861376 
Si 9.502347959999998 4.072548869999999 6.787946108599169 
Si 8.144609039999999 5.42908233 8.144029836709 
Si 10.858979159999999 5.42821896 5.430170426661583 
Si 10.85906061 5.430271499999999 10.862170925830736 
Si 8.14873041 8.1492354 10.862309044510551 
Si 9.502347959999998 6.786299969999999 9.502047226336266 
Si 8.916445529999999 7.143702569999999 14.964813661434578 
Si 10.77971202 8.11487979 13.734728698987487 
Si 11.24177787 4.649263739999999 17.077028102200664 
Si 9.410961059999998 6.36986241 17.178890628565444 
Si 9.9641043 6.76957014 20.668666252152857 
Si 10.30252905 7.5336037199999994 24.539718491374128 
Si 8.65867257 6.02019756 25.455859694597972 
Si 9.550338299999998 6.18542703 30.052794655595655 
Si 11.603839409999999 7.244667989999999 29.403602330787443 
Si 12.177068219999999 7.312352939999999 27.133345590641152 
Si 9.46924668 7.18879329 32.391972616970456 
Si 11.87762544 4.25486655 32.0369040208318 
Si 10.74447675 5.46309585 34.049155067080584 
Si 9.36090189 9.32648112 1.1965083113836645 
Si 10.421071379999999 11.18494206 0.08898434065867548 
Si 12.2170113 9.50703948 4.0683893030093135 
Si 8.14262166 8.1453258 5.430964609070529 
Si 9.50194071 9.5027715 6.787669871239536 
Si 10.8598914 8.145472409999998 8.145065726807626 
Si 8.145537569999998 10.85976108 8.145169315817489 
Si 10.85922351 10.858294979999998 5.429997778311812 
Si 9.504058409999999 9.49314411 12.232273699941958 
Si 10.86270957 10.85881626 10.859477611574311 
Si 11.78811189 9.89449713 14.860395939493191 
Si 8.1503757 10.71867339 13.73251880011042 
Si 10.003933349999999 11.55602826 14.967921331730452 
Si 9.76249926 11.96267553 17.353403580513785 
Si 11.496406859999999 11.18059263 19.654011900549783 
Si 8.37314145 11.729614499999999 19.26489704983632 
Si 9.720585089999998 8.18342811 18.824091283201483 
Si 11.90368944 9.10635435 18.690565049488736 
Si 9.30303981 11.657156579999999 24.867163351549454 
Si 9.734122079999999 8.37740943 22.405888477216735 
Si 11.07483795 10.34343324 21.870851241276984 
Si 10.492893989999999 9.68300406 25.733927126738845 
Si 9.21662136 9.29779443 27.71555035573829 
Si 10.772365229999998 9.43953372 29.483124160691876 
Si 9.637001099999999 9.45970074 31.513296105646877 
Si 11.30367987 10.70738442 32.51293005081989 
Si 12.185604179999999 12.2460075 1.2598495379475807 
Si 9.50246199 12.21850998 4.065523340403118 
Si 9.5581575 14.903932769999999 1.1920850606625364 
Si 10.8675477 13.58866188 2.7006725290919236 
Si 8.14465791 13.575809069999998 5.429997778311812 
Si 9.50308101 14.93265204 6.787738930579444 
Si 10.860608159999998 13.574750219999999 8.144824019117946 
Si 12.21813531 12.2131017 12.215077924304785 
Si 9.50334165 12.216604049999999 9.50190910765645 
Si 9.501680069999999 14.93129997 12.237867506474533 
Si 10.86516936 16.2875565 10.859408552234404 
Si 9.00631746 14.176193309999999 16.76867814950999 
Si 11.325524759999999 15.22862505 16.760908973770306 
Si 10.795008329999998 13.41867573 13.641809357140835 
Si 9.09255672 13.01142573 21.161715409428343 
Si 9.43375077 15.22926036 20.525886066892394 
Si 11.66098473 15.965079659999999 20.429099402010873 
Si 10.49983353 12.32763669 22.988300420333598 
Si 8.76652866 13.58313957 26.233295213615946 
Si 9.81775494 13.802207489999999 30.180243667396468 
Si 10.304190629999999 15.363001259999999 26.37051612201379 
Si 8.27432631 13.13470845 28.473511140902115 
Si 8.64687861 12.93737139 34.4047070785986 
Si 12.11990661 14.77680561 32.67791281386088 
Si 10.32144174 16.09911378 30.323196501006702 
Si 11.61856557 12.70593936 31.228322739515168 
Si 8.283921119999999 13.21286787 31.95910867442507 
Si 10.66097421 16.28485236 34.076226328324644 
Si 15.83963037 0.268034031 0.14974654617371516 
Si 13.54950072 -0.00409750515 2.7014908822698374 
Si 12.2074002 1.2935025629999999 1.145514894795357 
Si 14.934883769999999 1.355748282 4.066386582151972 
Si 14.869707479999999 4.01786334 1.2559269674407878 
Si 13.57492941 -0.000183383046 8.144754959778039 
Si 13.57248591 2.71437012 5.429825129962041 
Si 12.21764661 1.35702216 6.787877049259261 
Si 16.2919548 -0.00211670631 10.858752488505273 
Si 14.93219592 1.356473187 9.503255764784663 
Si 13.578822719999998 2.7147284999999997 10.863172286259406 
Si 14.922177569999999 4.087780019999999 12.226541774729567 
Si 16.0857234 2.56904703 13.545920463678124 
Si 15.26032539 1.87776459 16.949510031059944 
Si 14.09386365 1.91076813 14.920408505873525 
Si 12.277919609999998 3.7691964899999997 14.972720955854081 
Si 14.291282159999998 2.5504927200000003 20.534725662400657 
Si 15.457906799999998 0.512133165 20.41148927033425 
Si 14.68432728 3.5849728799999996 18.460528388254104 
Si 14.777278019999999 4.03366464 22.400398259694022 
Si 15.457760189999998 2.65222377 24.246768771483012 
Si 13.532412509999999 1.78189794 25.34242972879855 
Si 15.97513059 1.409728455 29.566168016931638 
Si 16.22453049 3.70397133 26.268860773668735 
Si 12.92803722 3.31674174 27.062939593604614 
Si 15.00771636 3.24827487 28.325758683168253 
Si 14.11018623 2.11344831 34.41437538618577 
Si 12.64954338 0.10743255 30.810133906700305 
Si 15.87524031 2.31288678 31.786909210363664 
Si 13.36490244 2.2048514999999997 32.064665875474944 
Si 13.55292162 5.41720692 2.69844536537988 
Si 14.93437878 6.78797784 4.067457001920551 
Si 14.04559638 7.42942917 0.06446447672752499 
Si 14.932407689999998 4.07243484 6.787531752559719 
Si 13.575287789999999 5.429294099999999 8.144996667467717 
Si 12.21740226 6.787342529999999 6.787359104209948 
Si 12.215985029999999 4.07253258 9.50132210326723 
Si 14.933352509999999 6.788743469999999 9.502875938415166 
Si 12.214095389999999 6.783742439999999 12.258481719437167 
Si 13.52752551 5.340871979999999 13.710350751999847 
Si 15.122886659999999 6.481448909999999 15.131419318963415 
Si 14.213415959999999 7.406362529999999 17.139906631187195 
Si 12.25012887 6.057420209999999 20.445949880948504 
Si 13.38915825 8.12123289 20.27319794216783 
Si 15.492734819999999 8.042959439999999 19.10609509771713 
Si 13.12389189 5.461434269999999 18.28415083412824 
Si 16.07218641 7.985683799999999 23.364190407454615 
Si 12.35260926 6.354403199999999 24.15222653514851 
Si 12.53362374 4.8136135499999995 22.413933890316052 
Si 13.32500823 5.534739269999999 26.144726610183522 
Si 15.08312277 5.11805736 29.879559301435624 
Si 15.694356149999999 5.95772541 26.282810760330218 
Si 15.81759 6.83880264 28.472026365094088 
Si 15.858315 5.70097872 34.36416924607241 
Si 13.08450267 6.03384858 30.90564297379352 
Si 13.70963142 7.74499905 32.367732788662636 
Si 16.145572859999998 10.96533657 0.07361587515547674 
Si 14.829911009999998 9.380352149999998 1.2700599613530268 
Si 13.56010551 10.853261369999998 2.687592690113287 
Si 13.57374024 8.14382712 5.429583422272361 
Si 14.93274978 9.50270634 6.787428163549856 
Si 13.57457103 10.86062445 8.14468590043813 
Si 13.57387056 8.14721544 10.866936020284411 
Si 14.937815969999999 9.495050039999999 12.25278432389473 
Si 12.2153823 9.5034231 9.50166739996677 
Si 13.544597429999998 10.88382141 13.653756622944975 
Si 13.07876859 9.471217769999999 16.740087582787947 
Si 14.440970969999999 11.36800908 17.267977177047182 
Si 14.99188248 11.1327489 22.12557661652884 
Si 13.74804324 8.257352130000001 23.948501482418955 
Si 13.242336479999999 9.57531087 22.08921687406711 
Si 12.95450847 9.36640791 25.948356377154198 
Si 14.17008456 10.10841741 29.700384844043473 
Si 12.25053612 11.35377162 29.328742006326816 
Si 14.41262637 11.30926734 26.178358508718873 
Si 13.970825279999998 8.23944942 28.337809537982256 
Si 13.51244097 10.02305781 32.0161862188593 
Si 14.747467319999998 11.942899469999999 32.848765620794076 
Si 12.21575697 14.93535618 4.076676423798313 
Si 14.93667567 12.21513795 4.06994313815725 
Si 14.770729439999998 14.801305769999999 1.33698882062518 
Si 16.2909774 13.57776387 2.7060108160668372 
Si 13.57352847 13.576362929999998 5.43023948600149 
Si 12.21764661 12.217728059999999 6.787428163549856 
Si 14.932668329999998 14.932309949999999 6.787600811899627 
Si 12.216718079999998 14.93164206 9.501598340626863 
Si 14.93169093 12.215431169999999 9.502565171385578 
Si 13.56979806 13.577047109999999 10.860686150022707 
Si 14.939396099999998 14.94206766 12.235554018587605 
Si 12.66837462 14.38843572 14.928281270623074 
Si 14.358185189999999 12.553823340000001 15.105832833527378 
Si 13.54645449 16.23552624 13.680413528149588 
Si 16.127051129999998 13.43301093 13.662837926142918 
Si 14.95052217 13.03778295 20.737173117341914 
Si 13.27395537 12.653974259999998 19.166211253107328 
Si 12.78991431 14.93550279 18.64325940165153 
Si 15.04761057 16.085837429999998 18.171238813378128 
Si 14.819387669999998 15.099477929999999 21.954861928275463 
Si 12.628105739999999 15.547697279999998 22.55042967564486 
Si 15.89698746 14.152361039999999 23.86411096905098 
Si 12.342851549999999 13.583970359999999 23.837592182526183 
Si 14.38314147 12.34897659 24.05015683076401 
Si 16.13127024 15.314049809999998 25.88202488117225 
Si 14.81107977 13.91390802 28.97160162999091 
Si 14.241402179999998 16.1811828 28.981546174937712 
Si 12.3942465 14.37778206 26.13305558173901 
Si 14.00578362 16.11779841 26.56564328692476 
Si 13.20267033 12.734153639999999 27.657954866254745 
Si 13.54028058 13.526743589999999 34.19121012927201 
Si 15.84727038 12.767922809999998 30.76762788298673 
