&CONTROL
  dt          = 30.D0,
  prefix = 'x.66_y2.00_z3.14_struc32-scf',
  pseudo_dir = './',
  outdir='./',
  wf_collect= .true.,
  verbosity= 'high',
/

&SYSTEM
ibrav= 6, celldm(1) =30.783621515, celldm(3) =2.0985799228213096, nat=  432, ntyp= 1,
  ecutwfc     = 12.D0, nbnd= 1728,
  degauss     = 0.05D0,
  occupations = "smearing",
  smearing    = "methfessel-paxton",
/
&ELECTRONS
  electron_maxstep=200,
  conv_thr    = 1.D-8,  mixing_beta = 0.3D0,  scf_must_converge=.false.,
/
&IONS
/
ATOMIC_SPECIES
Si  28.08  Si.pbe-hgh.UPF
K_POINTS {automatic}
1 1 1 0 0 0
ATOMIC_POSITIONS (angstrom)
Si 0.00282173751 2.69058672 2.716217546416761 
Si 2.7422911799999996 -0.0009183797009999999 2.7191336008669786 
Si 1.346226777 1.276246566 1.3553773224396544 
Si 3.92009076 4.01568048 1.2234677362543238 
Si -0.0025170004799999995 -0.0009371555549999999 5.4309035659944875 
Si -6.36458445e-05 2.71528236 8.14461186977765 
Si 2.7151031699999995 -6.82801866e-05 8.14522721538262 
Si 2.7148914 2.71446786 5.429467759582891 
Si 1.3572713969999999 1.357849692 6.787262022815399 
Si 2.7157547699999998 2.71588509 10.857978314891385 
Si 1.378875195 1.3432913189999998 12.248044036517856 
Si 0.6912954719999999 1.83381417 17.66281187331536 
Si 1.9455472799999998 2.5756281899999998 19.4836195184206 
Si 2.09971584 0.553470669 22.73004618677278 
Si 0.8964484739999999 3.8427295499999996 23.629476346036768 
Si 0.7452072269999999 2.3137338599999997 21.65435369755192 
Si 1.0814491169999998 1.4810216399999998 26.551820995771592 
Si 3.3265320299999996 2.21974056 26.84776804589506 
Si 0.27012892499999996 0.64255905 28.603656729675993 
Si 4.04365041 0.73928907 28.568445286724952 
Si 2.0271438899999996 3.0740858999999996 33.952616772608685 
Si 1.116790272 1.541043774 32.10179393632771 
Si 3.0329536499999996 3.08387619 31.687427043114525 
Si 0.358301808 2.54324367 30.122842470745265 
Si 1.357895304 4.076197829999999 4.073177674495866 
Si 2.7157384799999997 5.42426049 2.702495339425938 
Si 1.4650721009999998 6.791040359999999 1.2261752569161903 
Si 0.0203792787 8.12328543 2.699292123693401 
Si -0.000634477581 5.4275999399999995 5.431108681196144 
Si 2.7147773699999997 5.4299457 8.144851170846248 
Si 1.35767376 6.787423979999999 6.78777481081954 
Si 4.06785735 4.04088111 12.205824490843549 
Si 1.357274655 4.07176695 9.500901954864677 
Si 0.0038108174399999997 5.42745333 10.86139690158566 
Si 1.3658545979999999 6.79148019 12.18873155737217 
Si 2.71581993 8.1445113 10.85780738555667 
Si 0.5214494159999999 5.758645319999999 16.740887413603033 
Si 2.71544526 6.83779266 16.23606471645931 
Si 0.8363367449999999 4.3956936 14.718827569805773 
Si 2.60908785 5.31760986 13.468513672241302 
Si 0.0017727918299999998 8.04501198 13.577737517123417 
Si 0.7015011569999999 6.02441667 20.164157571650104 
Si 2.63902887 4.80103767 19.7024432527212 
Si 4.0263667199999995 5.81623047 18.034241317648437 
Si 3.2089345199999997 4.336398 23.76639074314252 
Si 0.785873583 7.45876746 22.014809478596373 
Si 3.43705968 5.93768871 25.47930779217641 
Si 0.6762777209999999 4.76146926 29.286485235990664 
Si 2.8500332399999997 5.68413486 29.072618452396764 
Si 1.626284457 7.52140251 25.87278712068757 
Si 3.9442977 4.47180048 27.381614544073184 
Si 2.52758898 7.86911256 28.074151836599597 
Si 0.268237656 4.889101409999999 34.1777648922937 
Si 3.429045 5.3618209199999995 31.341534441387687 
Si 3.2037543 7.819981919999999 34.089360240379726 
Si 0.495939276 6.3588992399999995 30.948465343279842 
Si 1.358152686 9.50189184 4.068596768325535 
Si 2.70956457 10.86585354 2.6982631290984243 
Si 1.243010079 12.063673529999999 1.2070072413213853 
Si 0.000556376805 8.14472307 8.145295587116506 
Si 2.71533123 8.144462429999999 5.4292284585142925 
Si -0.00264231945 10.861667009999998 5.4292284585142925 
Si 2.7147122099999996 10.86018462 8.145261401249563 
Si 1.356554637 9.5008167 9.502371947143214 
Si 2.7513158399999997 10.83084633 13.665595195166306 
Si 1.7477052299999998 9.000420479999999 14.870817934233282 
Si 3.0598973099999998 9.11692656 19.680427554410063 
Si 1.05495669 9.37632852 18.53058591979036 
Si 2.57015475 10.68918849 17.219318621466947 
Si 1.5722879939999999 10.78248132 22.987465764851752 
Si 2.67276546 9.00928224 21.960283020822672 
Si 1.74632058 9.89448084 25.162097132814548 
Si 1.596998295 9.240909749999998 29.800196258539508 
Si 1.014129063 11.41485912 28.82771090161884 
Si 3.7524015 10.95800607 25.7819894580876 
Si 0.1257156315 10.845572489999999 26.58094735440682 
Si 0.336724074 10.27260432 33.69765857694959 
Si 2.2998222 9.34153308 32.32287393784653 
Si 0.282307329 15.773655869999999 0.1604253852369635 
Si 4.02794685 14.87842263 1.3233554208743716 
Si 2.17997667 13.99307742 0.13685115325190622 
Si 1.3566605219999999 14.93428104 4.068596768325535 
Si -3.9847131899999996e-05 13.575157469999999 8.144714427378478 
Si 2.71461447 13.572779129999999 5.42994636172009 
Si 1.357284429 12.21720678 6.787569695617884 
Si 4.06494144 14.92716231 12.24175383700039 
Si 1.356192999 14.93045289 9.501517300469645 
Si 2.7156733199999996 13.57567875 10.86026876797655 
Si 1.3609969199999998 12.20878485 12.22394300032321 
Si 2.842605 16.27144569 13.8473956355679 
Si 1.310010849 14.66059275 15.003424912104244 
Si 2.5669130399999998 13.20833925 16.493860339074658 
Si 1.5502606559999998 14.9784921 19.421606355786434 
Si 1.5749318609999998 12.75651981 18.661757091249726 
Si 3.73679568 15.760868219999999 18.61868289890185 
Si 1.068159735 16.22901024 24.753849509784118 
Si 2.1252259799999997 13.106982869999998 23.077272037310383 
Si 1.21306743 14.8525704 21.776773287073937 
Si 1.521082008 13.954795919999999 25.232212345914146 
Si 3.33008325 13.18761837 26.552094482707133 
Si 2.6501223599999997 13.21495299 28.767543775799584 
Si 2.19325302 15.58579959 29.25455563626613 
Si 2.397888 15.772482989999999 31.60534677658496 
Si 0.224930691 14.256926549999998 31.57365647792902 
Si 2.4542188199999995 13.40899947 32.06251437521048 
Si 4.07381949 1.356315174 4.071810239818155 
Si 5.423071319999999 2.71002069 2.677994328588062 
Si 6.74761122 1.2470174189999998 1.2375010346343265 
Si 5.42996199 2.7146633399999995 8.14498791431402 
Si 6.78776607 1.3568836949999998 6.788048297755082 
Si 4.07025198 1.356569298 9.502440318877099 
Si 6.804007199999999 1.349945784 12.240625703391279 
Si 4.86173421 0.78239241 15.110016445231766 
Si 5.38654914 2.66115069 13.624059366830856 
Si 5.5560303 2.07813159 17.103838762934306 
Si 7.36625655 1.9963395 21.244943755045433 
Si 5.05905498 2.3507936099999998 21.238653555527968 
Si 4.11847038 1.71002646 19.146649427965823 
Si 6.75112986 2.9512104299999997 24.921975603408608 
Si 4.404441329999999 2.52960894 24.746396990790597 
Si 4.3549686 0.943129098 23.03857363593118 
Si 7.964637119999999 1.473841008 23.52192760863485 
Si 8.041998329999998 0.42816147299999996 28.05199939482069 
Si 7.70360616 2.6172165599999997 27.085804237417488 
Si 4.73633379 1.8297579599999998 30.57720682828148 
Si 6.38690175 3.5207576999999994 30.395748246549314 
Si 6.78833622 4.074063839999999 4.071844425685098 
Si 4.07557881 6.781136039999999 4.073143488628922 
Si 6.79446126 6.82057413 1.3592608369243517 
Si 4.07228823 4.07313531 6.787877368420369 
Si 5.4291312000000005 5.42991312 5.430766822526716 
Si 6.787554299999999 6.787554299999999 6.787569695617884 
Si 6.78685383 4.0713597 9.502337761276271 
Si 4.07134341 6.78797784 9.502235203675443 
Si 5.432470649999999 5.428170089999999 10.86437107200968 
Si 6.804218969999999 6.79200147 12.211430973022162 
Si 6.24954447 4.588029629999999 14.84517853402621 
Si 4.41037089 6.24187188 14.623449001035475 
Si 5.37082929 8.07351948 13.528236381790302 
Si 5.9552330399999995 4.47106743 17.225984865520786 
Si 4.83395976 7.690362389999999 19.22353344272009 
Si 7.99811307 5.00717133 18.469598333164477 
Si 5.44626828 6.603151499999999 21.38616557138597 
Si 7.61634063 5.909653619999999 22.092719069358917 
Si 7.75299744 5.07700656 24.320406902816874 
Si 4.12542621 4.588844129999999 21.566872064045395 
Si 5.014762469999999 7.65471987 25.17700217080159 
Si 7.24331592 7.060428089999999 25.595129509378477 
Si 7.31807073 6.319086479999999 27.77273504776529 
Si 6.247215 4.23859284 28.12645621302202 
Si 4.97783304 5.9641436699999995 34.06973755275458 
Si 5.72083623 5.3206398 31.825161901026902 
Si 7.43071608 6.903180719999999 31.18831338575024 
Si 4.0970979 9.455237279999999 1.3861822071417744 
Si 5.440615649999999 8.15065263 2.731604605127697 
Si 6.785697239999999 9.50176152 4.072357213689239 
Si 4.0738032 12.22033446 4.075809986250458 
Si 6.653552759999999 12.09654675 1.2457124798739772 
Si 4.07269548 9.502315379999999 6.787808996686483 
Si 5.430369239999999 8.145228059999999 8.144782799112363 
Si 5.42919636 10.85906061 5.430595893192002 
Si 8.14496742 8.146987379999999 10.855722047673163 
Si 6.78905298 9.502282799999998 9.501312185267988 
Si 4.064208389999999 9.511975349999998 12.221344874435562 
Si 5.4314769599999995 10.857236129999999 10.861943875456745 
Si 6.794673029999999 12.215626649999999 12.23891641004414 
Si 8.12080935 10.8046683 13.649254350767668 
Si 6.713109 9.33578271 15.038089381184202 
Si 4.4588988 12.1065651 15.39232333444507 
Si 7.33770018 10.160724599999998 18.98877909442416 
Si 6.77536938 11.48352147 20.838576354696855 
Si 4.6004263199999995 11.61305955 18.42696855708686 
Si 5.53118805 9.59523354 17.34881468544612 
Si 6.29939187 10.10071224 22.684681541339735 
Si 4.75205364 8.309268359999999 22.876942857025814 
Si 5.35220982 11.62918665 24.152793597196524 
Si 4.34024244 9.04456638 27.045567472025862 
Si 7.503174 8.1863766 29.18122695167391 
Si 7.33569651 10.99615725 27.11380246244361 
Si 5.924396069999999 9.78170517 28.561402998134746 
Si 5.606252369999999 10.88730747 30.59245372493795 
Si 5.68188684 10.3175973 34.11195709842889 
Si 7.692138 11.88019926 30.9437135077748 
Si 7.4164786199999995 8.60294448 32.85087465277745 
Si 4.16667249 10.793363040000001 32.369776947291996 
Si 7.384729409999999 14.002590779999998 0.056652134980201586 
Si 5.41758159 13.553003069999999 2.7066318293260117 
Si 6.7904376300000004 14.93444394 4.07249395715701 
Si 4.07253258 14.93281494 6.787808996686483 
Si 5.430190049999999 13.575369239999999 8.144714427378478 
Si 6.78709818 12.21795612 6.78753550975094 
Si 5.4283167 16.28881083 5.430459149724231 
Si 4.07194614 12.217809509999999 9.50356845248621 
Si 6.78708189 14.931479159999999 9.502371947143214 
Si 5.43069504 16.2901629 10.862627592795599 
Si 5.39961372 13.517556029999998 13.643032522984086 
Si 6.37227333 15.08199876 15.105435539061435 
Si 8.0943381 16.08337764 13.736633426673361 
Si 6.577120079999999 13.37281938 17.148758992097093 
Si 5.08179582 13.0282533 20.550833912639654 
Si 7.66519434 16.215424379999998 19.986767108084127 
Si 5.872545 14.729092199999998 19.106925450578334 
Si 4.43754261 13.35468861 22.831817512661374 
Si 7.7250600899999995 15.4064304 23.603563458894158 
Si 5.38299792 15.248954969999998 23.86614510288149 
Si 6.7398245999999995 12.71742381 25.703772194522564 
Si 5.271248519999999 14.47817733 26.181314569845966 
Si 5.93187318 15.66402417 28.159001158351526 
Si 4.8078143099999995 16.14769056 31.908814717435835 
Si 4.339753739999999 12.881512979999998 30.387201779813623 
Si 7.73794548 14.04711135 31.86717633149955 
Si 5.9484563999999995 14.610582449999999 30.326214193187745 
Si 5.78079972 15.800469209999997 34.098453680986495 
Si 11.968947179999999 1.251132273 1.2376480338621803 
Si 9.50125653 1.3587032879999998 4.0740665070363775 
Si 10.859386409999999 2.72047887 2.713749326823494 
Si 9.42936876 3.9769917299999995 1.3476478979238964 
Si 8.14469049 0.000329606973 8.144680241511535 
Si 8.14384341 2.7135882 5.430766822526716 
Si 10.8587511 -0.0015823747619999999 5.429877989986204 
Si 10.860298649999999 2.7150868799999994 8.145056286047906 
Si 9.501223949999998 1.357333299 9.501277999401047 
Si 8.145244349999999 2.71311579 10.861089228783177 
Si 9.525153959999999 1.0580240969999999 15.08208659193953 
Si 10.80069354 2.67890679 13.730274855422007 
Si 8.299005659999999 1.63028691 17.02486941029653 
Si 9.521276939999998 3.70540485 17.18933761615815 
Si 10.527331049999999 3.53791107 20.997198777311258 
Si 10.54994157 2.4361369199999996 18.916236684771626 
Si 9.539782379999998 0.26495685 18.638784188664193 
Si 11.353559849999998 1.7357809499999999 22.310722342852895 
Si 10.16246763 1.8750278699999998 24.27897363208225 
Si 11.161631069999999 0.082425771 25.65909126642838 
Si 11.40726798 1.546465086 29.8712686759135 
Si 9.838655009999998 3.66891525 27.109324113874106 
Si 11.89912824 2.81298978 27.940006494716215 
Si 8.55080019 2.116071 34.10494899570562 
Si 10.12882878 0.28997340299999996 34.02228756943803 
Si 9.16224534 0.7660616849999999 30.182530994427324 
Si 8.32594932 2.5803685799999996 31.643361460625307 
Si 8.733622859999999 7.47927657 0.23178804062130376 
Si 10.89318816 8.10717462 2.7295021743107175 
Si 12.217239359999999 4.07271177 4.070682106209044 
Si 12.184284689999998 6.61639527 1.2294194956890583 
Si 8.126592299999999 5.41451907 2.713137399805219 
Si 9.50466114 6.788906369999999 4.073143488628922 
Si 9.502738919999999 4.07241855 6.787706439085655 
Si 8.145228059999999 5.430255209999999 8.144919542580135 
Si 10.858360139999998 5.429733929999999 5.430048919320918 
Si 10.86007059 5.42909862 10.86536246215102 
Si 12.231770039999999 6.78476871 12.243292201012812 
Si 9.50067009 6.78864573 9.501551486336588 
Si 9.49640211 4.06896507 12.244249405287212 
Si 9.70594038 6.598850939999999 15.095248150712495 
Si 11.14908777 5.34456981 16.598332348451727 
Si 10.85132286 8.07293304 13.669834242667209 
Si 8.15816232 5.494388939999999 13.653288283066914 
Si 8.27758431 4.14437148 20.68634668920075 
Si 8.17771032 7.33581054 18.24438184174558 
Si 9.92075661 4.19140071 24.835143501374 
Si 11.45402028 5.94570339 24.76355829599586 
Si 12.07274706 5.355614429999999 21.365619865353374 
Si 9.11252826 7.787939489999999 22.015493195935225 
Si 11.286803429999999 7.10424819 22.709363737272408 
Si 9.522107729999998 5.72762916 28.11322628251517 
Si 11.05128261 7.03908819 26.8180605275218 
Si 9.587642399999998 5.9135632199999995 30.49892119298256 
Si 11.58694668 7.18739235 30.5060660391736 
Si 10.217641859999999 4.2085703699999994 32.028157578933005 
Si 10.37176155 5.60674107 34.14368158295177 
Si 9.56296305 9.377436239999998 1.3428345278583558 
Si 8.150066189999999 10.85687775 2.6874638137312066 
Si 11.41984386 10.22342481 0.1000657929868197 
Si 12.20362092 12.14375517 1.3046352401365169 
Si 12.21792354 9.500165099999998 4.070100946471017 
Si 8.1448371 8.14441356 5.430664264925888 
Si 9.50296698 9.50185926 6.787638067351769 
Si 10.85976108 8.145309509999999 8.14474861324542 
Si 8.14506516 10.859744789999999 8.144406754575993 
Si 10.85915835 10.85925609 5.429741246518433 
Si 9.50283666 9.48641634 12.233925273470497 
Si 10.86376842 10.856763719999998 10.860200396242664 
Si 11.607911909999999 9.983098440000001 14.803711077424644 
Si 8.454738059999999 8.20960614 16.151010279505726 
Si 9.77802363 11.702182139999998 15.096957444059631 
Si 8.573492159999999 11.963457449999998 17.35924137486366 
Si 9.112397940000001 8.71532919 19.797514148689014 
Si 10.94762934 10.129187159999999 19.391180934207377 
Si 9.90720333 11.407284269999998 22.720610887496576 
Si 8.47560555 9.62133012 23.370620961546198 
Si 11.74707738 10.62241578 21.519661381797448 
Si 8.31431826 9.233693279999999 25.66555239528056 
Si 9.50487291 9.5156406 28.796601762700927 
Si 8.843156819999999 11.76074469 28.78214114098414 
Si 11.71547478 11.16355329 25.83395197584059 
Si 10.42459002 9.27941931 26.653182091256873 
Si 11.273901749999999 9.451343969999998 30.23288677643401 
Si 8.62760754 10.59718257 32.64223830682579 
Si 10.882110959999999 10.74011103 32.101896493928535 
Si 9.50404212 12.21965028 4.071639310483441 
Si 9.286505459999999 14.858320769999999 1.3124603850797143 
Si 10.84754358 13.56505767 2.6905576346895264 
Si 8.12963853 16.2952128 2.7203198504498927 
Si 8.14361535 13.573837979999999 5.429741246518433 
Si 9.502022160000001 14.93331993 6.787740624952598 
Si 10.85982624 13.57525521 8.14474861324542 
Si 9.501403139999999 12.21686469 9.502474504744043 
Si 8.14618917 13.576200029999999 10.861465273319546 
Si 9.502022160000001 14.910530219999998 12.241446164197903 
Si 10.86049413 16.2935838 10.862832707997256 
Si 11.265088859999999 16.25478102 16.29329185772149 
Si 10.79013762 13.38029649 13.649015049699068 
Si 8.86710312 12.6446238 21.02830791622917 
Si 10.152253799999999 12.37562703 19.022452173362776 
Si 11.084318729999998 14.66301996 18.45636840265763 
Si 8.859446819999999 14.945586299999999 21.59415238586572 
Si 11.15267157 15.64445988 22.027731736300733 
Si 11.93232726 14.675970509999999 24.117855641181027 
Si 10.55774448 12.75565644 24.505352442977202 
Si 8.66243556 13.95583848 25.255287806100508 
Si 9.61162128 15.192412379999999 27.043482134142355 
Si 10.57183533 13.42388853 28.471049751805033 
Si 9.713873609999998 15.35083263 31.751628101233027 
Si 11.41727004 14.16189069 30.56394271190769 
Si 14.93659422 1.358151057 4.073280232096693 
Si 14.85397134 3.8989626299999998 1.318118146058741 
Si 13.57486425 9.58726773e-05 8.14498791431402 
Si 13.574538449999999 2.71412577 5.4313137963977995 
Si 12.217174199999999 1.3575841649999998 6.787706439085655 
Si 16.294235399999998 -0.0026293689 10.863448053602227 
Si 14.930550629999999 1.3574913119999998 9.502371947143214 
Si 13.57634664 2.71656927 10.857157854084758 
Si 12.19614381 1.371473019 12.227053914215002 
Si 14.930143379999999 4.05091575 12.219396280019824 
Si 16.139203469999998 2.52954378 13.610179904852094 
Si 14.83717635 1.027446138 15.056207890663863 
Si 12.89824281 1.7672043599999998 16.331340727628778 
Si 12.32255421 3.8481867 15.219855635718853 
Si 15.68868723 3.7041016499999997 17.13942625042172 
Si 14.115920309999998 0.16401097799999997 19.79884739749978 
Si 12.852158399999999 1.9140912899999998 18.695088311518916 
Si 14.104158929999999 3.9380260499999995 18.843318230582717 
Si 13.54580289 2.38712031 22.898650882534465 
Si 15.042365189999998 1.014120918 21.79872061365119 
Si 13.92337251 2.6269253999999997 25.169378722473354 
Si 16.12426554 3.22449147 25.700900581699372 
Si 12.995722169999999 1.131759153 26.717998494980343 
Si 13.367753189999998 2.48513724 33.91972996860975 
Si 15.205900499999998 1.03777074 33.05892983899108 
Si 12.2719086 3.03950223 31.620286000438945 
Si 14.30270145 3.80997036 30.68079000511804 
Si 13.58827092 5.410625759999999 2.7006082795706976 
Si 14.93315703 6.78802671 4.0671267760469965 
Si 14.932603169999998 4.07269548 6.78753550975094 
Si 13.574799089999999 5.42975022 8.144782799112363 
Si 12.21790725 6.78693528 6.787808996686483 
Si 12.21694614 4.07028456 9.502406133010158 
Si 14.931479159999999 6.7865606099999995 9.502577062344871 
Si 13.61808162 5.32290411 13.68149162329469 
Si 15.471508949999999 6.24773628 14.798446453915458 
Si 16.19397045 7.329033899999999 18.364887022718804 
Si 15.56227683 4.18690467 20.711404929669794 
Si 14.230601909999999 7.854011729999999 19.493465048100113 
Si 12.876886619999999 5.9225390099999995 19.246916575708934 
Si 16.075591019999997 5.9334370199999995 23.49170730225745 
Si 14.06503035 4.71931074 22.529546077153494 
Si 13.601091149999998 5.02021962 24.986621077797366 
Si 15.59133819 6.72112368 25.695430842988532 
Si 15.59500344 4.90962681 27.341343592814614 
Si 12.68764569 6.7828953599999995 28.46075980585526 
Si 13.492795229999999 4.56313851 28.5205167012712 
Si 13.341265649999999 7.37018244 32.19228392612519 
Si 15.03373149 5.49367218 32.25843357865943 
Si 14.935128119999998 12.21722307 4.077792766533138 
Si 13.11325452 8.47029501 0.05857235512637636 
Si 15.07097043 9.3408489 1.1507475600936865 
Si 13.608275039999999 10.850182559999999 2.694728310456543 
Si 13.57367508 8.14625433 5.429091715046521 
Si 14.933287349999999 9.50262489 6.787638067351769 
Si 13.574815379999999 10.859972849999998 8.144885356713191 
Si 12.216652919999998 9.502185059999999 9.502542876477929 
Si 13.577242589999999 8.1443484 10.861123414650118 
Si 14.92286175 9.49534326 12.241958952202046 
Si 16.293257999999998 10.8607059 10.861020857049292 
Si 13.525831349999999 10.82315745 13.68446579371871 
Si 15.20187687 11.92441032 15.024517592007927 
Si 14.342351309999998 10.18050066 16.534473149002654 
Si 13.04006355 9.593620829999999 18.4723332025199 
Si 16.25913045 11.255298569999999 19.50389173751765 
Si 14.053659929999998 11.72350575 18.822191364812095 
Si 15.00722766 8.60595813 21.619244812201707 
Si 12.87991656 8.86946517 22.672750673776715 
Si 14.24591451 11.96780688 22.948459690670067 
Si 13.427553779999998 10.20417003 24.51362542277735 
Si 15.883613369999999 10.801491749999999 21.787473463427023 
Si 14.865749009999998 9.03757797 26.12654881100367 
Si 13.04325639 10.49807421 29.112034756981767 
Si 14.18684697 8.593610309999999 28.33160560054552 
Si 15.74107587 8.301465449999998 30.147490480810998 
Si 14.1939657 11.471825249999998 30.876709208566993 
Si 14.897954339999998 9.50514984 32.00029609737466 
Si 12.21841224 14.935584239999999 4.0686309541924786 
Si 14.725019699999999 14.732676 1.3745726867280135 
Si 13.54940298 16.298144999999998 2.695388097688538 
Si 16.27913457 13.54111137 2.7004373502359837 
Si 13.574880539999999 13.57211124 5.4292284585142925 
Si 12.21789096 12.217239359999999 6.788014111888138 
Si 14.932228499999999 14.932163339999999 6.787740624952598 
Si 12.21732081 14.930827559999999 9.5019617167399 
Si 14.930289989999999 12.216913559999998 9.502508690610986 
Si 13.575874229999998 13.574782799999998 10.859209006101324 
Si 12.228169949999998 12.208735979999998 12.22107138750002 
Si 14.91500997 14.939705609999999 12.21847326161237 
Si 15.60637386 15.346580939999999 16.222185254480546 
Si 12.280526009999999 14.586114869999998 15.034636608622982 
Si 14.00882985 13.30798518 16.492595461997773 
Si 13.416769799999999 16.16415975 13.565088746354595 
Si 16.21402344 13.48520409 13.529638002334954 
Si 13.105679669999999 12.4822125 20.916622688927177 
Si 12.51992385 14.7515724 20.34117199067971 
Si 16.00077105 16.12506375 18.369502114756077 
Si 15.67549233 15.54888645 23.176308493843557 
Si 14.280921719999998 13.94132409 24.166843988510003 
Si 15.70978278 13.072350329999999 25.92857845553815 
Si 15.726854699999999 12.885780959999998 29.840740696733622 
Si 12.55934565 12.33612378 27.699577292507787 
Si 14.57676441 13.7132478 27.887120958555762 
Si 14.3244486 16.04257119 28.20204116483246 
Si 13.11885828 13.910650019999999 33.8881080416877 
Si 12.899888099999998 15.99614469 30.103288154854013 
Si 12.43712178 12.576352409999998 31.999885866971344 
Si 14.30763732 15.442936289999999 32.06097601119805 
