&CONTROL
  dt          = 30.D0,
  prefix = 'x.66_y2.00_z3.16_struc31-scf',
  pseudo_dir = './',
  outdir='./',
  wf_collect= .true.,
  verbosity= 'high',
/

&SYSTEM
ibrav= 6, celldm(1) =30.783621515, celldm(3) =2.1115588181846787, nat=  432, ntyp= 1,
  ecutwfc     = 12.D0, nbnd= 1728,
  degauss     = 0.05D0,
  occupations = "smearing",
  smearing    = "methfessel-paxton",
/
&ELECTRONS
  electron_maxstep=200,
  conv_thr    = 1.D-8,  mixing_beta = 0.3D0,  scf_must_converge=.false.,
/
&IONS
/
ATOMIC_SPECIES
Si  28.08  Si.pbe-hgh.UPF
K_POINTS {automatic}
1 1 1 0 0 0
ATOMIC_POSITIONS (angstrom)
Si -0.0239236569 2.7156081599999995 2.7113700721384193 
Si 2.3214553199999997 3.2666662799999995 0.3215132189211484 
Si 1.268378496 1.3768731539999999 1.2922478281805896 
Si -0.000295792191 2.71547784 8.145382209379934 
Si 2.71595025 -0.000648874683 8.145072633741599 
Si 2.7146633399999995 2.715543 5.431023012466933 
Si 1.356746859 1.3578610949999999 6.787824240698803 
Si 2.71660185 2.71448415 10.86115169531201 
Si 1.361456298 1.3547089799999998 12.244886004078944 
Si 1.359133344 4.07424303 9.50266499971588 
Si 2.51835255 3.10083408 16.6793506394554 
Si 2.76195321 0.06434647739999999 13.737694129418909 
Si 3.8214059399999996 1.72727757 15.116062460454717 
Si 3.5109022499999996 2.3809789799999996 20.154818741859252 
Si 2.13074829 1.4577041339999999 18.516441271915983 
Si 0.06516342089999999 1.8624519899999998 22.163655059008942 
Si 3.45900231 1.432573551 23.753945113130985 
Si 2.28550329 2.6963696699999997 22.193030347357528 
Si 2.77897626 1.7965915199999998 25.9466693594511 
Si 3.38893902 1.76523327 29.670761096730345 
Si 0.42984097199999993 1.9609739099999999 26.231031781907507 
Si 4.03446285 3.6861012 26.45303191188617 
Si 3.54724524 0.393928038 27.722807988453024 
Si 3.25210302 3.90966516 28.62501459043791 
Si -0.010816771769999999 0.0682259409 34.1131371095309 
Si 1.83941793 1.37482713 31.40885631951033 
Si 2.45446317 3.5264754899999997 32.38749370687058 
Si 4.07041488 6.7896719999999995 4.072983481681726 
Si 1.360105857 4.07134341 4.070231698229868 
Si 2.73515616 5.41846125 2.7280252414807915 
Si 1.4895576 6.70970439 1.255019637806262 
Si 0.015329215799999999 8.139933809999999 2.6857888052240817 
Si 3.3512602499999997 7.53686172 0.009902843108202367 
Si 0.00065979387 5.429733929999999 5.430610244949153 
Si 2.71593396 5.42997828 8.144212701412894 
Si 1.357805709 6.787554299999999 6.787205089422134 
Si 2.71762812 8.14596111 5.429819107206744 
Si 4.06771074 4.07256516 12.22785934397057 
Si -0.00420306435 5.4307764899999995 10.858159130808115 
Si 1.3697299889999999 6.779099789999999 12.213618864607204 
Si 4.08005856 6.5726892 14.894440700700683 
Si 0.902027799 4.32883944 15.215367445773653 
Si 2.54594781 5.2761029399999995 13.632713590730516 
Si 3.65962995 7.66729575 16.93003811191969 
Si 0.263155176 5.58707904 20.9596466069415 
Si 4.06512063 4.552468559999999 19.38057007038578 
Si 0.773300961 7.01945874 19.1307425302502 
Si 2.53913859 5.6775537 17.907540388606044 
Si 0.0864409302 5.99822235 24.874952896831747 
Si 2.18820312 5.083571429999999 22.143601437103523 
Si 2.2503006 6.32319156 24.083436784197865 
Si 3.46592556 7.4995087499999995 28.802573417669063 
Si 1.023666858 4.6546068599999995 28.43761813736636 
Si 1.1041362000000001 6.96505014 28.51484006048413 
Si 0.508580316 4.830261929999999 34.397637121159896 
Si 0.221716674 7.1761522499999995 32.371567760142945 
Si 0.584977158 4.90413708 31.998185143018926 
Si 4.042477529999999 9.43313175 1.220887203815275 
Si 1.353539358 9.503993249999999 4.068924601090235 
Si 2.72129337 10.8533754 2.6899027214846103 
Si -0.000334155141 8.14478823 8.14486624998271 
Si 0.0008144120339999999 10.86117831 5.430851026001191 
Si 2.71494027 10.86002172 8.144694263516968 
Si 1.3586527889999997 9.50264118 9.505072810236255 
Si 2.7242255699999998 8.13690387 10.856370471564407 
Si 2.14078293 10.322305109999999 13.522298279724703 
Si 0.34698840299999995 8.40839301 13.568253063370735 
Si 1.081468665 10.425762899999999 15.63305377647259 
Si 3.1419500399999998 10.51542306 16.899149342672583 
Si 1.2407392529999999 9.2651004 20.059263061493475 
Si 3.70763658 9.36842787 19.78370634608302 
Si 0.373420557 11.78806302 22.526099336911823 
Si 2.6287173 8.65714131 23.787757652295696 
Si 0.848207268 9.49514778 22.406671935101173 
Si 3.33200547 11.73191139 25.001466141030935 
Si 2.7564146099999998 9.66646971 25.907731623607308 
Si 0.643109652 9.85729077 26.97053918730127 
Si 0.9288460259999999 11.59644375 30.616308288081996 
Si 3.59285724 8.91937773 30.683520598893637 
Si 2.2250999699999996 8.38317609 32.544517350092235 
Si 1.39020489 10.66807665 32.72334887716988 
Si 3.2031189899999997 11.15952966 30.22699972423035 
Si 3.45913263 11.99965383 32.855365688272784 
Si 2.71955034 16.2970047 2.6834532290193174 
Si 1.570191471 12.44648853 1.3098248449793344 
Si 1.3550445539999998 14.930550629999999 4.074359373407655 
Si -0.0006671178539999999 13.5742941 8.144522277051227 
Si 2.7135882 13.574880539999999 5.430163080138227 
Si 1.3575043439999999 12.217304519999999 6.787411473181024 
Si -0.0023024611799999997 16.28765424 10.863009149142014 
Si 1.356378705 14.932668329999998 9.502561807836432 
Si 2.7181494 13.57232301 10.864453835454242 
Si 1.353997107 12.20531508 12.235013980945402 
Si 0.0723051198 13.53062061 13.760293151017295 
Si 1.172461347 15.13034748 15.09934537598468 
Si 1.7502790499999998 14.239382219999998 17.176701101085637 
Si 3.8499297299999995 13.26287817 16.45377319098932 
Si 1.9220896799999998 15.0615711 21.173185002805702 
Si 1.051977249 12.965341319999999 20.668198342096563 
Si 2.72844468 15.47294247 18.973134133045015 
Si 3.07159353 15.470450099999999 23.265847523357625 
Si 1.236156876 12.61280943 24.52279340958019 
Si 1.4356425869999998 14.88314673 24.945123374854134 
Si 3.98464803 13.03173936 26.86043345193379 
Si 2.35051668 14.717330819999999 27.176441384086562 
Si 0.438818391 14.660706779999998 28.52282023249452 
Si 2.69307909 13.827913109999999 34.11169242321868 
Si 1.5168156569999998 15.32111967 32.61547896585704 
Si 0.5938714979999999 13.970646089999999 30.79857954447446 
Si 6.78986748 4.07178324 4.0696125469532 
Si 4.06935603 1.359589464 4.068890203797087 
Si 5.44766922 2.6953596899999996 2.69087272515139 
Si 6.82264296 1.242374769 1.2083975466731531 
Si 5.43045069 0.000192121002 5.429887901793041 
Si 5.43045069 2.71490769 8.14486624998271 
Si 6.787928969999999 1.357553214 6.787652254233062 
Si 8.13819078 2.71844262 10.86060133862164 
Si 4.07223936 1.358131509 9.502114643025505 
Si 5.4330408 -0.0040190688 10.862493189744791 
Si 6.78682125 1.367693739 12.230886305767614 
Si 7.16326686 3.93418161 14.922715275668526 
Si 5.7823961399999995 0.910795077 16.104434281775912 
Si 5.44126725 2.77198785 13.665631800273369 
Si 6.597042749999999 2.1636866699999997 18.146188808468455 
Si 5.519964239999999 1.0294270019999998 19.993770615339248 
Si 5.652222749999999 2.24935578 23.630665214487735 
Si 6.8668703099999995 1.0810939949999998 21.9576496703442 
Si 7.181153279999999 2.61817767 29.386226687808204 
Si 7.22430549 1.3509003779999997 27.25861651741768 
Si 6.20142381 2.9340244799999997 25.891599293120787 
Si 5.351590799999999 2.35084248 30.89802211896599 
Si 5.90908347 0.14705536859999999 31.92643238951172 
Si 8.158553280000001 2.67512751 34.28233739452703 
Si 4.208586659999999 4.18288104 1.3320970922928121 
Si 6.847175699999999 6.772893299999999 1.232709553470321 
Si 5.44268448 8.14368051 2.6910481513464464 
Si 8.148257999999998 5.42525418 2.700706911262469 
Si 4.0721742 4.0728258 6.787617856939913 
Si 5.429180069999999 5.43072762 5.429543928861558 
Si 6.78773349 6.7874728499999994 6.787858637991951 
Si 6.787391399999999 4.07295612 9.501392299869394 
Si 4.0718483999999995 6.78830364 9.498846900176424 
Si 5.429212649999999 5.43116745 10.85901906313682 
Si 6.790128119999999 6.779230109999999 12.218331293768513 
Si 5.376465629999999 8.071385489999999 13.572002368323892 
Si 5.9026977899999995 5.340709079999999 16.318523034330486 
Si 6.143773499999999 7.642453499999999 16.614614933750435 
Si 4.2718896 5.65282548 21.360684647756695 
Si 4.95810585 7.915408739999999 21.23709517347511 
Si 7.043665679999999 8.129394179999998 20.124411534716216 
Si 7.631278559999999 5.84356509 20.0510077111379 
Si 6.23201643 4.5684653399999995 18.546332519661796 
Si 7.567535789999999 4.94129457 22.227496435092053 
Si 5.41925946 4.521989969999999 23.055301691997318 
Si 4.2431866199999995 5.44247271 24.917261567404072 
Si 5.50691595 7.38293751 25.219957747108477 
Si 7.751303279999999 6.857405819999999 25.557223206426862 
Si 4.65983595 5.540049809999999 29.544970195687274 
Si 6.9344249399999995 4.95514107 28.930118580662693 
Si 7.537431869999999 4.7877939 26.647789385691443 
Si 5.0508774 5.787543779999999 34.11172682051182 
Si 4.6550304 4.463150489999999 31.827884144642045 
Si 6.78568095 9.50220135 4.07270830333654 
Si 4.07259774 9.50246199 6.78748026776732 
Si 5.4297990899999995 8.14416921 8.144831852689562 
Si 5.43093939 10.86042897 5.43088542329434 
Si 6.78889008 9.50013252 9.503215356406251 
Si 4.05575388 9.49962753 12.23773136710411 
Si 5.42678544 10.86818301 10.863972273350166 
Si 6.7848501599999995 12.22030188 12.239829601986155 
Si 8.09811738 10.71976482 13.575063727414085 
Si 7.323951419999999 8.7182451 14.697309813668186 
Si 4.93859043 11.465732789999999 15.369088948853086 
Si 6.59769435 11.47762449 17.54963655339873 
Si 4.48947513 11.56070349 20.69757363044515 
Si 7.20389412 9.137908079999999 17.98926835712624 
Si 4.7698423199999995 12.137043689999999 23.11216041757134 
Si 5.050046609999999 8.82155628 23.3934958782307 
Si 6.60598596 10.76373153 23.541129060422897 
Si 7.57530612 11.03548131 25.67940239168937 
Si 4.53814965 8.571211559999998 26.970676776473862 
Si 6.16827366 10.16860896 27.505520287635665 
Si 8.09142219 9.42192423 28.63887669957664 
Si 4.830489989999999 11.778044669999998 28.65291079518112 
Si 7.916402429999999 8.338688099999999 30.66910813306453 
Si 5.15462841 11.05823844 34.252446146781224 
Si 7.270617959999999 9.45328248 32.57279192506008 
Si 5.5805630399999995 11.129262839999999 31.8899712587746 
Si 7.94341125 13.84304652 -0.001148504979843458 
Si 4.07683314 12.215528909999998 4.071985960180428 
Si 4.14153702 14.94618903 1.2250733543914143 
Si 5.4200088 13.574815379999999 2.705261112875294 
Si 6.72263865 12.24418302 1.256488402223691 
Si 6.7874728499999994 14.934069269999998 4.072054754766724 
Si 4.07271177 14.932163339999999 6.787411473181024 
Si 5.429766509999999 13.57514118 8.14562299043197 
Si 6.7877171999999995 12.21728823 6.787514665060469 
Si 4.07183211 12.217793219999999 9.503318548285694 
Si 6.78711447 14.932994129999999 9.502630602422729 
Si 4.0793580899999995 14.92564734 12.252212627519516 
Si 5.64777558 14.789723579999999 16.78288649183157 
Si 8.078390189999999 14.460404939999998 16.48366443873513 
Si 6.78817332 15.37702695 14.692631781800026 
Si 5.4886222799999995 13.57955577 13.770715530841208 
Si 7.872859259999999 13.525554419999999 20.915308496073436 
Si 5.99480145 12.97869912 19.485550609074174 
Si 5.06371392 15.191174339999998 18.956004281057197 
Si 7.3249939799999995 15.115116329999998 22.69192868717943 
Si 5.22177579 14.426505449999999 23.673317857991535 
Si 5.768859149999999 14.27010516 26.032800181494267 
Si 6.312668219999999 14.90922702 29.962484539920474 
Si 7.94315061 13.366287089999998 26.11896540083058 
Si 5.7661875899999995 15.869538809999998 27.732920792638602 
Si 6.4963868399999996 12.53258118 30.146682044729236 
Si 5.93079804 15.79737411 34.204668306598336 
Si 9.50047461 1.35884664 4.071573192662649 
Si 12.21888465 4.07031714 4.069578149660052 
Si 10.874568689999998 2.70687672 2.700975210149025 
Si 8.145097739999999 4.3134779699999996e-05 8.145313414793637 
Si 8.14640094 2.71555929 5.430610244949153 
Si 10.860787349999999 0.00171418041 5.430713436828598 
Si 10.85969592 2.7150543000000003 8.145003839155303 
Si 12.20121 1.354164894 12.24282216649005 
Si 9.503634869999999 1.3576851629999998 9.503696918510323 
Si 10.86241635 -0.0029811677399999995 10.85901906313682 
Si 9.52007148 4.07124567 12.22321570939556 
Si 8.40695949 0.351813501 13.656860490520573 
Si 8.98864281 2.2652711099999996 15.293449301220132 
Si 10.793379329999999 2.7164878199999998 13.707837278966247 
Si 12.02845455 2.2557251700000003 20.489710787950408 
Si 9.891043649999999 3.0874762799999997 19.868461276400254 
Si 8.99046729 1.81495035 17.810540021928045 
Si 8.49174894 2.7765164700000002 21.803068234936063 
Si 11.79397629 1.401495489 22.779641784707415 
Si 9.71900496 2.19551733 23.71989179291424 
Si 9.07072812 0.8369622809999999 25.668636038933972 
Si 10.812243149999999 1.9002284999999999 29.416152332847158 
Si 10.52882973 2.1043259099999996 27.094507031807485 
Si 10.758649049999999 0.088091433 34.33021842658937 
Si 11.757747329999999 3.92579226 30.157482794777778 
Si 8.903674169999999 1.6934921099999998 30.737696335602095 
Si 11.635979579999999 3.5917332299999996 32.62999462356559 
Si 9.94633191 1.8784487699999999 32.87222036191541 
Si 10.875318029999999 8.12761857 2.711810357490717 
Si 12.15312192 6.7601871000000004 1.1958356552154201 
Si 9.52591959 4.07970018 1.3199582875408025 
Si 9.499399469999998 6.78976974 4.070919644092832 
Si 9.50251086 4.07204388 6.787514665060469 
Si 8.14464162 5.42968506 8.144728660810117 
Si 10.860380099999999 5.430206339999999 5.430025490965634 
Si 10.86121089 5.42461887 10.863146738314608 
Si 9.50138685 6.78903669 9.502080245732358 
Si 9.244314359999999 7.17256845 14.936542987514114 
Si 10.03784913 6.34291875 17.165040418708386 
Si 12.159458729999999 5.627038409999999 16.30858221661065 
Si 8.2634283 5.49556182 13.574650959896307 
Si 11.41735149 6.97674636 20.834543651761393 
Si 9.90728478 5.49546408 19.575946695467717 
Si 10.07692884 8.03445606 22.489019054898034 
Si 8.966993399999998 6.23317302 23.620105245491228 
Si 10.23099966 4.3903504799999995 24.447119364654085 
Si 9.819758610000001 4.336512030000001 26.74778231687334 
Si 10.713183659999999 5.994052109999999 29.78176116171968 
Si 9.21660507 8.10595287 26.954647637866785 
Si 10.905568559999999 6.48820926 27.471226186366884 
Si 8.46091197 6.0933885299999995 30.43586008822639 
Si 9.4121991 6.69659094 32.77542637899629 
Si 11.506246019999999 7.30433826 31.578228590972206 
Si 10.775199689999999 5.30252532 34.06639118814246 
Si 9.64275147 9.55941183 1.349010241333796 
Si 8.14298004 10.85902803 2.6909036827152235 
Si 10.95497613 11.10365496 0.008027674672226696 
Si 8.14452759 8.14542354 5.430919820587488 
Si 9.502315379999999 9.50239683 6.787583459646765 
Si 10.8600543 8.144674199999999 8.144935044569007 
Si 8.14488597 10.860445259999999 8.145382209379934 
Si 10.86033123 10.85951673 5.429853504499893 
Si 12.21741855 9.50410728 9.502802588888471 
Si 8.14659642 8.145097739999999 10.857230403893112 
Si 9.51350661 9.48986982 12.206945789736448 
Si 10.85950044 10.858653359999998 10.864006670643313 
Si 12.24418302 12.224863079999999 12.23546114575633 
Si 9.50536161 12.217597739999999 9.501633080921431 
Si 11.78438148 9.994077899999999 14.905207053456078 
Si 10.90095849 8.208693899999998 13.630993726073104 
Si 9.94815639 11.69147961 14.697894567651705 
Si 9.539212229999999 8.65578924 17.424327214459733 
Si 8.85384306 9.37957023 20.9781179533621 
Si 10.41421329 9.897527069999999 19.209202755921307 
Si 10.18665828 12.187787039999998 18.380537566687334 
Si 8.407366739999999 11.43090477 22.011859804345807 
Si 10.704126419999998 11.698810109999998 22.735372468425645 
Si 11.100234059999998 9.65509929 23.900202403597252 
Si 9.81532773 10.08277695 25.851148076378472 
Si 8.54210133 11.644694729999998 29.429464085295525 
Si 12.11381415 10.36322559 28.99777805628526 
Si 11.003243399999999 11.63791809 27.264980016650107 
Si 8.32557465 8.16081759 34.34979048639071 
Si 11.18534931 9.6117516 31.080052594306412 
Si 9.17293158 10.81581066 31.501385038079064 
Si 8.153649989999998 16.28845245 2.7114216680781418 
Si 12.21567552 14.93270091 4.072398727698206 
Si 9.49865013 12.21777693 4.069371765901162 
Si 9.500718959999999 14.96273967 1.3166355090226836 
Si 10.86127605 13.589378639999998 2.7076998809595034 
Si 8.14596111 13.576167449999998 5.430231874724524 
Si 9.502103609999999 14.93265204 6.787411473181024 
Si 10.86033123 13.57540182 8.144831852689562 
Si 12.21820047 14.933482829999999 9.500876340472171 
Si 8.14330584 13.57225785 10.862183614106458 
Si 9.500523479999998 14.956077059999998 12.236699448309665 
Si 8.66290797 12.21951996 16.622010351777305 
Si 10.938523229999998 13.652909639999999 13.607156401921381 
Si 12.17429892 13.0178277 17.50309701576918 
Si 11.90134368 14.774003729999999 20.472408949496845 
Si 9.76346037 14.21151003 19.611719880341877 
Si 9.4895766 15.77293911 17.845040506955716 
Si 11.78490276 15.466328729999999 17.28068411827273 
Si 8.924981489999999 14.877249749999999 24.567991452776962 
Si 10.98314154 13.76842203 23.952348700009967 
Si 9.46561401 13.250514059999999 28.005312957079425 
Si 10.418986259999999 14.70928356 29.693050542690397 
Si 9.65249289 12.539651039999999 33.00774569691943 
Si 12.160875959999998 14.88273948 33.121222367015434 
Si 8.43198093 15.669725669999998 30.815606204582835 
Si 11.338784819999999 13.40989542 31.501763408303695 
Si 13.573919429999998 0.004524808139999999 2.702316704581806 
Si 12.24775053 1.3411556999999998 1.2512909712289941 
Si 14.932375109999999 1.360096083 4.075528881374695 
Si 13.574685059999998 -0.000458369649 8.144900647275858 
Si 13.574782799999998 2.71386513 5.430369463897117 
Si 12.21728823 1.3579800119999998 6.787549062353617 
Si 14.93351541 1.357808967 9.502768191595322 
Si 13.571671409999999 2.7183611699999997 10.865726535300725 
Si 16.27343307 2.7982799099999998 13.609185842217128 
Si 15.28648713 3.36028491 16.798330876455125 
Si 13.618619189999999 0.178468353 13.775015192484735 
Si 14.340266189999998 2.2078651499999995 14.87971865923324 
Si 12.608052749999999 3.88596321 14.756438760589988 
Si 15.63962175 3.43191204 20.54189148165627 
Si 12.78958851 0.308920302 19.31683188618211 
Si 15.137710559999999 0.0820260144 19.02510844299199 
Si 16.17088752 2.1631002299999995 18.62627182893828 
Si 13.28721543 2.43512694 24.264332148864398 
Si 15.44316435 1.4943484889999998 24.315033758964887 
Si 12.78818757 2.15407557 26.51924670119651 
Si 12.254543459999999 0.0558395136 29.61087540935928 
Si 13.60343691 0.273217509 27.665158125136593 
Si 15.913375199999999 0.5921138069999999 28.110293495767817 
Si 13.423285799999999 2.7318818699999996 34.000761152815635 
Si 15.9334119 3.7969872299999996 30.1366724324231 
Si 15.994646009999999 1.4869642319999998 30.342746615674137 
Si 14.82759783 1.286422929 32.61062894752313 
Si 14.926885379999998 4.06083636 1.2272369441304378 
Si 13.57261623 5.4390192299999995 2.6816680095049246 
Si 14.933433959999999 6.78659319 4.069268574021718 
Si 14.93242398 4.0721253299999995 6.787583459646765 
Si 13.575173759999998 5.43009231 8.144831852689562 
Si 12.217304519999999 6.78766833 6.787308281301579 
Si 12.21859143 4.073461109999999 9.501598683628282 
Si 14.934199589999999 6.7865280299999995 9.502871383474767 
Si 14.933238479999998 4.09483359 12.22304372292982 
Si 12.229359119999998 6.796073969999999 12.243922879870793 
Si 13.78433736 5.68387422 13.715335888872561 
Si 15.76099854 6.72014628 15.149015067290721 
Si 15.300838619999999 7.10151147 17.488581358060625 
Si 13.46080167 4.144909049999999 20.154062001409994 
Si 13.878640169999999 5.0812908299999995 17.873177492750965 
Si 12.49211682 4.6744480799999995 24.02083371066809 
Si 15.15911562 6.35397966 22.72343660770321 
Si 13.025190779999999 5.6262890699999994 21.94815601743529 
Si 12.785027309999998 5.92721424 25.997267777672146 
Si 13.881262859999998 6.96767283 29.684554411282786 
Si 13.871097899999999 4.62499164 29.417321840814203 
Si 13.887257579999998 7.98711732 26.24547864502976 
Si 16.13118879 4.21303383 26.463282305244345 
Si 16.183381949999998 7.68132144 26.55185533510103 
Si 13.86318096 4.17690261 27.137400456363324 
Si 15.984187829999998 7.880303789999999 30.188268372145444 
Si 16.1259597 11.41093323 0.11869405152072882 
Si 12.220236719999999 9.501126209999999 4.072605111457096 
Si 14.993544059999998 9.54942606 1.2657275151633054 
Si 13.58250426 10.85291928 2.709044815121599 
Si 13.57507602 10.861357499999999 8.144384687878635 
Si 13.57492941 8.1464661 5.430335066603968 
Si 14.932163339999999 9.5029344 6.787514665060469 
Si 13.57274655 8.14444614 10.86369709500498 
Si 14.93318961 9.4973958 12.237937750863 
Si 16.2842985 10.86824817 10.86097970884627 
Si 13.69653426 10.91237778 13.733256878602788 
Si 15.45450219 11.816603099999998 15.186783295167475 
Si 14.16811347 9.21859245 17.728364888596925 
Si 12.67844184 11.45850003 21.36605062548782 
Si 13.826935709999999 9.525121379999998 20.673633114413985 
Si 12.346060679999999 8.449069139999999 19.15502701921285 
Si 15.53901471 10.47792348 19.238853222615077 
Si 13.9575978 11.57679801 24.816959060583837 
Si 14.90416083 8.665921619999999 22.615050736993144 
Si 13.437686159999998 9.349401149999998 24.385892182850238 
Si 12.61290717 8.234611289999998 28.150951096269022 
Si 14.20255053 11.45289627 29.1163455257672 
Si 16.103512079999998 10.063587329999999 29.232195609090436 
Si 15.9612678 11.741962319999999 26.008481295238468 
Si 12.63022344 10.23052725 32.92017018856404 
Si 13.3867962 12.06777861 31.308725799155837 
Si 13.57303977 8.29380915 34.2276800957145 
Si 12.326463809999998 12.3211044 1.3980367032579661 
Si 14.93315703 12.21385104 4.07019730093672 
Si 15.01967322 15.031108799999998 1.3034441471003377 
Si 16.3066158 13.58799399 2.704487173779459 
Si 16.2909774 16.290325799999998 5.43030066931082 
Si 13.57595568 13.57611858 5.429234353223225 
Si 12.21785838 12.21699501 6.787377075887875 
Si 14.932668329999998 14.932798649999999 6.787789843405655 
Si 14.93333622 12.21885207 9.500394778368095 
Si 13.57388685 13.57414749 10.860738927794234 
Si 14.93887482 14.93566569 12.262841391102318 
Si 12.386541329999998 14.91188229 15.059891680743661 
Si 16.030598039999997 15.993619739999998 21.203248237017256 
Si 13.17445605 12.978389609999999 19.678450629049436 
Si 15.472861019999998 12.871787849999999 19.242052170877862 
Si 15.602073299999999 14.4972855 17.551734788280772 
Si 15.391606499999998 15.44674815 24.70523665243839 
Si 14.572480139999998 14.753852999999998 22.656533872529906 
Si 12.269774609999999 15.338061269999999 22.690862371091836 
Si 14.39853552 12.3989706 22.690105630642577 
Si 12.30411393 12.96747531 25.754526079925096 
Si 15.15137787 13.14506889 27.679295412620515 
Si 13.866895079999999 14.61602331 26.40061043712827 
Si 14.035757219999999 13.43564991 34.257984110978086 
Si 14.76439263 13.865380109999998 31.80105425598643 
Si 13.554094499999998 15.94471716 31.565776770852548 
