&CONTROL
  dt          = 30.D0,
  prefix = 'x.66_y2.00_z3.17_struc6-scf',
  pseudo_dir = './',
  outdir='./',
  wf_collect= .true.,
  verbosity= 'high',
/

&SYSTEM
ibrav= 6, celldm(1) =30.783621515, celldm(3) =2.118483252460307, nat=  432, ntyp= 1,
  ecutwfc     = 12.D0, nbnd= 1728,
  degauss     = 0.05D0,
  occupations = "smearing",
  smearing    = "methfessel-paxton",
/
&ELECTRONS
  electron_maxstep=200,
  conv_thr    = 1.D-8,
  mixing_beta = 0.3D0,
  scf_must_converge=.false.,
/
&IONS
/
ATOMIC_SPECIES
Si  28.08  Si.pbe-hgh.UPF
K_POINTS {automatic}
1 1 1 0 0 0
ATOMIC_POSITIONS (angstrom)
Si 1.0839968729999998 1.272732813 1.180883589349559 
Si 1.360749312 4.070952449999999 4.072535978466077 
Si 4.06746639 1.363885137 4.068325747219803 
Si -0.0001014619392 2.71498914 8.145382547761798 
Si 2.7148914 0.000164846655 8.145209997300885 
Si 2.71461447 2.71484253 5.432095570090936 
Si 1.3569716609999998 1.358517582 6.788031602036625 
Si 2.7150543000000003 2.71371852 10.863052307139847 
Si 1.3421135519999998 1.368677655 12.223026019870897 
Si 3.94403706 0.428254326 16.66568273699513 
Si 2.70858717 0.0838700424 13.592938639150528 
Si 2.7605033999999997 3.55548798 16.13018963659806 
Si 0.31694475599999994 0.514320912 16.412240620006273 
Si 3.77996418 1.85730435 14.775944599169318 
Si 3.54136455 3.09814623 20.20345032699997 
Si 1.187156556 2.70769122 19.68980211495447 
Si 2.0694978899999996 1.7638160399999998 17.438950372530165 
Si 3.0603860099999998 2.30409018 23.645279860737244 
Si 0.792270666 2.04299406 24.202652359578067 
Si 3.56755887 1.248822351 21.629510866260656 
Si 0.11968653959999999 1.95473484 26.45057074416686 
Si 0.8883116189999999 3.99844566 27.359601082348156 
Si 1.075517928 0.378353169 27.95641861655367 
Si 3.13367472 1.4063661989999998 28.734690215455178 
Si 2.01486123 3.1635994499999995 34.42409303285942 
Si 0.15214338719999998 1.3225150529999998 31.758050371386506 
Si 2.52754011 1.9778503499999998 32.45487815273713 
Si 3.14313921 3.1218481799999998 30.389587175978544 
Si 3.8991906899999997 4.07914632 1.182460700562303 
Si 2.70541062 5.42787687 2.703731133145506 
Si 1.345125573 6.70656042 1.2135611956372425 
Si 0.003972153599999999 8.139998969999999 2.678438686584894 
Si 3.18057363 7.75418661 0.03425130100130125 
Si 0.00030742488 5.4288216899999995 5.4299559443756165 
Si 2.7151520399999995 5.43056472 8.144968426655607 
Si 1.3577486939999999 6.786984149999999 6.787617480930433 
Si 4.07336337 6.7887271799999995 9.50218133201205 
Si 4.07888568 4.07790828 12.24528502932866 
Si 1.358493147 4.07357514 9.502940554040066 
Si 0.000305183376 5.42818638 10.865019382394255 
Si 1.364610042 6.793874819999999 12.221127964800855 
Si 0.9073285649999999 4.58550468 15.055752426585663 
Si 2.7062414099999996 5.522130809999999 13.68342410085325 
Si 2.4819443999999997 7.2035357399999995 16.270852772334248 
Si 0.0299921706 8.02293903 21.304080696978943 
Si 3.7384409699999996 5.12908569 21.56580523609162 
Si 0.213255648 4.311702359999999 21.173218427422608 
Si 2.8717641 6.83932392 20.19565104616671 
Si 0.617304663 6.2366753699999995 19.78929471071685 
Si 0.6660166499999999 4.27135203 23.52194079127671 
Si 0.29512104299999997 7.639733069999999 23.643554356128114 
Si 2.9182231799999996 4.79654163 23.86441894609662 
Si 2.55291993 7.25110254 24.080521143343926 
Si 2.59612101 7.76736522 26.358773898961203 
Si 3.8900031299999998 6.713467379999999 29.545711891837954 
Si 1.610554833 6.54682068 30.103533021877148 
Si 1.151250138 4.27068414 29.720678059203625 
Si 3.02107824 4.326200459999999 26.342761216188485 
Si 0.37970360999999997 7.7587641 27.093459251436116 
Si 3.9911151599999997 6.218169929999999 27.26994386285782 
Si 0.324622233 4.976432099999999 34.33912918590591 
Si 4.04221689 9.47729394 1.3570541589324037 
Si 1.357597197 9.50459598 4.070534393119488 
Si 4.07365659 12.212775899999999 4.069913211460201 
Si 2.70959715 10.84428558 2.715188483750122 
Si 3.1972383e-05 8.14508145 8.145348037669615 
Si 2.7153801 8.14552128 5.430784186587998 
Si -0.0005662175940000001 10.85873481 5.430301045297442 
Si 2.7151031699999995 10.860282360000001 8.144657835825964 
Si 1.3583628269999999 9.50396067 9.502526432933877 
Si 2.71454931 8.14444614 10.860774641055798 
Si -0.00488522439 10.860738479999998 10.859808358474686 
Si 0.026169559199999998 12.20454945 17.118834757444567 
Si 0.08652270599999999 8.23135329 13.5912131345414 
Si 1.569233619 9.26534475 15.226025221414504 
Si 2.69211798 10.83581478 13.723524827969406 
Si 0.451742877 9.754940699999999 17.491336692463317 
Si 0.0234015624 11.73819933 20.849548272842203 
Si 3.21892029 9.148463999999999 20.566841597682522 
Si 1.051995168 9.81255843 20.026448064195527 
Si 3.44365713 9.06722577 22.88502252995504 
Si 2.73310362 11.120482529999999 23.82083269967002 
Si 1.4408309519999998 10.85479263 25.726307439531087 
Si 0.18362088000000001 8.283285809999999 29.38251366590654 
Si 2.6961090299999997 10.428336719999999 29.351420072850036 
Si 3.07276641 9.934489079999999 27.08804116696345 
Si 1.5067989359999998 10.92482334 32.61735166673271 
Si 3.00923541 8.96344218 32.51485669295045 
Si 0.627161742 10.33207911 30.504333232485614 
Si 2.70614367 16.291466099999997 2.6757123893024706 
Si 1.485097398 12.317536889999998 1.3368139898673213 
Si 1.3559421329999999 14.93338509 4.0709485142256785 
Si -0.000506198718 13.57505973 8.14486489637906 
Si 2.71339272 13.575238919999999 5.429265742531965 
Si 1.357745436 12.21694614 6.787686501114798 
Si -0.005494242329999999 16.2930951 10.859256196999763 
Si 4.0843917 14.938255799999999 12.246458372462868 
Si 1.356865776 14.933173319999998 9.502940554040066 
Si 2.71726974 13.57290945 10.865433503500446 
Si 1.360506591 12.207318749999999 12.236346915453373 
Si 1.3180581089999999 15.086706569999999 14.99028678171531 
Si 2.16108027 13.347048599999999 16.333695650198724 
Si 0.0179615169 13.646556539999999 13.580376965596072 
Si 3.9693517199999997 12.27707253 15.113901931913308 
Si 1.6159517099999998 16.16103207 21.511865962010248 
Si 1.232048538 15.17125167 19.414411579337497 
Si 3.08376216 14.832354509999998 17.94069260277267 
Si 2.64668517 14.41829529 22.685071055849182 
Si 1.2429840149999998 12.560371919999998 22.705293969868173 
Si 3.13905042 15.12664965 24.935784757904766 
Si 3.63423384 12.505718969999998 29.798601847351886 
Si 0.549292284 12.93233778 26.332994860100815 
Si 1.95905169 14.6963493 26.93398811546042 
Si 4.03034148 14.06698515 28.01218692552072 
Si 3.1929540299999997 13.284218069999998 34.467713789378195 
Si 0.18707924699999998 14.11352568 30.937089788455147 
Si 2.41197885 13.557173309999998 31.74445339506657 
Si 8.14609143 -0.0250273044 2.6916802089553493 
Si 5.41443762 2.71433754 2.677727778685933 
Si 6.579058589999999 1.1151303209999999 1.2956779599856878 
Si 5.43116745 -0.00173152926 5.430439085666173 
Si 5.429733929999999 2.7152497799999997 8.144795876194694 
Si 6.787358819999999 1.357566246 6.787893561667894 
Si 8.14835574 2.71274112 10.8583934446952 
Si 4.072516289999999 1.356292368 9.501318579707487 
Si 6.7766399999999996 1.3461925679999998 12.22613192816733 
Si 7.427344049999999 3.6771579899999995 14.939556946206922 
Si 5.60493288 2.8041768899999995 13.681698596244122 
Si 7.52453019 0.23191584299999998 21.01026177213647 
Si 7.44716898 3.66673239 19.81293412386191 
Si 5.39534574 3.1516262999999998 18.699362469314472 
Si 6.07677273 1.309136076 17.47556558033588 
Si 6.1587440099999995 0.550110042 24.255073189603408 
Si 4.09719564 0.9555241589999999 25.17466361599257 
Si 8.070196319999999 2.43853155 21.742496908066418 
Si 7.01507673 2.73717612 23.847819591756796 
Si 4.25522493 2.40127632 26.958731851555328 
Si 6.542715599999999 2.4366093299999996 27.580534692501026 
Si 6.8937650999999995 0.400512456 28.73752004301415 
Si 7.05088215 1.88890695 32.474617925465566 
Si 4.7319192 0.895612797 33.02156837646725 
Si 6.79047021 4.07155518 4.06936104998528 
Si 4.07192985 6.78688641 4.070361842658575 
Si 4.91039244 5.958556199999999 0.11897319769851723 
Si 6.76157175 6.773886989999999 1.3688980225694647 
Si 8.131186079999999 5.43041811 2.7167655949628657 
Si 4.07176695 4.0725814499999995 6.787824541483529 
Si 5.42965248 5.43085794 5.430024964559982 
Si 6.78760317 6.787652039999999 6.787375910285155 
Si 6.787652039999999 4.0728583800000004 9.50297506413225 
Si 5.42373921 5.431281479999999 10.862327595204013 
Si 6.778464479999999 6.802997219999999 12.222956999686533 
Si 8.14961007 8.140911209999999 10.861671903452544 
Si 8.1052524 5.36227704 13.501003753576141 
Si 4.523130269999999 4.84547679 17.040358807821384 
Si 4.40623323 6.54067935 15.152725785618708 
Si 7.6735674 5.82932763 20.758407119388014 
Si 8.10124506 7.72444107 19.38328347618881 
Si 4.22930754 6.7841822700000005 18.310847851523008 
Si 5.7950045999999995 6.169332509999999 22.1686275263369 
Si 6.42484116 5.09236803 24.165105379283425 
Si 5.9709528899999995 6.437449619999999 26.099327025932578 
Si 6.81666453 4.274186489999999 29.046833999246598 
Si 7.642697849999999 5.9603318100000005 27.68327123692856 
Si 4.9474684799999995 4.8003371999999995 30.428687110421404 
Si 5.80060836 5.751249659999999 32.47230574928933 
Si 7.65861318 4.25253708 32.411188376033984 
Si 6.62121711 8.118968579999999 32.74231271052582 
Si 8.12375784 10.856470499999999 2.7121274385735274 
Si 5.43813957 8.16111081 2.7217384992463756 
Si 6.786397709999999 9.50493807 4.075503846393779 
Si 4.854208229999999 11.3718861 0.20772901358104695 
Si 6.856070039999999 12.19425417 1.2189827311191257 
Si 4.07269548 9.50246199 6.787341400192973 
Si 5.4296199 8.14490226 8.14472685601033 
Si 5.431346639999999 10.85886513 5.430266535205259 
Si 6.7865606099999995 9.50365116 9.503147614593162 
Si 4.071017609999999 9.503667449999998 12.245216009144295 
Si 5.428512179999999 10.861829909999999 10.860464050226154 
Si 6.77918124 12.207660839999999 12.233275517249124 
Si 8.06604237 10.75234482 13.612229780680591 
Si 6.77048238 9.53427636 15.238793955522059 
Si 5.51543562 8.176879529999999 13.710825114046218 
Si 5.37556968 10.98172431 16.534130265595138 
Si 6.554216339999999 10.236212459999999 21.529500619115545 
Si 6.07801077 8.347549859999999 18.211803886959004 
Si 5.927474879999999 11.98008954 18.573573183308977 
Si 5.70070179 8.49271005 22.901242273280857 
Si 4.8134669400000005 11.94762357 24.57743196068087 
Si 6.28943868 8.581539419999999 25.17587146921896 
Si 6.292647809999999 10.198452239999998 29.996172125097146 
Si 5.27867676 10.43076393 26.30976956806194 
Si 6.70841748 11.37445992 27.988996143574024 
Si 4.27581549 8.946077039999999 30.229149757421737 
Si 7.90938144 8.844166799999998 30.971185759531533 
Si 5.23747935 11.751133589999998 31.373090293089845 
Si 5.06418633 9.980280269999998 32.875728726903674 
Si 4.27443084 15.07699773 1.2784125608667438 
Si 5.45566761 13.581168479999999 2.697860966465249 
Si 6.792653069999999 14.92722747 4.074813644550128 
Si 4.07290725 14.93229366 6.787997091944442 
Si 5.4295547399999995 13.574815379999999 8.14500293674779 
Si 6.78822219 12.21748371 6.788066112128807 
Si 8.144201789999999 13.57553214 10.86401858972096 
Si 4.07341224 12.2163597 9.502353882472963 
Si 6.786739799999999 14.932912679999998 9.502595453118243 
Si 5.428447019999999 16.2909774 10.859428747460678 
Si 5.50356021 13.590893609999998 13.717658112298368 
Si 7.50255498 14.382359549999999 14.995325255173968 
Si 8.11175211 16.25730597 13.623445560639928 
Si 5.76903834 13.677572699999999 16.463522616989582 
Si 6.752204999999999 15.84502236 18.849136269386864 
Si 5.0797107 14.1470505 19.214805206153464 
Si 5.501279609999999 16.190223749999998 22.109856839349966 
Si 6.1219611899999995 12.32506287 22.640414996564925 
Si 8.0229879 13.455165329999998 23.51807566095226 
Si 4.76309826 14.025836609999999 21.609702073347858 
Si 7.11273528 14.88013308 25.267288703410614 
Si 4.98635271 13.927396139999999 25.79967589551125 
Si 4.66895835 15.996389039999999 29.244404276991858 
Si 6.82769286 13.48248366 29.183148863367784 
Si 6.28521957 13.77427014 31.496084261628553 
Si 4.43400768 15.278749379999999 31.486317905540883 
Si 8.446136939999999 2.33393346 0.11152695510828228 
Si 9.503227619999999 1.3585599359999998 4.067739075652699 
Si 10.36617408 0.6576712829999999 0.04897016590800058 
Si 10.85316363 2.74533741 2.7034964645186643 
Si 8.14539096 -3.1327299e-05 8.1445888156416 
Si 8.1445113 2.71415835 5.430473595758355 
Si 10.86109686 -0.001624575636 5.431060267325458 
Si 10.859679629999999 2.71484253 8.144692345918147 
Si 9.50172894 1.3567436009999998 9.501456620076217 
Si 8.626320629999999 1.186061868 17.084704276275996 
Si 8.93959362 1.8160906499999998 14.843756930308084 
Si 10.81323684 2.6724396599999998 13.669965164902045 
Si 11.29916754 2.59706583 19.908423548931108 
Si 9.396006839999998 2.9973599999999996 18.541444287486993 
Si 11.868356429999999 1.984122 22.929540548870566 
Si 10.26024021 3.3428057399999997 21.870115228957594 
Si 8.201966129999999 2.56868865 25.85534067420175 
Si 9.91070568 2.41790841 29.962697335680048 
Si 9.753230249999998 0.78363045 26.357842126472274 
Si 11.22858297 4.04733195 26.60524497732918 
Si 10.96905069 2.09614833 27.896094975418524 
Si 8.33161824 0.785562444 30.63070919005822 
Si 11.85288093 2.93340546 31.38309821982279 
Si 11.94066774 1.0546536960000001 32.77965263026737 
Si 9.49824288 4.2138972 1.245341539528179 
Si 9.503227619999999 6.78781494 4.070775963764766 
Si 9.502413119999998 4.07264661 6.787513950653886 
Si 8.145439829999999 5.429701349999999 8.145037446839973 
Si 10.86134121 5.429391839999999 5.429714373730339 
Si 9.512740979999998 4.06481112 12.208842371983856 
Si 10.85756193 5.433415469999999 10.859428747460678 
Si 9.50306472 6.78595788 9.501318579707487 
Si 10.05138612 5.94827721 14.764107637550692 
Si 10.930866929999999 8.117942309999998 13.84375798913351 
Si 11.936904749999998 4.4046042299999995 15.01461639670403 
Si 9.22347945 4.93284006 16.81069414434632 
Si 10.97900388 7.332226739999999 21.44902308414577 
Si 11.748250259999999 6.65878185 19.344252561930315 
Si 9.814610969999999 7.100957609999999 17.86494295043191 
Si 9.55660995 5.61063438 22.174494242007935 
Si 8.6428224 5.98323555 24.294380184599362 
Si 9.08125146 4.72890555 26.193539577591018 
Si 10.40057856 6.19300188 29.874075418955186 
Si 8.660839139999998 7.602086879999999 29.098150506322092 
Si 11.56091526 8.05265199 26.982681855530036 
Si 11.76568056 5.89398264 27.899580494728966 
Si 8.82072549 4.411511190000001 30.304519798748487 
Si 11.267467199999999 7.060232609999999 31.944577419633344 
Si 8.236891889999999 7.89436206 34.416949443777625 
Si 10.9594233 5.64925797 34.23632362129401 
Si 9.43785585 9.50053977 1.323158346390675 
Si 10.85681259 8.15482287 2.6998832578671483 
Si 10.56973392 11.21423148 0.12229548427293405 
Si 8.14390857 8.14625433 5.430128494836529 
Si 9.50239683 9.502478279999998 6.787582970838251 
Si 10.860363809999999 8.14428324 8.145382547761798 
Si 8.145048869999998 10.860233489999999 8.144899406471243 
Si 10.862530379999999 10.85979366 5.4295763333616085 
Si 12.217092749999999 9.50187555 9.501560150352764 
Si 9.518458769999999 9.48931596 12.247942306426719 
Si 10.865397419999999 10.859907689999998 10.863569958522588 
Si 10.585502639999998 9.07152633 16.58006319829015 
Si 9.6975999 11.361362759999999 16.74346848477466 
Si 10.44131985 9.67761207 21.565460135169793 
Si 11.995793099999998 11.48208795 21.196995880936406 
Si 8.50492755 9.931491719999999 20.25562958638003 
Si 8.31154896 11.782068299999999 18.69680872249296 
Si 9.26918919 11.85990192 24.823868528956663 
Si 12.07106919 8.68944438 24.743287463710345 
Si 10.073850030000001 9.792717210000001 23.903104759433287 
Si 8.59918149 8.26438941 24.980820428203028 
Si 10.36873161 12.086805329999999 28.530321449549948 
Si 11.40818022 10.67032467 30.13390190299782 
Si 9.34871697 8.77288176 27.153437791649438 
Si 8.85666123 11.07799821 27.067404131838266 
Si 12.04865415 10.13930325 33.12647905670229 
Si 10.25936055 9.17299674 31.579357114065115 
Si 9.499660109999999 12.21938964 4.069153989432185 
Si 9.65936727 14.921754029999999 1.1973656093759586 
Si 10.881394199999999 13.591007639999999 2.7163273167921473 
Si 8.14198635 13.57743807 5.430577126034903 
Si 9.502250219999999 14.9320656 6.787928071760077 
Si 10.860298649999999 13.574978279999998 8.144830386286877 
Si 9.50194071 12.21720678 9.502629963210424 
Si 9.51972939 14.940552689999999 12.236105344808093 
Si 10.860103169999999 16.2909774 10.860464050226154 
Si 11.962561499999998 12.221181539999998 17.2191901055115 
Si 8.99318772 12.50226549 14.813595109740511 
Si 10.811672999999999 13.48596972 13.69077475048814 
Si 8.59385466 15.110278199999998 17.563117684203082 
Si 11.763416249999999 13.08987837 19.43221878690371 
Si 9.48571587 13.7948607 19.567222267521952 
Si 11.113901369999999 16.00735221 22.604800581432507 
Si 12.2052825 12.78991431 23.165762129860315 
Si 9.08589411 14.856317099999998 21.758647631207864 
Si 11.156336819999998 15.7218048 24.94827741127486 
Si 11.02064112 13.356561959999999 25.120206690528466 
Si 9.110508300000001 13.967046 28.974880457045924 
Si 12.061523249999999 12.791852819999999 27.12886660601544 
Si 8.31053898 15.43760946 27.27449919502592 
Si 8.84426454 13.01610096 34.49521833284771 
Si 9.71362926 15.130917629999999 30.911966441346234 
Si 12.08271654 15.43089798 31.44652776925437 
Si 8.34997707 14.060762369999999 32.48783529077149 
Si 16.27848297 2.7125293499999996 2.707558302368554 
Si 13.572160109999999 -0.027239160599999996 2.7224459561361183 
Si 13.7692854 2.16547857 -0.012644877386710737 
Si 12.205021859999999 1.3407842879999998 1.4505765087471911 
Si 14.93582859 1.3618749510000001 4.072156367452069 
Si 12.21593616 4.07121309 4.07270852892699 
Si 14.92761843 4.013970029999999 1.2501349913323392 
Si 13.57533666 -0.000214239564 8.145244507393068 
Si 13.57483167 2.7147122099999996 5.430301045297442 
Si 12.21728823 1.358045172 6.78744493046952 
Si 14.933010419999999 1.356756633 9.501663680629314 
Si 13.57553214 2.71803537 10.86429467045842 
Si 12.21512166 1.340269524 12.24780426605799 
Si 16.261687979999998 2.7182960099999995 13.721626772899365 
Si 14.839147439999998 1.330076871 15.132364831230987 
Si 13.50602271 4.05397827 17.196724035500644 
Si 13.95005553 0.583955775 19.56981052443565 
Si 16.28402157 0.7799717159999999 18.845926830813884 
Si 14.09531346 1.7479332899999998 17.38342363420839 
Si 12.650879159999999 3.25876563 24.84699029071899 
Si 15.91604676 0.722305116 22.659637117910624 
Si 13.936860629999998 1.78059474 21.64869847751417 
Si 13.20413643 1.7373122099999998 28.419578563736053 
Si 13.680993599999999 3.4746407099999996 29.91120827814364 
Si 14.064492779999998 1.82159667 26.233778345075905 
Si 15.533932229999998 0.42117469199999996 34.053178562081065 
Si 12.67449966 4.05834399 33.39482953351401 
Si 15.68655324 3.4589208599999997 31.072576410363954 
Si 13.57330041 5.439898889999999 2.6793497530185144 
Si 12.26793384 6.97438431 1.2042952358862204 
Si 14.93221221 6.7850945099999995 4.068084176574525 
Si 12.21712533 6.78760317 6.787479440561703 
Si 14.932863809999999 4.072060169999999 6.787651991022616 
Si 13.57509231 5.43004344 8.14514097711652 
Si 12.21608277 4.073021279999999 9.501629170537129 
Si 14.93331993 6.7889715299999995 9.502698983394788 
Si 14.934069269999998 4.0622047199999995 12.233551597986583 
Si 12.19927149 6.8071023 12.210981997699177 
Si 15.26588028 5.66013969 16.474013685013087 
Si 13.514933339999999 5.45493456 13.53296009893721 
Si 14.613938189999999 7.124105699999999 14.76890454036407 
Si 15.550808669999999 7.486769969999999 18.017581088155456 
Si 14.18803614 4.0955666399999995 21.32461420182758 
Si 12.67186068 4.46712525 19.529537246858578 
Si 12.715599329999998 7.25569632 22.959909429991235 
Si 13.50032121 5.040109709999999 23.421757993670685 
Si 15.441910019999998 5.737126229999999 24.492778704557008 
Si 15.610869899999999 5.66237142 26.86255222464248 
Si 14.247315449999999 7.66703511 29.573975657335485 
Si 13.935150179999999 5.53283334 28.608141707421662 
Si 13.71616371 7.20496926 31.984471086196404 
Si 14.868632339999998 5.06842173 32.60544568492972 
Si 13.5920502 10.83711798 2.705487696837599 
Si 12.23336646 12.1982778 1.4148689163658772 
Si 14.93156061 12.21666921 4.06922300961655 
Si 12.21808644 9.502152480000001 4.074123442706476 
Si 15.024951179999999 9.552537449999999 1.171755669967267 
Si 13.57343073 8.14493484 5.430128494836529 
Si 14.93242398 9.50246199 6.787582970838251 
Si 13.57520634 10.860233489999999 8.145279017485251 
Si 13.571769149999998 8.1443484 10.862362105296196 
Si 14.93918433 9.52233579 12.236657506283017 
Si 12.21981318 12.196485899999999 12.255879627628712 
Si 12.921521219999999 8.921967839999999 15.180195818996042 
Si 13.744573469999999 10.82871234 13.884652448369867 
Si 12.64470525 9.82560672 17.356505762305986 
Si 14.06745756 8.52056595 21.388147281535705 
Si 13.452786989999998 8.30086272 19.075039332814022 
Si 14.254792559999999 10.84244481 21.65283968857608 
Si 14.17554171 11.74575789 23.806165910492425 
Si 13.90838571 10.01983239 25.254485459210876 
Si 16.07645439 9.1997775 25.333064939110606 
Si 15.493858829999999 12.145709969999999 30.02978495488298 
Si 13.569749189999998 10.98833805 27.292340912684313 
Si 12.71618577 9.283850189999999 28.667982207266256 
Si 13.35807693 11.657091419999999 31.117025409095113 
Si 16.157041019999998 11.282437709999998 34.40535405280428 
Si 13.46831136 8.43742179 34.106807245332796 
Si 12.216604049999999 14.932407689999998 4.0767807198045345 
Si 14.827255739999998 14.82565932 1.3418766203905055 
Si 16.3059642 13.585078079999999 2.705415225644016 
Si 16.290325799999998 16.2896742 5.430715166403633 
Si 13.574799089999999 13.57660728 5.431232817786372 
Si 12.21776064 12.21763032 6.787651991022616 
Si 14.932375109999999 14.93270091 6.787582970838251 
Si 12.21663663 14.93309187 9.502146821919867 
Si 14.93325477 12.21706017 9.502457412749512 
Si 13.57561359 13.576753889999999 10.863397408061672 
Si 14.91975036 14.94762255 12.230652750243246 
Si 12.69241866 13.96452105 15.292422638773786 
Si 14.75610102 12.652833959999999 15.157833279261729 
Si 13.446254699999999 16.13794914 13.788024190258646 
Si 15.872356979999998 13.436822789999999 19.29169369153625 
Si 13.69425366 14.48607798 19.889166917493228 
Si 14.76908415 15.27081615 23.72993311686111 
Si 15.88612203 13.264148789999998 24.2218054607394 
Si 13.080267269999998 14.71534344 22.184157067819058 
Si 13.46834394 15.89617296 25.6403082898121 
Si 15.987918239999999 16.15244724 29.86675927941248 
Si 13.59336969 15.971791139999999 29.533046688006944 
Si 13.58773335 14.524717859999999 27.636475551928985 
Si 15.102491579999999 12.67963101 27.821311605658874 
Si 14.10521778 12.97728189 34.509125899997294 
Si 12.98591559 13.504605479999999 32.501501287275794 
Si 15.174118709999998 14.597501579999998 32.87614284800986 
