&CONTROL
  dt          = 30.D0,
  prefix = 'x.66_y.66_z3.19_struc38-scf',
  pseudo_dir = './',
  outdir='./',
  wf_collect= .true.,
  verbosity= 'high',
/

&SYSTEM
ibrav= 6, celldm(1) =30.783621515, celldm(3) =2.1298470991719882, nat=  432, ntyp= 1,
  ecutwfc     = 12.D0, nbnd= 1728,
  degauss     = 0.05D0,
  occupations = "smearing",
  smearing    = "methfessel-paxton",
/
&ELECTRONS
  electron_maxstep=200,
  conv_thr    = 1.D-8,
  mixing_beta = 0.3D0,
  scf_must_converge=.false.,
/
ATOMIC_SPECIES
Si  28.08  Si.pbe-hgh.UPF
K_POINTS {automatic}
1 1 1 0 0 0
ATOMIC_POSITIONS (angstrom)
Si 2.04377598 3.13955541 0.17777027227587539 
Si 1.249594497 1.2002700059999998 1.2083231133515862 
Si -0.00266673816 -0.000970628247 5.429800246922579 
Si -0.00054043704 2.71529865 8.145186103313305 
Si 2.71461447 0.000229348539 8.145220798522551 
Si 2.71321353 2.7143049599999998 5.43087579840919 
Si 1.3574994569999999 1.357670502 6.787527870327187 
Si 0.00240523479 0.000390435462 10.86036378844856 
Si 2.7182471399999995 2.7144027 10.863625138117637 
Si 1.366973721 1.325393496 12.22215075133489 
Si 0.11186896860000001 3.5906417999999998 17.016508240925923 
Si 1.5024609089999998 3.5308086299999997 14.982987331837238 
Si 3.31084476 1.8890046899999997 15.170723109064703 
Si 2.20392297 3.2927139899999998 20.50930965088083 
Si 2.80585476 1.1613483089999999 19.659207633947304 
Si 0.678840138 0.0836574579 19.494162523566402 
Si 0.789546978 2.2109928299999995 22.193484498076458 
Si 1.96959132 0.492893046 23.309213036993622 
Si 3.73876677 0.513589491 21.777488939222774 
Si 2.6080452899999997 1.4964303509999999 25.35470379327201 
Si 0.6008794559999999 2.75094117 25.70758876650811 
Si 2.2670793 0.304880382 27.39616990527792 
Si 3.5760785399999997 3.70195137 28.711638763821494 
Si 1.87313823 2.08199232 28.973344727160388 
Si 2.27628315 3.0371238899999997 32.54476548126563 
Si 2.67014277 1.2301947359999998 31.031672710859613 
Si 3.9294738 4.1239764 1.27415380337402 
Si 1.3608780029999998 4.07337966 4.069748044498521 
Si 2.69283474 5.43862827 2.722640624643963 
Si 1.181966562 6.56646642 1.263301141922024 
Si -7.12534374e-05 5.429522159999999 5.4303900654797514 
Si 2.7164552399999997 5.430206339999999 8.144873846430094 
Si 1.358090784 6.787407689999999 6.787493175117942 
Si 1.3586772239999998 4.07170179 9.504370925506224 
Si -0.004647194909999999 5.4335295 10.866539535694258 
Si 1.364702895 6.7934187 12.247929291804308 
Si 2.7256590899999997 8.13662694 10.854188041202857 
Si 2.6111566799999997 5.36550246 13.819656965835232 
Si 0.1250457867 7.65983493 15.885513809940734 
Si 1.88082711 6.779441879999999 17.70187740436176 
Si 3.31390728 7.92425421 21.309901604221015 
Si 1.134404649 4.6804428 18.871903945748155 
Si 3.49119135 6.06416427 22.723106867209196 
Si 1.472516631 6.115086809999999 24.00231923209121 
Si 1.3650905969999998 4.9379877 26.09971402140088 
Si 3.1793193 5.35007583 30.33592967985937 
Si 1.294994727 6.63814242 29.67453490601218 
Si 3.5155774799999997 5.2751255399999994 26.937811495935463 
Si 3.56811273 7.619012189999999 27.583177083111227 
Si 0.144192564 5.2596826199999995 28.115575068983606 
Si 0.240787377 4.71755142 34.687923251570126 
Si 2.9168059499999996 7.698034979999999 34.6410153286702 
Si -0.0011096471069999999 6.3983373299999995 31.596580107795035 
Si 0.13552823879999998 4.13927271 32.36212989979725 
Si 3.89342403 9.285625799999998 1.4192005951458062 
Si -0.015912756179999998 8.14032477 2.6825052065887554 
Si 4.07344482 12.221686529999998 4.0738420791894905 
Si 1.3592750669999998 9.50480775 4.070268472637204 
Si 2.70394452 10.85267493 2.7043007370367853 
Si 1.3086995039999998 12.08546955 1.2089545661598546 
Si -0.000409250412 8.1454887 8.145116712894813 
Si 2.7146633399999995 8.14464162 5.430355370270506 
Si -0.00249720813 10.859418989999998 5.430979884036926 
Si 2.7146633399999995 10.860168329999999 8.144873846430094 
Si 4.074471089999999 9.47434545 12.221769104033191 
Si 1.356241869 9.50057235 9.504752572807927 
Si -0.00786446991 10.869307019999999 10.859635189054401 
Si 1.350512676 12.20360463 12.236237006288569 
Si 0.495259983 8.57608227 13.608883569668748 
Si 3.87741096 11.46022677 14.93829990232902 
Si 2.33059401 10.377902879999999 13.50413873295655 
Si 3.53579337 11.609883 17.390938939103485 
Si 2.95873641 11.37618666 21.306293302459476 
Si 1.8179151299999998 8.32560723 19.491733858919222 
Si 2.06713584 10.678665149999999 19.225448127959915 
Si 0.1051987023 12.03933627 19.222047997453856 
Si 2.7390657599999995 9.606897179999999 22.859910077264246 
Si 0.9437448599999999 8.451724409999999 23.913464801213454 
Si 0.11804401889999999 9.405552779999999 25.955937074287483 
Si 0.545801337 9.72667755 29.73344737131106 
Si 3.34360395 11.403700469999999 27.723935547020265 
Si 1.82752623 9.463887269999999 27.716198515358517 
Si 1.0907816579999998 8.44830351 33.285404113029564 
Si 0.0784775637 10.57276386 34.37760930007827 
Si 2.06711955 9.77603625 31.632003916434705 
Si 3.23058393 11.570868449999999 33.06255678404564 
Si 2.7198598499999997 16.28719812 2.680871062233291 
Si 4.05502083 14.88936951 1.1886405211466076 
Si -0.01281171033 13.559812289999998 2.6768047837097173 
Si 1.356963516 14.93289639 4.063745773299047 
Si -0.000708733917 13.575222629999999 8.144388113500659 
Si 2.7130994999999998 13.57092207 5.430598236735225 
Si 1.35742941 12.21740226 6.787527870327187 
Si 1.353189123 14.92975242 9.501525918348094 
Si 2.7124967699999996 13.5801585 10.86175159681838 
Si 2.72691342 16.28371206 13.769244826801504 
Si 1.17755523 14.827858469999999 15.34853605644795 
Si 2.7975468599999997 13.924740869999999 17.475005431105362 
Si 2.28851694 13.63562595 21.652655576357425 
Si 1.4112157319999998 14.09985837 19.45811420116032 
Si 0.850478094 14.63928543 23.28645297972857 
Si 1.086130863 13.29918858 25.296624012995025 
Si 3.39537357 12.37148937 25.497682750572764 
Si 1.1081288790000001 13.976054369999998 29.35658800848631 
Si 3.2884948799999996 13.35946158 29.08766544162435 
Si 0.642528099 14.841981899999999 27.219814156682983 
Si 2.5523986499999998 13.49703063 34.44307915992455 
Si 1.187632224 15.67371672 31.03642595452625 
Si 0.8571700259999999 14.475065939999999 33.05350133443256 
Si 4.07241855 1.35985662 4.067458160688317 
Si 5.42773026 2.7111284099999997 2.672145217108045 
Si 6.786984149999999 1.188002007 1.1779648052617635 
Si 5.42828412 -0.00297663912 5.4301125038057885 
Si 5.42975022 2.7151683299999996 8.145428969778024 
Si 6.787928969999999 1.356983064 6.787631955954924 
Si 4.0675152599999995 4.08730761 12.252751925889434 
Si 8.14284972 2.72036484 10.863451662071409 
Si 4.06925829 1.353703887 9.502566774625459 
Si 5.42968506 0.004920541109999999 10.860155617193087 
Si 6.77471778 1.33967331 12.227979546488138 
Si 7.1311592699999995 3.1073012099999997 15.589702455913502 
Si 5.492124629999999 2.73830013 13.654438379408106 
Si 7.238754719999999 0.9182835899999999 19.20615759161941 
Si 6.214749029999999 2.51380764 17.811999998507016 
Si 7.11065016 1.82949732 21.419885417529283 
Si 8.05017591 3.9669407999999997 20.967841536269514 
Si 4.16564622 1.321974225 17.402006710852806 
Si 4.79965302 2.5622866799999997 24.86598707583973 
Si 5.062850549999999 2.27387223 22.524580879906377 
Si 6.532452899999999 1.340582292 25.971688699284943 
Si 4.7899116 0.534777894 30.20287355240283 
Si 5.62104369 2.68239285 29.419386337220686 
Si 7.32437496 2.8235945699999996 27.689309728193248 
Si 6.1333478999999995 3.9567269699999996 31.408219816801154 
Si 6.79247388 4.070594069999999 4.068707188221155 
Si 4.072304519999999 6.78779865 4.073113479795335 
Si 6.6207446999999995 6.680203199999999 1.2341710442394926 
Si 5.44211433 8.135747279999999 2.7165550849423 
Si 8.13006207 5.42095362 2.6869843581023507 
Si 4.07196243 4.07279322 6.787840127210397 
Si 5.428349279999999 5.42878911 5.429696161294842 
Si 6.7874728499999994 6.78776607 6.787458479908696 
Si 6.78618594 4.07124567 9.502948421927158 
Si 4.07256516 6.79050279 9.500207500396764 
Si 5.42839815 5.42777913 10.867094659042188 
Si 6.793874819999999 6.79630203 12.238977927818965 
Si 4.191856829999999 7.010759879999999 17.164275137102557 
Si 4.547337209999999 6.21315261 15.014143629739708 
Si 5.3521120799999995 7.994741039999999 13.730837230166722 
Si 4.21772535 4.15675188 21.39015162320588 
Si 5.54213493 7.95670389 20.551082682812424 
Si 5.99841783 4.25928114 19.708440135866685 
Si 5.92822422 6.4071339300000005 18.819028446857992 
Si 6.897332609999999 7.409539079999999 22.535648651655695 
Si 5.23405845 6.828116399999999 24.14741459715594 
Si 5.31112644 4.863917069999999 25.453376968366243 
Si 4.76725221 6.89037678 29.582939553604028 
Si 7.44308019 4.936049189999999 26.469009828610112 
Si 8.017058339999998 7.01245404 27.496126803114237 
Si 4.60930437 5.96989404 34.482492917627454 
Si 6.84100179 6.07744062 30.57980230564607 
Si 7.2211778099999995 7.858067939999999 32.40379884610111 
Si 4.08727503 4.57481844 32.44647395347309 
Si 6.79029102 9.50295069 4.070719510357395 
Si 6.51859011 12.00107106 1.3065348421628562 
Si 4.0725814499999995 9.502347959999998 6.787874822419643 
Si 5.43045069 8.1448371 8.143624818897257 
Si 5.42808864 10.85876739 5.430737017572207 
Si 8.13762063 8.15091327 10.854188041202857 
Si 6.7873262400000005 9.49980672 9.498923777654682 
Si 5.4362988 10.858783679999998 10.860467874076296 
Si 8.033169149999999 10.684496969999998 13.628416972473971 
Si 5.9360922899999995 10.889571779999999 17.208823785773795 
Si 6.01234578 9.937698209999999 14.897151384163841 
Si 5.3546859 11.55084804 21.03348487216202 
Si 6.20500761 9.98681256 19.469043192072654 
Si 7.9041523499999995 9.450154799999998 23.193331038113612 
Si 6.1442459099999995 11.00267325 23.219976958814165 
Si 4.23857655 10.35390771 24.472820964669594 
Si 4.9527790199999995 8.560916279999999 25.866527520061798 
Si 4.71911526 10.49774841 29.562469380149174 
Si 7.00706205 10.35346788 29.089087945203413 
Si 7.019002619999999 9.12489237 26.988848148735613 
Si 5.12134794 8.64985968 33.16230551062648 
Si 4.9595556599999995 10.61031231 34.52214954179507 
Si 4.11741153 8.69350059 30.940597786590146 
Si 7.467515189999999 13.774986899999998 0.037758796221890364 
Si 5.4104465699999995 13.571329319999998 2.698177032604953 
Si 6.7894602299999995 14.93542134 4.074189031281946 
Si 4.07240226 14.93252172 6.787493175117942 
Si 5.43009231 13.574880539999999 8.144561589546885 
Si 6.787423979999999 12.2175 6.7877013463734155 
Si 4.0713922799999995 12.217304519999999 9.503364764438105 
Si 6.786642059999999 14.932179629999998 9.502497384206967 
Si 4.0663098 14.92478397 12.24071268828124 
Si 6.796855889999999 12.20259465 12.229332659648712 
Si 7.35651513 12.638710529999999 16.278228883390682 
Si 4.78072404 15.32095677 17.05054424119577 
Si 5.0677701299999995 13.1758407 13.536474667973366 
Si 6.1887501899999995 14.46716529 15.197403724974501 
Si 7.7640094799999995 15.946085519999999 13.590148156676173 
Si 5.912455499999999 13.825323 20.777364837511655 
Si 6.371100449999999 15.026400989999999 18.779579993945845 
Si 7.807047659999999 14.079137489999999 22.112852831789887 
Si 4.330191510000001 14.64417243 22.32459769381525 
Si 6.87672576 13.07849166 24.02272001512757 
Si 4.8876678899999995 14.134230269999998 24.697854091835985 
Si 5.71959819 15.46592148 26.58846543404241 
Si 7.365621239999999 12.685283639999998 29.410261497189115 
Si 7.510390469999999 14.25313098 27.593932597977336 
Si 4.14023382 15.47849736 28.328846520215762 
Si 4.17066354 12.310678799999998 31.009884119453435 
Si 6.315665579999999 13.34612007 31.55262127768097 
Si 6.1200389699999995 15.79108617 31.975833440057723 
Si 5.8077108 15.74876475 34.439852505464714 
Si 12.02687442 1.225558602 1.3011293285624055 
Si 9.50236425 1.360206855 4.073668603143264 
Si 10.32694776 0.13887176129999998 0.043405094574504935 
Si 10.85423877 2.71036278 2.7134637417985252 
Si 9.50739786 3.9950410499999998 1.2684290938485108 
Si 8.1445113 0.00010925409779999999 8.144943236848587 
Si 8.14377825 2.71267596 5.431361531338626 
Si 10.85886513 -0.000207586728 5.4315697025941 
Si 10.86064074 2.71577106 8.144769760802358 
Si 9.50226651 1.356243498 9.501768784812812 
Si 10.86090138 0.00470802177 10.861369949516678 
Si 9.50005107 4.08338172 12.220971114220545 
Si 8.85772008 1.360079793 14.890802160871914 
Si 10.56057894 2.4387759 13.542199377498877 
Si 11.635849259999999 4.01273199 14.880428293307506 
Si 10.48264758 2.8381578299999997 17.62072530993651 
Si 10.42998201 0.238912398 21.574799526810494 
Si 11.40982551 2.3261142599999998 21.15144858359676 
Si 10.10447523 3.7769668199999997 19.76513210777385 
Si 9.48222981 0.807200451 18.30810679550859 
Si 8.26137576 0.1274664807 22.438710237023738 
Si 11.74829913 3.3277537799999997 23.19867410033742 
Si 8.45276697 0.948097548 24.614654980065247 
Si 10.032538589999998 2.73875625 24.76172797205697 
Si 11.047470749999999 1.7536347899999998 26.745426560669102 
Si 9.54470196 0.611757918 30.070164377038747 
Si 9.51855651 2.3810278499999997 28.45659428065774 
Si 8.29968984 0.624027546 32.07280654989893 
Si 8.36827074 3.04950429 32.38749209775572 
Si 8.65736937 2.1225544199999997 34.63969691071886 
Si 11.791711979999999 0.1080968562 30.871519624982334 
Si 12.21688098 4.07176695 4.07144810975155 
Si 12.20065614 6.741681659999999 1.297368367880192 
Si 9.50474259 6.78779865 4.070823595985131 
Si 11.26331325 5.00425542 0.007323915805262799 
Si 9.50312988 4.07207646 6.787250308653223 
Si 8.145114029999998 5.4297990899999995 8.14553305540576 
Si 10.85782257 5.42875653 5.430702322362962 
Si 10.8675477 5.42443968 10.855506459154187 
Si 9.50073525 6.784475489999999 9.502670860253195 
Si 9.77672043 6.56034138 16.931678454320647 
Si 10.34265132 7.73190189 13.588864433934088 
Si 8.97476373 4.774289489999999 15.61940155502766 
Si 8.67999618 5.96339433 13.503236657516165 
Si 10.40701311 6.106355369999999 19.518275693992035 
Si 8.29134936 7.05153375 18.718447035255252 
Si 9.234605519999999 4.96722825 24.81713622122205 
Si 8.65922643 5.7752937 22.55486979757771 
Si 10.68285168 6.89791905 21.718507083505404 
Si 11.21530662 6.25065219 25.60964419080803 
Si 10.477385909999999 4.48584246 28.966024038009586 
Si 8.94883005 6.25790124 29.482496922838273 
Si 9.97959609 7.95680163 26.577536443130068 
Si 11.005572869999998 4.05348957 31.204003815182073 
Si 10.693880009999999 5.80984479 32.595940914902755 
Si 8.33508801 7.61943573 34.52863754592398 
Si 12.11360238 7.16735565 31.344727583881866 
Si 9.367271279999999 9.353164139999999 1.204298469079107 
Si 10.84120677 8.13429747 2.694107284560454 
Si 8.134835039999999 10.84615893 2.684895706505771 
Si 11.10556089 10.493822519999998 0.10799334915385703 
Si 8.143485029999999 8.14273569 5.429973722968806 
Si 9.50246199 9.50229909 6.787527870327187 
Si 10.86046155 8.14442985 8.145012627267077 
Si 8.14400631 10.8600543 8.14421463745443 
Si 10.858588199999998 10.858588199999998 5.430459455898243 
Si 9.49806369 9.479281319999998 12.221109895057527 
Si 10.86505533 10.862253449999999 10.864735384813493 
Si 9.88631955 10.16616546 17.19619472960843 
Si 9.31572972 11.70117216 15.32247995430457 
Si 10.81414908 8.36695125 15.848840973768228 
Si 11.433885839999999 9.24499854 21.66993379056169 
Si 9.32019318 10.24886979 21.439488210752998 
Si 8.48891448 9.40613922 19.303963386482508 
Si 11.54270304 11.53620333 18.32486458157417 
Si 11.87951508 11.88523287 24.44572400624885 
Si 8.78423589 9.6181047 25.407960939463873 
Si 9.95100714 11.632151429999999 25.810425366711808 
Si 10.154192309999999 8.1334341 30.273859950519146 
Si 10.704387059999998 11.51090496 28.045247879842954 
Si 11.00800008 9.16107246 28.350392245157227 
Si 12.170373029999999 9.038001509999999 32.707902355138025 
Si 8.33977953 9.47462238 30.984834178378176 
Si 10.259262810000001 10.70575542 32.54792274530696 
Si 8.1334341 16.286416199999998 2.7177937039123647 
Si 9.506013209999999 12.21735339 4.0689153594766285 
Si 9.25602687 14.74868907 1.3593270725508269 
Si 10.84834179 13.57303977 2.703818473628273 
Si 8.143485029999999 13.57548327 5.430841103199944 
Si 9.50252715 14.932945259999999 6.7877013463734155 
Si 10.86039639 13.57496199 8.145428969778024 
Si 9.497623860000001 12.21422571 9.502774945880931 
Si 8.14625433 13.57810596 10.86043317886705 
Si 9.49215042 14.908542839999999 12.251398812728858 
Si 11.69332038 15.12300069 15.251493556188255 
Si 9.580214159999999 15.884460449999999 16.3016481496314 
Si 10.716099569999999 13.397303249999998 13.852860281083187 
Si 9.97936803 13.26361122 19.113451992515408 
Si 9.59484258 12.65480505 21.36194441808928 
Si 10.697203169999998 15.50110788 19.510226405447078 
Si 8.31154896 14.167755089999998 17.678874480631986 
Si 11.647773540000001 13.265386829999999 22.474585083383595 
Si 11.326420709999999 15.395630129999999 23.37867284590314 
Si 9.74135484 15.337523699999998 25.120198873981597 
Si 8.49042945 13.41470097 25.64218829708032 
Si 9.70390413 12.970977659999999 29.605387353985876 
Si 11.142897569999999 15.68630889 26.921921090101016 
Si 9.53175141 15.09542172 28.580074530362513 
Si 10.91330631 12.82977594 31.656394648534295 
Si 11.43175185 15.0107463 32.910522377131805 
Si 16.267454639999997 2.6980638299999997 2.6826856216768316 
Si 14.933987819999999 1.3618146779999998 4.07207262351797 
Si 14.696447039999999 3.9078080999999996 1.1798695722493422 
Si 13.57514118 -0.00027395055899999995 8.145012627267077 
Si 13.574457 2.71349046 5.429834942131824 
Si 12.2170113 1.3583335049999998 6.7877013463734155 
Si 14.930925299999998 1.355057586 9.502150432114512 
Si 13.57551585 2.71899648 10.86081482616875 
Si 12.192511139999999 1.358621838 12.209729866424999 
Si 14.929899029999998 4.06490886 12.227181556675491 
Si 16.16036418 2.5293482999999997 13.540082969734899 
Si 12.735717479999998 2.81535183 16.6905120548551 
Si 14.557835429999999 1.4487397469999999 14.936079408937307 
Si 15.4580697 0.9098600309999999 21.166575694827802 
Si 13.65245352 2.4211827 20.427324871433687 
Si 13.7339361 1.3186722419999999 18.43550760385811 
Si 15.964053389999998 1.283270814 17.71162675815975 
Si 15.662541779999998 3.1599667799999995 23.76129161346264 
Si 13.537250639999998 2.30482323 24.279082916242658 
Si 13.108432679999998 2.84788296 26.558384687626546 
Si 16.02331641 3.11005422 29.089365506877378 
Si 15.17553594 1.9570317299999997 27.273522340595036 
Si 12.71028879 3.0131775899999997 34.51548806161993 
Si 14.83641072 2.60407053 31.11310236695883 
Si 15.291260099999999 0.265458582 31.249385148875202 
Si 12.58161408 2.47047624 32.013234875624384 
Si 13.58722836 5.4305973 2.6920776148195915 
Si 14.934623129999999 6.786365129999999 4.072384880401179 
Si 14.9325543 4.07220678 6.787319699071714 
Si 13.57492941 5.42872395 8.144284027872922 
Si 12.21692985 6.78753801 6.787111527816241 
Si 12.19769136 6.78496419 12.24078207869973 
Si 13.57953948 8.14247505 10.864492518348774 
Si 12.21523569 4.07232081 9.499756462676572 
Si 14.930843849999999 6.78590901 9.502601469834705 
Si 14.328081269999998 6.39661059 15.418134646194446 
Si 14.133790439999999 4.70411217 17.133812743385 
Si 13.35268494 5.21517834 13.597677017082448 
Si 15.81781806 5.55280488 20.426492186411792 
Si 13.58827092 4.82271966 20.230845901476354 
Si 15.881788889999997 7.9030935 20.16912312422859 
Si 12.65921964 6.369748379999999 18.452924598899354 
Si 15.916600619999999 5.27688486 22.83107835838123 
Si 12.972525209999999 7.76154969 24.875320087126777 
Si 14.15570049 6.779132369999999 23.15100288283409 
Si 12.45342807 5.451155279999999 22.239594431163745 
Si 14.28834996 6.16929993 27.92804746301161 
Si 14.26627701 6.53313708 30.28416442766507 
Si 12.30067674 4.975242929999999 27.330249007711444 
Si 12.88752399 8.68193469 0.20370424728271047 
Si 12.216147929999998 9.50176152 4.067978588827 
Si 14.848269839999999 9.54986589 1.2663196251263837 
Si 13.575043439999998 10.88548299 2.707683519938223 
Si 13.576004549999999 10.860787349999999 8.145186103313305 
Si 13.57505973 8.14364793 5.430251284642771 
Si 14.932733489999999 9.50308101 6.787215613443977 
Si 12.21548004 9.50176152 9.504232144669242 
Si 14.95135296 9.49633695 12.228048936906628 
Si 14.932033019999999 12.21477957 9.499791157885818 
Si 12.206406509999999 12.199206329999999 12.261946156339492 
Si 14.90365584 9.22589037 16.889107432576406 
Si 15.26993649 11.48014944 17.164622089195014 
Si 13.146681599999999 8.637137189999999 15.318281833985864 
Si 13.42382337 10.432946789999999 13.706550583694865 
Si 14.814321479999998 11.907485009999998 14.852221088190905 
Si 14.53336785 11.73683097 20.76355614423194 
Si 12.821647229999998 10.203420689999998 19.897043293325286 
Si 13.96759986 8.39532843 18.807197380505272 
Si 15.4629567 8.58758301 22.362588947939084 
Si 14.74126083 10.737488339999999 22.93835594536835 
Si 12.6197001 9.81102717 23.643848330166584 
Si 15.659853929999999 11.58901551 25.054902490181544 
Si 16.162302689999997 12.103453709999998 30.105588185678418 
Si 14.634137789999999 8.855113679999999 30.043691932384426 
Si 14.41801836 8.2038069 26.667986853633117 
Si 13.03934679 11.893589639999998 28.01655494179691 
Si 13.34396979 9.55862991 28.22736303317264 
Si 14.134197689999999 10.061160119999998 32.060871397918476 
Si 12.23203068 12.27984183 1.2861340591264954 
Si 12.215463749999998 14.937262109999999 4.068637797802664 
Si 14.93366202 12.218298209999999 4.074813545048365 
Si 14.74245 14.824014029999999 1.1569846122310026 
Si 13.571508510000001 16.282245959999997 2.6849581578824124 
Si 13.574799089999999 13.572648809999999 5.429800246922579 
Si 12.21764661 12.21792354 6.787423784699451 
Si 14.93276607 14.932538009999998 6.787423784699451 
Si 12.21484473 14.9304366 9.50225451774225 
Si 13.57949061 13.57303977 10.865047641696703 
Si 14.91872409 14.931609479999999 12.24643739780675 
Si 13.17797469 12.416987339999999 16.79636713826315 
Si 15.364190429999999 15.90736419 16.149023924160396 
Si 13.37746203 14.74100019 16.907808150359735 
Si 13.27462326 16.193449169999997 13.633031435303623 
Si 16.251490439999998 13.50540369 13.715016214750769 
Si 13.580256239999999 13.901413589999999 21.095519906292996 
Si 12.988310219999999 15.40711458 19.157376127420225 
Si 14.93175609 15.320663549999999 22.52256855777014 
Si 13.41030267 16.1899794 24.127673023095245 
Si 13.62036222 12.64866372 25.867256119455956 
Si 13.9401675 12.95732664 29.94585144231208 
Si 13.80631257 15.39027072 29.807833899933435 
Si 13.308001469999999 15.001884539999999 26.155677393913894 
Si 14.832289349999998 15.90309621 27.651908292626587 
Si 16.17872301 16.100710199999998 34.45390406520915 
Si 13.435096049999999 12.32879328 32.18709256915365 
Si 13.122930779999999 13.699727099999999 34.29434079788904 
Si 16.08414327 12.33042228 32.566623463090295 
