&CONTROL
  dt          = 30.D0,
  prefix = 'x.66_y.66_z3.16_struc14-scf',
  pseudo_dir = './',
  outdir='./',
  wf_collect= .true.,
  verbosity= 'high',
/

&SYSTEM
ibrav= 6, celldm(1) =30.783621515, celldm(3) =2.1114449815674807, nat=  432, ntyp= 1,
  ecutwfc     = 12.D0, nbnd= 1728,
  degauss     = 0.05D0,
  occupations = "smearing",
  smearing    = "methfessel-paxton",
/
&ELECTRONS
  electron_maxstep=200,
  conv_thr    = 1.D-8,
  mixing_beta = 0.3D0,
  scf_must_converge=.false.,
/
ATOMIC_SPECIES
Si  28.08  Si.pbe-hgh.UPF
K_POINTS {automatic}
1 1 1 0 0 0
ATOMIC_POSITIONS (angstrom)
Si 1.4818459139999998 1.431835614 1.2998311467034576 
Si 4.07144115 1.355891634 4.071835225509791 
Si -0.0001383293043 -3.8827377899999995e-05 5.431899664551784 
Si 0.0004977262889999999 2.7147610799999997 8.14504626856957 
Si 2.7148914 0.0001547967024 8.144839895937073 
Si 2.7140606099999998 2.71433754 5.430351869808045 
Si 1.357895304 1.357421265 6.787664673750058 
Si -0.0011271604859999999 -0.00029609844300000003 10.863077024889822 
Si 2.71347417 2.71389771 10.8594655038211 
Si 1.358571339 1.371437181 12.239823251725435 
Si 2.4646769999999996 2.56574016 16.503447443703745 
Si 0.0320145741 2.7148914 13.815822255238258 
Si 2.72117934 0.045492268499999995 13.651996780473276 
Si 4.00662324 1.468398519 15.083294173165967 
Si 3.59119566 2.02473297 20.436325096664607 
Si 1.6986397500000001 0.8075946689999999 19.632022156940824 
Si 1.9637594999999999 0.340816122 17.2918252952864 
Si 1.505459898 0.7395562259999999 23.512309184053343 
Si 3.24053712 2.01909663 24.49918311266072 
Si 3.5760948299999997 3.21862707 22.488391367912506 
Si 2.06244432 3.38186916 26.033219680898867 
Si 0.0717365988 3.3302298599999998 30.046892219482856 
Si 2.3602581 2.7718901099999997 29.947936542199873 
Si 5.86625706e-05 2.11654341 26.2944530382031 
Si 3.4847568 3.62459016 27.978832069216335 
Si 3.24048825 2.3084233199999997 34.187277554420874 
Si 2.49124599 0.39664195199999996 30.167276255106927 
Si 3.26661741 3.79355004 32.021190403717604 
Si 1.360452834 4.07360772 4.072763902356034 
Si 2.71487511 5.40770985 2.7057103101600957 
Si 1.2560958359999999 6.6000564 1.3314783898970879 
Si 3.0523713299999997 7.393672619999999 0.01584762961306256 
Si 2.71498914 5.4297828 8.14514945488582 
Si 1.357375653 6.787554299999999 6.787630278311308 
Si 1.3582406519999999 4.07178324 9.502118304440335 
Si 1.359050265 6.77848077 12.238137875226698 
Si 1.309913109 4.20534495 15.273604135768245 
Si 2.70760977 5.44434606 13.767978199937378 
Si 0.570353625 5.33771172 20.769204152884537 
Si 2.5335022499999997 5.97776211 19.667415063414296 
Si 2.0807379900000003 7.852284989999999 18.246849047611526 
Si 3.3869679299999995 4.13801838 18.076006903341593 
Si 1.63194849 5.3528451299999995 24.782188782693535 
Si 1.4171599529999999 4.22934012 22.651838492851244 
Si 3.2142287699999996 7.17286167 24.929538842297394 
Si 3.2676436799999995 7.12861803 29.280424262383782 
Si 1.338420609 8.036036189999999 28.2743920743928 
Si 0.148683717 4.90490271 34.03583443760579 
Si 1.98454554 5.95821411 31.043362475501407 
Si 1.482461676 7.7162472 32.6109689919593 
Si 4.03211709 9.35948466 1.213698088986373 
Si 1.358152686 9.50229909 4.068739636022315 
Si 2.7207558 10.858213529999999 2.682152874160403 
Si -0.0001150899903 8.14486968 8.144874291375823 
Si 2.7150543000000003 8.14438098 5.429870333665549 
Si -0.0024577048799999997 10.85845788 5.429835938226799 
Si 2.7152009099999996 10.85984253 8.144805500498324 
Si 4.073493689999999 9.510786179999998 12.225755517276795 
Si 1.357585794 9.502804079999999 9.502565445144084 
Si 2.71559187 8.14382712 10.862389116114828 
Si -0.000761269167 10.86191136 10.86459042419481 
Si 4.0721253299999995 12.21745113 9.502462258827833 
Si 1.332983007 12.24542106 12.231086810283001 
Si 3.2002193699999997 8.51792697 16.225016367024644 
Si 1.4451706079999997 9.521472419999998 14.955377536455705 
Si 2.72411154 10.952809559999999 13.533573284857939 
Si 0.576574776 11.23415415 18.681848161479415 
Si 2.35304163 9.849341249999998 19.398786686778873 
Si 3.65993946 8.26320024 22.863748790988353 
Si 2.12918445 11.5175187 23.034694121574535 
Si 2.00158488 9.54812286 21.761271792743123 
Si 2.51017497 10.93427154 25.290553367414606 
Si 0.545050368 9.697062329999998 29.79164366852108 
Si 1.9284101999999999 8.82090468 26.088217987459693 
Si 3.74251347 11.111881409999999 28.45864843977513 
Si 1.4322949919999999 11.537620559999999 28.616729876268906 
Si 0.01196697609 10.995831449999999 34.15639045042361 
Si 1.4971129019999998 10.08290727 32.158325018012796 
Si 3.9516119099999996 10.64636208 31.947412187599422 
Si 0.33773568299999995 15.911290079999999 0.1632555423449012 
Si 2.72267802 16.2890226 2.710178277653686 
Si 4.02670881 14.952705029999999 1.2385694307463058 
Si -0.00719793198 13.56290739 2.7158294482402674 
Si 2.05159518 14.15729691 0.016096583798733136 
Si 1.362994074 12.29852646 1.2803461306517332 
Si 1.3563168030000001 14.93633358 4.069943476378556 
Si -0.00022360142699999998 13.57545069 8.14525264120207 
Si 2.7137510999999996 13.574668769999999 5.4303174743692955 
Si 1.3570026119999998 12.21771177 6.787389510240061 
Si 1.358571339 14.933727179999998 9.502152699879087 
Si 2.71269225 13.576493249999999 10.86207955716608 
Si 4.01121702 12.27111039 14.913518287497277 
Si 1.020941541 15.49100808 15.006489158437809 
Si 3.48218298 13.60464237 19.332609862624388 
Si 3.82213899 14.66469783 21.46911693600288 
Si 0.980089479 13.485106349999999 19.396413401505143 
Si 0.0938664009 14.129441009999999 21.586061427751975 
Si 1.77165153 15.712991909999998 21.60872802188805 
Si 0.480644595 16.18714494 25.404436665114975 
Si 0.536775048 13.281595379999999 29.83202391361327 
Si 1.1243406870000001 12.410373599999998 26.458072140335585 
Si 1.91174553 14.69564883 26.569754129955975 
Si 1.200592548 15.26843781 28.740209501380455 
Si 1.77720642 13.535817119999999 31.926706133472084 
Si 4.05721998 13.0777749 31.733231790504828 
Si 1.514295594 15.799670999999998 32.02462994759258 
Si 4.09634856 4.01574564 1.2582539403427788 
Si 5.447897279999999 2.7117963 2.6891695436653484 
Si 6.79929939 1.2748228199999998 1.1584005421084251 
Si 5.42919636 0.0018003219299999999 5.430111101736798 
Si 5.42989683 2.7146470499999995 8.144839895937073 
Si 6.78757059 1.3575597299999997 6.787664673750058 
Si 4.06173231 4.08027033 12.23930732014419 
Si 4.07295612 1.3578887880000001 9.501430395665343 
Si 6.77999574 1.351560123 12.195521926615777 
Si 7.073150579999999 3.76830054 14.957544449096938 
Si 8.135730989999999 0.164774979 13.632047425998428 
Si 5.3845617599999995 0.133736013 16.570587340143227 
Si 6.447858929999999 2.20592664 17.056216539850723 
Si 5.451464789999999 2.69910639 13.555723947412769 
Si 5.20789671 0.23343895799999997 20.84122820162648 
Si 5.5215280799999995 3.59525187 18.681263439020668 
Si 7.126044209999999 0.98494227 22.13425593054524 
Si 6.879625379999999 1.239960591 24.578877344243853 
Si 7.6152003299999995 3.4503849 25.064506543951353 
Si 4.91756004 0.985271328 25.79238281877323 
Si 6.08727978 1.89133416 29.929019050887515 
Si 7.40807298 3.83171751 27.41780806776942 
Si 5.49443781 2.4219483299999998 27.686952375986092 
Si 5.6139575399999995 3.5322421499999996 31.618694979468216 
Si 5.024259539999999 0.338209722 34.12588169625259 
Si 6.788531699999999 4.0725814499999995 4.0734518111310285 
Si 4.07344482 6.787619459999999 4.069874685501056 
Si 6.69452211 6.725912939999999 1.2615077488485036 
Si 5.431444379999999 8.14688964 2.698703959286775 
Si 4.07241855 4.07222307 6.7876990691888075 
Si 5.4295873199999996 5.42849589 5.430833405950541 
Si 6.78757059 6.787407689999999 6.78749269655631 
Si 6.78717963 4.0725814499999995 9.50160237285909 
Si 4.073428529999999 6.787521719999999 9.502703026899082 
Si 5.43111858 5.42895201 10.862733070502324 
Si 6.796872179999999 6.78504564 12.229229456590517 
Si 4.43630457 6.7284704699999995 15.095435763044623 
Si 6.367744709999999 5.62218399 16.241629363940767 
Si 4.14679869 6.63534054 21.262606721749474 
Si 6.98608053 4.67839026 20.273669066817114 
Si 5.82659091 6.85100385 19.692902083527855 
Si 5.329452689999999 4.79460312 22.114547344141645 
Si 6.580410659999999 5.29029153 24.03704599761929 
Si 5.32674855 6.4039248 25.824232995055482 
Si 6.98832855 5.67919899 28.9993103414822 
Si 7.07477958 7.973824679999999 26.310515708099224 
Si 4.72501224 5.6836461599999994 28.078957191416812 
Si 7.81765245 7.893726749999999 28.513715537213454 
Si 4.96325349 5.71982625 34.29772130824627 
Si 6.948304019999999 5.40406089 31.35918139410147 
Si 8.13187026 10.84985676 2.68897692920835 
Si 6.78827106 9.503439389999999 4.071904016387291 
Si 6.775320509999999 12.081152699999999 1.0947896176846665 
Si 4.0726629 9.502315379999999 6.787595882872559 
Si 5.43001086 8.145 8.14525264120207 
Si 5.43032037 10.85886513 5.4296983564718 
Si 8.14576563 8.14387599 10.86201076628858 
Si 6.78831993 9.50282037 9.501567977420342 
Si 5.43234033 10.85725242 10.863868119981067 
Si 6.80065146 12.2150565 12.255232408285316 
Si 4.41722898 10.673436059999998 16.54004419053346 
Si 6.7117406399999995 10.933717679999999 16.18315711806622 
Si 5.4823017599999995 8.168310989999998 13.6034648163974 
Si 7.29301671 9.01469052 15.005835645101564 
Si 6.1894832399999995 10.77057333 19.63862608118077 
Si 7.23380256 8.66566098 19.83440491854426 
Si 4.09170591 11.341114289999998 18.7223659883266 
Si 7.8131727 11.762715779999999 18.11270683648756 
Si 7.81084323 12.197886839999999 22.26488980691673 
Si 7.570956689999999 8.4624921 22.145434448138904 
Si 5.70083211 9.44257995 23.184795816278378 
Si 5.69100924 11.38369635 21.86641864900106 
Si 6.27469623 9.97671276 25.43989836246595 
Si 8.11113309 11.407316849999999 25.72338556864126 
Si 4.281012 9.239573969999999 29.80055208715726 
Si 6.60354246 9.299651489999999 29.919353932598842 
Si 6.986781 11.614199849999999 29.534503368428066 
Si 4.579314479999999 11.353820489999999 26.2298584042311 
Si 5.419829609999999 10.504215539999999 33.98413809316494 
Si 7.564522139999999 9.300335669999999 32.233238283609715 
Si 7.95745323 11.812318829999999 31.634516881293095 
Si 4.07398239 12.21686469 4.068430077073567 
Si 5.4349956 13.56261417 2.6731137528569726 
Si 6.78851541 14.93069724 4.066503932503582 
Si 4.072548869999999 14.93296155 6.78749269655631 
Si 5.429733929999999 13.575304079999999 8.145011873130821 
Si 6.787521719999999 12.21719049 6.787389510240061 
Si 6.78688641 14.93263575 9.50315016760283 
Si 4.076328149999999 14.929931609999999 12.247596620882875 
Si 5.42751849 16.2908145 10.859843853647346 
Si 5.51737413 13.642598069999998 13.724777528867714 
Si 6.88166163 15.17284809 15.1371918256868 
Si 7.69340862 14.061348809999998 18.74183380665895 
Si 5.45996817 15.1063686 18.886225858530334 
Si 7.50204999 13.181200109999999 24.36046630818304 
Si 4.11819345 12.8503665 22.889648556366904 
Si 5.17986162 13.321277819999999 24.992448099770655 
Si 4.92353847 12.736108439999999 29.586165317430165 
Si 4.258206 15.050835989999998 26.318289077256665 
Si 7.68474234 14.715261989999998 27.86412328098597 
Si 5.351281289999999 14.70623733 28.378885417314493 
Si 4.822035479999999 16.22342277 30.11888187278605 
Si 7.75179198 14.23991979 32.033847925177504 
Si 5.508512369999999 15.11567019 32.19024398517255 
Si 12.190996169999998 1.25310825 1.3455564429773543 
Si 8.154659969999999 -0.0087599475 2.6793083713757997 
Si 9.500490899999999 1.361707164 4.0686708451448155 
Si 10.85238171 2.7192571199999995 2.6889597314889753 
Si 8.14441356 0.000301418757 8.144908686814572 
Si 8.14379454 2.71492398 5.431486919286786 
Si 10.86046155 -0.00045289783799999997 5.429182424890554 
Si 10.85943528 2.7156244499999995 8.144943082253322 
Si 12.217548869999998 1.3623701670000001 12.25853437040529 
Si 9.50205474 1.357779645 9.502290281634085 
Si 8.14587966 2.7150868799999994 10.860119017157345 
Si 8.93281698 2.1351302999999997 14.894325632674926 
Si 10.861504109999998 2.90566359 13.695472615052939 
Si 8.683677719999999 1.352039049 17.115239112745268 
Si 10.889669519999998 0.37534766399999997 21.446175178356807 
Si 8.40080187 2.90028789 21.28131784042933 
Si 12.04454907 4.063263569999999 17.533590834258288 
Si 11.44076022 1.5458900489999998 19.464860324617117 
Si 9.347511509999999 2.4620543099999996 19.088195874868774 
Si 11.793585329999999 3.97839267 22.3984129001432 
Si 10.964131109999999 1.9891393199999998 23.156419579309844 
Si 9.865875599999999 2.88673461 25.008029233524287 
Si 9.98777367 1.234022886 26.69010377014129 
Si 11.28530475 3.96536067 28.228164604713157 
Si 9.27743193 2.72932434 28.316388905106226 
Si 8.19588996 2.63907774 34.18717436810462 
Si 9.41231313 2.32112952 32.23853518117718 
Si 11.654843399999999 1.3959650339999998 32.33353538300394 
Si 8.42913018 1.6037358389999998 30.178110818313094 
Si 10.86528339 8.155278990000001 2.6848873115410066 
Si 12.2184774 4.072923540000001 4.066159978116085 
Si 12.170177549999998 6.844846229999999 1.1374881153485867 
Si 9.47038698 4.087926629999999 1.157894929158804 
Si 8.13709935 5.4177119099999995 2.688574502574978 
Si 9.50264118 6.787358819999999 4.067742168298572 
Si 9.502185059999999 4.0725 6.78749269655631 
Si 8.145228059999999 5.43012489 8.14504626856957 
Si 10.859484149999998 5.4288542699999995 5.42966396103305 
Si 10.856340179999998 5.430434399999999 10.85936231750485 
Si 12.23489772 6.799152779999999 12.24573926719039 
Si 9.50355342 6.78797784 9.500914464084097 
Si 9.50858703 4.07350998 12.196141044513274 
Si 8.28431208 5.43717846 13.603086466571153 
Si 10.000040039999998 6.424156979999999 14.993315705396663 
Si 8.21884257 7.24927806 16.32662049309136 
Si 11.79128844 4.682658239999999 15.140321810613026 
Si 9.69160518 4.463850959999999 17.855566536394548 
Si 9.15942717 5.80279122 19.766989858594783 
Si 9.00270108 7.80647751 18.513929629503213 
Si 10.22858874 5.749457759999999 21.930153397004315 
Si 8.43662358 6.594192 23.281997326185124 
Si 11.77366266 7.559602559999999 22.14061908671394 
Si 9.17356689 7.822637189999999 25.160538608940612 
Si 11.59707906 5.842636559999999 29.574505263694007 
Si 11.138662169999998 6.82363665 25.938150688194604 
Si 11.40619284 4.477371659999999 25.89918065609115 
Si 11.71242855 7.648008389999999 28.09357525288545 
Si 10.6497504 6.3547778699999995 31.737840779297294 
Si 9.06243651 4.68616059 32.09802981388451 
Si 8.36455662 7.84925505 34.24155355676795 
Si 10.13412303 6.03635724 34.18793106775711 
Si 9.420930539999999 9.45248427 1.2449429055466315 
Si 10.257959609999999 11.28007566 -0.0006815524979137343 
Si 12.11449833 12.10733073 1.3235055271948997 
Si 9.5030973 12.22035075 4.069840290062307 
Si 12.21663663 9.50158233 4.071388084806045 
Si 8.14382712 8.14599369 5.430558242440544 
Si 9.50236425 9.502608599999999 6.78752709199506 
Si 10.85984253 8.14526064 8.144736709620824 
Si 8.14557015 10.85971221 8.145355827518319 
Si 10.860168329999999 10.86052671 5.430627033318043 
Si 9.51235002 9.49535955 12.239272924705439 
Si 10.85963076 10.85909319 10.862561093308575 
Si 12.04925688 9.901078290000001 15.028295866605141 
Si 10.99423503 8.21555199 13.722266661838981 
Si 8.284849649999998 10.827539459999999 13.841309275351813 
Si 10.26913455 11.48889717 15.279967291936948 
Si 10.140166619999999 11.296512270000001 17.722696956504326 
Si 10.93300092 9.59785623 21.34873290037881 
Si 10.92208662 9.25138422 18.997460707446972 
Si 9.8093493 10.13545881 24.772661246159856 
Si 9.041145479999999 10.22006907 22.557319827166975 
Si 11.62840473 11.667631049999999 24.40548993750644 
Si 10.43661204 11.32197354 28.730544383091775 
Si 9.95968971 8.948944079999999 28.99432300286349 
Si 10.2097575 11.88515142 30.993454693875545 
Si 9.84243429 8.52836886 31.36306807868019 
Si 11.08591515 10.26208098 32.378662198643596 
Si 9.606701699999999 14.957885249999999 1.1580015550189282 
Si 10.85857191 13.57701453 2.6980022923362803 
Si 8.14421808 13.57351218 5.431177360338038 
Si 9.50269005 14.9323914 6.787423905678811 
Si 10.86062445 13.574457 8.14514945488582 
Si 12.227013359999999 12.20959935 12.20690681684194 
Si 9.50381406 12.21811902 9.502255886195336 
Si 8.14710141 13.5713619 10.865725473673551 
Si 9.510411509999999 14.9325543 12.260838864801523 
Si 10.85930496 16.28780085 10.865794264551052 
Si 11.13426387 14.906457719999999 16.93645162212415 
Si 8.675972550000001 15.265375289999998 16.860678470558483 
Si 10.99443051 13.37852088 13.779363090163542 
Si 11.249841420000001 13.145296949999999 20.796720503884323 
Si 8.864855099999998 13.721897789999998 20.836000094936523 
Si 11.57424048 13.02098796 18.453737611691178 
Si 8.89461693 15.680802869999999 22.097762370031774 
Si 9.14106834 14.842975589999998 24.314410815697148 
Si 11.13304212 13.90138101 25.155964015586896 
Si 8.66567727 15.5828511 29.853039526689358 
Si 10.955953529999999 15.17415129 29.578323157395225 
Si 8.27572725 16.149824549999998 25.992013945276685 
Si 11.753511929999998 14.164725149999999 27.525740954566086 
Si 8.44493148 12.38129595 27.833717713131207 
Si 8.50197906 13.221517859999999 34.255346127706595 
Si 11.33870337 13.88210994 31.520736769908968 
Si 11.46561876 15.87629916 34.09609524629532 
Si 14.941399769999999 4.04624052 1.323195968246152 
Si 16.297167599999998 2.71192662 2.704430799838606 
Si 13.593679199999999 -0.00904204143 2.7140099295304068 
Si 13.26877515 2.9620758599999997 0.13652787875564518 
Si 14.93498151 1.3535198099999999 4.072316761652288 
Si 13.57551585 -0.000610690923 8.144736709620824 
Si 13.575304079999999 2.7152171999999997 5.4297671473493 
Si 12.21738597 1.357202979 6.787286323923811 
Si 14.933433959999999 1.3578187409999998 9.502359072511585 
Si 13.574114909999999 2.71495656 10.866138218938547 
Si 15.5136186 0.7691307209999999 15.114628417866975 
Si 12.29350914 0.594738126 17.476941546637473 
Si 14.78346822 1.566718443 21.138060838036687 
Si 12.932484389999999 3.00910509 20.612532929379498 
Si 15.88377627 1.8390921299999998 19.10532480336614 
Si 14.73575481 0.45907989299999996 17.406912433343017 
Si 16.244811539999997 2.36646459 22.819757024827442 
Si 12.79757061 1.1193738659999999 24.40191281187647 
Si 14.71597875 2.48326389 24.556657890811525 
Si 12.32216325 0.970468605 26.677790203068888 
Si 12.88714932 2.29130253 28.525581963582113 
Si 15.227012339999998 2.15208819 28.38837855840942 
Si 15.61945473 2.8681803 32.37553221371737 
Si 13.272652169999999 3.30628356 32.2352332190572 
Si 15.802049339999998 0.48893620499999996 32.410065234222095 
Si 12.374779949999999 0.6588148409999999 30.197234682257946 
Si 16.28312562 8.14998474 2.6871918059372386 
Si 13.5661491 5.43910068 2.684873553365507 
Si 14.92924743 6.7891832999999995 4.071560061999793 
Si 16.2909774 5.430141180000001 5.429320006645553 
Si 14.93263575 4.07271177 6.787595882872559 
Si 13.57507602 5.430206339999999 8.144805500498324 
Si 12.21725565 6.7877171999999995 6.787423905678811 
Si 13.575157469999999 8.14491855 5.4304894515630435 
Si 14.932782360000001 4.06606545 12.263040172881505 
Si 13.571541089999998 8.14403889 10.86049736698359 
Si 16.2921177 5.428235249999999 10.863627351909818 
Si 12.2179887 4.07373804 9.502221490756586 
Si 14.93274978 6.7889715299999995 9.502221490756586 
Si 13.628181419999999 5.5426562100000005 13.778090458929801 
Si 16.14845619 5.349261329999999 16.798319540105215 
Si 16.2919548 8.093979719999998 13.66028608121196 
Si 14.95171134 6.99336216 15.280070478253196 
Si 16.154825579999997 7.56952317 17.603482365797742 
Si 13.44776967 7.0135128899999994 20.483515638629246 
Si 13.57784532 4.87784502 19.33374491210313 
Si 15.8070015 4.22342685 18.91422374567262 
Si 15.33266928 6.79754007 21.852729264378663 
Si 14.36854563 6.13287549 23.962820640797364 
Si 12.7037565 7.727861969999999 24.389736826559066 
Si 13.16766312 4.22601696 24.311246435332173 
Si 15.96649689 6.33516471 25.60712898566716 
Si 15.664529159999999 5.560493759999999 29.98831678729206 
Si 15.63413202 6.809659829999999 27.954514494020273 
Si 13.47901389 5.325266159999999 30.886209715853877 
Si 15.420602699999998 6.72329025 32.67804009752128 
Si 13.81419693 8.07555573 34.00663271010727 
Si 14.97609747 9.498047399999999 1.1480922291151299 
Si 13.58638128 10.838502629999999 2.690428416723589 
Si 14.932163339999999 9.50262489 6.787595882872559 
Si 13.57450587 10.860217200000001 8.144908686814572 
Si 12.21865659 9.503292779999999 9.501224023032844 
Si 14.933906369999999 9.500018489999999 12.241095882959176 
Si 14.23483731 8.935814339999999 16.599548299570504 
Si 13.58988363 10.933375589999999 13.628435904929708 
Si 15.96473757 10.57339917 16.3216675499114 
Si 14.691494879999999 10.784647889999999 19.545036092342745 
Si 13.34577798 8.85025926 18.907207076167673 
Si 12.300025139999999 11.34789093 22.111314172899167 
Si 16.094748059999997 8.925095520000001 22.545694168869563 
Si 14.70522735 10.83890988 21.907246034796994 
Si 16.194898979999998 8.604606059999998 24.92372601314869 
Si 14.073061319999999 9.19441809 25.74292217785111 
Si 14.470602479999998 9.99018459 29.884580144022863 
Si 13.4661285 11.41450074 25.823957831545485 
Si 13.92039144 8.49834639 28.01928110518602 
Si 12.625336439999998 12.06064359 27.943783117130355 
Si 13.41431001 9.84849417 32.232344002202225 
Si 14.319007739999998 11.96541225 33.07778388667069 
Si 12.216913559999998 14.93107191 4.073073461304781 
Si 14.934232169999998 12.2189661 4.071319293928545 
Si 14.855030189999999 14.810281559999998 1.3240696123903952 
Si 13.5742941 13.575010859999999 5.4304894515630435 
Si 12.21746742 12.21777693 6.787630278311308 
Si 14.93257059 14.932179629999998 6.787664673750058 
Si 12.21872175 14.932538009999998 9.502049513562836 
Si 14.931185939999999 12.21732081 9.501567977420342 
Si 13.574668769999999 13.57561359 10.8595342946986 
Si 14.93136513 14.927064569999999 12.232393836955493 
Si 12.65851917 14.37765174 15.04394579123627 
Si 14.71114062 12.43392894 15.254067526558398 
Si 13.632025859999999 16.22754414 13.727494768528942 
Si 16.2566055 13.668499169999999 13.798349372353394 
Si 13.88672001 12.6537462 18.31821958301722 
Si 14.55418647 15.469358669999998 20.93031238798829 
Si 15.174493379999998 14.620014359999999 18.76928136678124 
Si 12.43374975 14.941969919999998 21.72044440694719 
Si 16.17403149 12.331953539999999 23.03885596966325 
Si 12.832659269999999 15.08994828 24.012934795055724 
Si 14.81834511 14.85540486 25.215777683572686 
Si 15.405306389999998 12.631103099999999 25.26403448413856 
Si 14.466872069999999 12.34707066 29.47059664323106 
Si 13.701714479999998 15.39841572 27.18464138848497 
Si 15.31527156 16.12837062 28.728411865889292 
Si 13.15992537 13.73895342 34.37982322054188 
Si 14.34388257 15.770169809999999 30.802560008814517 
Si 13.688894249999999 13.51659492 31.33476063258916 
