&CONTROL
  dt          = 30.D0,
  prefix = 'x.66_y.66_z3.15_struc27-scf',
  pseudo_dir = './',
  outdir='./',
  wf_collect= .true.,
  verbosity= 'high',
/

&SYSTEM
ibrav= 6, celldm(1) =30.783621515, celldm(3) =2.1056208385809962, nat=  432, ntyp= 1,
  ecutwfc     = 12.D0, nbnd= 1728,
  degauss     = 0.05D0,
  occupations = "smearing",
  smearing    = "methfessel-paxton",
/
&ELECTRONS
  electron_maxstep=200,
  conv_thr    = 1.D-8,
  mixing_beta = 0.3D0,
  scf_must_converge=.false.,
/
ATOMIC_SPECIES
Si  28.08  Si.pbe-hgh.UPF
K_POINTS {automatic}
1 1 1 0 0 0
ATOMIC_POSITIONS (angstrom)
Si 1.227112668 1.320628671 1.2651522728455458 
Si 3.92248539 3.88863477 1.171422553133426 
Si 4.074438509999999 1.3561294679999998 4.068218329230755 
Si -0.00025839360899999994 2.7147122099999996 8.144771695382408 
Si 2.7150380100000002 0.00019560543299999999 8.144771695382408 
Si 2.71443528 2.71746522 5.429093184525475 
Si 1.357375653 1.3575923099999998 6.787601300941422 
Si 2.71704168 2.7137673899999997 10.861890829904683 
Si 1.347731973 1.358066349 12.215150960111176 
Si 3.87460908 1.2623642279999998 14.97274475951682 
Si 0.304627887 0.47190012299999995 16.628638761135164 
Si 1.1540862269999999 4.05827883 15.012602014257903 
Si 2.2658412599999997 2.49997743 16.495552574908487 
Si 1.467277767 2.9416481999999995 20.922211792301304 
Si 1.540397061 1.494545598 18.513729127796466 
Si 2.4099263099999995 1.276722234 22.363830173982006 
Si 3.7781234099999996 3.9912129 24.259039206864152 
Si 2.41655634 2.0844358199999995 24.543253675697724 
Si 0.34791041699999997 2.76499944 25.328427873871675 
Si 1.4374296 2.97126342 29.002807133449146 
Si 3.06392094 0.7741268639999999 26.401212296661782 
Si 1.266322698 0.8312705549999999 27.909236569201983 
Si 2.34139428 2.46863547 33.77926349701198 
Si 3.5178255 3.05072604 30.136063449620092 
Si 2.5148176199999996 1.1691935729999998 31.704593916104585 
Si 4.07064294 6.786006749999999 4.067429416271165 
Si 1.3560529049999999 4.074373349999999 4.075147043049773 
Si 2.7152660699999998 5.40907821 2.694333270215474 
Si 1.561223826 6.91520274 1.2698068593071334 
Si 0.000828778185 5.42875653 5.430979715515802 
Si 2.71500543 5.42992941 8.145286203834315 
Si 1.357408233 6.7870167299999995 6.787669902068342 
Si 4.073037569999999 6.78730995 9.501770587006094 
Si 1.3560447599999998 4.07204388 9.503108308981053 
Si 1.3358239829999998 6.7874728499999994 12.209457066576734 
Si 3.4130808 7.390707839999999 14.868059439835422 
Si 2.55396249 5.406292619999999 13.618730016914196 
Si 2.07516681 5.07013218 16.92640195253563 
Si 1.2913881209999998 7.339492079999999 19.471640963557416 
Si 3.1400766899999994 6.08338647 18.795405354933965 
Si 3.0460670999999997 5.61900744 22.667012854409226 
Si 2.5448889599999998 7.74952767 23.382659810448775 
Si 0.882750213 4.9197266100000006 22.08616711276938 
Si 0.8973867779999999 7.501854509999999 25.09576715191921 
Si 1.9489844699999999 7.39886913 28.797998469026595 
Si 3.8558267099999997 4.92824628 26.42837834292249 
Si 1.82438226 6.101191439999999 26.822594718773836 
Si 0.590994684 4.15416177 27.169785022120855 
Si 1.482826572 4.385854439999999 32.56022147162637 
Si 0.22298566499999997 5.730251849999999 34.02039645813919 
Si 0.007251428339999999 6.63304365 30.05580013112256 
Si 3.8146944599999997 7.100143109999999 30.204801778794902 
Si 0.0998282151 4.220380619999999 30.515427681493048 
Si 3.5022685499999997 5.026181759999999 31.402028645819648 
Si 3.47838741 7.82763822 34.26447926772399 
Si 1.357075917 9.50031171 4.068046826413453 
Si 2.7282654899999996 10.85850675 2.669533962833544 
Si 1.322982576 12.15877455 1.1368578753342957 
Si -0.000282478374 8.145 8.144737394818948 
Si 2.71450044 8.14519548 5.430739611571578 
Si 0.001093145337 10.860738479999998 5.430019299738908 
Si 2.715543 10.859549309999998 8.144394389184342 
Si 4.08942531 9.50653449 12.211069193059377 
Si 1.357132932 9.50347197 9.50156478362533 
Si 2.71811682 8.143485029999999 10.863537256950785 
Si 0.00197327286 10.857594509999998 10.861822228777761 
Si 1.6796456100000001 9.21842955 14.948905867911783 
Si 2.7992736 10.853684909999998 13.60830264562221 
Si 1.012175892 10.398640050000001 16.94540446469274 
Si 2.0777080499999996 8.832617189999999 21.2373996699397 
Si 2.6188618499999996 11.99424555 17.8235331898446 
Si 0.053525682 8.557430219999999 17.920192177676245 
Si 3.6537003899999996 10.85379894 25.005796773962356 
Si 0.0710812521 9.64382661 25.775329915198324 
Si 1.89688905 10.96434288 26.533029362040427 
Si 2.57885361 9.69321789 28.388038134546882 
Si 3.4427448899999997 8.78278608 31.9918954356496 
Si 0.931634874 9.43702506 32.313017310766654 
Si 1.238114934 10.69208811 30.083926593160154 
Si 2.71287144 16.28402157 2.6755399914954743 
Si 3.9853484999999997 14.928530669999999 1.07922606860799 
Si 0.00735443001 13.573658789999998 2.681323066494912 
Si 1.357730775 14.932114469999998 4.068355531484597 
Si 4.14476244e-05 13.57489683 8.145183302143934 
Si 2.7162434699999998 13.57628148 5.4289216817081725 
Si 1.3573821689999999 12.217614029999998 6.787155393616435 
Si 4.07333079 14.92931259 12.221496564351364 
Si 1.3584670829999999 14.934232169999998 9.50290250560029 
Si 2.71595025 13.57194834 10.86096471469125 
Si 1.34618931 12.22652466 12.258060965000242 
Si 2.5741295099999997 16.170936389999998 13.535756953903284 
Si 3.1513819499999998 13.82677281 16.287313854139885 
Si 1.3709403359999999 15.060284189999999 15.235692879004894 
Si 3.50476092 12.33280062 21.19466116786793 
Si 1.7182692 12.9663513 19.80878120181052 
Si 1.594471716 15.327521639999999 19.500624939681526 
Si 3.6452295899999996 16.16614713 18.676073694654942 
Si 0.7521255899999999 16.14928698 21.543223493753374 
Si 2.88401418 12.414771899999998 23.403960460357734 
Si 4.009115609999999 14.3979165 23.954587405588892 
Si 0.671104017 12.79323747 24.036531451695986 
Si 3.0559714199999997 14.734386449999999 26.0809822361947 
Si 3.0260304 14.2513065 29.68720627617619 
Si 0.955926522 15.10456041 29.07223147389317 
Si 1.165438728 13.21910694 26.300951749666787 
Si 2.40709185 13.56383592 33.73690230113829 
Si 0.320100129 16.24595184 31.060154929809002 
Si 2.6708432399999995 12.33710118 30.934992173741694 
Si 3.91618116 15.57263727 31.49611509139176 
Si 0.240859053 14.75153982 32.91447769104625 
Si 6.7868049599999996 4.07596977 4.070447865855686 
Si 5.43087423 2.7151031699999995 2.6843963969809717 
Si 6.922940489999999 1.404836568 1.289241558563844 
Si 5.4312326099999995 0.0005200729109999999 5.43012220142929 
Si 5.42981538 2.71490769 8.144977498763172 
Si 6.78713076 1.357520634 6.787807104322185 
Si 6.7858275599999995 4.072516289999999 9.501873488696475 
Si 4.07204388 1.356662151 9.500981674046503 
Si 6.7769169300000005 1.3722728579999999 12.239950267493104 
Si 7.95562875 2.8471499099999997 17.093342794897808 
Si 5.458730129999999 2.75597478 13.768074670221147 
Si 5.1748443 3.9575088899999997 20.683445570052875 
Si 7.28058744 0.6995626469999999 19.966941099926814 
Si 6.70729347 2.87671626 19.120437494285518 
Si 5.70127194 3.44693142 22.97338548723827 
Si 6.181191629999999 1.221590358 23.35909532335142 
Si 6.829158959999999 1.07450469 25.567262697247024 
Si 8.11263177 0.7092291329999999 22.134908213446728 
Si 5.197063859999999 1.3740224039999998 27.231869041984336 
Si 4.82824197 3.52000836 28.19595497916817 
Si 5.986884509999999 2.0850385499999997 32.549691198644 
Si 5.005297979999999 5.85640161 0.14947430943682982 
Si 6.80024421 6.83989407 1.3600447816589758 
Si 4.07196243 4.0728909600000005 6.787258295306816 
Si 5.43221001 5.431411799999999 5.430568108754276 
Si 6.787456559999999 6.78812445 6.787807104322185 
Si 4.07564397 4.076393309999999 12.248251003850543 
Si 5.43089052 5.431086 10.860141501168197 
Si 6.78097314 6.769032569999999 12.23676031509128 
Si 7.025958449999999 4.09380732 15.264814057382845 
Si 4.34636748 6.8778008999999996 16.93981347284868 
Si 5.33605014 8.08980948 13.610497881683681 
Si 6.386575949999999 5.63101317 17.052971031704818 
Si 6.54294366 7.456128479999999 21.12671175165271 
Si 4.509609569999999 6.22563075 20.848019673536278 
Si 8.03929419 4.79211075 19.73808774051846 
Si 7.2524383199999995 6.90171462 18.887811072896515 
Si 7.56411489 4.74402267 23.662998315611315 
Si 7.213212 6.110655929999999 25.516909470087036 
Si 6.6389895 4.89022542 28.888208950927666 
Si 5.0995845 6.8855223599999995 26.300300038961037 
Si 5.63200686 7.01248662 28.618160614803276 
Si 7.344770039999999 4.98521241 31.188439037151213 
Si 5.50067688 4.5776528999999995 32.576342736452794 
Si 4.44350475 9.684437579999999 1.168801990085045 
Si 5.43730878 8.17161786 2.7207584243054312 
Si 6.78546918 9.501191369999999 4.075387146993997 
Si 4.07264661 12.21551262 4.068698537119202 
Si 4.0728583800000004 9.50213619 6.787223994743355 
Si 5.42989683 8.145374669999999 8.145251903270855 
Si 5.430646169999999 10.85912577 5.430671010444657 
Si 8.14389228 8.14654755 10.863502956387325 
Si 6.787928969999999 9.50378148 9.502593800529144 
Si 5.42805606 10.86031494 10.858254970177871 
Si 8.03144241 10.755162989999999 13.72667389012434 
Si 7.1068383 8.75841624 15.099382439812928 
Si 4.40989848 12.19852215 15.016375076238557 
Si 5.842734299999999 8.827990830000001 17.27047090460775 
Si 4.09250412 10.115503559999999 20.732426774674444 
Si 4.492114109999999 10.61642106 18.422661131808884 
Si 6.431699249999999 9.46763397 24.27052989562341 
Si 4.29254532 8.56213803 24.758524011975723 
Si 7.99097805 11.16363474 21.53605467599013 
Si 6.2093570399999996 9.65158065 21.889041774561978 
Si 5.87997324 11.559302549999998 25.33528798656377 
Si 4.9213393199999995 10.30723686 28.731386774786333 
Si 6.89023017 8.94490416 28.867457110034074 
Si 5.7366701099999995 12.14123022 27.586742671546507 
Si 5.9737059 11.09621043 34.059018892595695 
Si 4.620935429999999 11.08202184 30.91214799847701 
Si 6.9423093 9.25149825 32.87736448138201 
Si 5.42579175 13.58867817 2.6764798269342918 
Si 7.104003839999999 12.46185 1.3109366649526002 
Si 6.78612078 14.931283679999998 4.070104860221082 
Si 8.14519548 13.57406604 5.430293704246592 
Si 4.07279322 14.932375109999999 6.787464098687579 
Si 5.42984796 13.574782799999998 8.145114701017013 
Si 6.7874728499999994 12.217581449999999 6.78749839925104 
Si 4.07271177 12.216050189999999 9.501256078554187 
Si 6.78714705 14.9304366 9.504205927011787 
Si 6.792897419999999 12.21015321 12.23470228128365 
Si 5.4271438199999995 16.2927693 10.861170518072013 
Si 6.89738148 13.155999479999998 16.202111254504043 
Si 5.59906848 13.712596199999998 13.590397751495836 
Si 6.86327022 15.43404195 15.721388857605353 
Si 4.64678766 15.78711141 16.553349024339404 
Si 8.107647029999999 16.235640269999998 13.566867564961946 
Si 5.47790346 13.51490076 20.5878498996885 
Si 5.25191229 15.80037147 20.313170987496942 
Si 6.10120773 12.369746339999999 18.61018231224735 
Si 7.19416899 13.28030847 22.180562263412636 
Si 4.376357369999999 16.280633249999998 22.462890201255885 
Si 6.197106959999999 13.63903056 24.31422881347207 
Si 7.52575194 15.09419997 25.67167361242074 
Si 7.924775489999999 14.939721899999999 27.983840294728534 
Si 4.48638003 14.12248518 27.857271215559347 
Si 7.9041849299999996 12.63667428 28.34018884851951 
Si 5.892858629999999 15.870858299999998 28.59734017278276 
Si 6.427300949999999 12.26645145 31.969154162075302 
Si 6.79136616 14.68455534 32.524891891262065 
Si 6.02891271 16.26667272 30.907483121846386 
Si 5.68296198 16.167401459999997 34.196118244747254 
Si 8.16247917 -0.0058204658699999995 2.6981372027032418 
Si 9.503862929999999 1.3524186059999999 4.070447865855686 
Si 10.871131499999999 2.7079355699999996 2.704767501620154 
Si 9.56170872 4.05958203 1.3038844691051248 
Si 8.1453258 -0.000373373316 8.145149001580474 
Si 8.145537569999998 2.71494027 5.428544375510107 
Si 10.861227179999998 -0.00010039803929999999 5.431014016079263 
Si 10.860152040000001 2.7152009099999996 8.144977498763172 
Si 9.503732609999998 1.3584719699999999 9.502113592640699 
Si 12.21850998 4.07263032 9.501873488696475 
Si 8.14600998 2.7151194599999995 10.861822228777761 
Si 10.856209859999998 0.000536402007 10.864669175544982 
Si 8.526560669999999 0.579498831 16.774519057532608 
Si 9.96946371 0.757058202 14.883769097900322 
Si 10.98314154 2.64658743 13.795034913101087 
Si 11.023149779999999 2.7412812 20.431405029745232 
Si 11.144151899999999 0.489131685 19.750264440546932 
Si 9.911340990000001 3.93152634 18.66194186250922 
Si 11.54213289 0.5809812209999999 23.390308836100463 
Si 9.52109775 3.55798035 24.24339814992617 
Si 9.9720864 2.10929436 22.48395074722062 
Si 8.661099779999999 2.47583565 26.13431961237575 
Si 11.10170016 3.582171 29.0520627425784 
Si 9.62144415 0.0053639711999999996 28.95355152431989 
Si 10.29277134 0.9524013659999999 26.944018713423947 
Si 12.18402405 2.06902548 27.55388273175136 
Si 8.21410218 2.9605934699999996 31.93543670819364 
Si 8.70747741 2.3531719499999997 34.152556529152434 
Si 9.69895197 2.0690417699999997 30.290690389699954 
Si 10.969995509999999 1.8083854799999999 32.35503550100575 
Si 8.14063428 5.42364147 2.6983292858586205 
Si 9.50182668 6.78662577 4.068389832048058 
Si 10.861634429999999 5.43133035 5.429676294104303 
Si 9.50236425 4.07272806 6.787635601504882 
Si 8.14514661 5.43005973 8.145046099890093 
Si 9.501957 6.786332549999999 9.502319396021463 
Si 9.521211779999998 4.05954945 12.249966032023567 
Si 10.861227179999998 5.42891943 10.860724610747027 
Si 12.21003918 6.78278133 12.237000419035503 
Si 8.27067735 5.48937162 13.699988051752085 
Si 9.14709564 7.272751949999999 15.159202622488014 
Si 12.132515069999998 4.16136195 15.28433107799186 
Si 11.165328899999999 5.31511749 17.195901479644657 
Si 11.05147809 7.67884536 19.93140571618175 
Si 9.38898585 7.68909177 18.08185073326551 
Si 11.65720545 4.5633177 24.638163334792885 
Si 10.32434136 6.8748686999999995 22.040513062803477 
Si 8.199310859999999 5.931188999999999 21.814815355233492 
Si 10.27118709 5.432470649999999 27.792717555126718 
Si 10.203192629999998 7.368667469999999 29.06166690034734 
Si 11.78900784 6.286734539999999 26.201068508869856 
Si 8.1783945 4.6483189199999995 27.127938334699067 
Si 8.88539679 6.824907269999999 31.052368701903475 
Si 10.22174694 7.11050355 32.92480216064786 
Si 8.39418813 8.033657849999999 34.23213383638076 
Si 11.053204829999999 5.330250899999999 34.22078034987534 
Si 9.555062399999999 9.530741429999999 1.3161263402041716 
Si 10.867645439999999 8.14908879 2.7045033872815076 
Si 8.153405639999999 10.86272586 2.707065639372006 
Si 12.218167889999998 9.502087320000001 4.070516466982608 
Si 8.14583079 8.14796478 5.430945414952341 
Si 9.502152480000001 9.50275521 6.787978607139486 
Si 10.85963076 8.14478823 8.145046099890093 
Si 8.14521177 10.85985882 8.14494319819971 
Si 10.861064279999999 10.86174846 5.430430906500433 
Si 9.498878190000001 9.513702089999999 12.237755031431632 
Si 10.85749677 10.8579366 10.862885546245037 
Si 11.29737564 10.69555788 16.886819102302233 
Si 10.84959612 8.170526429999999 13.66997505872416 
Si 8.257645349999999 11.69975493 19.243679418799037 
Si 9.064407600000001 10.0129743 17.711644751836502 
Si 9.83174805 10.67843709 22.943200991393045 
Si 10.088038619999999 8.5102218 23.766757520079278 
Si 11.8050372 11.10647313 21.73496364349748 
Si 10.055002499999999 12.06523737 24.87452851759908 
Si 12.037218569999999 8.40166524 25.094120724873104 
Si 8.258573879999998 8.18166879 25.219009076432727 
Si 9.32058414 11.28291012 27.011556522877644 
Si 8.80282278 8.94979116 27.428822877374436 
Si 11.23882938 11.19292416 28.3113763752127 
Si 10.623995909999998 11.11518828 34.172485156522974 
Si 8.16016599 9.07758621 30.86755726597838 
Si 11.75683509 10.66395528 31.99971596411859 
Si 10.10247156 10.452185279999998 30.315832702716488 
Si 12.20972967 8.26950447 32.1509128478524 
Si 9.502380539999999 12.217679189999998 4.0722314951556315 
Si 9.77000895 15.06696309 1.2299839051295112 
Si 10.86907896 13.572078659999999 2.702424773135802 
Si 9.502315379999999 14.932538009999998 6.78749839925104 
Si 10.8598914 13.57486425 8.144462990311263 
Si 12.218868359999998 14.93305929 9.502079292077237 
Si 9.5030973 12.22015527 9.501118876300344 
Si 8.149887 13.57123158 10.857191652710597 
Si 9.49415409 14.918202809999999 12.210829089115153 
Si 11.79008298 15.42949704 14.69014241716589 
Si 10.671350939999998 13.028204429999999 16.94245461623514 
Si 9.15784704 12.56151222 15.095746580086116 
Si 10.82548692 13.59138231 13.60048211715322 
Si 11.33114481 13.07953422 20.45301438472534 
Si 9.60655509 13.6223496 18.92958915919138 
Si 9.11575368 15.97342014 18.858312588320494 
Si 8.99633169 14.81588532 22.331244638694542 
Si 9.412915859999998 14.314365089999999 24.575976413239026 
Si 11.26732059 15.321738689999998 21.62842609338922 
Si 11.05897149 15.71530509 25.348802408567202 
Si 11.755531889999999 15.8522877 34.221740765652235 
Si 9.044501219999999 13.15323018 34.14905787167947 
Si 8.52366105 12.239882459999999 30.57723729684884 
Si 9.168891659999998 14.1125157 31.906315529815693 
Si 11.07032562 14.920401959999998 30.20130312132193 
Si 16.2877194 2.73839787 2.6942029280743243 
Si 13.565155410000001 0.01594463571 2.7229433701978643 
Si 12.379324859999999 1.465539624 1.2708187259292176 
Si 14.930224829999998 1.355855796 4.070722270363371 
Si 16.2901629 0.0012407897519999998 5.43015650199275 
Si 13.57476651 0.000467661465 8.144497290874725 
Si 13.57502715 2.7147773699999997 5.43159712565809 
Si 12.21745113 1.357149222 6.7873954975606585 
Si 16.28949501 0.00240629364 10.859935697787433 
Si 14.93165835 1.3571980919999997 9.50218219376762 
Si 13.572795419999999 2.71676475 10.85828927074133 
Si 12.221491050000001 1.381810653 12.217929305751474 
Si 16.25214204 2.70598077 13.568651194261891 
Si 13.60532655 0.15495194610000002 13.62325769129098 
Si 14.97233448 1.453375881 15.144487680763465 
Si 13.94217117 3.0574049399999996 16.631485707902385 
Si 12.93287535 3.98350773 21.097590573274758 
Si 15.757398449999998 1.6723639799999999 20.724057437190087 
Si 14.843236229999999 1.31632974 18.53506407826889 
Si 14.47648317 2.7736005599999998 22.358444985518705 
Si 13.618570319999998 1.367123589 23.994410359766512 
Si 13.169601629999999 3.0242385 25.654214625619353 
Si 14.34295404 3.3802564499999996 29.774569811310045 
Si 15.69448647 0.8576456939999999 26.462301600184908 
Si 14.559171209999999 3.93121683 27.43280174273585 
Si 13.941519569999999 0.538783605 28.121762860403145 
Si 15.623494649999998 0.49217139899999995 34.242424005418904 
Si 12.40550289 0.07018122959999999 31.57054731410101 
Si 14.000896619999999 2.54878227 34.22513652143482 
Si 14.446509569999998 1.026584397 30.381278177799093 
Si 12.29507298 3.7130448599999997 32.86007699739792 
Si 16.2937467 8.157624749999998 2.675148965072025 
Si 12.22167024 4.06785735 4.069727554023017 
Si 15.09576381 4.24725912 1.1460195558345911 
Si 13.58815689 5.43093939 2.692614811986104 
Si 12.28124277 6.8154102 1.3094754609491837 
Si 14.93351541 6.78372615 4.068595635428821 
Si 13.57582536 8.14612401 5.429367589033159 
Si 14.932538009999998 4.07267919 6.787567000377961 
Si 13.57499457 5.4297828 8.144977498763172 
Si 12.21763032 6.787407689999999 6.78749839925104 
Si 13.57253478 8.14631949 10.865012181179587 
Si 16.28809407 5.433334019999999 10.8588380797567 
Si 14.933303639999998 6.785599499999999 9.502113592640699 
Si 14.91391854 4.086737459999999 12.233536062125994 
Si 15.62339691 4.8845239199999995 16.472879902461106 
Si 16.28534106 8.128530809999999 13.628642879754278 
Si 13.48722405 5.44850001 13.742212045371941 
Si 14.88321189 6.85492974 15.220223324884214 
Si 14.070210569999999 7.97781573 17.194460855979315 
Si 15.824822759999998 6.24553713 20.60630360283024 
Si 14.260021649999999 4.91343867 19.371243214308578 
Si 12.67542819 6.4601253 18.64612930275394 
Si 15.163334729999999 6.31375965 24.79453960360923 
Si 12.23678736 5.64569046 22.647804538871352 
Si 13.610083229999999 7.45189308 23.453936381319657 
Si 15.70310388 4.22994285 23.772451413613716 
Si 14.4682893 7.523373599999999 28.745552907495515 
Si 14.02088445 6.118719479999999 26.900354096138752 
Si 15.763751549999999 7.43192154 32.39863151716403 
Si 12.537484469999999 4.62166848 30.602448210992296 
Si 12.476234069999999 7.0366284 30.03604300656932 
Si 13.773227579999999 7.85484252 33.94119645710893 
Si 13.581966689999998 10.84477428 2.693671269340687 
Si 12.225710159999998 12.15940986 1.2892484186765358 
Si 14.855176799999999 9.495115199999999 1.114013700069613 
Si 14.932668329999998 9.502315379999999 6.7873954975606585 
Si 13.574913119999998 10.860168329999999 8.145526307778539 
Si 12.21738597 9.50255973 9.502044991513777 
Si 14.93302671 9.522091439999999 12.243517526092994 
Si 12.22139331 12.220318169999999 12.235594095933623 
Si 12.41268678 9.49703742 15.031295821343866 
Si 13.709093849999999 11.05887375 13.716829628411183 
Si 15.10677585 11.45959146 17.77300845986731 
Si 14.58745065 8.26199478 21.41977576585909 
Si 12.647116169999999 9.353864609999999 20.37264816453742 
Si 15.886708469999999 11.99435958 20.23678363267044 
Si 13.239599759999999 10.02825432 18.172026914603123 
Si 16.278466679999998 9.98559081 21.572378972694786 
Si 13.56129468 11.74815252 23.186632090272106 
Si 15.700611509999998 10.80009081 23.735235302259092 
Si 12.435916319999999 12.17669355 25.19239183918739 
Si 15.43759317 11.411926919999999 29.219175087757883 
Si 12.69184851 10.230234029999998 26.630511563395125 
Si 14.785260119999998 9.688070249999999 27.649478402115733 
Si 13.72282632 11.970804239999998 30.901034615915812 
Si 16.12566648 10.94929092 33.94908558670484 
Si 13.34380689 13.795789229999999 0.0599241133823701 
Si 12.215724389999998 14.933042999999998 4.074941239669011 
Si 14.93322219 12.21909642 4.068321230921137 
Si 14.85753885 14.96710539 1.3505023649042691 
Si 13.574717639999998 13.576900499999999 5.430739611571578 
Si 12.21738597 12.217679189999998 6.787807104322185 
Si 14.93245656 14.93268462 6.787635601504882 
Si 14.933287349999999 12.2173371 9.503245511234894 
Si 13.571589959999999 13.57631406 10.863537256950785 
Si 14.92931259 14.94094365 12.250857846673538 
Si 12.67269147 14.26845987 16.564736811408284 
Si 14.5028241 12.68745021 15.647436842784547 
Si 16.16600052 13.66494795 13.89920572433058 
Si 13.162548059999999 14.42774349 20.330286968663724 
Si 13.066420769999999 15.99497181 18.582536058098203 
Si 14.78491803 15.750524069999999 24.7581124052142 
Si 15.99901173 14.68356165 23.047028796987934 
Si 14.59671966 13.349817899999998 21.754206259598813 
Si 13.013266499999999 14.43067569 25.70189240882943 
Si 15.856653419999999 13.48807113 28.036182954569234 
Si 12.34532763 13.13777097 29.285066470165475 
Si 13.71684789 14.47539174 27.89925510523498 
Si 14.94175815 12.844143719999998 32.830612813385365 
