&CONTROL
  dt          = 30.D0,
  prefix = 'x.66_y.66_z3.16_struc35-scf',
  pseudo_dir = './',
  outdir='./',
  wf_collect= .true.,
  verbosity= 'high',
/

&SYSTEM
ibrav= 6, celldm(1) =30.783621515, celldm(3) =2.110272343468375, nat=  432, ntyp= 1,
  ecutwfc     = 12.D0, nbnd= 1728,
  degauss     = 0.05D0,
  occupations = "smearing",
  smearing    = "methfessel-paxton",
/
&ELECTRONS
  electron_maxstep=200,
  conv_thr    = 1.D-8,
  mixing_beta = 0.3D0,
  scf_must_converge=.false.,
/
ATOMIC_SPECIES
Si  28.08  Si.pbe-hgh.UPF
K_POINTS {automatic}
1 1 1 0 0 0
ATOMIC_POSITIONS (angstrom)
Si -0.01026401949 2.71658556 2.706950865197146 
Si 2.7237042899999997 0.00909951255 2.69282219090588 
Si 1.3645171889999999 1.409689359 1.3076380255426747 
Si 4.07696346 4.00189914 1.1785273810094947 
Si -0.000198710307 0.000528895575 5.430257991289144 
Si 0.000272411154 2.7150543000000003 8.144922906391303 
Si 2.71497285 -0.00035477828099999994 8.145129164410154 
Si 2.7161620199999996 2.71480995 5.429845475251443 
Si 1.357502715 1.357800822 6.787573260671986 
Si 2.715543 2.71630863 10.863059831477445 
Si 1.3547301569999999 1.336622193 12.232956840010173 
Si 4.066961399999999 4.076425889999999 12.243029106597378 
Si 4.07096874 1.356486219 9.501688154390541 
Si 3.64311189 1.5792535979999998 14.955150172800378 
Si 1.515838257 2.49292386 15.581865163077923 
Si 0.558492876 1.88716392 17.7001006403371 
Si 1.9218779099999999 2.5767684899999996 19.569107678151802 
Si 3.9059836199999998 1.474828182 19.629781912030353 
Si 2.10362544 0.554374764 22.8239279682872 
Si 0.896821515 3.8427784199999997 23.72393483354179 
Si 0.7402909049999999 2.3135546700000003 21.75018309848746 
Si 1.081067931 1.48225968 26.646645336991256 
Si 3.3236161199999996 2.2205876399999998 26.94382876581849 
Si 0.277636986 0.6410440799999999 28.69949702227479 
Si 4.04782065 0.7433403929999999 28.672477221805366 
Si 0.257338017 0.0329479911 34.18321021678271 
Si 2.3490017099999996 2.9886122699999995 34.22855260459337 
Si 2.33890191 2.74574466 31.73523692005438 
Si 0.39811945499999996 2.51203203 30.24344142238095 
Si 1.3556814929999998 4.07381949 4.068817561529291 
Si 0.6736045319999999 4.848132059999999 0.15641198719833946 
Si 2.7289008 5.43618477 2.6857062892555343 
Si 1.3877255519999998 6.85668906 1.2727804203569235 
Si -0.000880593417 5.43051585 5.430601754653895 
Si 2.7146633399999995 5.42992941 8.145060411737203 
Si 1.357463619 6.78753801 6.787435755326086 
Si 1.3562809649999998 4.07287467 9.501481896371692 
Si 1.333839861 6.78235779 12.23137552853232 
Si 3.4308694799999997 7.0525274399999995 15.118162760365303 
Si 2.47352247 5.30293257 13.662874932028426 
Si 1.96372692 4.81866345 15.917275078065472 
Si 0.697459608 6.01837308 20.254606203801767 
Si 2.6415864 4.80292731 19.792175725538723 
Si 3.9222899099999995 5.89932576 18.052011196832694 
Si 2.44876167 7.644571199999999 17.21322858684026 
Si 3.20873904 4.335730109999999 23.861715190133992 
Si 0.7879635899999999 7.461455309999999 22.10573754664942 
Si 3.43707597 5.9373792000000005 25.573450488575112 
Si 0.6606018539999999 4.77446868 29.39015199839602 
Si 2.8362518999999997 5.69485368 29.165193252502966 
Si 1.62642618 7.521972659999999 25.967850196953936 
Si 3.9447863999999995 4.47256611 27.482196571355033 
Si 2.52263682 7.872859259999999 28.158826002194424 
Si 3.5026757999999996 6.24858336 31.378135536751046 
Si 1.6176181769999998 5.12641413 32.217433791790604 
Si 3.97635642 9.49922028 1.3417702900288013 
Si 1.358312328 9.50453082 4.070123862315344 
Si 2.7024458399999998 10.884326399999999 2.7052389236406857 
Si 0.00055416951 8.14456017 8.144819777381876 
Si 2.71583622 8.14594482 5.430223614952669 
Si 2.7147936599999998 10.8598914 8.144957282727777 
Si 1.35433431 9.500832990000001 9.502031917755293 
Si 2.71704168 8.14763898 10.864091121571699 
Si 0.47755763999999995 10.565335619999999 16.411400538558556 
Si 1.63668888 8.998270199999999 14.9540157536967 
Si 2.7849546899999997 10.73076057 13.694054269211343 
Si 3.18218634 9.42715332 19.76618721516355 
Si 3.65904351 11.74349358 19.276221291383955 
Si 1.061788716 9.378951209999999 18.611073556927245 
Si 1.5714506879999999 10.78187859 23.086013157573365 
Si 2.6734985099999995 9.0101619 22.04386014099424 
Si 1.7455875299999999 9.894024719999999 25.25687880597592 
Si 1.617339618 9.22351203 29.88816198491079 
Si 1.016054541 11.411307899999999 28.925624563607997 
Si 3.75336261 10.95772914 25.877337303014997 
Si 0.1275798591 10.84567023 26.675624588639764 
Si 2.16280701 8.69341914 34.27355122903928 
Si 0.37108620000000003 10.41119964 34.20679238360463 
Si 3.1791401099999996 8.55166356 32.03324538095702 
Si 1.352327382 12.300872219999999 1.185337333265212 
Si 1.356882066 14.93038773 4.067339379060861 
Si 0.00043195215599999996 13.575010859999999 8.145163540746628 
Si 2.7166832999999997 13.574473289999998 5.431289281383397 
Si 1.357620003 12.21743484 6.787504507999036 
Si 4.062840029999999 14.931479159999999 12.230275485765116 
Si 1.355854167 14.93151174 9.502066294091769 
Si 2.7142886699999997 13.57670502 10.863712981870473 
Si 1.361505168 12.198603599999998 12.23972897829577 
Si 2.6085339899999997 16.11432864 13.714680071096401 
Si 3.6886261499999997 12.27360276 15.187293573016728 
Si 1.6527834 12.664497599999999 16.420544644060932 
Si 1.051657965 14.5613052 15.124109866575495 
Si 1.5498094230000001 14.977693889999998 19.502692596081907 
Si 1.560658563 12.75935427 18.781064540796613 
Si 3.76211034 15.747966539999998 18.68316073451553 
Si 1.0688292539999997 16.22881476 24.84893482102591 
Si 2.12476986 13.1075856 23.171403977377512 
Si 1.2144716279999999 14.85152784 21.872081587628163 
Si 1.519948224 13.95435609 25.3274534247593 
Si 3.3328525499999997 13.18752063 26.64829540114206 
Si 2.17546434 15.569900549999998 29.34786910453165 
Si 2.6484281999999997 13.21338915 28.868044200012204 
Si 2.6989272 13.763306969999999 34.26994171370939 
Si 2.17787526 15.485502059999998 32.83393901013505 
Si 0.5448662910000001 14.820642 30.968678992996132 
Si 3.68875647 12.29368833 32.77006777696431 
Si 6.788385089999999 4.07267919 4.066170583620708 
Si 4.07357514 1.356489477 4.070467625680095 
Si 5.43310596 2.69996976 2.6755652699953796 
Si 6.81713694 1.2310532189999999 1.1712808492805438 
Si 5.4295873199999996 -0.00041222822399999997 5.431117399701021 
Si 5.430336659999999 2.7146959199999996 8.145026035400727 
Si 6.78781494 1.357421265 6.78740137898961 
Si 8.14669416 2.71345788 10.863025455140969 
Si 5.43362724 0.001195575228 10.863403594842197 
Si 6.790062959999999 1.340605098 12.246122976880137 
Si 6.94550214 3.6348854399999997 15.112456288510435 
Si 5.00391333 0.317022948 16.560696967869916 
Si 5.34349467 2.6359663499999995 13.646683677548655 
Si 7.369579709999999 1.9937656799999999 21.334091921792854 
Si 5.06742804 2.3526669599999996 21.355405250407415 
Si 6.75055971 2.9511941399999997 25.016450708669073 
Si 4.40414811 2.52825687 24.84133765066491 
Si 4.35693969 0.943911018 23.137577662286013 
Si 7.9641972899999995 1.4731584569999998 23.61719630878661 
Si 8.04235671 0.42798228299999996 28.147069295119937 
Si 7.704420659999999 2.61685818 27.18013170274833 
Si 4.708624499999999 1.83198969 30.674108165741 
Si 6.373869749999999 3.5339525999999997 30.491260432029943 
Si 4.0728909600000005 6.78361212 4.0714301631013985 
Si 6.84199548 6.8968764899999995 1.0997299425412712 
Si 4.072548869999999 4.072548869999999 6.787710766017885 
Si 5.429456999999999 5.431411799999999 5.429295453867841 
Si 6.78778236 6.787440269999999 6.787298249980185 
Si 6.78612078 4.0713597 9.502513186465945 
Si 4.07222307 6.785566919999999 9.501928788745868 
Si 5.42971764 5.43501189 10.860687864260665 
Si 6.76538361 6.78537144 12.23137552853232 
Si 5.27080869 8.01792171 13.714439436741076 
Si 7.988273909999999 5.2748649 13.552011246896228 
Si 8.01746559 5.0391974699999995 18.562396664478506 
Si 5.44564926 6.60096864 21.476341202126818 
Si 4.82674329 7.71069231 19.3188135722766 
Si 7.61625918 5.90747076 22.187828238151955 
Si 7.7528671199999994 5.07746268 24.415861734112603 
Si 4.12439994 4.59162972 21.656782592284614 
Si 5.01433893 7.65455697 25.272829426100365 
Si 7.2429738299999995 7.061389199999999 25.691636333376508 
Si 7.31838024 6.31721313 27.869961646794156 
Si 6.250163489999999 4.237599149999999 28.2194658597365 
Si 5.63319603 5.289672509999999 34.2134613928808 
Si 5.66290899 5.4369504 31.82750300715355 
Si 7.568724959999999 7.021739339999999 31.32241149532491 
Si 5.43106971 8.142035219999999 2.685434716197381 
Si 6.785697239999999 9.50402583 4.067408131733811 
Si 4.07093616 12.218298209999999 4.0733552379440034 
Si 4.0721742 9.50290182 6.787573260671986 
Si 5.4301086000000005 8.14506516 8.145163540746628 
Si 5.42953845 10.86104799 5.430704883663321 
Si 6.7865280299999995 9.50159862 9.501241262016366 
Si 4.089653370000001 9.495115199999999 12.225462798658603 
Si 5.4317376 10.859353829999998 10.861512896336066 
Si 6.77683548 12.217109039999999 12.253995157932934 
Si 8.053710839999999 10.734637589999998 13.716605145939008 
Si 6.8029809299999995 9.24247359 15.209981955090294 
Si 7.361336969999999 10.155462929999999 19.104752125046154 
Si 4.95496188 11.838741209999998 17.195112257517884 
Si 6.778057229999999 11.481110549999999 20.928691785742 
Si 5.920274699999999 9.6353721 17.380881979829322 
Si 6.29965251 10.10079369 22.779204354533096 
Si 4.7519559000000005 8.30902401 22.973911924328064 
Si 5.35242159 11.6297568 24.24666140598216 
Si 4.3403076 9.04402881 27.142283356289244 
Si 7.504509779999999 8.19887103 29.273650594081907 
Si 7.334328149999999 10.99441422 27.210314126173465 
Si 5.929364519999999 9.7829595 28.658073536822297 
Si 5.633766179999999 10.87743573 30.70470310520384 
Si 7.431677189999999 8.33134131 33.32218611709089 
Si 5.0350760999999995 11.00058813 34.295277073691544 
Si 7.825846319999999 11.70008073 31.119625486458297 
Si 5.3396991 9.45191412 32.60877400622314 
Si 4.1577781499999995 14.98572486 1.2923955579496154 
Si 5.43035295 13.565481209999998 2.6995118259839344 
Si 6.6966561 12.21714162 1.1428825577184638 
Si 6.78791268 14.932098179999999 4.072805216560402 
Si 4.07246742 14.932309949999999 6.787573260671986 
Si 5.43012489 13.57505973 8.144751024708928 
Si 6.78709818 12.217939829999999 6.787710766017885 
Si 4.07129454 12.21588729 9.502581939138896 
Si 6.78496419 14.9301108 9.501138133006942 
Si 5.24824704 13.55847651 13.71952713453939 
Si 6.47271747 14.939982539999999 15.278012724974516 
Si 6.767680499999999 13.4745993 17.237326398709307 
Si 5.07993876 13.029686819999998 20.668497294961973 
Si 7.68189159 16.21172655 20.047970045249944 
Si 5.88204207 14.72905962 19.205302909235822 
Si 4.43917161 13.35753936 22.92884454720921 
Si 7.723887209999999 15.405762509999999 23.697636936138345 
Si 5.38215084 15.25012785 23.961097178883506 
Si 6.73987347 12.71740752 25.799578029908318 
Si 5.27273091 14.47860087 26.274865258013048 
Si 5.931221579999999 15.661808729999999 28.2559047764001 
Si 4.777498619999999 16.13364858 32.00488490336507 
Si 7.51830741 14.0945967 34.282832839887554 
Si 4.360670099999999 12.85869069 30.498685720708565 
Si 7.7894707499999996 13.904557559999999 31.934722800619387 
Si 5.9504112 14.600173139999999 30.426426661437908 
Si 5.78117439 15.881609699999998 34.19702950404571 
Si 12.07989837 1.2673619999999999 1.2933580953709183 
Si 9.501191369999999 1.3618146779999998 4.073423990616954 
Si 10.85363604 2.71003698 2.705221735472448 
Si 9.532728809999998 4.00659066 1.2258326576328797 
Si 8.14488597 3.6689967e-05 8.145438551438428 
Si 8.1454887 2.71265967 5.4306705073268455 
Si 10.858278689999999 9.70137918e-05 5.429570464559642 
Si 10.86007059 2.7146633399999995 8.145129164410154 
Si 9.50027913 1.35622395 9.502513186465945 
Si 9.856590299999999 -0.001222992927 15.999537651250385 
Si 8.99559864 2.0931021 15.204344235908376 
Si 10.77093171 2.6766587699999995 13.570161952555083 
Si 10.52742879 3.5353535399999996 21.092116889344627 
Si 10.539695159999999 2.41039872 18.98907575280744 
Si 9.70685262 0.0261824283 18.45411120458194 
Si 9.44438814 3.58425612 17.210719114277577 
Si 11.35540062 1.73633481 22.408043049611447 
Si 10.16310294 1.87515819 24.37491951737076 
Si 11.16107721 0.0821203335 25.75320435200341 
Si 11.39065218 1.5192917369999999 29.926010331369877 
Si 9.838769039999999 3.66982749 27.205604568076378 
Si 11.901131909999998 2.81746953 28.043390264311036 
Si 8.50318452 2.17111491 34.193660623071146 
Si 10.24924446 0.31688937 34.05921477111703 
Si 9.15232473 0.775754235 30.252104259172675 
Si 8.29178919 2.56989411 31.71818625716273 
Si 11.53574721 2.17888524 32.095741560668756 
Si 10.11791448 4.07158776 32.12503019934554 
Si 10.85844159 8.12621763 2.7038638701816815 
Si 12.217939829999999 4.06945377 4.0701926149882945 
Si 8.15045715 5.439687119999999 2.672385458871433 
Si 9.50576886 6.78553434 4.071223905082547 
Si 9.50278779 4.0721742 6.787538884335511 
Si 8.145097739999999 5.42975022 8.145232293419578 
Si 10.8592398 5.4312326099999995 5.429398582877266 
Si 10.858588199999998 5.431558409999999 10.85958782149346 
Si 8.145716760000001 8.14882815 10.860550358914765 
Si 9.50189184 6.78672351 9.500897498651614 
Si 9.498878190000001 4.07631186 12.208549641112853 
Si 9.52031583 6.5855583 14.699562111108012 
Si 10.81634823 5.19965397 16.105141756901894 
Si 12.06839763 5.357536649999999 21.463896968322832 
Si 8.28040248 4.14868833 20.777814044952787 
Si 9.224619749999999 7.137870749999999 18.259609892805823 
Si 11.5079076 6.812868959999999 17.618697475564062 
Si 11.454069149999999 5.9450354999999995 24.859385227314338 
Si 9.11339163 7.78886802 22.11288782463624 
Si 11.28621699 7.10582832 22.8044709618423 
Si 9.92186433 4.19144958 24.93088800718255 
Si 9.520983719999998 5.729372189999999 28.208465432064468 
Si 11.05177131 7.041010409999999 26.914436998132285 
Si 9.589955579999998 5.90896944 30.592395613939686 
Si 11.561387669999998 7.1761848299999995 30.59308314066919 
Si 11.41215498 4.92733404 34.279463958913 
Si 9.44082063 9.454259879999999 1.3346475131111608 
Si 8.136154529999999 10.87541577 2.6909796192708146 
Si 11.47039173 10.05148386 0.17879441987727696 
Si 12.20116113 12.13391601 1.2984629813374706 
Si 12.217597739999999 9.50278779 4.067236250051436 
Si 8.14602627 8.143973729999999 5.429673593569068 
Si 9.502869239999999 9.502250219999999 6.787091991961335 
Si 10.86033123 8.14540725 8.145026035400727 
Si 8.14491855 10.86013575 8.144922906391303 
Si 10.85976108 10.859109479999999 5.429467335550217 
Si 9.47188566 9.51096537 12.208893404477605 
Si 10.861357499999999 10.860608159999998 10.861822283364344 
Si 11.617783649999998 9.87444414 14.835933037904733 
Si 10.79740296 8.13550293 13.493812109243885 
Si 8.6258808 8.15312871 16.19448585540068 
Si 9.761798789999999 11.673251099999998 15.139269830961014 
Si 8.65315026 12.00022398 17.378681894294917 
Si 9.098649179999999 8.73261288 19.900048669397588 
Si 10.946635650000001 10.13399271 19.49537043641271 
Si 9.90792009 11.407219109999998 22.815952658224983 
Si 8.47588248 9.62062965 23.465390406912565 
Si 11.74618143 10.62430542 21.612746505260013 
Si 8.31469293 9.233546669999999 25.761489049093907 
Si 9.50420502 9.51533109 28.89011380802922 
Si 8.848956059999999 11.75883876 28.879285262039563 
Si 11.71573542 11.16383022 25.929898721485426 
Si 10.42439454 9.27915867 26.74802115325632 
Si 11.278560689999999 9.472488389999999 30.361283503817592 
Si 8.7381189 10.421983619999999 33.04844734973967 
Si 10.983402179999999 10.810630439999999 32.38687475427638 
Si 9.50269005 12.22217523 4.070811389044846 
Si 9.380270699999999 14.943794399999998 1.29399061996206 
Si 10.85081787 13.568022449999999 2.6901511495617645 
Si 8.1340857 16.2952128 2.7156858922954688 
Si 8.14410405 13.57532037 5.4306705073268455 
Si 9.50226651 14.932863809999999 6.787504507999036 
Si 10.860038009999998 13.57533666 8.144647895699501 
Si 9.50242941 12.21692985 9.502788197157745 
Si 8.142100379999999 13.579132229999999 10.863575476524572 
Si 9.487377449999999 14.930355149999999 12.248460567760443 
Si 10.86272586 16.290488699999997 10.863747358206949 
Si 11.81018484 15.03902574 14.968041298978541 
Si 10.672018829999999 13.419180719999998 13.665350028254633 
Si 8.193462749999998 16.19261838 13.973155745052678 
Si 8.867901329999999 12.64530798 21.124808785332444 
Si 10.15200945 12.353342309999999 19.113999359557955 
Si 11.42750016 14.263035299999999 18.418222309301935 
Si 8.86109211 14.948160119999999 21.684971188194197 
Si 11.150114039999998 15.645453569999999 22.115878565909572 
Si 11.93336982 14.675139719999999 24.21235382218001 
Si 10.557304649999999 12.75568902 24.60115018771339 
Si 8.66227266 13.95559413 25.351104344254168 
Si 9.611800469999999 15.193520099999999 27.140014518081887 
Si 10.576233629999999 13.421526479999999 28.56333235349692 
Si 9.6783777 15.32831985 31.728877297806488 
Si 11.42321589 14.17119228 30.659910738776784 
Si 13.16530107 3.11238369 0.18396977733360326 
Si 14.932928969999999 1.3586022899999999 4.0710863997366475 
Si 13.574587320000001 0.00028412529299999995 8.145026035400727 
Si 13.57554843 2.71528236 5.430704883663321 
Si 12.217174199999999 1.357802451 6.78726387364371 
Si 16.2917919 0.00204196779 10.860962874952463 
Si 14.93162577 1.3555625759999999 9.502444433792995 
Si 13.57269768 2.71761183 10.86336921850572 
Si 12.20832873 1.352843775 12.222368928375841 
Si 14.942507489999999 4.07785941 12.241241537100672 
Si 16.21768869 2.55225204 13.670678360408274 
Si 15.415894889999999 3.6785589299999994 17.0372904967607 
Si 13.44475602 -0.020256615 13.651358859309267 
Si 14.794985249999998 1.137804372 15.096471292049515 
Si 13.42576188 2.5068843899999997 16.410713011829056 
Si 12.27870153 3.9212310599999998 14.896332261091484 
Si 14.11709319 0.16758011699999997 19.894960971599275 
Si 12.841504739999998 1.9125437399999998 18.779036336944586 
Si 14.1105609 3.9381400799999997 18.945899074194717 
Si 13.54542822 2.38764159 22.994950242250827 
Si 15.04259325 1.013751135 21.896557539198437 
Si 13.92333993 2.6273815199999997 25.2660229114783 
Si 16.12389087 3.22489872 25.795762256559584 
Si 12.99653667 1.131171084 26.815020633046295 
Si 15.68917593 1.547372439 32.36841466158925 
Si 13.73307273 2.8069624799999997 32.31434068431391 
Si 16.28553654 8.132668469999999 2.7123685758256215 
Si 14.971780619999999 4.1253284699999995 1.3047366627441763 
Si 13.587309809999999 5.44348269 2.7036438616282408 
Si 12.2543154 6.7574178 1.2577338978817725 
Si 14.93144658 6.788499119999999 4.074730291403008 
Si 14.93261946 4.0726629 6.78726387364371 
Si 13.574717639999998 5.430401819999999 8.1445103903536 
Si 12.217874669999999 6.78708189 6.787917024036736 
Si 16.294072500000002 5.4302877899999995 10.856528327547176 
Si 12.2161968 4.07189727 9.501997541418818 
Si 14.93281494 6.786576899999999 9.502341304783569 
Si 12.22756722 6.7855506299999995 12.22302207876887 
Si 16.21024416 5.86135377 16.548458992084782 
Si 16.18663995 8.103737429999999 13.629289251292255 
Si 13.62432069 5.47690977 13.655587148695703 
Si 14.614931879999999 7.12821078 15.136004078995878 
Si 16.20457524 7.31072394 18.453286172506537 
Si 15.563091329999999 4.187751749999999 20.81054031727708 
Si 14.23167705 7.8579376199999995 19.603552767299853 
Si 12.888468809999999 5.93646696 19.352743016377524 
Si 16.077839039999997 5.93425152 23.587667035754496 
Si 14.0641344 4.71988089 22.61938876626036 
Si 13.60156356 5.01987753 25.082315769355365 
Si 15.591224159999998 6.72127029 25.790708935097744 
Si 15.59396088 4.90480497 27.435479130085373 
Si 12.687547949999999 6.783367769999999 28.549409937224507 
Si 13.48166916 4.5757632599999996 28.630675596651642 
Si 14.00966064 4.843098449999999 31.194119007599834 
Si 12.630500369999998 6.33708693 32.47828143296366 
Si 16.01206002 6.073987139999999 31.12268498040458 
Si 14.97469653 9.50578515 1.345091044132296 
Si 13.5840681 10.86518565 2.7111344653461655 
Si 16.289006309999998 10.86007059 5.430395496635044 
Si 13.576428089999999 8.144250659999999 5.429639217232593 
Si 14.932375109999999 9.502673759999999 6.787676389681411 
Si 13.574457 10.85995656 8.144819777381876 
Si 12.216718079999998 9.50169636 9.502341304783569 
Si 13.57556472 8.14276827 10.860825369606564 
Si 14.93081127 9.50471001 12.22511903529385 
Si 16.292606399999997 10.861552979999999 10.861856659700816 
Si 12.78561375 8.490445739999998 16.372624031014645 
Si 13.50807525 10.77533001 13.642936656872868 
Si 14.794333649999999 12.015015299999998 15.182927778284391 
Si 16.25114835 11.2585077 19.60853733608874 
Si 14.0506137 11.70732978 18.925995175375633 
Si 13.04297946 9.58567131 18.552427526900725 
Si 15.00647832 8.60270013 21.71370980548738 
Si 12.87866223 8.86959549 22.76761952914099 
Si 14.246598689999999 11.96733447 23.04397089806432 
Si 13.427684099999999 10.20402342 24.609228626785036 
Si 15.8863338 10.801068209999999 21.879059983932613 
Si 14.865227729999999 9.038082959999999 26.220310012027063 
Si 13.042034639999999 10.497390029999998 29.20950435021937 
Si 14.185055069999999 8.59546737 28.426514534326024 
Si 15.73368021 8.303843789999998 30.284246133776893 
Si 14.19733773 11.496113639999999 30.983495194016896 
Si 15.115002299999999 9.755429399999999 32.26157300782464 
Si 13.378113629999998 8.32446693 34.183760238166315 
Si 12.21938964 14.93200044 4.068026905790363 
Si 14.932668329999998 12.216620339999999 4.072736463887452 
Si 14.91491223 14.97692826 1.1509197451863422 
Si 13.570905779999999 16.28638362 2.6885182735791973 
Si 16.27748928 13.580191079999999 2.6827258608831426 
Si 13.57499457 13.57357734 5.429914227924393 
Si 12.21777693 12.217043879999999 6.787813895027311 
Si 14.9325543 14.932505429999999 6.7872294973072345 
Si 12.217092749999999 14.93063208 9.501172509343416 
Si 14.93133255 12.21689727 9.502100670428243 
Si 13.572355589999999 13.57841547 10.86099725128894 
Si 12.21901497 12.217972409999998 12.241207160764198 
Si 14.9159385 14.9354865 12.234847538516304 
Si 15.36265917 15.345815309999999 16.265782377250034 
Si 13.27709934 13.78689489 16.49600070262378 
Si 16.09684947 13.385199779999999 13.587693884157382 
Si 13.113303389999999 12.47760243 21.012535670404766 
Si 12.52432215 14.74085358 20.438450851270602 
Si 15.98943321 16.10936019 18.427400791140787 
Si 15.674026229999999 15.548153399999999 23.271576621865954 
Si 14.281117199999999 13.941307799999999 24.262440144424232 
Si 15.70944069 13.07376756 26.02512117352145 
Si 15.73706853 12.90549186 29.933882512422677 
Si 12.56081175 12.33850212 27.79550250198909 
Si 14.57673183 13.70725308 27.981719116674707 
Si 14.324106509999998 16.04491695 28.293615617513286 
Si 13.474485269999999 13.515861869999998 34.272588691617976 
Si 12.89425176 15.99767595 30.17805763040531 
Si 12.57511437 12.77316819 32.18075424077168 
Si 14.75781147 15.72322203 31.65345561558012 
