&CONTROL
  dt          = 30.D0,
  prefix = 'x.66_y2.00_z3.16_struc14-scf',
  pseudo_dir = './',
  outdir='./',
  wf_collect= .true.,
  verbosity= 'high',
/

&SYSTEM
ibrav= 6, celldm(1) =30.783621515, celldm(3) =2.1114449815674807, nat=  432, ntyp= 1,
  ecutwfc     = 12.D0, nbnd= 1728,
  degauss     = 0.05D0,
  occupations = "smearing",
  smearing    = "methfessel-paxton",
/
&ELECTRONS
  electron_maxstep=200,
  conv_thr    = 1.D-8,
  mixing_beta = 0.3D0,
  scf_must_converge=.false.,
/
&IONS
/
ATOMIC_SPECIES
Si  28.08  Si.pbe-hgh.UPF
K_POINTS {automatic}
1 1 1 0 0 0
ATOMIC_POSITIONS (angstrom)
Si 1.481873607 1.4318681939999998 1.299889618949332 
Si 4.07144115 1.355896521 4.071835225509791 
Si -0.0001378917549 -3.8704551299999996e-05 5.431899664551784 
Si 0.000485811783 2.71480995 8.145011873130821 
Si 2.71492398 0.0003129309 8.144633523304575 
Si 2.7140606099999998 2.71433754 5.430351869808045 
Si 1.357895304 1.357421265 6.787664673750058 
Si -0.0012236608169999999 -0.00048572055899999997 10.862973838573572 
Si 2.71388142 2.71397916 10.859568690137348 
Si 1.358525727 1.37241621 12.240029624357934 
Si 2.68104078 2.80616427 16.689939512604802 
Si 0.034443576 2.71230129 13.81977773069448 
Si 2.71823085 0.0494658882 13.652099966789523 
Si 3.99766374 1.484657568 15.103553086589558 
Si 3.56648373 2.01531735 20.461158603441916 
Si 1.69723881 0.8048188529999999 19.63405148782706 
Si 3.57169653 3.89047554 18.905452908791435 
Si 1.9775571299999999 0.365552487 17.2923068314289 
Si 1.5036565949999998 0.739588806 23.51375379248083 
Si 3.24127017 2.0204486999999998 24.497910481426977 
Si 3.57845688 3.2164767899999998 22.490661466869987 
Si 2.06218368 3.38191803 26.03370121704136 
Si 0.07171802819999999 3.33024615 30.046823428605357 
Si 2.3602581 2.7718738199999997 29.947867751322374 
Si 8.172855899999999e-06 2.11636422 26.2947282017131 
Si 3.48472422 3.62455758 27.978832069216335 
Si 3.24048825 2.3084233199999997 34.187277554420874 
Si 2.49118083 0.396588195 30.16737944142318 
Si 3.26661741 3.79358262 32.02122479915636 
Si 1.360444689 4.07360772 4.072763902356034 
Si 2.71487511 5.4077912999999995 2.7057378265110956 
Si 1.2560876909999998 6.60008898 1.331495587616463 
Si 3.05233875 7.393640039999999 0.015801195770750422 
Si 2.71498914 5.4297828 8.14511505944707 
Si 1.357375653 6.787554299999999 6.787630278311308 
Si 1.358284635 4.07178324 9.502118304440335 
Si 1.3612249799999998 6.779344139999999 12.238275456981697 
Si 1.3221501569999998 4.208782139999999 15.290561087071865 
Si 2.70231552 5.447131649999999 13.76780622274363 
Si 0.5715900359999999 5.3392104 20.77109590201577 
Si 2.5301465100000002 5.985385829999999 19.69465625090409 
Si 2.08573902 7.8562597499999995 18.251595618158987 
Si 1.63222542 5.353447859999999 24.782326364448533 
Si 1.4161890689999999 4.22885142 22.651700911096242 
Si 3.2147011799999996 7.17295941 24.92881653808365 
Si 3.2677251299999996 7.12865061 29.28038986694503 
Si 1.338410835 8.0360199 28.274426469831553 
Si 0.1487731491 4.90487013 34.03583443760579 
Si 1.98451296 5.95821411 31.043362475501407 
Si 1.482481224 7.7162472 32.6109689919593 
Si 4.03214967 9.35950095 1.213708407617998 
Si 1.358151057 9.50229909 4.068774031461064 
Si 2.72073951 10.858213529999999 2.682256060476652 
Si -0.0001194063516 8.14486968 8.144839895937073 
Si 2.7150543000000003 8.14438098 5.429870333665549 
Si -0.0024499019699999996 10.85845788 5.429835938226799 
Si 2.71533123 10.8597285 8.144943082253322 
Si 4.06872072 9.50834268 12.221662460065575 
Si 1.358268345 9.502347959999998 9.50301258584783 
Si 2.7170091 8.143354709999999 10.861494834707333 
Si -0.0015418045169999998 10.859663339999999 10.86479679682731 
Si 4.07253258 12.21740226 9.50290939953158 
Si 1.3355633429999998 12.250210319999999 12.23012373799801 
Si 2.7473085 10.95194619 13.560367331643983 
Si 1.475396703 9.52464897 14.977356221816786 
Si 3.4321075199999997 8.71591563 16.401774526759528 
Si 0.609941583 11.222751149999999 18.68752340887312 
Si 2.51929737 9.80012916 19.46417241584212 
Si 3.66080283 8.26192962 22.865743726435838 
Si 2.1291518700000003 11.51818659 23.034659726135782 
Si 2.00505465 9.54727578 21.776130622283006 
Si 2.50988175 10.93448331 25.290346994782105 
Si 0.545004756 9.697029749999999 29.79157487764358 
Si 1.9284264899999999 8.821018709999999 26.087874033072193 
Si 3.74249718 11.1118977 28.45864843977513 
Si 1.4323080240000001 11.53763685 28.616729876268906 
Si 0.011941433369999999 10.99581516 34.15645924130111 
Si 1.497117789 10.082939849999999 32.158325018012796 
Si 3.9516444899999996 10.64637837 31.947343396721926 
Si 0.337761747 15.9112575 0.1632675807484636 
Si 2.72266173 16.2890226 2.710195475373061 
Si 4.026725099999999 14.95265616 1.2386072657289307 
Si -0.00717475131 13.56293997 2.7158294482402674 
Si 2.05154631 14.15728062 0.01611168339634427 
Si 1.3630315409999998 12.29857533 1.2803461306517332 
Si 1.356320061 14.936317289999998 4.069943476378556 
Si -0.000410923395 13.57546698 8.14514945488582 
Si 2.7137510999999996 13.574668769999999 5.4303174743692955 
Si 1.3570205309999999 12.217679189999998 6.787389510240061 
Si 1.358336763 14.933857499999998 9.502015118124088 
Si 2.71314837 13.57665615 10.862320325237327 
Si 1.026006102 15.483237749999999 15.010994960914024 
Si 2.8403406899999997 12.51726858 16.258070383663142 
Si 3.48451245 13.60143324 19.328963946116914 
Si 3.81950001 14.67131157 21.468222654595387 
Si 0.983306754 13.48867386 19.395071979393904 
Si 0.0946452258 14.129261819999998 21.586302195823226 
Si 1.7719610399999999 15.70878909 21.607489786093062 
Si 0.48063156299999993 16.18714494 25.404436665114975 
Si 0.53677179 13.281595379999999 29.831989518174517 
Si 1.1240930789999999 12.410373599999998 26.458312908406832 
Si 1.91177811 14.695681409999999 26.569788525394724 
Si 1.200586032 15.268454099999998 28.740209501380455 
Si 1.777239 13.535817119999999 31.926671738033335 
Si 4.05717111 13.0777749 31.733266185943577 
Si 1.514272788 15.79970358 32.024595552153826 
Si 4.09638114 4.01574564 1.2582023471846542 
Si 5.44784841 2.7117963 2.689252092718348 
Si 6.79933197 1.274821191 1.158421179371675 
Si 5.42919636 0.00179463672 5.430111101736798 
Si 5.42989683 2.7146470499999995 8.144839895937073 
Si 6.78757059 1.3575597299999997 6.787664673750058 
Si 4.06231875 4.08067758 12.23916973838919 
Si 4.07238597 1.35765747 9.501877536369088 
Si 6.77983284 1.352469105 12.195556322054529 
Si 7.07336235 3.7677140999999996 14.952969855743223 
Si 8.13582873 0.165395628 13.632735334773423 
Si 5.384366279999999 0.1383219738 16.573063811733206 
Si 6.4474842599999995 2.22171165 17.067910989025634 
Si 5.45408748 2.69651628 13.554176152669031 
Si 5.2131258 0.23670999 20.83761668055776 
Si 7.12767321 0.9864604979999999 22.134565489493987 
Si 6.87936474 1.23975045 24.578670971611356 
Si 7.61507001 3.45036861 25.063784239737608 
Si 4.917055049999999 0.985483098 25.791935678069482 
Si 6.08731236 1.89130158 29.92898465544877 
Si 7.40807298 3.8317338 27.41780806776942 
Si 5.4944541 2.4219320399999997 27.686952375986092 
Si 5.6139901199999995 3.5322421499999996 31.618694979468216 
Si 5.02427583 0.338216238 34.125778509936346 
Si 6.788531699999999 4.0725814499999995 4.0734518111310285 
Si 4.07344482 6.787619459999999 4.069874685501056 
Si 6.69447324 6.72586407 1.2615249465678784 
Si 5.431444379999999 8.14687335 2.698752112901025 
Si 4.07241855 4.07222307 6.7876990691888075 
Si 5.42960361 5.428512179999999 5.430833405950541 
Si 6.78757059 6.787423979999999 6.78749269655631 
Si 6.78717963 4.0725814499999995 9.50160237285909 
Si 4.07269548 6.787375109999999 9.502083909001588 
Si 5.43097197 5.42878911 10.862767465941074 
Si 6.797996189999999 6.78483387 12.229607806416764 
Si 4.4400024 6.74019927 15.107818120994526 
Si 6.36652296 5.62107627 16.241010246043274 
Si 4.1440131 6.64130268 21.266493406328195 
Si 7.01279613 4.68518319 20.291004367946982 
Si 5.8215573 6.85501119 19.693761969496595 
Si 5.894145539999999 4.3455204 18.256204606951453 
Si 5.326210979999999 4.7923388099999995 22.11220845430666 
Si 6.58194192 5.289574769999999 24.037458742884287 
Si 5.3264716199999995 6.40345239 25.82326992277049 
Si 6.9883611299999995 5.67919899 28.9993791323597 
Si 7.07476329 7.9738409699999995 26.310515708099224 
Si 4.72499595 5.6836461599999994 28.078957191416812 
Si 7.81765245 7.893759329999999 28.513715537213454 
Si 4.96328607 5.719777379999999 34.29772130824627 
Si 6.94827144 5.40407718 31.35918139410147 
Si 8.13191913 10.84988934 2.6890594782613495 
Si 6.78827106 9.503439389999999 4.071904016387291 
Si 6.77536938 12.08113641 1.094762101333667 
Si 4.07269548 9.502347959999998 6.787664673750058 
Si 5.4299457 8.14506516 8.14532143207957 
Si 5.43032037 10.85886513 5.4296983564718 
Si 8.1458145 8.144136629999998 10.862182743482329 
Si 6.788499119999999 9.50282037 9.501911931807838 
Si 5.432324039999999 10.85782257 10.862698675063575 
Si 6.7996089 12.22015527 12.254991640214067 
Si 7.29029628 9.011774609999998 15.00404708228658 
Si 6.69077541 10.938914189999998 16.181127787179985 
Si 5.482318049999999 8.169206939999999 13.602604930428656 
Si 4.68153423 11.77788177 15.020144147621455 
Si 6.180100199999999 10.761874469999999 19.608254908764756 
Si 7.24083984 8.664471809999998 19.832134819586777 
Si 7.8177338999999995 11.76792858 18.11528649439379 
Si 4.41669141 10.6531713 17.779690198512636 
Si 7.81157628 12.198245219999999 22.262963662346746 
Si 7.572064409999999 8.462964509999999 22.146328729546397 
Si 5.701532579999999 9.44156997 23.186343611022114 
Si 5.68063251 11.386579679999999 21.863116686881085 
Si 6.2747451 9.976891949999999 25.43996715334345 
Si 8.11126341 11.407316849999999 25.723832709345007 
Si 4.28099571 9.23949252 29.80051769171851 
Si 6.603526169999999 9.29966778 29.919285141721346 
Si 6.986829869999999 11.61423243 29.534503368428066 
Si 4.579233029999999 11.354015969999999 26.230236754057344 
Si 5.419797029999999 10.504248119999998 33.98413809316494 
Si 7.56450585 9.30031938 32.233238283609715 
Si 7.957436939999999 11.812302540000001 31.634482485854342 
Si 4.07398239 12.21686469 4.068464472512317 
Si 5.43497931 13.562646749999999 2.6732478950680965 
Si 6.78851541 14.93069724 4.066538327942332 
Si 4.07259774 14.932945259999999 6.78749269655631 
Si 5.4298316699999996 13.57525521 8.144908686814572 
Si 6.787489139999999 12.21715791 6.78749269655631 
Si 6.78730995 14.932033019999999 9.503390935674076 
Si 4.07360772 14.927341499999999 12.248387715974118 
Si 5.42968506 16.2908145 10.860084621718595 
Si 5.51512611 13.635479339999998 13.729248935905177 
Si 6.88241097 15.171088769999999 15.135368867433064 
Si 7.69220316 14.061413969999998 18.743759951228935 
Si 5.46277005 15.110603999999999 18.887464094325328 
Si 7.501300649999999 13.18116753 24.359812794846796 
Si 4.117297499999999 12.84960087 22.887240875654424 
Si 5.18041548 13.320723959999999 24.993307985739403 
Si 4.92352218 12.73609215 29.58619971286892 
Si 4.2580431 15.05075454 26.317773145675417 
Si 7.68474234 14.715261989999998 27.86412328098597 
Si 5.351281289999999 14.70623733 28.378885417314493 
Si 4.82198661 16.22345535 30.118813081908552 
Si 7.75174311 14.23993608 32.033847925177504 
Si 5.508577529999999 15.11567019 32.19024398517255 
Si 12.190996169999998 1.2530854439999999 1.3456011570477289 
Si 8.15462739 -0.00873220563 2.6794184367797986 
Si 9.50050719 1.361694132 4.068705240583565 
Si 10.852397999999999 2.7192571199999995 2.6890422805419747 
Si 8.14441356 0.000300465792 8.144908686814572 
Si 8.14379454 2.71492398 5.431486919286786 
Si 10.86046155 -0.000451464318 5.429182424890554 
Si 10.85943528 2.7156244499999995 8.144943082253322 
Si 12.217516289999999 1.362295233 12.258396788650291 
Si 9.50205474 1.357778016 9.502290281634085 
Si 8.1456516 2.7150380100000002 10.860428576106091 
Si 8.930324609999998 2.13664527 14.895942218296163 
Si 10.861504109999998 2.90540295 13.695850964879185 
Si 8.68545333 1.352221497 17.11465439028652 
Si 10.88976726 0.37510168499999996 21.446209573795556 
Si 8.400459779999998 2.8996525799999997 21.281868167449325 
Si 12.04386489 4.06306809 17.533969184084533 
Si 11.441428109999999 1.5455512169999999 19.465135488127114 
Si 9.349466309999999 2.46006693 19.087439175216282 
Si 11.79324324 3.97849041 22.397965759439455 
Si 10.964196269999999 1.98920448 23.156763533697344 
Si 9.865745279999999 2.88679977 25.00775407001429 
Si 9.987757379999998 1.234011483 26.69010377014129 
Si 11.28528846 3.96537696 28.228164604713157 
Si 9.27743193 2.7293080499999998 28.316354509667477 
Si 8.19590625 2.6390451600000002 34.18707118178837 
Si 9.41229684 2.32114581 32.238603972054676 
Si 11.65487598 1.3959487439999998 32.33356977844269 
Si 8.42916276 1.6037586449999999 30.178076422874344 
Si 10.865267099999999 8.15524641 2.6849836187695058 
Si 12.2184774 4.072923540000001 4.066159978116085 
Si 12.170144969999999 6.844846229999999 1.1375121921557116 
Si 9.470403269999998 4.087926629999999 1.1578605337200543 
Si 8.137131929999999 5.417760779999999 2.6886604911718526 
Si 9.50264118 6.787358819999999 4.067742168298572 
Si 9.502185059999999 4.0725 6.78749269655631 
Si 8.145228059999999 5.43012489 8.14504626856957 
Si 10.859484149999998 5.4288542699999995 5.42966396103305 
Si 10.85635647 5.430434399999999 10.85936231750485 
Si 12.234718529999999 6.7991039099999995 12.245636080874139 
Si 9.50353713 6.7879615499999995 9.500914464084097 
Si 9.508603319999999 4.07339595 12.195521926615777 
Si 8.287553789999999 5.434832699999999 13.599715713573678 
Si 9.99963279 6.42441762 14.993315705396663 
Si 8.21981997 7.25059755 16.329819268895086 
Si 11.79192375 4.68260937 15.140253019735527 
Si 9.69355998 4.46331339 17.856185654292045 
Si 9.16056747 5.8024817099999995 19.77221796528474 
Si 9.0029943 7.80644493 18.514789515471954 
Si 10.23052725 5.75032113 21.92960306998432 
Si 8.43657471 6.59420829 23.282719630398866 
Si 11.77372782 7.55958627 22.14082545934644 
Si 9.17356689 7.822637189999999 25.160538608940612 
Si 11.597095349999998 5.84262027 29.574470868255258 
Si 11.13867846 6.82362036 25.938150688194604 
Si 11.40619284 4.47735537 25.89918065609115 
Si 11.71242855 7.6479921 28.09357525288545 
Si 10.64971782 6.35482674 31.737875174736043 
Si 9.0624528 4.6861117199999995 32.09802981388451 
Si 8.36462178 7.84930392 34.2415191613292 
Si 10.13409045 6.0363409500000005 34.18793106775711 
Si 9.420930539999999 9.452467979999998 1.2448465983181323 
Si 10.25791074 11.28005937 -0.0006703223871619461 
Si 12.114579779999998 12.10726557 1.3235124062826495 
Si 9.5030973 12.22035075 4.069874685501056 
Si 12.216652919999998 9.50158233 4.071388084806045 
Si 8.14384341 8.1459774 5.430558242440544 
Si 9.50236425 9.502608599999999 6.78752709199506 
Si 10.85984253 8.14526064 8.144736709620824 
Si 8.14558644 10.859809949999999 8.145355827518319 
Si 10.860168329999999 10.860510419999999 5.430627033318043 
Si 9.51142149 9.49570164 12.240683137694178 
Si 10.8597285 10.85914206 10.862629884186076 
Si 12.04849125 9.901241189999999 15.027986307656393 
Si 10.99410471 8.215780050000001 13.722473034471479 
Si 8.29050228 10.82530773 13.839314339904329 
Si 10.271301119999999 11.489499899999998 15.279176196845702 
Si 10.13995485 11.29719645 17.722903329136823 
Si 10.93264254 9.597269789999999 21.34873290037881 
Si 10.922819669999999 9.25148196 18.997495102885726 
Si 9.8093493 10.13545881 24.772661246159856 
Si 9.04174821 10.21943376 22.557079059095724 
Si 11.628306989999999 11.667663629999998 24.405558728383944 
Si 10.43664462 11.321989829999998 28.73057877853053 
Si 9.95968971 8.94896037 28.99428860742474 
Si 10.20970863 11.88511884 30.993454693875545 
Si 9.842483159999999 8.5283037 31.36303368324144 
Si 11.085898859999999 10.26211356 32.378662198643596 
Si 9.606701699999999 14.957901539999998 1.1579809177556786 
Si 10.85857191 13.57701453 2.698053885494405 
Si 8.14421808 13.57352847 5.431177360338038 
Si 9.50269005 14.9323914 6.787423905678811 
Si 10.86062445 13.574457 8.14514945488582 
Si 12.22706223 12.20981112 12.206769235086941 
Si 9.503732609999998 12.218607719999998 9.501911931807838 
Si 8.14789962 13.570140149999999 10.864177678929813 
Si 9.51005313 14.93234253 12.260426119536527 
Si 10.859321249999999 16.28780085 10.865759869112301 
Si 11.13426387 14.906311109999999 16.936245249491652 
Si 8.675483849999999 15.2660106 16.860506493364735 
Si 10.99426761 13.378569749999999 13.77939748560229 
Si 11.24956449 13.1453784 20.796514131251826 
Si 8.86395915 13.721327639999998 20.835759326865272 
Si 11.57468031 13.021004249999999 18.453737611691178 
Si 8.894046779999998 15.680737709999999 22.097899951786772 
Si 9.141214949999998 14.84289414 24.3143076293809 
Si 11.13302583 13.9013973 25.155964015586896 
Si 8.66567727 15.582932549999999 29.852970735811855 
Si 10.95596982 15.17416758 29.578323157395225 
Si 8.27577612 16.149857129999997 25.992151527031684 
Si 11.75349564 14.16470886 27.525740954566086 
Si 8.44493148 12.38129595 27.833717713131207 
Si 8.50194648 13.22148528 34.25538052314534 
Si 11.33868708 13.882126229999999 31.520736769908968 
Si 11.465602469999999 15.87633174 34.096060850856574 
Si 14.941383479999999 4.04619165 1.323192528702277 
Si 16.297167599999998 2.71194291 2.7044651952773555 
Si 13.59363033 -0.009013175549999999 2.7140133690742814 
Si 13.26877515 2.9620921499999997 0.13654473252063254 
Si 14.934965219999999 1.3535328420000001 4.072316761652288 
Si 13.57551585 -0.000608758929 8.144736709620824 
Si 13.575304079999999 2.7152171999999997 5.4297671473493 
Si 12.21738597 1.357204608 6.787286323923811 
Si 14.933352509999999 1.357789419 9.502324677072835 
Si 13.574310389999999 2.71480995 10.866241405254797 
Si 15.51576888 0.7691893649999999 15.115660281029466 
Si 12.293606879999999 0.5946485309999999 17.477182314708724 
Si 14.783663699999998 1.566518076 21.13775127908794 
Si 12.93196311 3.0089747699999996 20.612326556747 
Si 15.8848677 1.83817989 19.10573754863114 
Si 14.737123169999998 0.46010127599999995 17.406155733690518 
Si 16.24484412 2.36656233 22.819722629388696 
Si 12.7975869 1.119396672 24.40191281187647 
Si 14.71610907 2.48345937 24.556485913617774 
Si 12.32217954 0.970483266 26.677790203068888 
Si 12.88714932 2.29133511 28.525581963582113 
Si 15.22702863 2.15208819 28.38837855840942 
Si 15.619422149999998 2.86814772 32.37560100459486 
Si 13.272652169999999 3.3062672699999998 32.23519882361845 
Si 15.80209821 0.48894272099999997 32.4099964433446 
Si 12.37481253 0.658806696 30.197165891380447 
Si 16.283141909999998 8.14996845 2.687281234077988 
Si 13.56618168 5.4390681 2.684966421050131 
Si 14.929263719999998 6.7891832999999995 4.071560061999793 
Si 16.2909774 5.430141180000001 5.429320006645553 
Si 14.93263575 4.07271177 6.787595882872559 
Si 13.57507602 5.430206339999999 8.144805500498324 
Si 12.21725565 6.7877171999999995 6.787423905678811 
Si 13.575157469999999 8.14491855 5.4304894515630435 
Si 14.93367831 4.06723833 12.263280940952754 
Si 13.57162254 8.14415292 10.860359785228592 
Si 16.292280599999998 5.42859363 10.86331779296107 
Si 12.2179887 4.07372175 9.502221490756586 
Si 14.932782360000001 6.78898782 9.502290281634085 
Si 13.627497239999999 5.5428028199999995 13.77812485436855 
Si 16.14602898 5.35071114 16.795877463953985 
Si 16.2939096 8.090949779999999 13.662177830343195 
Si 14.95189053 6.993720539999999 15.280758387028191 
Si 16.156959569999998 7.56981639 17.60272566614525 
Si 13.44770451 7.0131708 20.483515638629246 
Si 13.577991929999998 4.8780405 19.334054471051875 
Si 15.808874849999999 4.22339427 18.913501441458877 
Si 15.333418619999998 6.796741859999999 21.85211014648117 
Si 14.36817096 6.13298952 23.962958222552363 
Si 12.70380537 7.727861969999999 24.389702431120316 
Si 13.16763054 4.22601696 24.31121203989342 
Si 15.96667608 6.33496923 25.606819426718413 
Si 15.66448029 5.5604774699999995 29.98831678729206 
Si 15.634115729999998 6.809659829999999 27.954514494020273 
Si 13.478997599999998 5.325298739999999 30.886106529537624 
Si 15.420570119999999 6.72335541 32.67800570208253 
Si 13.814213220000001 8.07553944 34.006667105546015 
Si 14.976064889999998 9.49806369 1.1480199986937554 
Si 13.5863487 10.838567789999999 2.690507526232713 
Si 14.932163339999999 9.50262489 6.787595882872559 
Si 13.57450587 10.860217200000001 8.144908686814572 
Si 12.21865659 9.503292779999999 9.501258418471593 
Si 14.93457426 9.50011623 12.241302255591675 
Si 14.23495134 8.93513016 16.5998234630805 
Si 13.590535229999999 10.932740279999999 13.628607882123456 
Si 15.96574755 10.57489785 16.31877833305642 
Si 14.693579999999999 10.78231842 19.546515096208985 
Si 13.34519154 8.849721689999999 18.907723007748917 
Si 12.299992559999998 11.347874639999999 22.11124538202167 
Si 16.0937055 8.925242129999999 22.54483428290082 
Si 14.705748629999999 10.8388773 21.90769317550074 
Si 16.19496414 8.60462235 24.92386359490369 
Si 14.072996159999999 9.19446696 25.74285338697361 
Si 14.470602479999998 9.99020088 29.88454574858411 
Si 13.466112209999999 11.414517029999999 25.823992226984235 
Si 13.92039144 8.49834639 28.01928110518602 
Si 12.62535273 12.060627299999998 27.943783117130355 
Si 13.414293719999998 9.848477879999999 32.23230960676347 
Si 14.31902403 11.96537967 33.07778388667069 
Si 12.216913559999998 14.93107191 4.073073461304781 
Si 14.934232169999998 12.21894981 4.071319293928545 
Si 14.855062769999998 14.81023269 1.3240661728465202 
Si 13.5742941 13.575010859999999 5.4304894515630435 
Si 12.21746742 12.21777693 6.787630278311308 
Si 14.93257059 14.932179629999998 6.787664673750058 
Si 12.21872175 14.932538009999998 9.502049513562836 
Si 14.931479159999999 12.21784209 9.501980722685337 
Si 13.57450587 13.575792779999999 10.859018363117354 
Si 14.93159319 14.92737408 12.231912300812995 
Si 12.65809563 14.378091569999999 15.04394579123627 
Si 14.708697119999998 12.433326209999999 15.25496180796589 
Si 13.63099959 16.227397529999998 13.727116418702694 
Si 16.25852772 13.666544369999999 13.801169798330871 
Si 13.88792547 12.653892809999999 18.317875628629725 
Si 14.55474033 15.46869078 20.929968433600795 
Si 15.17416758 14.62081257 18.76924697134249 
Si 12.433766039999998 14.94192105 21.72044440694719 
Si 16.17447132 12.331318229999999 23.038340038082005 
Si 12.832659269999999 15.08993199 24.012934795055724 
Si 14.818328819999998 14.85542115 25.215777683572686 
Si 15.405306389999998 12.631168259999999 25.26406887957731 
Si 14.466888359999999 12.34708695 29.47059664323106 
Si 13.701714479999998 15.39841572 27.18464138848497 
Si 15.31527156 16.12835433 28.728411865889292 
Si 13.1598765 13.73892084 34.37982322054188 
Si 14.343866279999999 15.770169809999999 30.80249121793702 
Si 13.68891054 13.516611209999999 31.33476063258916 
