&CONTROL
  dt          = 30.D0,
  prefix = 'x.66_y2.00_z3.15_struc20-scf',
  pseudo_dir = './',
  outdir='./',
  wf_collect= .true.,
  verbosity= 'high',
/

&SYSTEM
ibrav= 6, celldm(1) =30.783621515, celldm(3) =2.1062332589269452, nat=  432, ntyp= 1,
  ecutwfc     = 12.D0, nbnd= 1728,
  degauss     = 0.05D0,
  occupations = "smearing",
  smearing    = "methfessel-paxton",
/
&ELECTRONS
  electron_maxstep=200,
  conv_thr    = 1.D-8,
  mixing_beta = 0.3D0,
  scf_must_converge=.false.,
/
&IONS
/
ATOMIC_SPECIES
Si  28.08  Si.pbe-hgh.UPF
K_POINTS {automatic}
1 1 1 0 0 0
ATOMIC_POSITIONS (angstrom)
Si 2.7316701 -0.016864222499999998 2.683598869512158 
Si 4.02799572 4.0591422 1.3733857176848379 
Si 1.375856658 1.407628674 1.3411509655540872 
Si 4.07556252 1.356108291 4.071185719615216 
Si -0.00265683384 -0.00038788118999999997 5.429299816040451 
Si -0.00017747955 2.71559187 8.144567313776859 
Si 2.71546155 -0.00026368297199999997 8.144738866475798 
Si 2.71388142 2.71498914 5.429951716296421 
Si 1.356948855 1.357800822 6.788031502181868 
Si 0.00233538327 -0.00261099378 10.86127585418436 
Si 2.7157547699999998 2.7124967699999996 10.856540999693625 
Si 1.371376908 1.3610653379999997 12.219870298166624 
Si 1.009284417 0.09919485989999999 16.169253601534724 
Si 0.10579426469999999 2.80679958 13.51317178493248 
Si 1.344604293 4.051974599999999 15.044897212684589 
Si 2.93609331 2.11177044 20.744735634952786 
Si 0.7955824229999999 3.0100499099999998 20.618575780152607 
Si 3.15385803 0.493956783 17.428519032830962 
Si 0.468995616 3.81697506 24.66869482833804 
Si 0.43040134799999996 1.501631748 24.703039678665746 
Si 2.68337025 0.048770630999999995 21.8467215518612 
Si 2.1804002099999997 0.010767315329999999 24.14641979168632 
Si 4.020991019999999 0.1219503609 25.697496363878816 
Si 0.1090838673 2.8140974999999995 28.41718992124787 
Si 3.08899125 0.841420854 27.722161316763973 
Si 2.3756358599999996 3.09438324 27.911315322614776 
Si 0.13924301039999998 0.212496534 34.07592431685014 
Si 2.26417968 3.2868333 34.20064312897923 
Si 1.3710608819999999 1.5899544989999999 31.848140968420495 
Si 3.06551736 3.2048294399999997 31.934637839225847 
Si 1.356212547 4.07492721 4.0723522779680055 
Si 2.71181259 5.43409965 2.716849213620631 
Si 1.493200044 6.66194211 1.1113115216227694 
Si -0.0008085834719999999 5.43072762 5.432730870019243 
Si 2.71445157 5.43001086 8.144498692697283 
Si 1.3578122249999998 6.7858275599999995 6.787722707323777 
Si 1.357064514 4.070040209999999 9.503779347475307 
Si 1.352954547 6.78903669 12.226972579902725 
Si 3.7928984399999996 4.439725469999999 16.06018039554893 
Si 3.98573946 6.70385628 15.103293751403628 
Si 2.6617534199999997 5.444769599999999 13.639880608369268 
Si 3.11777568 7.8076015199999995 17.003548687017787 
Si 2.76328899 4.39698051 18.134286836268473 
Si 1.499976684 7.4128785299999995 20.443763579933155 
Si 3.3297248699999997 6.30186795 19.38782240742013 
Si 0.411776991 4.39483023 18.721820519596815 
Si 1.98338895 6.434468549999999 22.548475022143528 
Si 1.1681021429999998 7.289481779999999 24.576742581706416 
Si 0.584900595 4.542678270000001 22.434015061411024 
Si 2.39536305 4.30606602 25.900271654025428 
Si 3.6317251799999997 4.182392339999999 29.56460299283549 
Si 0.1366077771 7.01321967 28.813613897957495 
Si 2.6927369999999997 6.6023369999999995 26.207556848366035 
Si 2.36613879 7.511612219999999 28.314395544043258 
Si 0.44082206099999993 4.91594733 34.24486941476586 
Si 0.572389875 7.507621169999999 31.195623122733835 
Si 3.0090073499999996 7.81419897 31.71336916813355 
Si 3.3244632 7.44009912 34.096236156404586 
Si 4.0329153 9.27298476 1.2391285754947072 
Si 1.362565647 9.50295069 4.068440876432183 
Si 0.01591379874 10.05373188 0.23272530343288 
Si 2.71117728 10.8453933 2.6883028445170813 
Si 1.199779677 11.99413152 1.2685841739026367 
Si -0.0001277660538 8.145228059999999 8.144773177015587 
Si 2.7146959199999996 8.14317552 5.430843790330908 
Si -0.0001404386964 10.860380099999999 5.428716536864056 
Si 2.71494027 10.86000543 8.14487610863495 
Si 1.355829732 9.5027715 9.501171746451426 
Si 2.71384884 8.14902363 10.863849144668453 
Si 1.098582939 9.117252359999998 17.103495289419996 
Si 0.790139934 9.94742334 14.924570149648353 
Si 2.71461447 10.95316794 13.775407240531552 
Si 2.0818945799999997 9.73351935 20.412506678186357 
Si 1.2847369139999998 11.05673976 18.49760114208276 
Si 1.8710693999999999 9.444811679999999 24.18206844252597 
Si 0.93283056 10.48232178 22.306173990161234 
Si 1.3952433869999998 10.7344584 26.00598242711201 
Si 1.096797555 10.682493299999999 29.787244085519298 
Si 2.43638127 9.871544519999999 27.95331142331519 
Si 2.33922771 11.61405324 31.93834337752294 
Si 4.0306998599999995 14.662498679999999 1.162530295418176 
Si 1.360276902 14.928384059999999 4.069710366404335 
Si 0.00030128843699999997 13.575173759999998 8.145081971873678 
Si 2.71484253 13.574799089999999 5.430191890074936 
Si 1.357794306 12.217532579999999 6.787722707323777 
Si 4.08108483 14.92089066 12.207278330064458 
Si 1.3597702829999998 14.93309187 9.501480541309517 
Si 2.713914 13.57532037 10.859320153416446 
Si 1.367939718 12.21650631 12.224124805100328 
Si 2.7829673099999996 16.25333121 13.560417398220446 
Si 1.7671554899999997 14.552818109999999 14.842979686032681 
Si 2.53522899 14.92613604 19.056176729830096 
Si 2.9494836899999997 14.019646409999998 21.198320970949087 
Si 0.24732781199999998 15.46834869 19.47099115586605 
Si 2.5939870199999997 12.94343127 17.534641532395 
Si 1.127308725 12.894984809999999 22.10755027532897 
Si 0.806848587 14.30120277 23.98248403257964 
Si 1.92544542 12.96123624 25.488991213587628 
Si 0.36187257599999995 15.727832099999999 29.972177894976188 
Si 1.1246974379999999 15.89265432 27.830754175192737 
Si 1.8094117499999998 13.659279029999999 27.696943070019856 
Si 2.7271088999999997 13.090122719999998 34.04017273439113 
Si 2.1767838299999998 15.62874003 31.474636432289202 
Si 1.047552885 14.522632739999999 33.206220754305946 
Si 6.785387729999999 4.07717523 4.0688526029096375 
Si 5.435402849999999 2.6914338 2.696050164401194 
Si 6.78797784 1.249379469 1.277717639594181 
Si 5.429180069999999 -0.00010212135839999999 5.430226200614724 
Si 5.430401819999999 2.71454931 8.144567313776859 
Si 6.787928969999999 1.3570123859999998 6.787619775704413 
Si 4.06274229 4.0674826799999995 12.244265091955837 
Si 4.072516289999999 1.35801585 9.502647099662305 
Si 6.79025844 1.341344664 12.231604502774093 
Si 7.64621649 3.5809166699999997 15.232678796943874 
Si 5.501589119999999 2.79046071 15.826594240672769 
Si 4.41138087 0.568892412 15.23092895941469 
Si 5.18447169 2.38254282 13.547756809038702 
Si 7.88462064 3.6382737599999997 19.25720218244752 
Si 6.38703207 1.8809574299999998 18.669050909402998 
Si 4.05873495 2.3421762 18.680304766453435 
Si 5.949059129999999 1.59861915 22.854250552733472 
Si 8.05053429 0.661761702 22.841624274091515 
Si 4.197151079999999 3.7445497199999997 24.522566239381288 
Si 4.36961331 3.24967581 22.180974830475115 
Si 5.45499972 1.8804198599999997 25.114766156120787 
Si 4.9297938299999995 0.482320836 29.13500072415094 
Si 7.49952504 2.4681956400000002 26.153277574421548 
Si 7.21935333 3.6921284999999995 28.156292576700526 
Si 5.48497332 2.76205095 29.437207958602936 
Si 6.08402178 0.345709638 32.21677340790191 
Si 8.01700947 2.68190415 34.10378447515793 
Si 5.37742674 2.59403589 31.79204323586725 
Si 4.072923540000001 6.7869027 4.072798314985248 
Si 5.20260246 5.65815231 0.05302934098001542 
Si 6.866528219999999 6.92759943 1.2469856891061408 
Si 4.07207646 4.073151599999999 6.787825638943141 
Si 5.42758365 5.42887056 5.431838795984757 
Si 6.78703302 6.787342529999999 6.787619775704413 
Si 6.78522483 4.07142486 9.502612789122518 
Si 4.071538889999999 6.7851108 9.503779347475307 
Si 5.4365757299999995 5.42944071 10.859045669098146 
Si 6.7727304 6.776135009999999 12.23479538297437 
Si 5.434588349999999 8.07666345 13.739381173754236 
Si 8.13631743 5.41429101 13.653055855647828 
Si 4.808596229999999 5.07589884 20.788138467784506 
Si 7.0441218 5.537704049999999 20.3445031883267 
Si 7.06901292 7.404130799999999 18.899549115698242 
Si 4.79292525 7.984673819999999 18.61528629355532 
Si 4.38093486 6.48001539 22.550430722911436 
Si 7.8792449399999995 5.473260809999999 24.22564282805663 
Si 5.53130208 5.66292528 24.444269587585257 
Si 4.87883871 7.48758447 25.76858780231939 
Si 4.12268949 6.542780759999999 29.597918526969554 
Si 7.5191056199999995 6.04547964 27.9583893832038 
Si 5.666851169999999 7.4786901299999995 28.028177021132432 
Si 7.66301148 6.52637673 32.24682944075613 
Si 6.81311331 4.31908173 32.788215448069714 
Si 8.13599163 10.868150429999998 2.6919363306806225 
Si 5.43927987 8.137832399999999 2.715898811668506 
Si 6.78375873 9.50441679 4.071803309331399 
Si 6.685269389999999 12.12994125 1.2400824085008113 
Si 4.07276064 9.502657469999999 6.787310980846321 
Si 5.4302877899999995 8.14519548 8.144979040254313 
Si 5.429277809999999 10.859663339999999 5.43098103249006 
Si 6.7879615499999995 9.50251086 9.502578478582729 
Si 4.07186469 9.502217639999998 12.261797777787462 
Si 5.42895201 10.858490459999999 10.86539311895891 
Si 6.76746873 12.23566335 12.243819054938593 
Si 7.41915018 9.127010069999999 14.846342118931895 
Si 7.9457570099999995 10.90791432 18.754346911315764 
Si 4.431645629999999 9.61390188 20.266583952468338 
Si 5.780587949999999 11.451234689999998 19.655822033703572 
Si 5.138859689999999 11.13165747 25.099566586994737 
Si 5.20382421 8.64269208 22.248189177919652 
Si 7.127999009999999 11.68423056 23.909231030132432 
Si 4.215004919999999 9.227959199999999 24.261531652674794 
Si 7.563300389999999 8.62886187 22.259545966589453 
Si 4.15461789 11.83090572 21.45613036691552 
Si 7.65651177 8.80109604 25.932626493045433 
Si 4.48238898 10.955529989999999 27.393569277215065 
Si 8.10075636 10.26252081 27.72813135068707 
Si 6.0046569 9.76463325 28.674210174799175 
Si 4.131795599999999 10.01872467 32.304882874077286 
Si 7.7558319 8.63229906 33.71113465782498 
Si 5.75491491 10.103693309999999 34.18362510124442 
Si 8.11255032 10.405384109999998 31.517318743785374 
Si 5.8666806 10.87826652 30.76427101652011 
Si 4.07694717 12.217109039999999 4.071734688251823 
Si 5.42271294 13.552840169999998 2.7040410891178004 
Si 6.7860882 14.936626799999999 4.068475186971971 
Si 4.073086439999999 14.931821249999999 6.787654086244201 
Si 5.43038553 13.57546698 8.144807487555374 
Si 6.78711447 12.21748371 6.787482533545261 
Si 4.07175066 12.21846111 9.501995199406334 
Si 6.786397709999999 14.93232624 9.500794330513758 
Si 5.4355983299999995 16.28737731 10.857467384267899 
Si 5.26663845 13.59117054 13.785597470848563 
Si 6.252297479999999 15.283017359999999 15.153318518414416 
Si 7.9920368999999996 16.23153519 13.768785306352482 
Si 4.03271982 12.29100048 15.411471019778725 
Si 6.42570453 14.64521499 17.459947487276697 
Si 6.27687909 15.997024349999998 19.679221821838937 
Si 6.5963097 12.434401349999998 21.722277224050416 
Si 4.9187655 13.868442629999999 22.50898359084763 
Si 4.1052429 13.15329534 24.609234662885576 
Si 5.023168109999999 16.064041409999998 21.77511545532381 
Si 7.34954301 13.60527768 25.266487363062968 
Si 7.52192379 13.826886839999998 28.9854410812154 
Si 5.256717839999999 14.439716639999999 26.3087729407404 
Si 6.6127788899999995 15.6815685 27.902428892809702 
Si 4.14977976 13.18103721 28.072128822600757 
Si 7.79217489 13.804374059999999 34.22479774898992 
Si 5.49088659 13.182470729999999 30.02693751647771 
Si 4.52757744 15.23861082 30.90707148311743 
Si 5.96769489 15.57565092 34.307417528799235 
Si 9.50501952 1.354884912 4.074307978735916 
Si 10.87307001 2.7021037499999996 2.690416373768018 
Si 9.338714909999998 3.86392284 1.3499378947937737 
Si 8.14436469 5.51566368e-06 8.145356456191982 
Si 8.146238039999998 2.71500543 5.429162573881299 
Si 10.85899545 0.000974818035 5.431083964109422 
Si 10.860363809999999 2.7151357499999995 8.145425077271558 
Si 9.501549749999999 1.356460155 9.503573484236579 
Si 8.14281714 2.7198272699999997 10.862682586315664 
Si 10.86438744 -0.001394135667 10.864603976543789 
Si 9.10687563 1.5319718729999998 15.191437528118795 
Si 10.7614998 2.5883181 13.666917313722148 
Si 11.13268374 3.90624426 17.08826140975416 
Si 9.93452166 0.1481187798 17.306099026867663 
Si 10.08686574 0.7295769719999999 19.715350820235614 
Si 12.04349022 0.0949042368 20.844030337099028 
Si 9.789833879999998 2.9840999399999997 20.450797240589676 
Si 9.036567989999998 3.48114042 24.664131526546246 
Si 9.66721905 2.28406977 22.740785597654817 
Si 11.49523398 0.8145211769999999 23.022166334455548 
Si 10.46881737 3.1500461699999995 28.440452467224077 
Si 10.85396184 3.9588446699999995 26.124593963158844 
Si 8.35784514 0.434165967 26.809398026785942 
Si 10.08746847 0.8263835549999999 28.380477643674794 
Si 9.94809123 0.0656874702 30.654065562721307 
Si 9.45248427 1.191217653 32.77154052573279 
Si 10.304190629999999 3.26650338 32.062410289396055 
Si 8.899324739999999 3.9025627199999997 30.15803808900735 
Si 10.82692044 8.16337512 2.703536724182918 
Si 8.14752495 5.43432771 2.6829057966084418 
Si 9.506746259999998 6.78226005 4.070087782342002 
Si 9.50262489 4.07280951 6.787516844085049 
Si 8.14491855 5.42966877 8.145150592953254 
Si 10.8600543 5.43093939 5.432525006780515 
Si 9.50275521 6.78615336 9.502475546963366 
Si 9.51158439 4.07877165 12.236305046725038 
Si 10.863377459999999 5.4281212199999995 10.85534013080105 
Si 8.143419869999999 8.144185499999999 10.862133617679056 
Si 12.212710739999999 6.76105047 12.229237075528728 
Si 8.90817021 7.220982329999999 14.994014682179102 
Si 10.727828370000001 8.013050999999999 13.565358115949905 
Si 8.66784384 6.660345689999999 17.283659933846366 
Si 11.45503026 4.71688353 20.442631332120154 
Si 12.18718431 5.49012096 18.3611481253462 
Si 8.77043826 4.3373754 17.163401491889708 
Si 10.82897298 7.33507749 18.028370199943165 
Si 8.33893245 6.400406159999999 22.14772791742062 
Si 11.73116205 7.408154429999999 23.737781262812195 
Si 10.653155009999999 6.64659693 21.694931723839442 
Si 11.01316401 6.295058729999999 25.83981648291911 
Si 10.4620896 7.5919545 29.677999326834563 
Si 8.707509989999998 6.736517729999999 26.031852574112097 
Si 11.90048031 6.84442269 27.95211055442261 
Si 8.618566589999999 6.24812724 30.042171396143544 
Si 9.37821816 9.49871529 1.1899238303848512 
Si 11.159285309999998 10.66488381 0.06669282723975878 
Si 8.14457646 8.14519548 5.4277558417499945 
Si 9.502608599999999 9.503292779999999 6.787928570562505 
Si 10.86033123 8.14529322 8.144979040254313 
Si 8.14506516 10.859663339999999 8.144841798095163 
Si 10.86065703 10.85964705 5.433039664877334 
Si 9.498633839999998 9.5203647 12.22656085342527 
Si 10.86292134 10.85617728 10.859011358558357 
Si 9.50285295 12.21606648 9.503196068298912 
Si 9.232504109999999 10.38016719 16.578475409585245 
Si 11.59769808 9.231103169999999 16.84328415566841 
Si 8.17173189 10.933261559999998 13.613358561113204 
Si 11.821685579999999 10.45466136 20.439749246777968 
Si 8.29092582 9.038848589999999 20.078116157413294 
Si 10.55316699 8.44416585 20.10010921341735 
Si 8.53320699 9.79897257 24.049183721927356 
Si 10.89960642 9.63527436 24.274535347254414 
Si 11.60796078 11.182710329999999 22.688496335018026 
Si 11.91626532 10.58994981 26.259022658047915 
Si 9.6211998 9.811809089999999 29.541580620637795 
Si 11.49547833 11.05509447 30.41962164435045 
Si 11.040791849999998 12.1380048 32.54039041918157 
Si 9.504058409999999 12.21468183 4.071014166916276 
Si 9.492655410000001 14.914863359999998 1.379307716852233 
Si 10.87121295 13.563054 2.7112085608794967 
Si 8.15241195 16.2913032 2.7209218746934574 
Si 8.14493484 13.57448958 5.429883095216845 
Si 9.50296698 14.93252172 6.787482533545261 
Si 10.86007059 13.57499457 8.145081971873678 
Si 12.20204079 12.22041591 12.235207109451824 
Si 8.14317552 13.57791048 10.862854139014603 
Si 9.484363799999999 14.92950807 12.25095564721448 
Si 12.199923089999999 13.08699504 17.067880949120134 
Si 12.15186759 15.64962381 16.93286897505467 
Si 10.05138612 12.607417439999999 15.876619007683557 
Si 10.76984028 13.514232869999999 13.71241308948093 
Si 8.33865552 15.832804859999998 20.826360409108247 
Si 8.61824079 13.58330247 21.37282437631045 
Si 12.147371549999999 14.04740457 21.015411483339687 
Si 9.19158363 12.80538981 19.26708361790644 
Si 11.510644319999999 12.525820829999999 19.320059091338987 
Si 8.822159009999998 14.24534436 17.385939652954153 
Si 8.5649562 15.581059199999999 24.741364551608854 
Si 10.58950998 13.35115368 22.631129112492626 
Si 10.80183384 15.123636 24.17850014638803 
Si 12.10814523 16.07731776 27.68397368598002 
Si 11.30271876 13.07546172 29.310361893007 
Si 11.869480439999998 14.401223369999999 26.103767465507577 
Si 10.75066695 12.56693679 27.071187445367766 
Si 8.36525709 12.55406769 27.154390504353472 
Si 9.381166649999999 14.05716228 30.379752797116886 
Si 8.792103959999999 12.631103099999999 32.27098406076682 
Si 10.80147546 16.237969739999997 34.27365595764792 
Si 11.92022379 14.451298829999999 33.01198878856653 
Si 16.27885764 2.71415835 2.711222285095412 
Si 12.34858563 1.322583471 1.2109321738969947 
Si 14.93094159 1.359698607 4.076126437344676 
Si 14.93046918 4.00738887 1.250581433675915 
Si 13.574652480000001 0.000301029426 8.145150592953254 
Si 13.576623569999999 2.713914 5.429402747659815 
Si 12.21728823 1.357528779 6.787688396783989 
Si 14.93268462 1.3570189019999999 9.50340193153764 
Si 13.572078659999999 2.7159828299999997 10.861550338502663 
Si 12.21557778 1.3540541219999997 12.233354340303276 
Si 14.9296221 4.08004227 12.225737400470358 
Si 14.25287034 2.7328592699999996 16.150417115191157 
Si 13.714746479999999 0.06270297929999999 13.587110998175447 
Si 15.47781318 1.144253583 14.827917359065783 
Si 12.368068469999999 3.7975410899999997 15.055053132461813 
Si 13.35376008 3.59978049 21.309727293640464 
Si 15.859536749999998 0.9886221809999999 20.876659660437337 
Si 13.74020775 1.510138386 20.009392146218087 
Si 13.746560849999998 0.9775107719999999 17.690891730589186 
Si 15.126698519999998 0.7897440869999999 23.165344216990537 
Si 13.284104039999999 2.28069774 23.339916243431478 
Si 13.07114487 3.2457662099999998 25.497774711773335 
Si 12.757350599999999 2.9416970699999996 28.967119252968647 
Si 15.85284156 1.094349168 26.85225189098105 
Si 13.53741354 1.580222853 27.136274539345454 
Si 13.8487806 2.50462008 34.07564983253184 
Si 15.834124349999998 1.6094438549999999 30.371003609470968 
Si 13.50856395 1.79242128 30.889676039444954 
Si 12.64633425 3.56850369 32.24652064589804 
Si 12.54828474 7.339361759999999 1.3600492108692734 
Si 12.213069119999998 4.075171559999999 4.067137075920241 
Si 13.577829029999998 5.44547007 2.676812244742107 
Si 14.9431428 6.776509679999999 4.073999183877826 
Si 14.933564279999999 4.07259774 6.7884432286593235 
Si 13.57489683 5.4297828 8.145047661333889 
Si 12.21725565 6.78766833 6.788065812721656 
Si 13.574717639999998 8.14798107 10.861824822820967 
Si 16.28814294 5.43066246 10.862202238758632 
Si 12.21666921 4.07421045 9.50093157267291 
Si 14.93172351 6.787375109999999 9.502647099662305 
Si 16.20944595 8.115189299999999 13.639846297829479 
Si 15.869783159999999 4.39140933 16.566638273358414 
Si 13.576998239999998 5.390654219999999 13.701845443226249 
Si 14.470439579999999 7.20219996 15.01254237366458 
Si 15.27428592 7.583157899999999 17.457957475968996 
Si 15.76803582 6.33255831 19.69960228247296 
Si 14.115920309999998 7.46311689 23.152580696189435 
Si 14.817791249999999 5.51867733 21.756759316537277 
Si 15.2054118 7.10672427 25.226549894749827 
Si 13.31293734 5.2300674 29.09231841265477 
Si 14.91491223 4.8103229700000005 25.826160888083518 
Si 15.441111809999999 4.950531 28.131348814274705 
Si 12.276925919999998 7.760246489999999 31.42286182774923 
Si 13.545037259999999 5.625490859999999 31.463931543875372 
Si 15.76287189 5.7756194999999995 32.28000773273104 
Si 14.513135669999999 9.11951667 1.534954049546153 
Si 13.568820659999998 10.87349355 2.732124265934213 
Si 14.935551659999998 12.215154239999999 4.0704995088194575 
Si 16.3075932 8.11737216 2.7003012402809174 
Si 12.207351329999998 9.511535519999999 4.079729044022407 
Si 13.57541811 8.145032579999999 5.4276872206704185 
Si 14.931902699999998 9.50304843 6.787379601925897 
Si 13.574978279999998 10.85933754 8.145013350794102 
Si 12.21689727 9.502168769999999 9.501377609690152 
Si 14.938467569999998 9.49242735 12.207175398445095 
Si 16.2939096 10.85562342 10.859045669098146 
Si 12.63038634 8.88813351 14.707144259012304 
Si 13.584442769999999 10.819427039999999 13.556574617764198 
Si 14.30195211 11.826963539999998 17.004063345114606 
Si 15.33824046 11.69532405 14.857561665442544 
Si 13.77997164 9.47804328 17.711066327984483 
Si 14.084415449999998 10.046808630000001 19.963278780743124 
Si 15.409330019999999 11.829732839999998 19.131762848982884 
Si 13.89825333 11.39229747 23.164074727018388 
Si 14.973816869999999 9.54344763 22.10089403061011 
Si 13.93062156 11.69661096 25.515924987321146 
Si 13.243672259999999 9.505752569999999 29.97080547338467 
Si 15.576155909999999 10.8123246 26.916172426605947 
Si 15.16548501 8.46329031 27.242843075926736 
Si 12.91668309 8.91849807 27.711765223208236 
Si 15.5181798 9.50075154 30.754320959981612 
Si 16.23850731 11.02562586 32.455025796189226 
Si 12.328353449999998 8.703307169999999 33.74376398116329 
Si 12.353114249999999 12.28375143 1.3314959796577666 
Si 12.21719049 14.93213076 4.071322961774368 
Si 15.10491879 15.11770644 1.3503839318110165 
Si 13.58326989 16.28944614 2.7138607656051033 
Si 16.2976563 13.569912089999999 2.7016050407928582 
Si 13.57401717 13.573919429999998 5.4295399898189665 
Si 12.21657147 12.217581449999999 6.788134433801232 
Si 14.932847519999997 14.932733489999999 6.787791328403353 
Si 12.216473729999999 14.930925299999998 9.50240692588379 
Si 14.932863809999999 12.21609906 9.502578478582729 
Si 13.57540182 13.57564617 10.864535355464213 
Si 14.932733489999999 14.9286447 12.217537181461045 
Si 12.460253579999998 14.774199209999999 14.774804643474083 
Si 16.27473627 13.52462589 13.599497103038885 
Si 15.77852658 13.58615322 20.606223985828954 
Si 15.46469973 15.60290409 17.40004128480699 
Si 14.09860404 13.52825856 22.180837588315963 
Si 14.793633179999999 14.86661238 23.98279282743773 
Si 14.17547655 13.997540879999999 26.105688855735703 
Si 12.96161091 14.726436929999998 29.480542170355083 
Si 16.28573202 12.398872859999999 28.64960951777124 
Si 13.82107131 13.70440233 34.193163431305464 
Si 15.124075829999999 13.95539865 30.082211796076045 
Si 12.25815984 16.04314134 31.29930957397293 
Si 15.347069639999999 13.191609419999999 32.34780535935198 
