&CONTROL
  dt          = 30.D0,
  prefix = 'x.66_y.66_z3.15_struc30-scf',
  pseudo_dir = './',
  outdir='./',
  wf_collect= .true.,
  verbosity= 'high',
/

&SYSTEM
ibrav= 6, celldm(1) =30.783621515, celldm(3) =2.1043587689124634, nat=  432, ntyp= 1,
  ecutwfc     = 12.D0, nbnd= 1728,
  degauss     = 0.05D0,
  occupations = "smearing",
  smearing    = "methfessel-paxton",
/
&ELECTRONS
  electron_maxstep=200,
  conv_thr    = 1.D-8,
  mixing_beta = 0.3D0,
  scf_must_converge=.false.,
/
ATOMIC_SPECIES
Si  28.08  Si.pbe-hgh.UPF
K_POINTS {automatic}
1 1 1 0 0 0
ATOMIC_POSITIONS (angstrom)
Si 2.72039742 -0.0154867401 2.7309542541957317 
Si 1.4340803759999998 1.359960876 1.4060080902358671 
Si 3.9838986899999997 3.9441999599999997 1.2626182600587235 
Si 0.000354781539 -0.000639533997 5.4308439684534955 
Si -0.000253817748 2.71502172 8.14588887263244 
Si 2.71490769 -4.30961724e-07 8.14434627243689 
Si 2.7160317 2.71321353 5.429918408336165 
Si 1.3572632519999999 1.357797564 6.78764654045171 
Si 2.7142886699999997 2.7157384799999997 10.862270696980865 
Si 1.366313976 1.360260612 12.243857712120937 
Si 4.071995009999999 1.356587217 9.502314364582856 
Si -0.0028530306 2.52265311 13.88223623981378 
Si 4.01535468 2.07702387 17.08621684597379 
Si 1.95509322 3.2093580599999996 19.61399008641281 
Si 1.0407176009999999 1.0566785429999999 19.56462688015517 
Si 1.8664104599999998 3.1136054399999997 17.23146122438603 
Si 0.637367427 0.0852685389 21.655707145235798 
Si 2.43563193 0.38143035 25.207424115477412 
Si 3.35702691 3.30079383 29.608016833328723 
Si 0.686569743 1.549074744 26.363894342080034 
Si 0.7521060419999999 3.90723795 26.755680511745712 
Si 0.7390202849999999 0.82385046 28.6735439148681 
Si 3.22087509 1.96607268 34.24113082065613 
Si 1.2274107749999998 2.55181221 30.250218434738898 
Si 2.11913352 1.39395159 32.133321913454864 
Si 1.354466259 4.07463399 4.069207915842552 
Si 2.7043843499999998 5.43554946 2.6730758948586475 
Si 1.3983547769999998 6.82060671 1.0588544862281377 
Si 2.7150868799999994 5.430255209999999 8.145374672567257 
Si 1.357398459 6.787652039999999 6.787269460403909 
Si 4.06885104 4.06733607 12.239538431573393 
Si 1.3582243619999999 4.07293983 9.50180016451767 
Si -0.00025767522 5.431558409999999 10.864464617258983 
Si 1.364675202 6.784752419999999 12.240189751655961 
Si 2.71445157 8.146107719999998 10.860419576746203 
Si 4.03464204 6.71113791 15.058006108862967 
Si 2.67283062 5.375309039999999 13.66829473269299 
Si 0.0907256889 8.10342792 13.818715391761414 
Si 0.611000433 4.694289299999999 14.648291496924546 
Si 0.379301247 4.6677366000000005 20.68225786183425 
Si 3.6491228999999996 7.075936169999999 20.860033964370448 
Si 1.3218911459999998 6.8158989 20.574584368184766 
Si 1.465950132 6.991798319999999 18.012222603361053 
Si 0.8813020319999999 5.0492484 24.641769763770927 
Si 0.20633076899999997 8.11233855 22.32087634955751 
Si 3.2261530499999997 5.3354148299999995 24.56134887357619 
Si 2.2987470599999997 4.99327596 28.294784146853743 
Si 3.2079408299999996 6.451100639999999 26.69980410466241 
Si 0.21288586499999998 5.33148894 33.939809582458444 
Si 3.4797883499999998 6.67047807 31.78318594906907 
Si 1.75454703 6.55048593 30.139871100750458 
Si 2.8406176199999997 8.13793014 33.77060348100865 
Si -0.001326278043 8.15193954 2.659751257169519 
Si 1.3600455839999999 9.49985559 4.067596755638309 
Si 2.7291940199999996 10.84394349 2.68489221235657 
Si 1.3411687319999999 12.21411168 1.3206611634166665 
Si 0.0001157627673 8.14514661 8.145443232575948 
Si 2.71450044 8.14475565 5.430192648370928 
Si -0.001000741941 10.86020091 5.429849848327473 
Si 2.7150868799999994 10.859907689999998 8.145168992541183 
Si 4.07388465 9.49653243 12.224866589713484 
Si 1.357905078 9.50332536 9.502314364582856 
Si -0.0028385162099999997 10.86293763 10.86206501695479 
Si 0.508642218 11.403374669999998 16.774440206450706 
Si 2.8443968999999996 8.20020681 16.519671214154325 
Si 1.367501517 9.57250899 15.267525495423177 
Si 2.63772567 10.748402639999998 13.631923648082326 
Si 1.8679254299999999 10.71873855 20.582468769184253 
Si 3.7306869299999996 9.360657539999998 20.118454630362425 
Si 1.67097933 9.88016193 22.759180485120144 
Si 3.8557289699999995 9.2004291 23.598697791543497 
Si 0.7637892299999999 11.22350049 24.410688254477346 
Si 0.45221365799999996 9.29026845 25.712060059448753 
Si 1.9635803099999998 8.705734379999999 29.080070486402384 
Si 2.4683259599999996 8.70405651 26.78389295532213 
Si 2.11370895 10.21181004 32.61190505412356 
Si 0.106681581 11.18624526 33.79915872462852 
Si 2.69690724 10.755570239999999 30.160027743305662 
Si 3.9074171399999997 11.71553994 33.06474391152872 
Si 0.202702986 16.08347538 0.26485794037532934 
Si -0.0025326063 13.568885819999998 2.71132552370745 
Si 1.358115219 14.933727179999998 4.072807316298838 
Si 0.000243719577 13.57499457 8.144860472502073 
Si 2.71383255 13.57584165 5.430878248457841 
Si 1.3575173759999999 12.21743484 6.787612260447364 
Si 0.000627697683 16.28600895 10.860659536776621 
Si 1.357330041 14.933140739999999 9.50173160450898 
Si 2.71761183 13.5721764 10.86316197709385 
Si 1.35454608 12.21624567 12.239195631529938 
Si 2.75165793 16.232985 13.611287085466286 
Si 3.66124266 12.446048699999999 14.963427576873501 
Si 1.87877457 13.444365059999999 16.41306040063956 
Si 0.01076905836 13.61997126 13.687080175074371 
Si 1.0809620459999998 15.309961019999998 15.067021750005855 
Si 0.041282118 14.23654776 20.724799347227115 
Si 2.0807379900000003 13.04509716 20.511577720197586 
Si 2.7708801299999997 16.10339805 18.570746714163654 
Si 3.03415911 13.74944418 18.480453182717383 
Si 2.52877815 12.753082619999999 24.613214520151057 
Si 3.03314913 13.715349209999998 22.529093095952586 
Si 2.6375301899999997 16.052019389999998 22.869356419086852 
Si 2.6255896199999995 14.05963836 28.00683211035084 
Si 1.452271419 12.66109299 29.50977034087428 
Si 2.82333393 16.134316469999998 29.019566278732427 
Si 1.7415639 14.533221239999998 25.896726442858416 
Si 2.73307104 13.444169579999999 34.17654729246905 
Si 3.23925021 15.69924315 31.28098388540626 
Si 1.6508285999999999 13.971688649999999 31.802142791472175 
Si 6.788743469999999 4.07337966 4.07263591627711 
Si 8.161860149999999 -0.010704354479999999 2.6846488243257167 
Si 7.578254609999999 3.1744974599999995 0.16585214582463081 
Si 4.07295612 1.358688627 4.075721116668213 
Si 5.4170766 2.7192896999999996 2.716947444420126 
Si 6.71731182 1.32103755 1.351434323317697 
Si 8.143077779999999 2.71555929 5.431015368475222 
Si 5.42911491 0.001111688244 5.4313581685186785 
Si 5.4297828 2.7148914 8.144826192497728 
Si 6.78703302 1.357577649 6.788126460512549 
Si 5.42748591 0.00370230975 10.862270696980865 
Si 6.775255349999999 1.36764324 12.226100669869925 
Si 7.22402856 0.9080990819999999 16.051132114758882 
Si 4.40610291 1.0916287379999998 14.960925136556273 
Si 5.4625257 2.7619694999999997 13.681252574335621 
Si 4.28179392 3.29929515 20.303669493841614 
Si 4.87549926 0.027186218099999996 19.6113505260782 
Si 7.70769495 2.32249788 17.922169031945202 
Si 5.68376019 2.0573455499999995 18.960681763594675 
Si 5.258607479999999 2.47353876 22.30510754755854 
Si 7.67987163 2.13400629 22.360298354554928 
Si 4.6076590799999995 3.3707919599999996 24.477225742912125 
Si 4.78512234 0.171765018 22.0492415951231 
Si 4.266807119999999 1.5763930739999998 26.053660302752498 
Si 8.10984618 1.413348093 26.118655190991724 
Si 4.52586699 1.5342280379999997 28.463133248194907 
Si 6.368722109999999 3.3157154699999998 28.48181585056325 
Si 6.109401599999999 0.189172512 25.789052949208937 
Si 7.90467363 0.379454373 30.67803288897178 
Si 5.09230287 0.30932266499999994 34.16122413052658 
Si 4.07583945 6.78693528 4.067425355616582 
Si 6.77286072 6.670852739999999 1.1847443741868604 
Si 8.14570047 5.42595465 2.696934777883174 
Si 4.07246742 4.07227194 6.787509420434328 
Si 5.43095568 5.4285773399999995 5.430981088470877 
Si 6.7875054299999995 6.78779865 6.7875437004386745 
Si 6.786918989999999 4.0711153499999995 9.50351416473495 
Si 4.07191356 6.787619459999999 9.502691444630656 
Si 5.429456999999999 5.43079278 10.863333377115579 
Si 6.785485469999999 6.801449669999999 12.223563949548351 
Si 7.908664679999999 4.439692889999999 17.05416504191067 
Si 6.80257368 4.21630812 14.970009337707852 
Si 4.56833502 4.55315274 16.20422661416626 
Si 7.104313349999999 5.73903216 21.144797960469212 
Si 7.44964506 7.73035434 19.933136926870198 
Si 5.103200879999999 5.41460052 19.95168240922116 
Si 6.4576166399999995 7.66242504 17.827179139903592 
Si 5.95076958 5.43302451 17.814255578265307 
Si 4.25805939 6.93605394 23.13674045298241 
Si 6.556448069999999 6.357205079999999 23.35476128062032 
Si 6.5723308199999995 4.5704201399999995 24.899692516467102 
Si 6.46822143 5.23563858 27.15202592198936 
Si 5.10383619 6.9473592 27.95164130335445 
Si 5.798230019999999 4.787940509999999 34.24394178101247 
Si 6.49765746 4.55043231 30.47458106318074 
Si 5.41305297 6.7256523 30.32035532362996 
Si 4.590766349999999 4.38261273 31.885374642023255 
Si 4.19260617 9.406562759999998 1.1242161705138627 
Si 5.434800119999999 8.127439379999998 2.6854578324282725 
Si 6.786707219999999 9.50255973 4.069550715886008 
Si 4.07240226 9.50264118 6.787303740408255 
Si 5.43005973 8.14498371 8.144929032510765 
Si 5.42947329 10.859598179999999 5.429884128331818 
Si 8.14198635 8.14677561 10.861208016846152 
Si 6.78693528 9.50226651 9.501868724526362 
Si 5.43120003 10.86306795 10.860453856750548 
Si 5.42751849 8.149707809999999 13.64570420982925 
Si 6.7877497799999995 9.68627835 15.076620151222619 
Si 6.0092181 10.710870479999999 17.185148938515148 
Si 7.13855493 9.70305705 21.08511647290355 
Si 7.1912205 11.27020392 19.30403028712004 
Si 4.51902519 9.03029634 17.924465792236358 
Si 5.01710823 10.27600893 21.85113745000997 
Si 4.59376371 12.105082709999998 25.537403437308004 
Si 4.90506561 11.83694931 29.672086161450622 
Si 6.6485843099999995 10.23054354 29.26624519000325 
Si 4.35307896 9.80610759 25.831971514649606 
Si 8.12038581 8.36520822 26.476572716363968 
Si 6.0266321099999995 8.998253909999999 27.29151125967154 
Si 5.75686971 10.6621308 34.12793824630702 
Si 7.05156633 8.41844394 30.71330701344339 
Si 7.603943939999999 9.5755878 32.84260948336934 
Si 4.07166921 12.21616422 4.069824955920772 
Si 4.1040863100000005 14.969956139999999 1.3146587346557548 
Si 5.4398826 13.57238817 2.6989812941426052 
Si 6.84139275 12.24265176 1.2804952823249456 
Si 6.78828735 14.929784999999999 4.070030635946845 
Si 4.07269548 14.93258688 6.78788650048213 
Si 5.4299457 13.57499457 8.145100432532493 
Si 6.7879615499999995 12.2173371 6.78757798044302 
Si 4.07243484 12.216783239999998 9.501697324504635 
Si 6.78809187 14.93261946 9.502314364582856 
Si 4.09097286 14.920467119999998 12.220684429183322 
Si 6.77439198 12.218167889999998 12.226820549961182 
Si 4.59690768 12.48947784 17.096912207329613 
Si 5.3900352 13.545623699999998 13.679195774074886 
Si 7.281515969999999 14.348460059999999 14.998564581327724 
Si 8.02816812 16.155851849999998 13.568299960016923 
Si 7.402241159999999 15.13362177 17.3000212330772 
Si 6.473303909999999 13.3011108 20.265104488952836 
Si 5.47788717 14.326729199999999 18.457314179784117 
Si 8.06786685 16.13478888 22.682496115399076 
Si 6.171042959999999 15.336530009999999 23.734069528704207 
Si 6.228106829999999 12.951690300000001 23.999396762339032 
Si 5.07241278 12.631624379999998 22.02867359251575 
Si 6.349907159999999 14.79094533 27.41810731571978 
Si 6.014691539999999 15.94535247 29.467434535507483 
Si 4.7279933100000004 13.09238703 27.643429784283306 
Si 7.075382309999999 14.773873409999998 32.33012341840286 
Si 5.207913 14.01150141 30.90054439717897 
Si 9.50164749 1.359641592 4.068727995781714 
Si 10.86826446 2.6992529999999997 2.674395675025952 
Si 8.145 -3.3288126299999997e-05 8.145100432532493 
Si 10.85977737 -9.68474709e-05 5.429335648262289 
Si 10.860233489999999 2.71547784 8.145066152528146 
Si 9.50415615 1.35861858 9.501046004422069 
Si 8.14750866 2.7119917799999995 10.861242296850497 
Si 10.85937012 -0.001561875426 10.861722216911335 
Si 9.445854240000001 1.103802255 15.084127472174302 
Si 10.70200872 2.66066199 13.793211068528297 
Si 12.161837069999999 3.76300629 15.366491867968877 
Si 11.69253846 1.69069023 17.473923695122348 
Si 9.63538839 2.46397653 21.056115589227186 
Si 9.687760739999998 1.527663168 18.883894553860564 
Si 11.308403969999999 1.69179795 22.63385278923269 
Si 12.16297737 3.11065695 24.32406268349606 
Si 8.327447999999999 3.0700296899999997 24.461148420874046 
Si 11.6699931 0.0742913595 27.069719631555607 
Si 9.5625558 1.81060092 29.830356941514182 
Si 11.41534782 0.503128053 29.37686676402645 
Si 8.567969849999999 2.76117129 27.975191666339867 
Si 10.47271068 3.70908639 30.91761583934307 
Si 11.274325289999998 4.01830317 33.16357316405704 
Si 8.533044089999999 7.81628409 0.013297282245660734 
Si 10.871946 8.14920282 2.72809530183331 
Si 12.21909642 6.8535613799999995 1.291399751707276 
Si 9.55599093 4.10907105 1.2033961245512927 
Si 9.50295069 6.78488274 4.072601636272765 
Si 9.502380539999999 4.0725814499999995 6.78757798044302 
Si 8.145 5.430271499999999 8.144826192497728 
Si 10.85847417 5.430613589999999 5.430329768388311 
Si 9.5013054 6.786544319999999 9.50265716462631 
Si 9.50151717 4.0694374799999995 12.236247551156218 
Si 10.8639639 5.4298316699999996 10.863059137080814 
Si 8.20682055 5.5118844 13.585439962189714 
Si 9.629458829999999 6.7093297199999995 15.16890192292093 
Si 11.33353944 5.7330700199999995 16.54812361776116 
Si 9.184301999999999 4.70049579 20.64444701704107 
Si 9.555371909999998 7.689384989999999 18.932606440035638 
Si 9.65327481 5.39739828 18.409939213778518 
Si 10.993811489999999 7.97675688 20.74317342955635 
Si 10.20685788 6.451133219999999 24.08999881382441 
Si 8.23244472 7.79961942 24.204905388390806 
Si 10.264377869999999 4.31303814 25.05830609657412 
Si 11.99085723 7.708167359999999 25.023203372124243 
Si 10.669656779999999 5.970789989999999 21.875373413082297 
Si 10.98804483 7.8784956 29.24728834760014 
Si 8.8542666 7.0151256 29.959969637944837 
Si 11.72085048 4.35589713 28.961255991340593 
Si 9.97426926 4.583435849999999 27.381530551083042 
Si 8.45615529 6.351568739999999 27.733209115664387 
Si 8.613027989999999 5.12035425 31.34114529303276 
Si 10.43042184 6.02576874 34.22772733895701 
Si 9.459212039999999 9.43176339 1.4355334579787187 
Si 8.13556809 10.87209261 2.7166252123792773 
Si 10.859614469999999 10.72673694 0.04060706474764847 
Si 12.1850829 12.17192058 1.3513691913094406 
Si 9.50513355 12.218738039999998 4.073390076372713 
Si 8.147036250000001 8.14514661 5.430604008423076 
Si 9.502478279999998 9.50255973 6.787509420434328 
Si 10.860412679999998 8.144397269999999 8.145134712536839 
Si 8.14501629 10.86011946 8.144654792476 
Si 10.86042897 10.86055929 5.431392448523024 
Si 9.5008167 9.50702319 12.233093790756424 
Si 10.86109686 10.85928867 10.862716337037357 
Si 10.83623832 8.19318582 13.692804935800083 
Si 8.15555592 10.92687588 13.622908006939438 
Si 8.328441689999998 8.379201329999999 16.4670856874882 
Si 10.690736039999999 11.453564159999999 20.618599893764497 
Si 9.387698939999998 11.11870692 18.732891134718265 
Si 10.79825004 9.75893175 22.187252892618424 
Si 8.59028715 9.763949069999999 22.933528587221787 
Si 8.36468694 11.979975510000001 23.684055002364 
Si 9.463789529999998 12.188748149999999 25.718024780204885 
Si 8.94653316 10.914886439999998 29.216984823758647 
Si 9.52489332 10.18066356 27.012266344272412 
Si 11.388404159999999 8.75654289 27.048226068830928 
Si 10.871164079999998 9.87916824 30.45373882053863 
Si 11.977124759999999 9.51546141 32.66774718120252 
Si 9.10723401 11.506278599999998 32.95401949749249 
Si 12.21580584 14.933499119999999 4.072498796259728 
Si 9.57374703 14.88925548 1.1381475642799082 
Si 10.84661505 13.576102289999998 2.699519490210831 
Si 8.14436469 13.573837979999999 5.4307411284404585 
Si 9.50242941 14.93213076 6.787509420434328 
Si 10.859972849999998 13.57492941 8.144929032510765 
Si 9.50159862 12.21688098 9.502554324613275 
Si 8.145374669999999 13.57582536 10.862339256989555 
Si 9.509857649999999 14.93822322 12.210468987888339 
Si 11.022449309999999 16.07596569 16.216944495778474 
Si 9.1276128 12.68821584 14.941522654096673 
Si 10.88499429 13.61163078 13.594935523393442 
Si 10.19778435 12.489543 17.080594925261117 
Si 8.309903669999999 14.6192976 20.922355012270717 
Si 9.157130279999999 15.525575459999999 18.971617084980913 
Si 10.97944371 14.547751919999998 18.004269642352877 
Si 9.67749804 13.069141199999999 22.003957709382586 
Si 11.3140566 14.21289468 23.20913982216028 
Si 10.16152281 16.15687812 23.71182180588393 
Si 11.62094391 13.04771985 25.24190979984907 
Si 11.563635689999998 13.45376439 29.133101653125003 
Si 9.24415146 13.24412838 28.94822958968927 
Si 9.657184410000001 15.99340797 25.998503775760454 
Si 8.54698833 14.050727729999998 26.865787885703728 
Si 8.15941665 13.46407596 34.07672391981471 
Si 8.96735178 14.599717019999998 30.82166610717978 
Si 11.2638834 15.02324073 30.89704783673572 
Si 11.477966579999999 15.63879096 33.97899162742545 
Si 16.279101989999997 2.7310022099999998 2.6852932884074137 
Si 13.573153799999998 0.01324056087 2.7136291399994734 
Si 12.243710609999999 1.2121731089999999 1.1413938806914348 
Si 14.93270091 1.3564129139999999 4.0699277959338085 
Si 12.21746742 4.0720927499999995 4.068899395803442 
Si 13.575010859999999 6.20479584e-05 8.14520327254553 
Si 13.57556472 2.71454931 5.4308439684534955 
Si 12.217597739999999 1.357421265 6.787200900395218 
Si 14.93116965 1.3569960959999998 9.503308484708876 
Si 13.573789109999998 2.71637379 10.860453856750548 
Si 12.22152363 1.36466217 12.261683314380642 
Si 14.924262689999999 4.05699192 12.262266074454516 
Si 13.823661419999999 0.102983751 13.702129096982082 
Si 15.54007356 0.7181918909999999 15.463778520301645 
Si 15.294762449999999 0.7153411409999999 18.381144010128228 
Si 13.3592661 1.7267888699999998 19.337144771317874 
Si 15.34100976 1.414892385 22.853827577118302 
Si 15.93864099 3.8369954699999997 22.90432202351935 
Si 13.300377749999999 0.8478228239999999 21.61378269992115 
Si 15.08950845 0.699282459 25.1656025101758 
Si 13.54324536 1.359827298 29.6967334845751 
Si 13.048485479999998 1.67557311 26.008239296994603 
Si 13.39935579 2.94785469 27.973649066144315 
Si 13.27102317 2.824686 33.94988790373605 
Si 15.657948 3.9900074399999994 30.46652526215953 
Si 14.372210879999999 2.3141411099999996 31.776604188234717 
Si 16.09559514 0.6831016019999999 32.44818375336905 
Si 14.85441117 4.11840522 1.116335197514813 
Si 13.57237188 5.4343765799999995 2.6940278335146686 
Si 14.933352509999999 6.7877171999999995 4.06704827556878 
Si 16.290488699999997 5.429701349999999 5.430364048392657 
Si 14.9325543 4.07263032 6.787303740408255 
Si 13.57421265 5.43005973 8.14496331251511 
Si 12.21741855 6.7874728499999994 6.787303740408255 
Si 12.21191253 6.78730995 12.254004593407231 
Si 13.577747579999999 8.14082976 10.864978817324166 
Si 12.21875433 4.07238597 9.502040124548092 
Si 14.93258688 6.78801042 9.50142308446987 
Si 14.859363329999999 6.7485560399999995 15.087349792582787 
Si 16.27353081 5.54972607 16.80419525022267 
Si 12.96255573 7.56587421 16.478363808917894 
Si 13.43757213 5.276216969999999 13.79420518865432 
Si 13.25963646 7.53774138 20.636836856076346 
Si 13.15764477 4.11847038 19.44385842484568 
Si 15.142597559999999 5.179210019999999 18.865966111587824 
Si 14.17994001 7.36938423 18.534649869587756 
Si 13.828564709999998 4.67956314 23.638976796649562 
Si 12.903162389999999 5.34256614 21.520883888144617 
Si 16.121691719999998 7.25836788 24.501016065927963 
Si 14.013847169999998 6.50972835 25.29716916685415 
Si 12.818503259999998 6.4119231899999996 29.400657087042287 
Si 14.54613921 6.59306799 27.741299196689944 
Si 15.217645589999998 4.38965001 28.131645606173112 
Si 13.94790525 7.039690919999999 31.64164381112615 
Si 16.07153481 5.947918829999999 31.683259736401688 
Si 13.4822556 8.08604649 33.88811533590531 
Si 12.217548869999998 9.49996962 4.072293116233654 
Si 14.966388629999999 9.587577239999998 1.0061352675450639 
Si 13.59148005 10.84519782 2.6862874085334356 
Si 13.57393572 8.14587966 5.430295488383965 
Si 14.932798649999999 9.502380539999999 6.78702950037349 
Si 13.574978279999998 10.86018462 8.145374672567257 
Si 12.21580584 9.50207103 9.50289712465673 
Si 14.957038169999999 9.482816249999999 12.24516035228607 
Si 12.229261379999999 12.20091678 12.244577592212194 
Si 12.42319383 11.53191906 17.067705643627175 
Si 12.239524079999999 9.63151137 15.282094497270048 
Si 13.722630839999999 10.81141236 13.762016264573818 
Si 15.15233898 12.189513779999999 15.212197568409405 
Si 14.40550764 11.11750146 20.8863952877122 
Si 12.68173242 11.700048149999999 19.435425543776667 
Si 16.17707772 10.728479969999999 19.371699015698223 
Si 16.21395828 8.42709393 19.004731569178748 
Si 14.32972656 9.066932549999999 22.0298391126635 
Si 12.65319234 9.52973145 23.656905238922302 
Si 13.18993155 11.371071599999999 25.064785017395437 
Si 12.347673389999999 11.29284702 29.313345915974082 
Si 15.89503266 8.36652771 28.82204489369317 
Si 13.063586309999998 10.36794969 27.217946370345913 
Si 15.34623885 10.08616527 27.419615635910986 
Si 15.63678729 12.11060502 28.62380362856266 
Si 14.340331349999998 11.34531711 30.484419424427923 
Si 14.848644509999998 9.03943503 30.793865023655513 
Si 14.93514441 12.21624567 4.070750516038103 
Si 14.844865229999998 14.884319609999999 1.3779396226777028 
Si 13.575857939999999 13.57509231 5.429884128331818 
Si 12.2173371 12.217662899999999 6.78788650048213 
Si 14.93245656 14.93242398 6.787509420434328 
Si 12.21657147 14.932407689999998 9.50018900431343 
Si 14.93276607 12.21769548 9.501628764495944 
Si 13.57188318 13.57634664 10.861893616933061 
Si 14.94066672 14.925060899999998 12.227643270065476 
Si 13.753842479999998 13.502520359999998 16.54281021708759 
Si 12.503259179999999 14.84783001 14.936037853401379 
Si 12.84543063 14.054425559999999 19.480606589504145 
Si 14.987630789999999 14.63255766 18.662377165779397 
Si 14.781024719999998 13.13078256 22.104775202162948 
Si 15.13929069 12.62362599 24.38024761061847 
Si 13.054154399999998 14.72814738 21.729717674617913 
Si 15.67252755 14.642038439999999 25.63222192932789 
Si 15.118830449999999 15.88139793 29.344095079872073 
Si 12.49667802 14.197239989999998 27.131834999429806 
Si 14.75528652 14.15456019 27.735951516012037 
Si 14.751360629999999 12.790435589999998 32.45027483363413 
Si 13.29485544 13.77536157 34.17353065208664 
Si 15.72077853 14.82525207 31.483852951123428 
