&CONTROL
  dt          = 30.D0,
  prefix = 'x.66_y2.00_z3.16_struc28-scf',
  pseudo_dir = './',
  outdir='./',
  wf_collect= .true.,
  verbosity= 'high',
/

&SYSTEM
ibrav= 6, celldm(1) =30.783621515, celldm(3) =2.112208350681268, nat=  432, ntyp= 1,
  ecutwfc     = 12.D0, nbnd= 1728,
  degauss     = 0.05D0,
  occupations = "smearing",
  smearing    = "methfessel-paxton",
/
&ELECTRONS
  electron_maxstep=200,
  conv_thr    = 1.D-8,
  mixing_beta = 0.3D0,
  scf_must_converge=.false.,
/
&IONS
/
ATOMIC_SPECIES
Si  28.08  Si.pbe-hgh.UPF
K_POINTS {automatic}
1 1 1 0 0 0
ATOMIC_POSITIONS (angstrom)
Si 2.70003492 0.01199194866 2.6893985724981233 
Si 1.1993105249999998 1.362728547 1.2708513866065985 
Si 4.06977957 1.3629468329999999 4.065978474432089 
Si -0.0018574835399999998 0.000303145497 5.429837785336202 
Si -0.00023521131 2.71490769 8.144756678004303 
Si 2.71609686 -8.93364777e-05 8.144550230760107 
Si 2.7120080699999995 2.71482624 5.430250679824593 
Si 1.3572713969999999 1.357346331 6.7875724946625136 
Si -0.00403563573 0.0021125197799999997 10.865077606895523 
Si 2.71972953 2.70904329 10.85551221791446 
Si 1.3645188179999999 1.3778489250000001 12.227870273704625 
Si 4.070985029999999 1.359336969 9.500254875518495 
Si 3.8743647299999995 1.9541158199999997 16.921689225609526 
Si 0.357306489 3.08324088 13.576418080664233 
Si 2.8331079299999997 0.0874566117 13.546930532618296 
Si 1.82518047 3.1386920399999996 16.628706178221954 
Si 2.79912699 2.04219585 20.845425548790853 
Si 1.7201751299999999 0.261143361 19.665958034827433 
Si 2.41883694 3.7186649099999998 18.913148158868225 
Si 1.4569710839999999 1.81232766 22.785238263126622 
Si 2.14355223 3.25884708 24.461899556861084 
Si 3.6966897 1.96232598 25.59770347867714 
Si 3.15222903 4.04047386 29.794603913803265 
Si 3.8088626399999996 1.86746931 29.044168181152305 
Si 0.14825659319999998 2.40031521 27.15366195030525 
Si 2.25481293 1.324021878 27.34720624173861 
Si 2.0301249599999998 3.20373801 34.39387002786658 
Si 0.899667378 3.75427485 30.66570806068654 
Si 1.500351354 2.1196710899999998 32.32330739220694 
Si 4.07144115 6.78419856 4.065531172069664 
Si 1.3626536129999998 4.07028456 4.070313866560196 
Si 0.252817542 4.971968639999999 0.1470245016625503 
Si 2.73988026 5.400183869999999 2.7257986624372084 
Si 1.2933706139999999 6.65811396 1.4612955285896243 
Si 3.0370098599999995 7.82027514 0.3252414615293522 
Si -0.00044703017999999994 5.42843073 5.4312829160455705 
Si 2.7150543000000003 5.42986425 8.144515822886074 
Si 1.357769871 6.78724479 6.787159600174122 
Si 2.71443528 8.14576563 5.43114528454944 
Si 1.3584735989999999 4.07279322 9.503454807803527 
Si -0.00859579317 5.43673863 10.85695734862383 
Si 1.344473973 6.79933197 12.256359993403617 
Si 2.42598825 5.10795756 13.572874069638875 
Si 2.54396043 7.69204026 21.21073394739495 
Si 0.15296114519999998 4.500389429999999 19.178673722777784 
Si 4.02597576 5.49344412 18.331138969606833 
Si 0.229338765 6.68717532 18.211330752225326 
Si 1.529769465 7.41535461 24.82713913971711 
Si 1.4246126279999998 6.25583241 22.706685086710205 
Si 3.25615923 4.89051864 23.291481313768237 
Si 0.361341522 4.270228019999999 25.716548275585733 
Si 3.57612741 8.00125704 28.56916748013229 
Si 1.258830927 6.15792951 26.81832280998355 
Si 3.2636037599999996 5.69863296 28.017815706633943 
Si 0.015595361819999999 7.737245009999999 28.189063695694184 
Si 2.17241811 7.44606126 31.248852709791013 
Si 0.1460214423 5.95917522 31.39253999175114 
Si 1.35930276 9.502217639999998 4.070279458686163 
Si 2.7043680599999997 10.8566334 2.7178779698349045 
Si 1.321622361 12.10439853 1.2322526335168302 
Si -0.001164785499 8.14519548 8.144928717374466 
Si 2.7151357499999995 10.860380099999999 8.145135164618662 
Si 4.05355473 9.501419429999999 12.244076382373978 
Si 1.356746859 9.50174523 9.502388163708517 
Si 2.71588509 8.147557529999998 10.864458265162936 
Si 1.374074532 12.2189661 12.215861925667248 
Si 0.8377018469999999 10.17553221 15.255315886210813 
Si 2.69676063 10.9351512 13.752379948466938 
Si 3.4209488699999997 9.461655539999999 16.334346815873083 
Si 1.150502427 11.98163709 19.12272651960078 
Si 0.8839263509999999 8.364719520000001 19.705733537209117 
Si 0.500280561 10.02654387 17.74926741184157 
Si 3.0606303599999998 10.26359595 19.297105625197986 
Si 2.37656439 11.44768347 22.787990893049233 
Si 0.18597804299999998 10.56082329 23.1794492759181 
Si 3.70149525 8.26764741 24.609165257720605 
Si 3.5290818899999996 9.40064949 22.51197092755973 
Si 0.42143859 9.42544287 25.186701423357757 
Si 3.4760905199999996 11.40692589 26.652545672894494 
Si 1.263408417 10.85202333 26.92061741948246 
Si 1.6629972299999998 9.333518399999999 28.813084899149377 
Si 0.360580779 10.51558596 34.05195898360466 
Si 0.1623904488 11.263834529999999 31.681050015514472 
Si 3.97586772 10.58428089 32.23721889137739 
Si 2.18556414 9.05352588 32.95974983818791 
Si 2.36765376 11.05600671 30.368768107785225 
Si 4.07166921 12.22030188 4.072447154750217 
Si 4.03718328 14.96402658 1.238318741708777 
Si 3.08561922 13.13721711 0.16114721355923006 
Si 1.361345526 14.927146019999999 4.068903143724859 
Si -2.06607699e-05 13.574880539999999 8.145066348870596 
Si 2.7161457299999996 13.57470135 5.430663574312985 
Si 1.3580060760000001 12.21725565 6.7876757182846115 
Si 1.360118889 14.932114469999998 9.502525795204647 
Si 2.7165204 13.571606249999999 10.857542282482383 
Si 1.4094873629999998 15.08234085 14.85659744192107 
Si 2.59732647 14.099972399999999 16.54213596715594 
Si 0.10618864559999999 13.670030429999999 13.522672981425314 
Si 3.32799813 16.08707547 17.933452761538067 
Si 1.3250709539999999 14.79589749 21.224428281259918 
Si 2.60687241 12.841390709999999 20.856814555095646 
Si 0.411418611 13.52315979 17.48849013454851 
Si 1.3822960949999998 15.79703202 23.34742851694524 
Si 3.5664348599999998 12.53160378 24.568151071873746 
Si 2.68157835 14.737318649999999 24.99198726420729 
Si 1.78963569 15.293866499999998 27.17038417708509 
Si 3.7212550199999996 14.657562809999998 28.323632891035675 
Si 3.7119697199999995 12.364891919999998 28.79832392118939 
Si 3.32982261 14.5059192 32.75815410423091 
Si 1.8664430399999998 16.008215579999998 31.733625247036283 
Si 3.6363678299999997 16.11354672 30.148248043110303 
Si 4.26441249 3.9504553199999997 0.6210001921151326 
Si 8.169076619999998 -0.008652466079999999 2.7104252243194433 
Si 5.4201717 2.71976211 2.6706462811503573 
Si 6.82634079 1.3039053569999999 1.3580443801926045 
Si 5.431688729999999 -0.001604131686 5.429700153840072 
Si 5.42999457 2.7137836799999997 8.144068520523652 
Si 6.7872285 1.357786161 6.787503678914448 
Si 4.06456677 4.0555584 12.222502645355538 
Si 5.429277809999999 -0.00187344774 10.86239379272098 
Si 6.81633873 1.361299914 12.24025710835636 
Si 4.63214295 1.052190648 14.896269720680653 
Si 5.5198502099999995 2.76089436 13.609036745247137 
Si 5.923923659999999 3.1192906499999995 20.390209375339584 
Si 5.45672646 3.5511874199999998 18.090627930118973 
Si 5.007546 1.076935158 21.070453044964044 
Si 8.015918039999999 3.74852448 21.251851356863902 
Si 7.77940353 3.12074046 25.079520895746217 
Si 5.87006892 0.0969732297 23.0997606396586 
Si 7.93340919 1.092703878 23.83061829198501 
Si 6.90133995 3.9814714799999997 29.490610346725262 
Si 5.64461532 3.1555359 26.171661225414905 
Si 7.394633729999999 0.26702242200000004 27.691869915923142 
Si 6.04665252 2.1609825299999996 28.232314393353157 
Si 6.21944055 0.699113043 32.76895817667715 
Si 5.65453593 3.07402074 33.169637869786754 
Si 7.97358033 2.7554046299999997 34.1748639096491 
Si 6.7838727599999995 4.07735442 4.065944066558056 
Si 6.84952146 6.957247229999999 1.1694651449821456 
Si 4.071995009999999 4.07280951 6.786781113559764 
Si 5.42965248 5.430222629999999 5.431042060927343 
Si 6.78770091 6.78781494 6.787366047418318 
Si 6.78905298 4.07241855 9.502732242448843 
Si 4.07274435 6.7872936600000005 9.502594610952713 
Si 5.4324543599999995 5.43346434 10.863013134453567 
Si 6.79578075 6.793695629999999 12.221126330394236 
Si 7.19869761 7.32044907 16.376290014318815 
Si 6.35381676 4.53313233 14.883469991540528 
Si 4.358601269999999 6.01641828 14.757881251321546 
Si 7.36720137 4.86194598 17.102674643020993 
Si 4.563936719999999 7.211582999999999 16.750578868045416 
Si 5.30755893 8.00479197 13.60222398618868 
Si 8.14268682 5.458518359999999 13.647607972037678 
Si 6.3567326699999995 7.340404319999999 21.388863511261707 
Si 4.114788839999999 4.30569135 21.22508203086654 
Si 4.39209351 6.47936379 20.416703438344687 
Si 6.85680309 6.711545159999999 23.601599482424042 
Si 4.78937403 6.21706221 24.502053545857127 
Si 5.17531671 5.371904429999999 26.650033898090115 
Si 7.220803139999999 5.71554198 27.822723060869112 
Si 7.179002999999999 7.817636159999999 28.816628910174735 
Si 4.863672719999999 6.21833283 34.2965645601024 
Si 4.4612934300000004 6.63268527 31.788746661236505 
Si 5.17580541 4.40662419 31.118343643585366 
Si 4.15794105 9.599778449999999 1.4049079046250028 
Si 5.45491827 8.15923746 2.7061104769157556 
Si 6.78669093 9.498829319999999 4.07382346971152 
Si 4.7119965299999995 11.447846369999999 0.05632018453151747 
Si 4.07276064 9.50269005 6.78712519230009 
Si 5.43004344 8.14521177 8.144825493752368 
Si 5.4304995599999994 10.86116202 5.430525942816854 
Si 6.78915072 9.500295419999999 9.502732242448843 
Si 5.428479599999999 10.8618462 10.864286225792771 
Si 6.76960272 12.24561654 12.241254936703305 
Si 7.958349179999999 10.74441159 13.607626022411798 
Si 6.59042901 9.414838079999999 15.028877667202286 
Si 5.6640818699999995 11.040531210000001 16.639544658542224 
Si 6.2969320799999995 12.1471272 19.178364051911487 
Si 7.546049279999999 8.79787062 18.175684194727555 
Si 5.6249532900000005 9.56954421 21.457059917594314 
Si 7.3796957999999995 8.752356359999999 24.78192719323828 
Si 6.95682369 10.52281872 23.20525518144255 
Si 7.223979689999999 11.465260379999998 27.52148212371372 
Si 5.957236709999999 11.97256356 29.411162565583993 
Si 4.332439529999999 9.217207799999999 26.666859348492054 
Si 6.641986859999999 9.254577059999999 26.941330959650085 
Si 5.9796843299999995 10.20048849 31.032564813622102 
Si 5.3146287899999995 8.16526476 30.161563890360917 
Si 7.948803239999999 10.37676258 32.277338472499395 
Si 5.42385324 13.578887879999998 2.710734895185737 
Si 6.72785145 12.22017156 1.275558383774258 
Si 6.785387729999999 14.93296155 4.0710020240408475 
Si 6.05331513 15.62724135 0.21813078190209606 
Si 4.072516289999999 14.932114469999998 6.788019797024938 
Si 5.42992941 13.574652480000001 8.144928717374466 
Si 6.787456559999999 12.217516289999999 6.787882165528807 
Si 8.144201789999999 13.57670502 10.862600239965175 
Si 4.07122938 12.218672879999998 9.50176882197593 
Si 6.7874728499999994 14.932538009999998 9.502594610952713 
Si 4.07965131 14.92318755 12.22026613354342 
Si 5.4479624399999995 13.73786199 13.769583885483238 
Si 6.3809396099999995 15.598733849999999 15.17184238380773 
Si 4.10372793 12.427315199999999 15.274446664172936 
Si 4.86860859 13.618700639999998 20.402665025739385 
Si 5.20081056 15.732947159999998 19.33027481576541 
Si 6.96001653 14.94177444 17.609743482639384 
Si 5.904245339999999 12.551445 23.980326951900846 
Si 6.22027134 14.17966308 22.299261450290214 
Si 4.554293039999999 16.14236373 25.038506709899362 
Si 6.905168099999999 13.233083759999998 25.99673159383318 
Si 5.672862179999999 15.11495343 26.89897486671596 
Si 7.69443489 13.924691999999999 34.39954732708197 
Si 5.25380193 15.23100339 31.59688835563074 
Si 8.11641105 12.790663649999999 32.32055476228434 
Si 7.017080399999999 13.88797434 30.394092303073215 
Si 12.1599963 1.2812720309999999 1.3826632140629282 
Si 9.501191369999999 1.357769871 4.072860049238608 
Si 10.845002339999999 2.72528442 2.695075871713502 
Si 12.217239359999999 4.0742593199999995 4.071208471285043 
Si 9.436797 4.06078749 1.1530835561552257 
Si 8.1453258 -0.000214972614 8.145479243358988 
Si 8.14633578 2.71336014 5.429596930217974 
Si 10.86121089 0.001581491844 5.430904429431212 
Si 10.860608159999998 2.7140769 8.145135164618662 
Si 12.223950839999999 1.3516725239999998 12.239603358749742 
Si 9.502347959999998 1.35852084 9.502250532212386 
Si 8.14495113 2.70962973 10.862462608469045 
Si 10.86020091 0.0017114273999999999 10.862462608469045 
Si 12.217239359999999 4.073086439999999 9.503798886543853 
Si 11.07276912 2.5938567 16.37037185998521 
Si 8.34334704 0.060103909799999994 13.84844673276595 
Si 10.13264064 0.406225359 15.856490261308362 
Si 11.03997735 2.86919028 13.614335557848156 
Si 9.081528389999999 1.6980696 21.789336757127113 
Si 12.054469679999999 1.4719253039999998 23.750000643126636 
Si 11.3195952 2.42826885 21.81342226894993 
Si 10.92819537 1.218751011 25.75955811812648 
Si 8.86456188 0.0318471129 25.756151738597254 
Si 11.9809692 0.956345175 28.89542294170938 
Si 9.78737409 3.08517939 26.522690356295467 
Si 10.43221374 2.83563288 28.825678181045305 
Si 11.206966139999999 3.90435462 32.16568492126361 
Si 10.92560526 0.1228254597 34.17472627815297 
Si 8.78856903 3.04554582 30.56258766221085 
Si 8.226694349999999 0.8828153729999999 31.455644032726923 
Si 9.882735749999998 1.8682838099999999 32.87049581294735 
Si 10.86024978 8.15552334 2.6784671909179667 
Si 12.164981039999999 6.72535908 1.1874742262508073 
Si 8.14232844 5.431086 2.6749403838296253 
Si 9.50063751 6.788629439999999 4.067354789393392 
Si 8.145244349999999 8.14653126 5.4304915349428216 
Si 9.50239683 4.07297241 6.787813349780742 
Si 8.145 5.43054843 8.144825493752368 
Si 10.86075477 5.42989683 5.429596930217974 
Si 12.20624361 6.784280009999999 12.241254936703305 
Si 9.50120766 6.788417669999999 9.502319347960452 
Si 9.50321133 4.07678427 12.2447301319806 
Si 10.85964705 5.43167244 10.862256161224849 
Si 10.749217139999999 8.08039386 16.898601542133655 
Si 9.41107509 6.84953775 15.256761016920182 
Si 8.32205601 7.3818135 20.125956902769232 
Si 8.9787222 5.149040939999999 19.574983615885245 
Si 11.349226709999998 5.06793303 19.554717378080042 
Si 11.991183029999998 7.161865919999999 18.658392259530867 
Si 8.22602646 4.79158947 23.424743009896485 
Si 10.50307524 5.46869961 23.543931885545405 
Si 10.53826164 7.802470169999999 23.595715735964465 
Si 11.93970663 4.7139513299999996 21.823331736671317 
Si 10.96123149 4.93837866 25.778138370104084 
Si 11.777279039999998 4.65183756 29.555710044394935 
Si 9.373233419999998 6.32048742 26.84454160999639 
Si 10.604496779999998 6.595739549999999 28.828706073960177 
Si 9.17213337 7.886379959999999 30.144531992714786 
Si 9.887883389999999 7.346643389999999 32.49610373559865 
Si 10.72202913 5.525568 33.92557886228293 
Si 9.557017199999999 9.675250019999998 1.1877116405816324 
Si 8.14117185 10.865755799999999 2.6933658003740817 
Si 9.502657469999999 9.502087320000001 6.787744534032677 
Si 10.85958189 8.14477194 8.144963125248498 
Si 8.14459275 10.8600543 8.1448599016264 
Si 10.859549309999998 10.85951673 5.429906601084268 
Si 8.145537569999998 8.14558644 10.8551337313001 
Si 9.46866024 9.506746259999998 12.214175939839652 
Si 10.861438949999998 10.8600543 10.864527080911001 
Si 11.81865564 10.03133313 14.670966961515202 
Si 9.29469933 10.02234105 16.965318409882858 
Si 10.741821479999999 8.150066189999999 13.629509430296531 
Si 9.838150019999999 11.50629489 14.82177667340008 
Si 9.82277226 8.624854529999999 21.502099824702984 
Si 8.43180174 12.145986899999999 20.254745575273247 
Si 11.97109746 8.767147679999999 20.442681383239297 
Si 11.972938229999999 10.95794091 19.4508055985016 
Si 9.93395151 11.613417929999999 18.54309147364763 
Si 9.02068524 10.76953077 22.06986415411488 
Si 10.92151647 11.99484828 22.82398152928733 
Si 9.50708835 8.40345714 25.62571148813967 
Si 12.141881819999998 11.47672854 26.56869368387705 
Si 10.51213248 9.92515491 27.203897446392844 
Si 11.96422308 8.35646049 28.16714587993542 
Si 9.391706280000001 11.640736259999999 28.38130048791431 
Si 8.24249565 8.464658669999999 33.971857452856774 
Si 12.136652729999998 8.42351013 32.24365316382148 
Si 10.918421369999999 11.21222781 34.19605916005318 
Si 11.359017 10.65486546 31.82102124707908 
Si 9.46825299 10.226943449999998 30.31061880067013 
Si 9.500328 12.2189661 4.068249394118239 
Si 9.508701059999998 14.955490619999999 1.1965579049954131 
Si 10.8631494 13.58118477 2.6835182668259523 
Si 8.14514661 13.57650954 5.4296313380920065 
Si 9.50269005 14.93252172 6.7875724946625136 
Si 10.86002172 13.575157469999999 8.145066348870596 
Si 9.50304843 12.217597739999999 9.502491387330613 
Si 9.49475682 14.92501203 12.251302035920824 
Si 11.9537649 15.22652364 15.103818016845285 
Si 10.78290486 13.53057174 13.729567527983326 
Si 10.90380924 13.73852988 18.28775064045173 
Si 12.02656491 12.86072694 20.884994603928345 
Si 11.684474909999999 15.343681319999998 20.799146958217012 
Si 9.42628995 16.038466109999998 20.437967504496832 
Si 9.25648299 15.49055196 17.960807021393983 
Si 8.46420255 14.185364579999998 21.514933961717144 
Si 12.05393211 15.410405159999998 23.371514028768058 
Si 9.97718517 14.049896939999998 23.377328959479566 
Si 9.112593419999998 14.01471054 25.570452442443322 
Si 8.508951179999999 15.561999899999998 29.54253182864045 
Si 10.796458139999999 15.100781129999998 28.9321705511762 
Si 10.92685959 13.510111499999999 27.051160893562137 
Si 11.69744175 14.159512349999998 30.893901081270734 
Si 10.42892316 12.820181129999998 32.441567255256984 
Si 16.280633249999998 2.71295289 2.732356803227822 
Si 13.58892252 -0.0212494905 2.7064339109316626 
Si 13.81385484 2.33346105 0.07509656139110613 
Si 14.93380863 1.358007705 4.074752482310401 
Si 14.82512175 3.94149582 1.4072992518702685 
Si 13.574978279999998 0.000488059803 8.144963125248498 
Si 13.57540182 2.71389771 5.430319495572658 
Si 12.2175 1.3575678749999998 6.7880542048989705 
Si 14.934329909999999 1.360431657 9.502663426700778 
Si 13.5738054 2.7117963 10.863391621067924 
Si 14.9498217 4.08913209 12.228214352444951 
Si 15.97232871 1.9885691699999999 16.806973373584846 
Si 14.80765887 1.8994465799999998 14.743051457613495 
Si 12.8764305 3.5497213199999997 14.9579630388211 
Si 14.588819009999998 1.3850539919999998 20.70548872510028 
Si 12.372255 1.3539840749999998 20.028479395634886 
Si 15.85240173 0.683199342 18.822655450162493 
Si 12.35443374 3.1726729799999998 18.435394827925602 
Si 14.508590759999999 3.9284964 17.582320407035407 
Si 15.6410064 2.6908310699999998 22.281610210911488 
Si 14.16876507 2.49240258 24.133751662212198 
Si 14.96259306 1.1125809359999999 25.845887474074267 
Si 15.39672156 3.13911558 29.119899911898052 
Si 12.918751919999998 0.38178058499999995 26.797127559579465 
Si 15.651920699999998 0.701817183 34.21453618840869 
Si 13.729065389999999 1.95665706 30.345061082576763 
Si 13.49220879 3.44670336 32.40027780641786 
Si 14.582091239999999 0.34753900499999996 31.887566075458125 
Si 16.26962121 8.15742927 2.6880360206864324 
Si 13.55867199 5.43313854 2.697742481951028 
Si 14.93359686 6.78932991 4.069728932701642 
Si 14.932049309999998 4.07207646 6.787882165528807 
Si 13.575287789999999 5.430711329999999 8.14472227013027 
Si 12.217109039999999 6.7877171999999995 6.7872972316702525 
Si 14.933352509999999 6.785485469999999 9.500151651896399 
Si 13.599690209999999 5.45677533 13.686213606702253 
Si 14.504827769999999 7.1524665899999995 15.161554429471982 
Si 14.36242059 6.35174793 17.384819210088292 
Si 13.72841379 8.10895023 21.998777486363533 
Si 14.04698103 5.73297228 22.39020146135837 
Si 14.53683762 4.7563542 24.587453889206035 
Si 16.058730869999998 4.88817288 21.52377678534352 
Si 13.12022664 7.805304629999999 26.165020505726613 
Si 14.90440518 6.78009348 29.759507882290013 
Si 13.216565699999999 5.484435749999999 26.340259808174636 
Si 13.931045099999999 4.96559925 28.569924453361008 
Si 14.767813529999998 5.57875485 33.07260766501483 
Si 13.69062099 7.698409649999999 34.043288199348446 
Si 14.933173319999998 12.214518929999999 4.067045118527099 
Si 12.2181516 9.49931802 4.067389197267425 
Si 14.941611539999998 9.42268986 0.9805108639447312 
Si 13.5884664 10.85474376 2.6688433085510495 
Si 14.93258688 9.50236425 6.786884337181862 
Si 13.575010859999999 10.859972849999998 8.145203980366727 
Si 16.2921177 10.860852509999999 5.430388311320724 
Si 13.57421265 8.14408776 5.430319495572658 
Si 12.21728823 9.50176152 9.502697834574809 
Si 13.576493249999999 8.14311036 10.862806687209371 
Si 14.93887482 9.49035852 12.226631590239451 
Si 14.932863809999999 12.217972409999998 9.501700006227864 
Si 12.20925726 12.24724554 12.224532709923464 
Si 16.2886968 10.860168329999999 10.859916425790631 
Si 13.061664089999999 8.84340117 16.268490144974688 
Si 13.610588219999999 10.90447713 13.495525168813595 
Si 15.34912218 11.91504357 14.764349931639673 
Si 16.23663396 8.32704075 13.897925255624829 
Si 15.68585277 9.29629575 21.298955736414527 
Si 15.31688427 11.17252908 19.925427812907255 
Si 13.81980069 10.66309191 18.020745537958767 
Si 14.64497064 11.97463239 23.649770506069675 
Si 12.63840102 8.70229719 24.016351996012975 
Si 12.568549499999998 11.046020939999998 24.27695723393587 
Si 14.998610249999999 9.00211464 26.688295454014362 
Si 13.371923429999999 8.60349834 30.098425441511104 
Si 14.494483619999999 10.72075851 29.905638123306456 
Si 14.277305339999998 11.08049058 27.57939057571058 
Si 12.968485289999998 12.186549 30.923457445064734 
Si 12.384162989999998 12.379813559999999 1.2440407711603982 
Si 12.218803199999998 14.93268462 4.073066496482803 
Si 15.083758079999999 15.061734 1.1774030415214658 
Si 16.297167599999998 13.57760097 2.6798503874540773 
Si 13.57297461 13.5752715 5.430147456202496 
Si 12.21764661 12.21738597 6.7876757182846115 
Si 14.932538009999998 14.93229366 6.787606902536546 
Si 12.21885207 14.93309187 9.502181716464321 
Si 13.571703989999998 13.575108599999998 10.861051885633708 
Si 14.9260383 14.938076609999998 12.226803629609615 
Si 14.45776596 12.57030882 16.77366655152129 
Si 12.90625749 14.31936612 17.188797551724583 
Si 13.63557708 16.299774 13.705619647656638 
Si 14.24363391 12.545336249999998 21.465455438858267 
Si 15.32152692 14.430708269999998 20.86139080234198 
Si 15.01615458 14.805361979999999 18.568794155549984 
Si 14.25990762 15.90679404 22.30425059202494 
Si 15.55657533 15.693183269999999 24.308956556786185 
Si 14.88453138 13.65960483 25.26556427064047 
Si 12.68549541 14.57963145 25.676875996826148 
Si 15.941622059999998 12.674792879999998 27.168422928265233 
Si 15.928345709999999 14.81831253 28.220374861063846 
Si 13.78075356 13.702268339999998 34.04480214580588 
Si 14.964743339999998 13.10066235 31.963710700692268 
Si 12.667494959999999 15.35850522 32.67660744277366 
Si 15.9751143 15.00548463 30.752381495374657 
