&CONTROL
  dt          = 30.D0,
  prefix = 'x.66_y.66_z3.17_struc13-scf',
  pseudo_dir = './',
  outdir='./',
  wf_collect= .true.,
  verbosity= 'high',
/

&SYSTEM
ibrav= 6, celldm(1) =30.783621515, celldm(3) =2.1163055416155427, nat=  432, ntyp= 1,
  ecutwfc     = 12.D0, nbnd= 1728,
  degauss     = 0.05D0,
  occupations = "smearing",
  smearing    = "methfessel-paxton",
/
&ELECTRONS
  electron_maxstep=200,
  conv_thr    = 1.D-8,
  mixing_beta = 0.3D0,
  scf_must_converge=.false.,
/
ATOMIC_SPECIES
Si  28.08  Si.pbe-hgh.UPF
K_POINTS {automatic}
1 1 1 0 0 0
ATOMIC_POSITIONS (angstrom)
Si 0.00209044683 2.7097111799999998 2.696563193546855 
Si 2.7354656699999995 0.00295023303 2.6935190848416566 
Si 1.4929931609999998 1.4466171599999997 1.2786842394228621 
Si -0.00153546282 0.000264657114 5.430062492039913 
Si 2.02147497e-05 2.7147773699999997 8.145283348454871 
Si 2.7147122099999996 0.00033371042399999996 8.145042026133961 
Si 2.7161945999999997 2.7134253 5.430165915891732 
Si 1.3575597299999997 1.357447329 6.787569496395573 
Si 2.71233387 2.71704168 10.858711524771637 
Si 1.359082845 1.364860908 12.231938954603747 
Si 4.07235339 1.3572485909999998 9.501307944267795 
Si 2.74875831 0.12690675629999998 13.688250212063586 
Si 2.4757542 3.3426591299999995 16.4070909032922 
Si 2.0893554 1.196632449 18.580439725411445 
Si 0.21294776699999998 2.3171710500000002 17.66872399701188 
Si 3.17324313 3.41888004 18.688207379006585 
Si 2.9417133599999996 3.3548114699999996 22.172315624459415 
Si 0.781950951 2.60820819 22.677610089828562 
Si 4.04058789 1.3299041969999998 21.717354100308725 
Si 0.8787428729999999 2.00077038 24.970310036946646 
Si 2.5954694099999998 0.9880389989999999 29.709190927281846 
Si 2.94234867 1.81615581 26.172302042784175 
Si 2.18821941 2.74761801 28.191549325693483 
Si 2.68167609 3.0448127699999996 34.46137901988438 
Si 1.57780053 1.218873186 31.832482605120813 
Si 3.44085525 2.75913504 32.3015787223534 
Si 1.355966568 4.07295612 4.067591142796953 
Si 2.70736542 5.4513507599999995 2.694822225374572 
Si 1.452751974 6.9048423 1.154241213452813 
Si -0.000316219851 5.42953845 5.430372763595369 
Si 2.7151683299999996 5.42984796 8.145042026133961 
Si 1.3571394479999999 6.78766833 6.787224750222844 
Si 1.3582048139999998 4.07248371 9.502342182785984 
Si 1.3591740689999998 6.78976974 12.239385471934698 
Si 2.73157236 5.45395716 13.661773705997987 
Si 0.8536367249999999 4.52436831 14.911340683672144 
Si 0.7613457299999999 6.612860339999999 17.972031679779004 
Si 3.7861217999999996 6.359339069999999 20.317029621300104 
Si 2.6104399199999997 7.68788631 18.872543157564873 
Si 0.48219214499999996 4.601485169999999 19.097076339863385 
Si 2.23989129 4.73266854 20.521670949432142 
Si 0.9050838029999999 6.679307249999999 23.233409869502534 
Si 3.78200043 5.06959461 23.790450735398327 
Si 3.2689305899999996 6.96949731 22.514096980103115 
Si 0.733857984 6.034679369999999 25.556999073697153 
Si 2.71181259 6.0644249100000005 29.596217606478493 
Si 0.359530074 5.75328591 29.186624678658966 
Si 3.02754537 5.87184453 25.954560360088433 
Si 3.59070696 4.651365149999999 27.954226060386723 
Si 2.8417904999999997 5.04809181 31.744572331074874 
Si 0.6031274759999999 4.6420309799999995 32.70482832059471 
Si 3.04960203 7.92049122 34.00486613795641 
Si 1.3545802889999998 9.504693719999999 4.070969655289699 
Si 2.712285 10.85234913 2.680363570890311 
Si 1.236353985 12.163384619999999 1.1983342489448743 
Si 9.18710388e-05 8.14493484 8.145283348454871 
Si 2.7151846199999996 8.14576563 5.430096966657186 
Si 0.000316583118 10.860380099999999 5.430820933619917 
Si 2.71541268 10.86002172 8.14490412766487 
Si 4.082681249999999 9.49781934 12.241247101267435 
Si 1.3594542569999999 9.50544306 9.502376657403255 
Si 2.7125619299999997 8.14638465 10.863434547338027 
Si -0.0017694849599999998 10.86008688 10.859987085610735 
Si 1.367609031 12.2258079 12.212736592782731 
Si 2.7542154599999997 9.79180497 16.504619595557283 
Si 1.001321865 9.983114729999999 14.773511163815021 
Si 2.73979881 10.90540566 13.572622345730224 
Si 1.31453784 10.84272174 18.040946439707565 
Si 0.30663644399999995 10.24466697 21.301314419059164 
Si 4.009115609999999 10.50498117 20.930195164116206 
Si 2.0898440999999996 9.71737596 19.889682265585023 
Si 1.3012142489999998 11.94884532 22.503306424896696 
Si 1.6431723 10.87176681 24.52900046123603 
Si 3.8006198999999996 9.911096639999998 24.69334096177603 
Si 3.8447495099999998 8.18144073 26.28058681563841 
Si 3.1666130999999997 8.36155926 29.898525525344702 
Si 0.256631031 9.18342234 27.560388032660917 
Si 2.6745573599999997 11.93923422 27.83356489993151 
Si 2.59144578 9.483174629999999 27.89041354381455 
Si 3.7142503199999997 11.093441129999999 32.349188168807295 
Si 2.16872028 9.09631971 32.00444199607812 
Si 0.538076619 15.687269999999998 -0.0006411623795034412 
Si 4.051697669999999 14.83483059 1.202895240810081 
Si 1.358866188 14.933564279999999 4.068108262056047 
Si -0.0001385682786 13.57437555 8.144524906874867 
Si 2.7161945999999997 13.57452216 5.430131441274459 
Si 1.3574913119999998 12.21743484 6.787672920247392 
Si 1.3583465369999999 14.930909009999999 9.502169809699618 
Si 2.71337643 13.573854269999998 10.859125220178912 
Si 2.7039771 13.982179409999999 16.36251522315832 
Si 3.96959607 12.41008038 14.81284670212342 
Si 0.14985366479999998 13.67356536 13.61819778976502 
Si 1.184240646 15.292172339999999 15.045791691036522 
Si 0.0839599632 15.39843201 21.199304026548603 
Si 2.3282808299999997 16.20315801 20.610615461996264 
Si 3.13714449 14.104859399999999 19.89333657501595 
Si 1.508905233 13.21954677 18.42526947306605 
Si 3.41283645 12.61023561 21.740693416202493 
Si 3.4968928499999996 15.20239815 24.470979680365712 
Si 1.177514505 14.720833169999999 24.697788187404235 
Si 1.353426957 12.71322099 25.967936511590324 
Si 1.88323803 13.17983175 29.686196357560807 
Si 3.3638524199999997 15.816840659999999 26.716897571844452 
Si 1.8280800899999998 15.33061674 28.53781238158266 
Si 2.2250348099999995 13.93260894 34.30510557978626 
Si 3.1531738499999995 13.414814999999999 31.921151320746755 
Si 8.139168179999999 0.0209743524 2.688451316102537 
Si 4.07401497 1.355938875 4.075796101707907 
Si 5.415838559999999 2.70370017 2.7137901597981315 
Si 6.59331234 1.2954378149999999 1.222866386596282 
Si 5.42991312 0.00266657526 5.42978669510173 
Si 5.42953845 2.71539639 8.144869653047595 
Si 6.787521719999999 1.3574978279999999 6.787259224840117 
Si 6.7848175799999995 1.36609569 12.240971304329252 
Si 5.49354186 2.9199987899999997 13.598236986364002 
Si 4.1552532 1.6958378699999999 15.25946536889406 
Si 7.6662368999999995 2.9687058899999994 21.359300725312206 
Si 6.02169624 1.496734974 20.434898337756206 
Si 5.0256279 0.6435950939999999 23.74532346138808 
Si 5.14531053 2.36152872 25.320675572291307 
Si 6.64819335 2.15798517 27.13759132642586 
Si 6.41860209 0.320574168 28.571528557275577 
Si 5.846920829999999 2.49035004 31.586195939323094 
Si 4.89757221 0.7358404769999999 30.2726440719904 
Si 7.629111989999999 3.1125954599999996 34.414355641924125 
Si 4.17222738 4.17045177 1.3921195200976688 
Si 6.788841209999999 4.07240226 4.069176975191507 
Si 4.07002392 6.787391399999999 4.07062490911697 
Si 5.885446679999999 5.06763981 0.04006708968692981 
Si 6.8843006099999995 6.91728786 1.3049711350934616 
Si 4.0725814499999995 4.07240226 6.787569496395573 
Si 5.42916378 5.42996199 5.429648796632638 
Si 6.78776607 6.78714705 6.787707394864665 
Si 6.787831229999999 4.0715226 9.502445606637801 
Si 4.07334708 6.7884828299999995 9.50241113202053 
Si 4.0486188599999995 4.085662319999999 12.213391610510916 
Si 5.42727414 5.432633549999999 10.863400072720752 
Si 6.7865280299999995 6.8180003099999995 12.226767762012809 
Si 6.32894193 4.82205177 15.028140686992787 
Si 4.51752651 6.5679650999999994 14.975291098713404 
Si 4.11612462 7.845736409999999 17.091274157690517 
Si 6.643941659999999 4.9412457 17.68951219122745 
Si 7.447722839999999 6.7308488099999995 21.389638388512378 
Si 6.005715749999999 6.5641206599999995 19.566620627120518 
Si 7.518910139999999 4.8170344499999995 22.79165212376737 
Si 5.9189389199999995 4.48486506 24.496732219468583 
Si 6.202238309999999 7.868705309999999 26.431516690059244 
Si 6.72754194 5.58919674 26.443927552277493 
Si 5.908383 4.19055363 28.142905640721395 
Si 6.52328163 6.55231041 31.49935437841261 
Si 4.58597709 6.29650854 32.94194473819783 
Si 6.69191571 4.37937102 30.35886508978997 
Si 8.15078295 10.855900349999999 2.69399828202175 
Si 4.109478299999999 9.44497458 1.2011301404057075 
Si 5.42859363 8.14625433 2.7048543390009914 
Si 6.78703302 9.50340681 4.0706938583515155 
Si 4.0730701499999995 12.22052994 4.069142500574234 
Si 6.75036423 12.230238779999999 1.3056571799771926 
Si 4.07225565 9.50282037 6.787431597926481 
Si 5.42991312 8.14508145 8.145076500751234 
Si 5.42989683 10.860103169999999 5.430407238212642 
Si 6.78858057 9.502413119999998 9.501825063526889 
Si 5.43139551 10.85795289 10.861159222598014 
Si 6.80716746 12.202024499999998 12.22831911979009 
Si 7.8992979299999995 8.355092130000001 16.89401039765488 
Si 5.5665862200000005 8.27593902 13.733756706863838 
Si 6.86309103 9.64503207 15.159730301123512 
Si 5.029602659999999 10.85873481 16.23926846640764 
Si 7.741398959999999 10.71412848 21.117702607463606 
Si 5.86840734 10.68729885 19.575756400697838 
Si 6.11739999 8.64094905 18.40217147949319 
Si 7.64128062 8.79096366 24.74229491830357 
Si 6.93779697 8.786418750000001 22.475554357991996 
Si 4.53528261 8.99955711 22.66599214380759 
Si 5.2481493 11.72133918 25.30774759081396 
Si 7.512247529999999 11.0239317 25.519904385511495 
Si 7.08382053 8.74878885 28.43521592057846 
Si 6.43098249 12.188112839999999 29.296908979315027 
Si 7.7923215 10.932675119999999 27.87124565661081 
Si 8.02013715 8.44248798 34.23443261437677 
Si 5.231745269999999 11.051054549999998 34.28431738557068 
Si 7.17989895 10.622497229999999 32.96059550614248 
Si 5.56199244 8.49668481 30.239376066322034 
Si 5.73481305 10.666512809999999 31.070076444130247 
Si 5.42269665 13.56828309 2.7081328751036455 
Si 6.78709818 14.93169093 4.066936125068768 
Si 4.07267919 14.932309949999999 6.7875350217783 
Si 5.430141180000001 13.57463619 8.145007551516688 
Si 6.787456559999999 12.21736968 6.78729369945739 
Si 4.0726629 12.220057529999998 9.501204520415977 
Si 6.78815703 14.93431362 9.503410895921444 
Si 4.06808541 14.942312009999998 12.234593500133762 
Si 5.4275999399999995 16.290488699999997 10.86326217425166 
Si 4.676077079999999 15.574445459999998 16.645827627907153 
Si 5.47168068 13.570514819999998 13.523013371474494 
Si 6.71351625 14.744388509999999 15.093918256749513 
Si 8.01684657 16.27195068 13.780400864034096 
Si 6.476985449999999 15.44933826 20.18364732707119 
Si 5.051300939999999 14.448448079999999 18.635943859220845 
Si 5.8519055700000004 12.33801342 17.95448409958709 
Si 6.45818679 14.35753359 22.2867713538055 
Si 4.700088539999999 13.364739539999999 23.582844590180823 
Si 7.253969579999999 16.04736045 23.677442939977706 
Si 8.12061387 12.746680649999998 22.229509014515187 
Si 7.312629869999999 14.705927819999998 25.61546802459202 
Si 5.491880279999999 14.9450976 27.16727397189784 
Si 4.887635309999999 12.67445079 27.51601920023067 
Si 7.758161369999999 14.026390469999999 34.44514147514884 
Si 5.154546959999999 15.0381135 31.688792400327294 
Si 7.23491028 14.00400801 30.657070529200702 
Si 5.75496378 15.661108259999999 34.13114666102711 
Si 9.49866642 1.3591968749999999 4.070762807586061 
Si 10.85971221 2.70977634 2.694449899508025 
Si 9.45465084 4.02341823 1.229981947601412 
Si 8.14561902 0.0005728867199999999 8.144455957640321 
Si 8.14690593 2.71578735 5.4309933067062826 
Si 10.860787349999999 0.0013164453989999998 5.429890118953549 
Si 10.85899545 2.71487511 8.145042026133961 
Si 9.503732609999998 1.357359363 9.499860010342333 
Si 8.14889331 2.71267596 10.860262882548918 
Si 9.27977769 1.3289300549999998 15.44369772360053 
Si 10.653252749999998 2.7948101399999996 14.004968520949877 
Si 12.109106339999999 2.33730549 21.34668301539032 
Si 11.626710569999998 0.38979526499999995 20.127177903978147 
Si 9.33187311 3.0749655599999994 19.77760528483077 
Si 9.65816181 0.8172953639999999 18.84392922522835 
Si 8.18901558 2.30050638 17.667655283876417 
Si 9.967948739999999 2.6002098 22.29997513222103 
Si 9.57474072 0.490040667 23.433879768944546 
Si 10.07805285 3.9701662199999994 25.66697310279776 
Si 10.072041839999999 0.38838780900000003 25.809663543690363 
Si 10.441417589999999 0.46839777299999996 29.934241228839447 
Si 10.162858589999999 2.57515578 28.91927402170749 
Si 9.01675935 2.2422533399999995 26.810047987715873 
Si 10.796588459999999 1.259676378 32.253796902813136 
Si 11.884353209999999 3.48079833 32.76081509904593 
Si 8.5384035 2.2916934899999997 32.3657359850983 
Si 10.87246728 8.13563325 2.6783881753205727 
Si 12.12990867 6.61543416 1.0562333240076367 
Si 8.159139719999999 5.43533769 2.6974457437490416 
Si 9.50239683 6.78506193 4.0717625714869765 
Si 9.50270634 4.0728258 6.787810818716484 
Si 8.14493484 5.4300760200000004 8.144835178430322 
Si 10.860168329999999 5.43048327 5.430200390509004 
Si 8.141904899999998 8.14364793 10.860848951042557 
Si 9.50233167 6.786609479999999 9.500963198095064 
Si 9.49454505 4.06082007 12.245108258402002 
Si 10.86114573 5.43058101 10.860400781018008 
Si 11.653523909999999 4.699127429999999 15.157523925618046 
Si 8.69276754 6.02931996 17.002053848188208 
Si 8.180838 5.52962421 13.601443125770382 
Si 9.98572113 6.4866779999999995 14.977566423453418 
Si 9.483093180000001 7.07407911 20.216811908887735 
Si 10.16126217 5.17476285 18.873784243786698 
Si 11.041378289999999 6.66850698 23.709814605596975 
Si 10.870105229999998 8.067410729999999 21.804057762750112 
Si 9.66407508 7.70267763 25.369422681115207 
Si 9.7783983 4.625105669999999 23.47252581490749 
Si 9.0681543 5.80166721 26.644294027867687 
Si 12.13821657 5.9179941 28.683088418770737 
Si 9.776133989999998 6.01099371 28.844877797632535 
Si 8.769265379999998 6.85282833 32.649082864464404 
Si 9.0632673 4.15018701 30.283641474900463 
Si 10.54454958 5.2673715 33.98445716453085 
Si 9.55488321 9.531034649999999 1.2450783825052227 
Si 8.14486968 8.144136629999998 5.43002801742264 
Si 9.502038449999999 9.50269005 6.787603971012846 
Si 10.8598914 8.14459275 8.144938602282142 
Si 8.14493484 10.859809949999999 8.145731518479419 
Si 10.858653359999998 10.8592398 5.430131441274459 
Si 9.49083093 9.52696215 12.242108966699258 
Si 10.85523246 10.85919093 10.865813295929858 
Si 10.91516337 8.26520391 13.618508061320476 
Si 8.20357884 11.125076309999999 13.8887201115056 
Si 9.228887729999999 11.08040913 19.22480479685954 
Si 9.60924294 8.826052319999999 18.536450113771206 
Si 12.049501229999999 8.7500106 18.065423417971335 
Si 11.058287309999999 10.93304979 24.181978963766852 
Si 10.195568909999999 10.33359408 22.05951467674243 
Si 10.83490254 9.585655019999999 26.164097083873223 
Si 11.516166629999999 11.07962721 29.940791406121303 
Si 9.33540804 8.300569499999998 29.030144390857192 
Si 10.1097369 10.931795459999998 28.00276632150699 
Si 10.168462349999999 8.353088459999999 31.222006082451994 
Si 10.84296609 11.02793904 34.38281136711941 
Si 11.4450282 10.11894075 32.254969039800415 
Si 12.21658776 14.929736129999998 4.070728332968788 
Si 9.50027913 12.22056252 4.070555959882424 
Si 9.53839773 15.08066298 1.1939352877808498 
Si 10.8515835 13.582211039999999 2.688047963080444 
Si 8.14475565 13.573919429999998 5.430717509768098 
Si 9.50226651 14.93252172 6.787431597926481 
Si 10.85985882 13.575108599999998 8.144800703813049 
Si 9.5037489 12.219128999999999 9.50196296199598 
Si 8.147199149999999 13.570189019999999 10.862400308819838 
Si 9.50620869 14.94377811 12.24603907306837 
Si 10.85176269 16.2973305 10.859435491734368 
Si 10.83426723 13.8046347 15.812714026889836 
Si 8.45530821 13.04886015 15.612623348237825 
Si 11.36447415 14.044928489999998 13.523909711523592 
Si 11.07682533 16.10896923 16.40374686541673 
Si 9.84525246 13.78205676 20.98976730276381 
Si 11.20761774 12.227176259999998 19.821663845705558 
Si 8.60276529 14.93698518 19.3161280580155 
Si 8.18824995 12.835167929999999 17.94752022689796 
Si 10.83736233 13.17362526 24.871574733077015 
Si 11.06784954 15.40278144 22.09485115944717 
Si 8.49701061 12.91507038 24.53968759259064 
Si 10.70397981 13.13115723 27.196473972728004 
Si 8.42264676 15.614307089999999 29.282946759319493 
Si 9.133802999999999 14.902825049999999 27.12838660361399 
Si 10.54373508 12.48019254 32.36359855882738 
Si 8.21301075 12.78664002 32.49146491429262 
Si 11.275758810000001 16.073603639999998 34.2716996756488 
Si 12.272283269999999 1.3340418569999999 1.3165235793416161 
Si 14.93187012 1.356315174 4.074244743930626 
Si 13.57532037 -4.79525472e-05 8.144973076899415 
Si 13.57496199 2.71461447 5.43085540823719 
Si 12.21735339 1.357704711 6.7875350217783 
Si 16.288028909999998 0.00445888251 10.862572681906203 
Si 14.93172351 1.3568788079999998 9.502342182785984 
Si 13.57716114 2.71707426 10.865571973608947 
Si 12.19883166 1.368084699 12.254244031979326 
Si 14.91904989 4.06179747 12.263069534001191 
Si 16.23370176 2.56526775 13.782296967984106 
Si 15.882749999999998 0.833748264 15.609934328090537 
Si 13.2913368 0.1197041328 18.46953488164447 
Si 13.33079118 3.7053396899999997 19.799393242947254 
Si 14.70034035 1.81206702 19.339501848526535 
Si 13.68167778 0.185406264 24.704855483945185 
Si 13.72287519 1.9674247499999997 23.093132651819033 
Si 15.451667729999999 1.274656662 21.55370309211419 
Si 15.946297289999999 0.0513524331 25.612227410568366 
Si 16.04938041 3.8878365599999998 25.833313131139583 
Si 12.35431971 0.0194149107 28.55894532197096 
Si 14.388256529999998 2.82380634 29.379061992276387 
Si 14.4445059 0.5142296879999999 29.537748655583627 
Si 12.35223459 3.4507106999999997 26.092975948439193 
Si 12.275459819999998 1.053444978 26.36191243778522 
Si 16.26242103 3.6521039699999998 28.19303173423622 
Si 12.358164149999999 3.60184932 28.45186716072128 
Si 13.536452429999999 2.79717219 34.44655493445703 
Si 13.993419509999999 3.7152277199999997 31.470878344545184 
Si 15.440590529999998 0.498646674 31.701306686397363 
Si 15.51239685 2.54128887 32.903229743000345 
Si 16.00598385 5.742729989999999 0.11769186166949379 
Si 16.303194899999998 8.146172879999998 2.6945464284363894 
Si 12.21883578 4.07611638 4.072003893807886 
Si 14.882983829999999 4.08939273 1.3718725773732847 
Si 13.54917492 5.436592019999999 2.7066470190991834 
Si 14.93454168 6.78672351 4.068004838204228 
Si 14.9325543 4.0728258 6.787603971012846 
Si 13.57502715 5.430206339999999 8.1456280946276 
Si 12.21764661 6.78708189 6.787224750222844 
Si 16.290325799999998 5.42901717 10.866640686744407 
Si 12.216115349999999 4.07106648 9.502549030489622 
Si 14.93183754 6.78911814 9.501756114292345 
Si 12.20474493 6.803176409999999 12.214736120584561 
Si 16.18773138 8.139151889999999 13.646708298249722 
Si 13.407826589999999 5.4718924499999995 13.687870991273586 
Si 14.1749064 7.47333072 14.985357686957096 
Si 13.48513893 7.01312193 17.212245589701183 
Si 14.99044896 5.11662384 20.621268118733596 
Si 14.62208319 7.47339588 20.591895744817073 
Si 15.23742165 8.014109849999999 18.378970062068518 
Si 12.39380667 4.92243075 17.716781613490326 
Si 15.921064079999999 4.6742363099999995 22.722254719196993 
Si 13.26745566 6.444812699999999 24.585987003588166 
Si 14.14936368 4.104379529999999 24.39279124839074 
Si 13.431968369999998 6.79099149 26.914195806497354 
Si 15.804557999999998 6.98332752 27.36215898334164 
Si 15.27873309 5.655301559999999 31.182670544143594 
Si 14.22972225 7.6683546 31.88798673893021 
Si 12.44168298 7.64432685 30.27736709455679 
Si 14.10350733 7.38562536 34.299830963343496 
Si 14.93501409 12.21564294 4.071314401462428 
Si 12.21714162 9.50378148 4.069108025956961 
Si 14.805850679999999 9.291978899999998 1.2583304253849317 
Si 13.572860579999999 10.859174639999999 2.6841006194026953 
Si 13.57603713 8.14640094 5.429717745867184 
Si 14.93276607 9.50255973 6.787672920247392 
Si 13.576167449999998 10.8598914 8.144214635319411 
Si 12.22015527 9.502282799999998 9.502652454341439 
Si 13.574913119999998 8.14480452 10.857884133957086 
Si 14.927879069999998 9.5118939 12.215873782954567 
Si 12.6307773 9.406318409999999 14.879796408867424 
Si 13.74524136 10.992964409999999 13.629988108872357 
Si 13.03980291 10.55414439 16.974991273628966 
Si 15.640240769999998 11.79285228 14.934024981837723 
Si 15.264707399999999 10.36351881 17.85012943310197 
Si 12.933673559999999 10.960482149999999 20.896065293016022 
Si 12.62347938 8.67561417 20.371499516591314 
Si 15.05303514 11.457424889999999 20.001000804759272 
Si 15.7551993 8.371431 22.437873601312695 
Si 13.21972596 10.850931899999999 23.244510696264413 
Si 14.22727875 8.860717439999998 24.216970700298862 
Si 15.851733839999998 10.10085885 25.519594113956035 
Si 15.4173447 10.143734129999999 29.38188891089277 
Si 13.13498538 9.628644329999998 29.019629632588952 
Si 13.03325433 9.06660675 26.707623899798033 
Si 15.890846129999998 9.41035833 31.589505502581293 
Si 14.43535092 10.97151048 32.89505925870667 
Si 16.13548935 10.70194356 34.42273297392145 
Si 12.2950404 12.35896236 1.2340189252840708 
Si 15.025553909999998 14.986588229999999 1.4112115631434103 
Si 13.589378639999998 16.2934209 2.717637527085789 
Si 16.291466099999997 13.54933782 2.7128110806675805 
Si 13.574750219999999 13.57439184 5.43061408591628 
Si 12.21763032 12.21746742 6.787431597926481 
Si 14.93274978 14.93213076 6.787328174074663 
Si 12.217744349999998 14.93208189 9.504203812118721 
Si 14.93187012 12.2178258 9.500618451922337 
Si 13.580533169999999 13.56917904 10.855815656920711 
Si 12.23152569 12.230922960000001 12.23752384260196 
Si 14.926152329999999 14.92514235 12.23883387805833 
Si 13.618602899999999 16.16585391 15.911242483055833 
Si 13.141696859999998 15.898518719999998 13.565244777633819 
Si 14.0366043 14.299638929999999 17.809552808571745 
Si 15.7232709 13.718998169999999 19.527388512663936 
Si 12.2824971 12.721854689999999 17.468391996038957 
Si 14.24207007 12.93627996 23.826545659683074 
Si 12.51809937 14.56229889 23.815686155242105 
Si 16.25678469 13.812584219999998 22.920759565454446 
Si 15.258859289999998 12.375985409999998 25.926739343949187 
Si 15.8700438 12.44744964 29.67595739623075 
Si 14.76045045 13.53948237 27.900583555910064 
Si 15.834857399999999 15.67855485 27.91489052207832 
Si 12.49640109 14.002232399999999 28.434733275936644 
Si 13.133030579999998 14.33006865 34.40621963224772 
Si 12.305286809999998 13.18483278 30.66689579512348 
Si 14.51986344 12.96420102 31.58691990628582 
Si 15.06805452 14.830464869999998 32.89226681470756 
