&CONTROL
  dt          = 30.D0,
  prefix = 'x.66_y2.00_z3.15_struc33-scf',
  pseudo_dir = './',
  outdir='./',
  wf_collect= .true.,
  verbosity= 'high',
/

&SYSTEM
ibrav= 6, celldm(1) =30.783621515, celldm(3) =2.104478273085783, nat=  432, ntyp= 1,
  ecutwfc     = 12.D0, nbnd= 1728,
  degauss     = 0.05D0,
  occupations = "smearing",
  smearing    = "methfessel-paxton",
/
&ELECTRONS
  electron_maxstep=200,
  conv_thr    = 1.D-8,  mixing_beta = 0.3D0,  scf_must_converge=.false.,
/
&IONS
/
ATOMIC_SPECIES
Si  28.08  Si.pbe-hgh.UPF
K_POINTS {automatic}
1 1 1 0 0 0
ATOMIC_POSITIONS (angstrom)
Si 2.70956457 0.00460655136 2.6798269714201277 
Si 2.73430908 2.9341548 0.0386350732152541 
Si 1.3636375289999998 1.3557010409999999 1.1617364732262918 
Si -0.000226403307 0.000201113082 5.4301924853589405 
Si -0.000294909273 2.7152334899999997 8.145323009989479 
Si 2.71539639 -0.00045543744899999994 8.145254446087343 
Si 2.7146959199999996 2.7146796299999996 5.430329613163214 
Si 1.3572062369999998 1.357667244 6.7872778003592495 
Si 2.71280628 2.7151194599999995 10.86518444386748 
Si 1.3412957939999999 1.374372639 12.236291076854833 
Si 1.359244116 4.07357514 9.501619840115211 
Si 4.0732819199999994 1.35749457 9.503231091815435 
Si 2.81338074 0.1186228026 13.514219366837821 
Si 3.8137007699999996 1.6997148899999999 14.970585212132702 
Si 2.7401246099999996 2.9453786099999997 17.87676905006837 
Si 2.0144051099999998 0.6074834219999999 18.626858139448622 
Si 1.8790514999999999 3.0860264699999997 24.635387139334295 
Si 2.41346124 2.1721248899999996 22.544668071466642 
Si 1.225429911 0.170232129 22.978300470532954 
Si 1.0541584800000001 3.71141586 21.471814412775828 
Si 3.66306714 2.06612586 25.662782930908193 
Si 2.09922714 3.7740183299999996 28.673800975211535 
Si 0.136923966 2.82789513 27.715037649676912 
Si 0.1231533774 0.607810851 28.47397148243286 
Si 2.79757944 3.01277034 30.832946817412047 
Si 2.6202465 0.726884235 31.31536243284893 
Si 0.33613600499999996 0.348592968 30.818891217473933 
Si 1.35570267 4.07238597 4.066319344047055 
Si 2.7218146500000002 5.435565749999999 2.702830160587137 
Si 1.2997872449999999 6.7360779 1.274705786582542 
Si -0.00031530598199999997 8.135730989999999 2.707660487492698 
Si -0.001002952494 5.43234033 5.42971253804398 
Si 2.71490769 5.430466979999999 8.145014472429862 
Si 1.357354476 6.78773349 6.787037826701769 
Si 2.7151031699999995 8.146563839999999 5.430021075603598 
Si 1.3682199059999998 6.80185692 12.224395239834042 
Si 3.80682639 6.898310009999999 15.191326695063207 
Si 0.792042606 4.59322614 15.010695094882927 
Si 2.62699056 5.42764881 13.671127856878654 
Si 2.53589688 7.47668646 17.486194781544178 
Si 2.52014445 4.46417676 19.816613251283254 
Si 1.398703383 6.4891214999999995 19.44362562365724 
Si 1.5059600009999998 5.40883386 24.762161794385857 
Si 0.24473118599999996 5.5462563 22.772643046072613 
Si 3.73102902 5.996821409999999 24.327912320200312 
Si 0.6428017709999999 7.459761149999999 21.475208325931614 
Si 1.7161026299999997 6.0992203499999995 28.725086774010112 
Si 0.490314339 6.4302657299999995 26.749795035390324 
Si 3.8965354199999997 6.79548753 28.218330973314547 
Si 1.8974592 4.2863225400000005 32.59737027500908 
Si 2.4438257999999995 6.74404371 32.43586800352506 
Si 0.930758472 7.29738243 30.669970422032076 
Si 3.91583907 9.47079423 1.3360293406539954 
Si 1.3541111369999999 9.501484589999999 4.07622682790587 
Si 0.32410095299999997 10.43656317 0.0373906383914651 
Si 2.7080170199999998 10.85604696 2.7392855873534514 
Si 1.4469413309999999 12.15833472 1.2865913390180144 
Si 0.000389273985 8.14498371 8.145014472429862 
Si 2.71497285 10.85979366 8.145117318283068 
Si 1.3595177879999998 9.50402583 9.502065505479102 
Si 2.7140769 8.145 10.86017927901147 
Si 0.00015973745939999997 10.856405339999998 10.862853271194817 
Si 0.036023706 8.179811729999999 13.626389910734174 
Si 0.944029935 9.954753839999999 15.03476102453306 
Si 2.7282980699999997 10.91100942 13.689160163140722 
Si 1.574620722 11.324954609999999 19.376810101024603 
Si 1.621206864 9.63432954 17.6247967097144 
Si 1.9119572999999999 8.973411659999998 22.76318122757769 
Si 3.92077494 8.27649288 23.744742050572913 
Si 0.472185198 9.78097212 24.36771366539092 
Si 2.36415141 10.90317393 21.527042635947286 
Si 0.8885070989999999 12.065709779999999 24.86336211394027 
Si 0.439891902 8.783356229999999 26.503102115500916 
Si 2.39629158 11.94825888 26.67886567862946 
Si 2.02085595 9.9145827 27.89769188497024 
Si 2.14532784 8.661327839999998 34.072831167049145 
Si 3.0704532299999996 10.27597635 31.981117922600507 
Si 1.600310052 9.57483846 30.27096279354502 
Si 4.0734774 12.217972409999998 4.070810279637037 
Si 3.31042122 13.05166203 0.09161577167466091 
Si 1.357463619 14.931185939999999 4.070158922566734 
Si 6.11202429e-05 13.57457103 8.145323009989479 
Si 2.71606428 13.57307235 5.431323789744202 
Si 1.3573561049999998 12.216913559999998 6.7876891837720725 
Si -0.001312260498 16.291466099999997 10.86545869947603 
Si 1.358856414 14.932375109999999 9.503162527913297 
Si 2.7135882 13.572225269999999 10.860384970717881 
Si 1.3810352489999997 12.21569181 12.219115819369483 
Si 1.034206488 15.527807189999999 14.969728163355988 
Si 0.1365501105 13.56583959 16.339257826594185 
Si 2.7803609099999997 15.743763719999999 16.72208437417688 
Si 2.4620543099999996 13.473931409999999 16.426368264259416 
Si 0.14359130009999999 13.62809997 13.5944048503872 
Si 3.98106423 12.37285773 15.098251197912047 
Si 3.3437179799999996 15.768654839999998 20.36347893472904 
Si 3.38517603 12.460383899999998 18.36487546938263 
Si 2.7089455499999997 14.80169673 22.480972206381242 
Si 1.4157834479999998 12.81592944 22.675350868940022 
Si 0.21322143899999998 16.230802139999998 25.113483228936534 
Si 3.5218654199999997 13.59141489 29.79770045904345 
Si 3.7508376599999997 16.10681895 26.254900789764488 
Si 1.5441991469999998 15.635321189999999 27.05099625747876 
Si 1.71776421 13.55691267 28.2012585616824 
Si 3.3171164099999997 12.666599009999999 32.035900480408074 
Si 6.78628368 4.0691931299999995 4.068856208426129 
Si 4.07269548 1.358247168 4.068787644523992 
Si 5.43589155 2.7192896999999996 2.6812633851699013 
Si 6.87591126 1.376630433 1.1938620895726464 
Si 4.07280951 4.07243484 6.787483492065661 
Si 8.14482081 -5.2474488299999996e-05 8.144740216821313 
Si 8.146857059999999 2.71459818 5.431769455108094 
Si 5.4317376 0.00011662353089999999 5.430329613163214 
Si 5.43015747 2.71494027 8.14504875438093 
Si 6.78714705 1.358002818 6.787929157429553 
Si 5.42908233 0.0007161165449999999 10.860830636081772 
Si 6.786397709999999 1.365271416 12.227583461283418 
Si 7.50949452 3.63260484 15.09530295012015 
Si 5.02994475 0.18930120299999997 16.5595536441608 
Si 5.53086225 2.77912287 13.722927884943259 
Si 5.07883104 2.43867816 17.55698701050077 
Si 4.35575052 1.352359962 21.313328952985838 
Si 5.635476629999999 2.7486605699999997 19.86289388522582 
Si 7.9887789 2.59892289 19.735673564810366 
Si 5.755240709999999 0.48963667499999997 22.94076173411287 
Si 5.52674088 2.40145551 24.31029139735107 
Si 7.542872729999999 2.120958 25.509953993044515 
Si 4.070594069999999 3.5457954299999996 27.360459429774714 
Si 7.71305436 3.2564198699999998 27.606466710642756 
Si 5.30560413 0.210981564 28.080106146606084 
Si 5.745303809999999 2.4892097399999997 28.590084450702093 
Si 5.107810949999999 3.55959306 30.591636163840402 
Si 4.21743213 4.26542247 1.2606638994248567 
Si 4.0716040499999995 6.78990006 4.071118817196654 
Si 6.95073123 6.899124509999999 1.1530768523863717 
Si 8.15539302 5.43633138 2.6820484418493713 
Si 5.429212649999999 5.429391839999999 5.429232590729021 
Si 6.787407689999999 6.78726108 6.787449210114593 
Si 5.429766509999999 8.14493484 8.145083036331998 
Si 6.788662019999999 4.0734774 9.502065505479102 
Si 4.074063839999999 6.788873789999999 9.500522817681018 
Si 4.08207852 4.07671911 12.248152631924558 
Si 5.430141180000001 5.4312651899999995 10.861276301445663 
Si 6.77760111 6.7826510099999995 12.250620932401496 
Si 5.58230607 6.5055743999999995 16.746561687239836 
Si 6.67880226 4.37480982 17.1961694755041 
Si 4.75739676 4.74811146 20.765023427595168 
Si 5.707576169999999 6.92375499 20.296149182830376 
Si 8.124832979999999 6.740573939999999 20.02755009620815 
Si 4.67140185 7.925785469999999 18.435222032975332 
Si 5.19711273 4.5010899 23.113199947987763 
Si 7.43814432 5.16368565 23.646901362223222 
Si 6.88933422 6.25329117 25.69103125858869 
Si 5.19312168 5.8212315 29.897838038114735 
Si 7.32097035 6.6202885799999995 29.454983794210982 
Si 4.71558033 5.61589605 26.388703244785106 
Si 8.116655399999999 5.58474957 27.521036088579887 
Si 5.656718789999999 5.62987287 33.90248415218944 
Si 4.777531199999999 6.92380386 31.988557105982387 
Si 6.97731651 4.28407452 32.36456154530243 
Si 8.16889743 10.85497182 2.6971359285146477 
Si 5.43069504 8.13924963 2.6787573745467887 
Si 6.785664659999999 9.503309069999998 4.0665593177045345 
Si 5.08246371 11.186831699999999 0.21965783045722811 
Si 4.07189727 9.50249457 6.787380646212456 
Si 5.42997828 10.86241635 5.430089639505735 
Si 6.78854799 9.50308101 9.503985294738943 
Si 4.07424303 9.511519230000001 12.240096373423446 
Si 5.42688318 10.86230232 10.866795695567703 
Si 5.41008819 8.19466821 13.720733840074871 
Si 7.13407518 9.21741957 15.106376020315297 
Si 6.62675571 10.57537026 17.377898098118575 
Si 4.643822879999999 10.552499099999999 20.989193105632534 
Si 4.631328449999999 10.336265639999999 18.55990548901171 
Si 5.454641339999999 8.57979639 21.99574547095674 
Si 7.56732402 8.861108399999999 22.961193776949738 
Si 6.939849509999999 8.582598269999998 25.19397725004553 
Si 4.8545177399999995 9.54722691 25.55846295380654 
Si 5.55599772 10.073442779999999 29.424747113368504 
Si 7.58195244 8.952153209999999 28.913808914642576 
Si 4.64049972 11.93700249 25.788494845476627 
Si 4.17647907 9.05434038 27.76550068164984 
Si 5.13584604 9.302599979999998 31.615295222747825 
Si 6.76624698 10.32992883 32.977248574799866 
Si 7.634699459999999 13.9468464 0.07084913699536552 
Si 4.125507659999999 14.96086632 1.244503387691134 
Si 5.42095362 13.590665549999999 2.7229125275231034 
Si 6.79630203 12.26309571 1.4362423400176316 
Si 6.783840179999999 14.93235882 4.072044429875505 
Si 8.148746699999998 16.301077199999998 2.7053224584298214 
Si 4.07277693 14.932472849999998 6.787414928163524 
Si 5.430190049999999 13.574847959999998 8.144877344625588 
Si 6.7872285 12.218037569999998 6.787586337918867 
Si 8.1440226 13.57137819 10.863916011677944 
Si 4.073249339999999 12.21943851 9.502408324989789 
Si 6.78716334 14.934118139999999 9.502545452794063 
Si 4.07693088 14.933140739999999 12.208282722831814 
Si 6.7834166399999996 12.23870958 12.25675740164277 
Si 7.9979013 14.04641088 16.099352733016353 
Si 5.90093847 12.661288469999999 16.447657355872998 
Si 5.52387384 13.878884519999998 13.695262350430925 
Si 6.695760149999999 15.54836517 14.90411250901075 
Si 7.838943479999999 12.329510039999999 20.895740507019617 
Si 4.73398803 13.975044389999999 19.789530509939087 
Si 5.9784625799999995 14.66178192 17.88420823345025 
Si 5.5978141500000005 12.601569329999998 21.55042292657605 
Si 7.92340713 16.07671503 22.190432671075136 
Si 5.52318966 13.05387747 23.90706708888258 
Si 4.47271272 15.148136159999998 24.091229730022924 
Si 7.82333766 12.610936079999998 24.336757063576 
Si 6.284502809999999 13.04977239 27.298271970536334 
Si 5.58250155 12.45385161 29.398589984703186 
Si 7.263939059999999 15.232241429999998 27.781270379141382 
Si 4.2604703100000005 15.80507928 30.090434039217946 
Si 7.5312253799999995 12.641854499999999 32.38458220472648 
Si 5.55909282 13.743840419999998 31.432983806965183 
Si 5.9794399799999995 15.7796343 34.23992139655735 
Si 12.10006539 1.19599551 1.3200230977000813 
Si 9.50104476 1.357049853 4.078558000578533 
Si 10.8537012 2.69865027 2.7036083608763932 
Si 10.8600543 0.001585908063 5.431426635597409 
Si 10.86031494 2.71485882 8.144603089017039 
Si 12.20966451 1.349222508 12.25720306700666 
Si 9.50306472 1.3571541089999999 9.50305968206009 
Si 8.13905415 2.7176607 10.861927658515965 
Si 12.21763032 4.073053859999999 9.50233976108765 
Si 10.863719549999999 -0.0017052534899999999 10.862064786320241 
Si 8.346116339999998 0.215244657 13.551723821306833 
Si 9.190589939999999 1.80866241 15.221460530052479 
Si 10.82781639 2.7544435199999997 13.695193786528788 
Si 10.674038789999999 1.6465931999999999 17.75702219498586 
Si 12.05890056 3.6624806999999997 20.478906263976906 
Si 10.860282360000001 3.89085021 18.47300074305289 
Si 8.43791049 1.1830058639999999 17.785407650470635 
Si 11.407675229999999 1.80748953 21.756286042742797 
Si 9.03230001 1.88506251 21.847818852095873 
Si 8.84768544 3.1974989399999996 23.911009513255465 
Si 10.92052278 3.1988673 25.220408634319398 
Si 9.541150739999999 2.81432556 29.01247236981791 
Si 10.65352968 0.0627357222 26.39603958231378 
Si 11.07944802 2.12918445 27.379383066764564 
Si 8.18302086 2.83257036 34.00334165223316 
Si 9.405341009999999 1.1628030059999999 30.64220204166654 
Si 11.93517801 2.4526549799999997 32.31540122747011 
Si 9.807606269999999 1.4589991889999998 32.92280883650299 
Si 10.871164079999998 8.136936449999999 2.6857268951990285 
Si 12.234767399999999 6.76746873 1.1673484286162163 
Si 9.572036579999999 4.083495749999999 1.25597070032357 
Si 9.49915512 6.786739799999999 4.068719080621855 
Si 9.50213619 4.07215791 6.787860593527416 
Si 8.14444614 5.43054843 8.14528872803841 
Si 10.860380099999999 5.42922894 5.430398177065351 
Si 10.85783886 5.42911491 10.861276301445663 
Si 8.147052539999999 8.143208099999999 10.863470346314053 
Si 12.20425623 6.791545349999999 12.237456663191164 
Si 9.503569709999999 6.786430289999999 9.504053858641079 
Si 9.504123569999999 4.0961205 12.241124831955501 
Si 8.21512845 5.5133505 13.761015132580438 
Si 9.03453174 7.584542549999999 15.094171645734887 
Si 8.61729597 4.716867239999999 18.75462697108117 
Si 10.735191449999999 6.452485289999999 23.341003512838395 
Si 8.586768509999999 6.78537144 22.364619264454525 
Si 11.2741461 5.47666542 25.482254176581115 
Si 10.366451009999999 4.86201114 29.876788920158635 
Si 10.419214319999998 5.99545305 27.718808664294453 
Si 8.6508045 5.840567729999999 31.224206724957607 
Si 12.06308709 4.60104534 31.454204334676625 
Si 9.432871109999999 7.924417109999999 32.03281510481191 
Si 11.40852231 4.9288653 34.21702105324354 
Si 9.73162971 9.60867279 1.2155385672333014 
Si 9.50378148 12.2160339 4.072592941092602 
Si 12.21808644 9.50070267 4.066936419166289 
Si 8.14557015 8.14561902 5.431186661939929 
Si 9.50257602 9.50264118 6.78751777401673 
Si 10.859467859999999 8.144674199999999 8.145151600234136 
Si 8.145114029999998 10.85976108 8.14576867535337 
Si 10.859484149999998 10.86075477 5.428649797560855 
Si 12.217548869999998 12.21707646 6.78751777401673 
Si 9.497346929999999 9.531279 12.225972209583196 
Si 10.857219839999999 10.85782257 10.86137914729887 
Si 9.505752569999999 12.219748019999999 9.502545452794063 
Si 12.21748371 9.50236425 9.501311302555594 
Si 10.87020297 8.27914815 13.633589120458572 
Si 8.18595306 10.918160729999999 13.76770011303881 
Si 10.30511916 8.19046539 17.183725127266207 
Si 11.206640339999998 9.22691664 20.652270090530653 
Si 9.27801837 8.76851604 19.294739110166454 
Si 8.33880213 10.98367911 18.9961775983103 
Si 10.0219338 12.147664769999999 17.740909677983634 
Si 11.46661245 10.334392289999998 17.20662547058001 
Si 10.755162989999999 10.349737469999999 22.702056508822437 
Si 8.532848609999999 11.03189751 22.720225942888774 
Si 11.81889999 12.14066007 23.78382347479108 
Si 11.195074439999999 8.59514157 24.183173922788825 
Si 11.60429553 11.43202878 26.052774406264213 
Si 9.688070249999999 9.30867615 29.915253269257565 
Si 10.289399309999999 11.606152589999999 29.708087438950216 
Si 10.55209185 9.32071446 26.29915878859401 
Si 8.162088209999999 11.95397667 26.562478454751673 
Si 8.26536681 9.61525395 26.741498803231735 
Si 11.11523715 8.16624216 28.257035296070963 
Si 8.229137849999999 8.64156807 33.984418015243314 
Si 11.017155059999999 10.97732601 34.035121020873724 
Si 12.21631083 14.93367831 4.069953230860323 
Si 9.4556934 14.90007204 1.3131495665108335 
Si 10.859174639999999 13.56983064 2.701726281762729 
Si 8.14631949 13.5765747 5.429643974141843 
Si 9.50223393 14.93268462 6.7880662852338265 
Si 10.86020091 13.574913119999998 8.14528872803841 
Si 12.217744349999998 14.933287349999999 9.50264829864727 
Si 12.22834914 12.22852833 12.249661037771576 
Si 9.524795580000001 14.92102098 12.246301406566856 
Si 9.5278581 12.41693847 15.315324512078215 
Si 10.96548318 13.61312946 13.836366861029148 
Si 10.910683619999999 14.47110747 21.14695864445008 
Si 8.665432919999999 14.552215379999998 20.48675683077161 
Si 11.69211492 12.9354003 19.53958080469816 
Si 8.319074939999998 15.130363769999999 18.172896543398654 
Si 10.994788889999999 14.3239599 23.487387443901177 
Si 8.725249799999999 14.77302633 24.00137673627221 
Si 8.35181784 16.17989589 25.87077152804119 
Si 9.06703029 15.316004609999998 29.572605168327236 
Si 10.20371391 12.56253849 27.519184863222183 
Si 10.76404104 14.76760176 28.042498846283863 
Si 9.575555219999998 13.3880994 31.15091191357301 
Si 11.779559639999999 14.1850062 32.539948006969226 
Si 10.94806917 15.93774504 34.08729815040009 
Si 16.28587863 2.71137276 2.6828540676994823 
Si 13.57317009 -0.00310098069 2.6979038442185836 
Si 12.86978418 3.04254846 0.14673772079781044 
Si 14.93569827 1.357439184 4.068239133306895 
Si 14.75608473 3.9647905199999998 1.2354495244139254 
Si 13.574847959999998 -0.000422793918 8.145220164136273 
Si 13.57426152 2.71482624 5.430329613163214 
Si 12.2175 1.357973496 6.787654901821004 
Si 14.931984149999998 1.357284429 9.50213406938124 
Si 13.57846434 2.71544526 10.862133350222377 
Si 14.94519534 4.05260991 12.219081537418413 
Si 16.216222589999997 2.73487923 13.795674185110759 
Si 13.574847959999998 0.0475931898 13.927933952333294 
Si 14.31930096 1.89776871 15.336167938327904 
Si 12.60655407 3.6792105299999998 14.910214696300955 
Si 14.471465849999998 1.2829775939999999 17.89271015731525 
Si 15.373622339999999 2.47283829 21.406438732088066 
Si 15.813110249999998 0.22033528199999997 21.395228534088645 
Si 14.11098444 2.99667582 19.497859670247713 
Si 12.461573069999998 0.228203352 18.50118050683125 
Si 14.514047909999999 2.82214476 23.621738410138892 
Si 12.36831282 1.8946573199999999 23.88653220019251 
Si 16.12299492 2.25153864 25.3508514581353 
Si 13.1945742 1.92904551 28.459847318592605 
Si 14.523528690000001 3.91899933 28.58175393659243 
Si 16.12022562 0.221829075 34.06748318268245 
Si 15.28371783 1.64576241 32.28903840709838 
Si 15.73778529 3.9751183799999996 32.45160341906553 
Si 13.253462549999998 1.2592186289999998 30.850087792946333 
Si 12.22235442 4.07385207 4.070878843539174 
Si 13.56911388 5.43129777 2.6965702763220163 
Si 14.9348349 6.787521719999999 4.071770174266957 
Si 14.932994129999999 4.07240226 6.787312082310319 
Si 13.575043439999998 5.42975022 8.14480878072345 
Si 12.21790725 6.7873262400000005 6.787586337918867 
Si 13.57582536 8.145928529999999 10.863127526803366 
Si 16.28846874 5.43100455 10.861516275103144 
Si 14.93315703 6.787391399999999 9.501551276213075 
Si 13.974295049999998 7.9629429599999995 16.1140254080737 
Si 12.38287608 4.844922929999999 16.959315475571366 
Si 13.559372459999999 5.34235437 13.553266509104919 
Si 15.28640568 6.39970569 14.795507288025528 
Si 12.82752792 7.47256509 20.3405100275131 
Si 15.55958898 6.48910521 18.51657310286104 
Si 12.351648149999999 7.09664076 17.714821113220452 
Si 14.579989829999999 4.5217782 17.76161597642905 
Si 14.27103369 5.12263485 23.2959570291343 
Si 12.43593261 5.6156679899999995 21.809285939094803 
Si 13.51882665 6.1273043099999995 25.243171849828926 
Si 14.521655339999999 5.92004664 27.324977610418753 
Si 13.48495974 7.912411379999999 28.277227365250347 
Si 15.755948639999998 5.7488224500000005 34.18332189534314 
Si 14.698695059999999 7.31069136 31.351152789764512 
Si 14.3363403 4.88587599 30.79719074244753 
Si 14.03064216 7.73371008 34.07056855827862 
Si 14.934688289999999 12.21517053 4.0665935996556035 
Si 14.905871279999998 9.4424985 1.286169671019871 
Si 13.56864147 10.85567229 2.706464047400405 
Si 16.29 10.859321249999999 5.431495199499546 
Si 13.576069709999999 8.14441356 5.4301924853589405 
Si 14.933108159999998 9.502103609999999 6.787792029625279 
Si 13.575287789999999 10.860103169999999 8.145254446087343 
Si 14.92991532 9.502657469999999 12.232897163699045 
Si 12.43666566 9.58855464 15.079910354090364 
Si 13.785233309999999 11.030301089999998 13.688097422657595 
Si 15.617532509999998 11.827989809999998 15.005758493929052 
Si 15.516143549999999 8.78223222 17.760484672043784 
Si 14.89194333 8.57530035 21.020183989398518 
Si 12.46505913 10.73698335 19.394156768265297 
Si 14.74372062 10.30542867 19.431112711517212 
Si 13.45917267 8.43085692 24.74844901395843 
Si 14.095427489999999 11.878048979999999 23.304424671048235 
Si 14.71490361 9.59987619 23.178301373066976 
Si 14.439227939999999 9.30281175 26.693504071735738 
Si 13.825062359999999 11.52449082 26.7673816762885 
Si 12.58410645 11.1057075 30.18203541247316 
Si 15.915378869999998 10.75939839 30.467672628776462 
Si 12.84839541 10.28988801 32.60079847011593 
Si 15.03573516 11.28616812 32.7107749691439 
Si 14.10427296 9.217207799999999 30.094924974807927 
Si 12.30312024 12.27739833 1.3033037901639408 
Si 14.85654516 14.972187869999999 1.1243005826594161 
Si 16.28855019 13.58247168 2.6708622412156977 
Si 13.57294203 13.573349279999999 5.429883947799324 
Si 14.93258688 14.93235882 6.787483492065661 
Si 14.933499119999999 12.218428529999999 9.503402501570777 
Si 13.57100352 13.5772263 10.863607474118327 
Si 14.930143379999999 14.93758791 12.2603227245539 
Si 12.288573269999999 14.940406079999999 15.427597901827774 
Si 12.75334326 14.301968399999998 17.750817161842452 
Si 12.42457848 16.19414964 20.830330544380793 
Si 15.79737411 12.359402189999999 19.745478202815974 
Si 16.09650738 16.21037448 19.082122449639197 
Si 15.24377475 14.126818319999998 18.340089618760054 
Si 12.270768299999999 15.94900143 24.662298470923123 
Si 15.409769849999998 13.204152719999998 21.901984334784206 
Si 14.125987529999998 15.240125789999999 22.28943894576116 
Si 14.97345849 12.86693343 25.251776619547137 
Si 14.40516555 15.221538899999999 25.425551829513704 
Si 14.29002783 16.19941131 27.670265421581362 
Si 13.87521927 12.56457474 28.79930719807356 
Si 16.08448536 12.90788649 29.47747275411196 
Si 12.94879068 14.668819199999998 28.84781615883558 
Si 13.67848494 13.3618725 33.978898621121274 
Si 13.31728677 15.23642796 31.074668854396517 
Si 15.60050946 14.48599653 31.222629755208455 
