&CONTROL
  dt          = 30.D0,
  prefix = 'x.66_y.66_z3.15_struc29-scf',
  pseudo_dir = './',
  outdir='./',
  wf_collect= .true.,
  verbosity= 'high',
/

&SYSTEM
ibrav= 6, celldm(1) =30.783621515, celldm(3) =2.101198140089011, nat=  432, ntyp= 1,
  ecutwfc     = 12.D0, nbnd= 1728,
  degauss     = 0.05D0,
  occupations = "smearing",
  smearing    = "methfessel-paxton",
/
&ELECTRONS
  electron_maxstep=200,
  conv_thr    = 1.D-8,
  mixing_beta = 0.3D0,
  scf_must_converge=.false.,
/
ATOMIC_SPECIES
Si  28.08  Si.pbe-hgh.UPF
K_POINTS {automatic}
1 1 1 0 0 0
ATOMIC_POSITIONS (angstrom)
Si 0.023745932999999997 2.7083916899999996 2.7071642707210657 
Si 2.71174743 -0.00531834291 2.6745684533134035 
Si 1.321736391 1.362966381 1.12837731456578 
Si -0.000426126852 0.00030314712599999996 5.430457018983337 
Si 0.000625728222 2.7147122099999996 8.144710015720497 
Si 2.7147122099999996 8.59642848e-06 8.144983843862114 
Si 2.71399545 2.71591767 5.430251647877125 
Si 1.357286058 1.357922997 6.787686202905024 
Si -0.00257290776 0.001070670024 10.860914037966674 
Si 2.71415835 2.71697652 10.856293188076897 
Si 1.3633768889999998 1.371720627 12.236010508128832 
Si 1.110997548 4.066440119999999 15.438122567673311 
Si 4.015436129999999 3.22116831 16.993192583912844 
Si 4.06464822 0.754427367 17.041968221638268 
Si 2.86803369 0.7201808999999999 20.229738532265586 
Si 1.392050547 2.4194885399999997 19.53414659552453 
Si 1.69297083 2.49412932 17.1844615408319 
Si 0.653357691 3.44238651 24.694643295391796 
Si 0.682039494 1.276608204 23.65132384731561 
Si 2.85923709 0.9904857569999999 22.635284527847958 
Si 1.6877417399999999 1.69083684 27.508843563818942 
Si 1.7890818299999998 1.512489033 29.895426960594378 
Si 2.02266414 3.8662197299999996 26.660695123679844 
Si 2.7227106 2.81193093 33.84738315743766 
Si 0.7628965379999999 3.6129590999999994 30.360044859882006 
Si 3.76691589 1.377011619 31.2699415459556 
Si 4.0364991 4.14437148 1.2157319145931818 
Si 1.3595568839999999 4.0697307 4.073296292097055 
Si 2.7033254999999996 5.4315095399999995 2.701756164924142 
Si 1.3120813079999998 6.75681507 1.290822436727939 
Si 2.86109415 8.10396549 0.014988017559891351 
Si 0.0010470316049999999 5.4300760200000004 5.430354333430231 
Si 2.71480995 5.4297828 8.145360357556836 
Si 1.3577486939999999 6.7874728499999994 6.78713854662179 
Si 4.04998722 4.06282374 12.236113193681938 
Si 1.355749911 4.07033343 9.501357314841249 
Si 1.360804698 6.76856016 12.257232189104101 
Si 1.070275806 7.93601559 16.810994184184832 
Si 2.7381860999999996 5.27862789 13.907491713073037 
Si 0.020656371599999997 5.6427745499999995 17.089408947173307 
Si 1.74125439 7.77223593 19.721171216248525 
Si 0.828089118 5.67742338 19.482632676382938 
Si 2.87264376 4.3163613 19.57891749667881 
Si 0.889228746 5.343853049999999 23.321121337043934 
Si 3.0278223 6.246824039999999 23.031787676908504 
Si 1.3999772609999999 5.1634087200000005 28.644956523385385 
Si 3.21178527 6.75225387 29.19873971128685 
Si 1.4986881449999998 4.42323999 32.52246569422672 
Si 3.4176419999999994 5.74766586 31.48349326789869 
Si 1.3576851629999998 9.50102847 4.069736526256042 
Si 2.7251378099999997 10.86937218 2.714294070958403 
Si -0.000257816943 8.145244349999999 8.144812701273604 
Si 2.7161945999999997 8.14622175 5.429772448629296 
Si -0.000725830272 10.86088509 5.430251647877125 
Si 2.7152009099999996 10.8600543 8.14491538682671 
Si 1.356984693 9.50089815 9.502041885195291 
Si 2.7152009099999996 8.1493983 10.860879809448972 
Si 1.0797500699999998 9.176042970000001 14.832893917665661 
Si 2.63896371 10.70586945 13.778381744300905 
Si 4.0405716 10.61410788 18.06355256097365 
Si 2.9466329399999998 11.323618830000001 20.100731249046557 
Si 0.665876556 11.09981052 19.425950251068343 
Si 0.005204133719999999 8.93798091 18.744015492890405 
Si 3.2219502299999996 8.37594333 17.981335661453326 
Si 2.4823516499999996 8.15948181 21.83437144213769 
Si 1.401932061 10.034297910000001 22.965829323296653 
Si 2.43476856 11.814208469999999 24.185288723467586 
Si 3.7865942099999996 10.027570139999998 21.916280284998695 
Si 0.9153074069999999 8.97111477 24.999037503316128 
Si 2.11719501 10.7847945 29.53547986843962 
Si 3.0796896599999997 8.86513203 25.99789410689735 
Si 2.24795484 8.774429309999999 28.277068415123754 
Si 1.546448796 9.25733007 32.610467213238685 
Si 0.2438613 10.86969798 34.075037028674 
Si 3.4395031799999995 10.01994642 31.30940702686606 
Si 0.00724948983 13.57198092 2.685014996916069 
Si 1.523771487 12.26619081 1.2566041875811997 
Si 1.355114601 14.93520957 4.069565383667531 
Si -4.4309614499999996e-05 13.57535295 8.144983843862114 
Si 2.71544526 13.57320267 5.430114733806317 
Si 1.357620003 12.217597739999999 6.7875835173519175 
Si 1.3572567359999999 14.93214705 9.5022130277838 
Si 2.71583622 13.57561359 10.860366381683443 
Si 1.366424748 12.202219979999999 12.247716661182931 
Si 2.6772614999999997 16.20595989 13.573455608818733 
Si 0.0171248625 13.569569999999999 13.656904734976331 
Si 1.190077353 15.126893999999998 14.99465789232555 
Si 3.0713817599999995 14.848204679999998 16.918916700499395 
Si 3.16444653 13.55375241 20.782734464259907 
Si 2.2182907499999995 14.967333449999998 19.19497621361491 
Si 2.29203558 13.79345976 22.930573950063543 
Si 3.39905511 15.562162799999998 24.164991212470273 
Si 0.660582306 12.33042228 25.75244140645595 
Si 2.32543008 15.93800568 26.306498422499033 
Si 1.4509193489999999 13.967518409999998 27.237582561030198 
Si 2.8381904099999997 12.792129749999999 28.617231424046725 
Si 0.11905351019999999 12.67388064 32.33948003859155 
Si 2.9830248 13.351072229999998 33.90553740901345 
Si 0.725111883 15.786964799999998 30.581400683861162 
Si 2.00101473 14.167657349999999 31.90227918198327 
Si 3.8926421099999997 13.95577332 30.344060142115147 
Si 8.162153369999999 -0.00372589767 2.709628723995613 
Si 4.07451996 1.357839918 4.067306301499197 
Si 5.42139345 2.7161457299999996 2.680589249577194 
Si 6.8455467 1.2973730669999999 1.2678448327945528 
Si 5.429359259999999 -0.0009660295799999999 5.4301831908417215 
Si 5.43015747 2.7150543000000003 8.144812701273604 
Si 6.78727737 1.357699824 6.7875492888342155 
Si 8.147557529999998 2.71580364 10.858449584692128 
Si 4.07067552 1.357354476 9.501460000394355 
Si 6.80578281 1.353198897 12.2221479584595 
Si 7.58376063 3.64988853 16.85987250746336 
Si 4.55883795 0.650596536 14.728702309780621 
Si 5.39115921 2.63000421 13.563015910919608 
Si 6.345916109999999 0.0561941469 18.030522041391173 
Si 7.1967590999999995 3.3100628399999996 20.28864581123081 
Si 4.59863442 2.06304705 19.13764344646398 
Si 4.50943038 2.6794280699999997 22.806050602663486 
Si 6.433523729999999 1.6710933599999998 21.802025492909255 
Si 5.36322186 3.28038246 24.920996482955452 
Si 7.31116377 0.306944325 25.3025075412625 
Si 5.78830941 1.616518602 26.50430502629918 
Si 7.03705194 2.7334131299999997 28.1242723121018 
Si 8.06499981 2.5954368299999997 33.9130676829079 
Si 4.624731 3.57976008 31.51392242013581 
Si 6.78626739 4.0728583800000004 4.069599612185233 
Si 4.07344482 6.78568095 4.071105666964124 
Si 5.58747 5.56195986 0.1501639300106635 
Si 6.994860839999999 6.91929153 1.4020822335184526 
Si 8.165004119999999 5.412824909999999 2.713482855088864 
Si 4.07232081 4.07267919 6.787378146245705 
Si 5.43009231 5.4296199 5.430251647877125 
Si 6.787375109999999 6.7877171999999995 6.787412374763408 
Si 6.78726108 4.06935603 9.50187074260678 
Si 4.0701705299999995 6.78638142 9.502623769996225 
Si 5.43069504 5.43211227 10.863891919006752 
Si 6.79115439 6.798093929999999 12.223654013238392 
Si 5.30814537 8.01192699 13.611278120879497 
Si 6.40377819 4.3228773 14.907375172185322 
Si 4.69946952 6.16439664 15.11353353430477 
Si 8.07834132 5.37089445 13.578932171651061 
Si 5.15743029 7.04011446 17.658868796182315 
Si 6.5456478 5.37270264 21.25080944383544 
Si 7.08704595 6.99295491 19.59281427486584 
Si 5.91959052 4.16766618 18.422951996845175 
Si 7.555171679999999 4.21928919 24.727571129421168 
Si 4.200295049999999 4.74058548 21.623044573845235 
Si 7.599105809999999 6.08820831 23.32245624923431 
Si 6.251987969999999 7.8129120599999995 24.274282869492918 
Si 4.12760907 6.9442641 24.99544350895741 
Si 5.02794108 5.66033517 28.123690427300865 
Si 5.9520890699999995 4.12259175 29.656477678516367 
Si 4.1194152 4.85417565 26.135937718789716 
Si 7.176168539999999 6.47783253 27.626418522125483 
Si 6.60867381 4.140070919999999 32.76531702732276 
Si 7.95588939 5.019796079999999 31.0445467568876 
Si 4.65473718 7.21111059 33.03274443612887 
Si 8.18412858 10.834755929999998 2.7060894952652217 
Si 4.15782702 9.57781953 1.3516430898327116 
Si 5.441088059999999 8.14860009 2.7108541049293464 
Si 6.78584385 9.49941576 4.071824465835867 
Si 4.072923540000001 12.217728059999999 4.077472171256705 
Si 6.77365893 12.12332751 1.429105648244221 
Si 4.073053859999999 9.50270634 6.7875492888342155 
Si 5.4297990899999995 8.1453258 8.145120757932922 
Si 5.4302877899999995 10.86244893 5.430799304160358 
Si 6.787652039999999 9.50153346 9.50238417037231 
Si 4.05058995 9.49188978 12.230842001955821 
Si 5.43237291 10.859598179999999 10.864405346772285 
Si 8.02041408 10.83342015 13.660704100441258 
Si 6.78675609 8.95345641 16.95270024747132 
Si 6.163435529999999 9.85878945 14.824987130076488 
Si 4.47556347 11.61968958 15.144476114307423 
Si 7.169880599999999 9.21113163 20.54090998669492 
Si 6.259318469999999 10.596091139999999 18.834652607765435 
Si 6.045789149999999 9.58332555 22.65708809362416 
Si 6.361978049999999 11.3448447 24.19466733731795 
Si 4.26346767 10.8976842 25.341870336619856 
Si 7.34942898 8.4287718 26.350482067746164 
Si 6.289845929999999 9.61105113 28.12280048584061 
Si 6.40762263 11.89336158 28.467926629830384 
Si 5.74880616 10.64496114 34.06072950827454 
Si 7.64549973 9.20117844 30.142522629885477 
Si 6.55778385 8.798587379999999 32.49029088758679 
Si 5.09119515 8.72779104 29.993868177505473 
Si 4.304290409999999 11.77309251 32.63490637487795 
Si 7.544583179999999 13.890580739999999 0.1565653473913009 
Si 4.115831399999999 14.84146062 1.2294986244129464 
Si 5.422468589999999 13.56033357 2.7157693200713613 
Si 6.78828735 14.931918989999998 4.070558010680891 
Si 5.9958928799999995 15.740049599999999 0.05295973172931983 
Si 4.0723696799999995 14.93257059 6.787857345493533 
Si 5.43009231 13.57486425 8.144470416096583 
Si 6.78693528 12.217548869999998 6.78813117363515 
Si 8.14477194 13.57631406 10.861119409072886 
Si 4.07121309 12.218037569999998 9.5021787992661 
Si 6.787391399999999 14.93056692 9.502897598137842 
Si 4.06600029 14.906897549999998 12.217972079299852 
Si 6.78419856 12.223006019999998 12.226186923548342 
Si 5.4315747 16.290325799999998 10.862967749028797 
Si 5.279458679999999 13.38705684 13.631883688536131 
Si 6.192073349999999 15.103289789999998 14.8786232173156 
Si 8.034081389999999 16.158784049999998 13.651838914356427 
Si 5.67375813 14.2620579 17.20232882707237 
Si 5.417092889999999 14.032955339999999 20.993582133304532 
Si 6.4263887099999994 16.09673544 20.378016470950865 
Si 6.47248941 12.89620656 19.246866646451224 
Si 5.691725999999999 15.02560278 24.593498025582235 
Si 6.3315972 13.426201709999999 23.04612942582566 
Si 4.51633734 16.19913438 27.520241660213724 
Si 4.92177915 16.051889069999998 29.86308101136594 
Si 5.60778363 14.245197749999999 26.767522327427944 
Si 4.50615609 12.25363122 27.182953846777725 
Si 7.884180809999999 13.5057132 27.226013322046903 
Si 7.20141804 16.15726908 30.595365919083598 
Si 5.57971596 12.33758988 30.674639166081544 
Si 7.430732369999999 12.587348159999998 32.2884795472155 
Si 12.162537539999999 1.308484476 1.274704227742044 
Si 9.50589918 1.353508407 4.07353589172097 
Si 10.85068755 2.70536175 2.702594763607842 
Si 9.43428834 3.9364133399999996 1.2635765366371072 
Si 8.14527693 -0.000217733769 8.144607330167391 
Si 8.14658013 2.71531494 5.430080505288615 
Si 10.85857191 -0.000393703236 5.431107360819676 
Si 10.86000543 2.7150705900000003 8.14491538682671 
Si 9.4998393 1.358076123 9.502007656677588 
Si 10.86303537 -0.001465896375 10.866219458210493 
Si 9.61597071 0.7489376369999999 15.095734705099703 
Si 10.73082573 2.55042756 13.715058986552114 
Si 8.440761239999999 1.3617185669999998 17.092763341908107 
Si 9.477228779999999 2.91975444 19.800992119529706 
Si 9.962426429999999 0.8015184989999999 18.821440399932442 
Si 8.192452770000001 1.0988940779999998 23.316842772331178 
Si 9.33508224 3.00706884 23.82414363319326 
Si 10.269981629999998 3.77411607 21.811643706383528 
Si 10.98788193 3.16544022 25.465229914418046 
Si 10.2403827 2.4547726799999996 29.44717029276833 
Si 12.13973154 1.043275131 29.35667009196411 
Si 8.44266717 0.9957604589999999 28.877368158582303 
Si 10.411997849999999 3.9224202299999997 27.59034166446752 
Si 8.805869009999999 1.4849898839999998 31.813387721511045 
Si 12.2197806 4.07131083 4.0680593288886415 
Si 12.16949337 6.76618182 1.3433700571041263 
Si 9.50435163 6.786609479999999 4.073775491344883 
Si 11.000669579999999 5.12476884 0.008071221388214197 
Si 9.50264118 4.07274435 6.787480831798812 
Si 8.14493484 5.42965248 8.144573101649689 
Si 10.8595656 5.431248899999999 5.430628161571847 
Si 12.211879949999998 6.79229469 12.182134821265805 
Si 9.501908129999999 6.78726108 9.501665371500566 
Si 9.49773789 4.05156735 12.231150058615139 
Si 10.86297021 5.430711329999999 10.862248950157054 
Si 10.848993389999999 8.09231814 13.482065466554259 
Si 11.51528697 4.5399252599999995 15.021527278721658 
Si 9.0155376 7.954358129999999 16.511152369114875 
Si 9.80205138 6.44352579 14.823275704191387 
Si 10.43905554 7.584135299999999 20.167476858565557 
Si 9.20285631 6.60878784 18.433117866602682 
Si 10.2666096 4.50464112 18.168428739212732 
Si 9.98655192 6.72433281 23.938466882318107 
Si 9.69737184 6.06333348 21.775601077243273 
Si 11.631613859999998 5.27251914 24.715591148225453 
Si 11.85534072 5.71705695 28.192421290846582 
Si 8.179762859999999 6.93918162 29.660824700264527 
Si 10.44464301 7.261772489999999 29.227183609497253 
Si 8.188934129999998 4.47222402 26.982306276008305 
Si 9.59050944 6.2463842099999995 32.72687840194336 
Si 11.236793129999999 7.2868428 31.440159964487894 
Si 8.278235910000001 7.95781161 33.90437363941158 
Si 9.55719639 9.49306266 1.0421967526955587 
Si 10.84021308 8.15062005 2.692997087244187 
Si 9.50759334 12.216685499999999 4.074015090968798 
Si 8.144397269999999 8.144201789999999 5.430662390089549 
Si 9.502869239999999 9.5021199 6.787412374763408 
Si 10.86042897 8.14514661 8.144710015720497 
Si 8.14485339 10.86020091 8.144812701273604 
Si 10.858523039999998 10.86062445 5.430046276770913 
Si 8.144185499999999 8.14527693 10.861050952037482 
Si 9.48263706 9.510411509999999 12.227453378703318 
Si 10.86209055 10.86134121 10.85817575655051 
Si 10.37255976 9.901469249999998 16.10068398483189 
Si 9.42192423 11.97595188 15.137288125589993 
Si 9.52780923 9.74352141 20.490525608637505 
Si 10.727095319999998 10.484781569999999 18.402209515117733 
Si 10.509868169999999 10.57768344 22.555942823814608 
Si 10.51514613 8.98020459 24.323743077572384 
Si 8.3487879 11.753414189999999 25.59533251020354 
Si 9.37940733 9.691230509999999 26.299207748228493 
Si 10.65843297 9.44862354 28.43181554365472 
Si 11.440874249999998 10.29358584 33.91573750728866 
Si 11.28567942 11.16244557 31.603156165785055 
Si 9.459717029999998 10.77992379 29.99133526719552 
Si 9.439452269999999 14.82034878 1.3218642794319282 
Si 10.856209859999998 13.54506984 2.703111614225143 
Si 8.14465791 13.573919429999998 5.430491247501039 
Si 9.50257602 14.93268462 6.78796003104664 
Si 10.85984253 13.575108599999998 8.145052300897518 
Si 12.20494041 12.20176386 12.223517099167584 
Si 9.500979599999999 12.21567552 9.501836514089078 
Si 9.494105219999998 14.922112409999999 12.235257480739385 
Si 10.71870597 13.37874894 13.641125388315686 
Si 11.90381976 14.11596918 17.318055445423003 
Si 8.711044919999999 15.709978259999998 20.136294678938988 
Si 8.62967637 13.40158752 20.006500139812815 
Si 10.536518609999998 12.738437909999998 18.850431954426075 
Si 12.0819672 15.978649229999998 18.742817494770833 
Si 8.54571771 13.671952649999998 22.36734369127631 
Si 11.81197674 15.391801979999999 22.6827594819007 
Si 9.776622689999998 12.42034308 23.841429034632792 
Si 11.5386957 13.87187982 24.501902512211554 
Si 9.530350469999998 15.804948959999999 22.29084295421223 
Si 11.08671336 15.063916859999999 26.54421547793977 
Si 9.17113968 12.96382635 29.158863488163963 
Si 8.82197982 15.77290653 26.954375805563433 
Si 11.320360829999998 13.648511339999999 28.414358999626675 
Si 12.21875433 13.363257149999999 31.95355350150094 
Si 11.77762113 15.14955339 30.219639480268192 
Si 8.48083464 14.236270829999999 31.02421501737258 
Si 10.12218246 15.755085269999999 31.946125913159598 
Si 11.15706987 15.833831129999998 34.20815173401727 
Si 15.599287709999999 0.5550182189999999 0.009593876998189891 
Si 13.91855067 2.39575401 0.18896092797040612 
Si 14.931088199999998 1.3569016139999999 4.069907668844552 
Si 13.57520634 -7.724441069999999e-05 8.145154986450624 
Si 13.574847959999998 2.71384884 5.430046276770913 
Si 12.217614029999998 1.357046595 6.78744660328111 
Si 14.9327172 1.356821793 9.501631142982866 
Si 13.57564617 2.71445157 10.86567180192726 
Si 12.230874089999999 1.34998488 12.25538384914819 
Si 14.9191965 4.074471089999999 12.260586583838904 
Si 16.25771322 2.6502201 13.795769831293546 
Si 15.686325179999999 0.586578465 15.108775770344185 
Si 15.64667532 0.662494752 17.487520836565853 
Si 15.63756921 2.9051586 20.67043069767948 
Si 13.497926579999998 3.0450897 19.734280738528412 
Si 13.46186052 1.444696569 18.02015080052745 
Si 15.25608999 1.0310185349999998 22.078763058530324 
Si 12.47010903 2.95492455 21.87777320258389 
Si 13.085431199999999 1.052581608 23.11872811187171 
Si 12.957733889999998 1.9468993499999998 25.317773460157618 
Si 14.76383877 3.5194382099999997 25.575069227723926 
Si 14.87824344 3.26133945 29.580319226629303 
Si 12.7109241 0.409032126 27.0907422200884 
Si 15.00730911 0.0356503392 27.154236120425704 
Si 15.61675059 2.27230839 27.52205577165193 
Si 13.71062511 1.80250479 30.9827642824354 
Si 12.594141089999999 3.3318262799999996 32.63333186306365 
Si 15.021579149999999 4.0941657 1.3412170833406674 
Si 13.582553129999999 5.43066246 2.7009517947581436 
Si 14.931251099999999 6.78851541 4.0709002958579115 
Si 14.93257059 4.0726140299999996 6.787172775139493 
Si 13.57476651 5.430304079999999 8.145018072379816 
Si 12.217744349999998 6.787521719999999 6.78778888845813 
Si 13.57370766 8.14684077 10.857901928408895 
Si 16.2958644 5.42786058 10.862967749028797 
Si 12.21696243 4.07271177 9.502452627407713 
Si 14.93219592 6.78779865 9.502760684067033 
Si 13.958575199999999 7.33709745 15.101040125343522 
Si 15.931196459999999 7.868509829999999 13.583963763753262 
Si 13.87559394 5.44110435 16.678119078465475 
Si 13.35452571 5.48371899 13.690688281948253 
Si 12.6943083 6.87314196 20.10754272406927 
Si 12.584920949999999 4.97540583 18.725224036671978 
Si 13.3863075 4.48364331 23.40005229886486 
Si 13.86309951 6.28209189 22.04426071268666 
Si 16.03397007 7.0131708 24.522781908009804 
Si 15.85769598 5.15687643 21.399395439180037 
Si 14.844572009999998 5.82163875 26.171535377199845 
Si 13.845522599999999 5.3952154199999995 29.51826292403549 
Si 12.699081269999999 6.67347543 26.234858134948638 
Si 15.650975879999999 6.3462907799999995 28.281381208354208 
Si 14.66618022 6.97058874 33.070669633742746 
Si 16.26310521 5.46348681 34.088523064648605 
Si 16.02735633 8.11354401 31.565573253348205 
Si 13.110876179999998 5.702070149999999 31.747155539757582 
Si 12.21499134 12.164834429999999 1.240879606548878 
Si 16.2869049 8.14789962 2.696683498600698 
Si 13.27330377 8.515499759999999 0.06182902523627502 
Si 12.217532579999999 9.50182668 4.069804983291446 
Si 14.98020255 9.594386459999999 1.2958403374230598 
Si 13.588075439999999 10.873184039999998 2.70556237609261 
Si 13.57553214 8.1445113 5.430320104912529 
Si 14.93226108 9.502185059999999 6.787686202905024 
Si 13.574685059999998 10.85945157 8.144744244238199 
Si 14.927944229999998 9.501484589999999 12.226666122796171 
Si 16.2911403 10.85894658 10.863207348652713 
Si 12.21411168 9.499725269999999 9.501357314841249 
Si 12.33796455 9.170113409999999 14.911756422451186 
Si 13.50452403 10.79543187 13.63000112006252 
Si 13.11082731 10.6302024 18.51218574249442 
Si 14.09609538 8.711452170000001 19.554478335039544 
Si 16.14834216 11.250916559999999 21.621093548336216 
Si 12.68878599 11.410819199999999 22.140511304464823 
Si 14.2682481 8.15420385 23.39300122421824 
Si 14.29967151 9.79097418 21.680651169137782 
Si 12.71240649 8.77159485 25.142420763970016 
Si 12.6385965 10.271301119999999 29.56724393286712 
Si 13.59947844 10.849123709999999 26.013536539487184 
Si 15.87434436 10.27887597 26.44087958299728 
Si 13.110843599999999 12.06771345 28.12064408922538 
Si 16.11893871 8.682846929999998 28.28692622822194 
Si 14.85437859 9.50692545 30.13588229745128 
Si 16.264538729999998 11.34559404 30.431856290020903 
Si 12.21878691 14.93504667 4.073227835061651 
Si 14.930338859999999 12.21622938 4.071447952141145 
Si 14.797005209999998 14.8991598 1.283107328837897 
Si 13.5628911 16.28978823 2.711398338360809 
Si 13.575369239999999 13.57551585 5.42932747789917 
Si 12.217597739999999 12.21735339 6.787309689210301 
Si 14.932114469999998 14.933108159999998 6.787720431422726 
Si 12.21639228 14.930909009999999 9.501802285571376 
Si 14.93045289 12.216115349999999 9.502110342230695 
Si 13.575874229999998 13.575988259999999 10.863960376042156 
Si 14.93794629 14.9271786 12.23015743160178 
Si 12.57462567 14.28691644 14.854971311583483 
Si 14.36711211 12.619618649999998 14.8485705787732 
Si 13.64388498 16.15518396 13.793681891713723 
Si 13.86583623 12.48134913 17.18295548605301 
Si 16.10242065 12.747169349999998 17.947894399658423 
Si 15.231866759999999 15.18175872 20.949256202880377 
Si 12.91466313 14.75963595 20.649482844845824 
Si 12.604713299999998 12.50005005 20.014372698884287 
Si 16.201529009999998 14.91799104 18.793646843558378 
Si 16.27020765 13.54648707 22.357554335213525 
Si 13.392009 12.46784472 24.26706065225779 
Si 15.43951539 13.689627299999998 24.508029416880216 
Si 16.27001217 15.856995509999999 25.21950338583503 
Si 14.90271102 13.00769532 29.371114526434376 
Si 16.09206021 14.828819579999998 28.601075563691357 
Si 12.85381998 14.07866508 34.18439714273205 
Si 14.48640378 13.86430497 31.521863436242686 
Si 15.137091539999998 16.23692718 31.949138022717374 
