&CONTROL
  dt          = 30.D0,
  prefix = 'x.66_y.66_z3.18_struc44-scf',
  pseudo_dir = './',
  outdir='./',
  wf_collect= .true.,
  verbosity= 'high',
/

&SYSTEM
ibrav= 6, celldm(1) =30.783621515, celldm(3) =2.1217994675793617, nat=  432, ntyp= 1,
  ecutwfc     = 12.D0, nbnd= 1728,
  degauss     = 0.05D0,
  occupations = "smearing",
  smearing    = "methfessel-paxton",
/
&ELECTRONS
  electron_maxstep=200,
  conv_thr    = 1.D-8,
  mixing_beta = 0.3D0,
  scf_must_converge=.false.,
/
ATOMIC_SPECIES
Si  28.08  Si.pbe-hgh.UPF
K_POINTS {automatic}
1 1 1 0 0 0
ATOMIC_POSITIONS (angstrom)
Si 2.72473056 0.001326033693 2.6883241499257906 
Si 1.375827336 1.4112189899999998 1.2636847216982827 
Si 6.72689034e-05 2.71461447 8.144964177249742 
Si 2.7147773699999997 0.000403143291 8.144964177249742 
Si 2.71482624 2.7147122099999996 5.431508460523986 
Si 1.357628148 1.357854579 6.787631446903644 
Si 0.00187991487 -0.00059763123 10.859007483902056 
Si 2.71682991 2.7135556199999997 10.862221946441455 
Si 1.365292593 1.3343920919999999 12.228022884552635 
Si 4.01191749 1.243212075 15.085057928038202 
Si 1.4252104709999998 4.03278498 14.985928051016744 
Si 1.604030688 1.74379563 15.779589221228283 
Si 0.187268211 3.50164953 19.789268315938234 
Si 0.95474061 1.562411367 20.903373380803163 
Si 2.8103508 0.510002433 19.86793623787019 
Si 0.80257572 0.6046831709999999 18.23053049723648 
Si 1.9525845599999998 2.6798516099999996 22.761574677368905 
Si 3.6588154499999996 1.322117577 23.67157865303868 
Si 2.7948101399999996 0.769436973 25.779885873637635 
Si 0.329984901 0.234316989 29.25510008397423 
Si 1.9378258199999998 1.92671604 29.364737451447056 
Si 2.19960612 2.77895997 27.160895021612635 
Si 0.01227387969 3.9041754299999996 27.412971100105484 
Si 2.31554205 3.13890381 34.50051535834636 
Si 3.61007577 0.59600223 30.271354144010797 
Si 1.7744859899999998 3.35284038 31.322241445600884 
Si 3.3119361899999995 1.433184426 32.929472715300236 
Si 4.07246742 6.78488274 4.070684754731874 
Si 1.359128457 4.0703823 4.070650190618547 
Si 2.72477943 5.43194937 2.6986449941651935 
Si 1.261541583 6.648307379999999 1.2718349396207582 
Si 0.00043663390199999994 5.42981538 5.429158100817759 
Si 2.71450044 5.43005973 8.145240690156358 
Si 1.357730775 6.78716334 6.787700575130298 
Si 4.0780386 4.0711153499999995 12.223322165140182 
Si 1.35588186 4.0728258 9.502538856389128 
Si -0.0007499280689999999 5.42919636 10.856553431855849 
Si 1.3584850019999999 6.78229263 12.212434469442218 
Si 2.7153801 8.14361535 10.860459176661784 
Si 0.623558394 6.95084526 17.170621962068076 
Si 2.72223819 5.4165553200000005 13.56994002035495 
Si 2.41556265 8.029536479999999 16.08496316247116 
Si 0.260034012 7.68892887 20.982283251528404 
Si 3.3301321199999996 4.6619047799999995 19.442624823383078 
Si 1.467212607 6.6251104199999995 19.262614921176752 
Si 3.3850945799999996 8.01616239 19.037706235758822 
Si 3.0129658200000002 4.66483698 21.930757085330985 
Si 2.55339234 6.708254579999999 23.229538207701367 
Si 1.238758389 6.82375068 25.26889002221322 
Si 1.48688604 6.65646867 29.30276399625198 
Si 3.7676326499999995 4.61743308 27.0190784646325 
Si 2.58973533 6.685415999999999 27.21968857838164 
Si 0.404490474 4.858508789999999 34.31908832749363 
Si 3.03813387 5.22562023 30.46567358913445 
Si 1.8762659099999999 7.00688286 32.30769888066322 
Si 2.6138608199999998 7.94419317 34.42744682277336 
Si 3.95959401 9.339741179999999 1.3340676256657837 
Si -0.005939985599999999 8.139640589999999 2.685707646546947 
Si 1.3581982979999998 9.505752569999999 4.072447524511545 
Si 2.70725139 10.850052239999998 2.6956759368304155 
Si 1.3064107589999998 12.21023466 1.3208641343749203 
Si 0.0001619113599 8.14454388 8.145240690156358 
Si 2.71609686 8.14526064 5.429711126630989 
Si -0.001449018306 10.860380099999999 5.430298716557546 
Si 2.71542897 10.8598914 8.145136997816378 
Si 1.3575597299999997 9.502804079999999 9.50233147170917 
Si 0.001384078221 10.85844159 10.862809536368012 
Si 1.361431863 12.226182569999999 12.245650582349338 
Si 1.7710813799999998 11.406290579999999 17.255407732058885 
Si 1.342041876 9.563174819999999 14.765236187424694 
Si 2.87953443 10.9351512 13.602533979222187 
Si 3.5080515 9.816907859999999 17.410116703309942 
Si 3.9751346699999996 9.25395804 20.947062420048326 
Si 2.8151563499999996 11.093147909999999 24.909630628293755 
Si 1.9718067599999998 8.74847934 22.170355518912828 
Si 0.976057704 10.161490229999998 23.768496426807218 
Si 0.10651265369999999 8.95992354 25.611938846982387 
Si 4.00867578 10.29070251 28.543736067593965 
Si 2.38865157 11.41730262 27.250658023922515 
Si 0.49186677599999995 10.0893744 27.713264116689313 
Si 1.2169053539999999 8.59659138 30.66649108756355 
Si 3.2182686899999995 9.90085023 30.713947615161338 
Si 3.7259791199999994 12.13518663 33.55881609075585 
Si -8.975138399999999e-05 13.58077752 2.7151355326334423 
Si 2.55816531 13.784060429999998 0.13408802124025093 
Si 1.356253272 14.93113707 4.071756242245008 
Si 0.000283931442 13.574847959999998 8.14510243370305 
Si 2.7140769 13.57551585 5.4304369730108535 
Si 1.35698958 12.21789096 6.787251241657049 
Si 4.08331656 14.923920599999999 12.250593250555081 
Si 1.3588042859999998 14.93465571 9.503022753975705 
Si 2.7150380100000002 13.57313751 10.860908510135033 
Si 2.62593171 16.152072569999998 13.70622631920279 
Si 2.6414234999999997 13.499979119999999 16.38325146048203 
Si 1.126546353 14.944462289999999 15.197218475783888 
Si 0.34584484499999996 14.40780453 17.94126343280392 
Si 2.56091832 12.988310219999999 20.14776729936451 
Si 0.5843532509999999 12.269139299999999 19.035666953072536 
Si 2.5694217 14.78669364 18.561931215814486 
Si 2.4039153 13.96979901 22.3645712716965 
Si 0.389028006 14.78791539 23.233582208960613 
Si 3.9071890799999998 12.86189982 23.823902700470185 
Si 3.62488338 15.92062425 21.932035957524075 
Si 0.783202023 15.93691425 25.360001024942843 
Si 0.5265612179999999 14.97495717 27.476672760966903 
Si 2.10497751 13.498056899999998 28.35477406003598 
Si 3.94835391 14.929801289999999 28.862624577147646 
Si 3.23983665 12.20699295 31.31028226238979 
Si 1.13293692 15.38756658 31.20489628085617 
Si 1.1920565879999998 13.07399562 30.487103339397105 
Si 6.7884502499999995 4.07507382 4.071894498698314 
Si 8.14410405 -0.0198698904 2.7037501137035718 
Si 4.06715688 1.360105857 4.069509574878761 
Si 5.42173554 2.72381832 2.704192534354156 
Si 6.65492112 1.221287364 1.374386663861575 
Si 5.42992941 -0.000191202246 5.42870876734451 
Si 5.429701349999999 2.7145656000000002 8.145067869589724 
Si 6.7877171999999995 1.35751086 6.78745862633701 
Si 4.07227194 1.356056163 9.502054958802553 
Si 5.429701349999999 0.00354835296 10.860873946021707 
Si 6.78400308 1.335708324 12.245546890009358 
Si 7.160579009999999 3.6260725499999995 14.93245736770008 
Si 5.40564102 2.6937144 13.635680963902654 
Si 5.86120716 0.29628414899999994 16.90489305881112 
Si 6.21489564 2.6803403099999996 20.35408049181258 
Si 7.9801289099999995 1.494565146 21.462205965071963 
Si 7.57309068 3.54141342 18.609940769225503 
Si 4.45257828 2.4374564100000002 18.70523402966768 
Si 6.86919978 0.08351084789999999 22.916560161526583 
Si 5.932231559999999 1.83078423 24.312086237098868 
Si 6.40964259 0.842385222 26.47172116598822 
Si 5.309481149999999 2.23643781 30.073993056914382 
Si 6.86010996 1.092079971 28.76771152195207 
Si 7.17263361 2.78635563 31.587313630704635 
Si 7.281613709999999 0.804392055 32.85059740868832 
Si 5.29684011 0.26050153499999995 34.1741955644274 
Si 4.136731469999999 4.13795322 1.2232896424531723 
Si 6.947082269999999 6.856395839999999 1.1343043326931512 
Si 5.4507969 8.130436739999999 2.6945975364946175 
Si 8.13806046 5.4185427 2.6864369493381437 
Si 4.07214162 4.07240226 6.787700575130298 
Si 5.42803977 5.42859363 5.430678921804142 
Si 6.78773349 6.78730995 6.787389498110356 
Si 6.787456559999999 4.07381949 9.502849933409072 
Si 4.07310273 6.7879941299999995 9.502296907595841 
Si 5.4288216899999995 5.430613589999999 10.862671279914704 
Si 6.79206663 6.7888575 12.237044118130948 
Si 7.85016729 7.71991245 16.182675910846214 
Si 5.90963733 6.33467601 16.30876579626263 
Si 4.08131289 6.880602779999999 14.871348015338178 
Si 6.06512538 4.09121721 16.957153998161342 
Si 6.409430819999999 6.161659919999999 20.581132152256775 
Si 5.29056846 6.700223609999999 18.573579322005642 
Si 5.40770985 4.39238673 21.768651393827973 
Si 5.83020729 8.03419542 21.932519855110655 
Si 4.699257749999999 7.287592139999999 23.910001906767413 
Si 6.52973247 4.121109359999999 23.855459735937618 
Si 5.354425259999999 5.495871329999999 25.406213244460865 
Si 4.8802233600000005 4.3717635900000005 29.11362916812736 
Si 6.30310599 6.95284893 27.049771397266756 
Si 7.0155002699999995 5.53356639 28.8316896957201 
Si 5.66075871 5.53161159 34.17837782213996 
Si 7.57037025 4.95572751 32.710578185601186 
Si 4.21754616 6.96848733 32.898157628626095 
Si 6.79123584 9.50104476 4.072378396284891 
Si 4.07140857 12.22126299 4.068576343818935 
Si 6.6225366 11.99352879 1.275357022768766 
Si 4.07220678 9.50282037 6.78756231867699 
Si 5.42997828 8.145244349999999 8.145275254269684 
Si 5.43113487 10.859679629999999 5.429987639537604 
Si 6.78861315 9.50381406 9.502815369295744 
Si 4.08821985 9.497640149999999 12.212849238802141 
Si 5.42670399 10.85800176 10.86294779282132 
Si 5.54180913 10.91693898 16.74773003551385 
Si 5.54032674 8.30223108 13.62579562749117 
Si 6.914420819999999 9.675380339999998 15.22929397295122 
Si 4.3492019399999995 12.1888296 15.12003681072499 
Si 7.91395893 9.8445357 19.438649950350488 
Si 4.4786585699999995 11.52072783 20.25180528047838 
Si 6.4325952 11.63946564 18.83654309619645 
Si 7.210361249999999 11.300666219999998 23.024331066879753 
Si 7.75016298 9.40064949 21.772937343880503 
Si 6.433344539999999 10.290865409999999 25.056320725252984 
Si 4.33480158 9.268814520000001 25.136336647604686 
Si 7.7030522999999995 8.45294616 25.92439843145727 
Si 7.67557107 10.2099204 29.668452315250242 
Si 6.59803644 12.10374693 26.566772477637105 
Si 4.33954197 8.3074113 27.293102755087908 
Si 5.950280879999999 11.59846371 28.798231634019693 
Si 5.2431971399999995 10.548149669999999 34.35206249160746 
Si 7.19503236 8.42155533 31.145480570047287 
Si 5.10502536 9.09138384 32.1566537054248 
Si 4.19979006 15.027769349999998 1.2481827168711825 
Si 5.43416481 13.569211619999999 2.6920363356970967 
Si 6.793663049999999 14.92817229 4.073069678551428 
Si 4.0723696799999995 14.93242398 6.787354933997029 
Si 5.42984796 13.57505973 8.145240690156358 
Si 6.78763575 12.21736968 6.787873395696932 
Si 4.073086439999999 12.218493689999999 9.501778445895939 
Si 6.786739799999999 14.932440269999999 9.50295362574905 
Si 6.80055372 12.23014104 12.258923201866855 
Si 5.6410640999999995 13.71450213 13.820253329068127 
Si 7.18374339 14.94625419 15.570994797300635 
Si 8.093393279999999 16.18751961 13.78624224155449 
Si 8.08324461 13.259587589999999 19.197115926422335 
Si 5.699968739999999 14.921525969999998 21.439877547862807 
Si 6.7710199499999995 15.20340813 19.326005505018227 
Si 5.464561949999999 12.57902397 22.09186041754751 
Si 7.46710794 14.628631769999998 24.323388702156752 
Si 5.4433849499999996 13.874095259999999 25.363111795142263 
Si 5.551029269999999 13.62436956 29.969332921760625 
Si 7.4097019799999995 15.204108599999998 29.55857299898413 
Si 4.56349689 15.68617857 26.696387902612862 
Si 8.646732 1.80103869 0.08012652751434492 
Si 9.5013054 1.361780469 4.069129369632165 
Si 10.86277473 2.71288773 2.701607138677306 
Si 12.215985029999999 4.0716366299999995 4.070269985371952 
Si 9.41793318 3.91754952 1.2358122207114965 
Si 8.14465791 0.00028060828199999996 8.144964177249742 
Si 8.14464162 2.71461447 5.430195024217565 
Si 10.85906061 -0.001043257212 5.428432254437895 
Si 10.859744789999999 2.7152009099999996 8.144791356683108 
Si 9.503243909999998 1.3567419719999998 9.50174388178261 
Si 8.14917024 2.71068858 10.863293433954588 
Si 10.858148369999999 0.00473920083 10.860355484321804 
Si 9.51736734 4.08084048 12.202307184237446 
Si 12.05784171 0.22688060399999999 16.788411996899573 
Si 10.678274189999998 2.1605426999999997 17.086631166683787 
Si 8.97730497 1.90545759 15.045378325938955 
Si 10.90589436 2.86146882 13.639690401048572 
Si 11.64533004 0.926769051 21.12696862991467 
Si 8.655219090000001 0.23291441999999998 19.65692232600966 
Si 8.36403534 1.5762432059999998 17.574849267425797 
Si 9.67500567 1.321474122 24.889479750224194 
Si 10.00508994 1.96027344 22.58394969898213 
Si 9.00621972 3.39306039 25.891424267343435 
Si 11.252578139999999 0.1202987178 28.064677456883576 
Si 10.772577 1.400270481 30.0159944747519 
Si 8.6201793 2.3083581599999996 29.76512814022549 
Si 11.712835799999999 1.0866879809999999 25.952464491478686 
Si 8.61851772 3.94872858 28.09308915803826 
Si 10.618929719999999 0.232222095 34.36695962445134 
Si 12.037756139999999 3.2835753 30.83029042061958 
Si 10.86137379 8.13178881 2.7233514223712385 
Si 12.07839969 6.73827705 1.2716482934087932 
Si 9.50573628 6.78727737 4.072412960398218 
Si 9.50264118 4.07274435 6.787389498110356 
Si 8.14527693 5.43056472 8.144825920796436 
Si 10.86000543 5.430613589999999 5.4311628193907175 
Si 10.856894039999998 5.43062988 10.857590355255654 
Si 8.14519548 8.14377825 10.86294779282132 
Si 9.50513355 6.78807558 9.501709317669285 
Si 8.19136134 5.36664276 13.5990775678895 
Si 9.61041582 6.7625980199999995 14.998855029400994 
Si 11.328017130000001 6.5909828699999995 16.71427197381344 
Si 11.997112589999999 4.39256592 17.107335070566585 
Si 11.155636349999998 7.40057958 20.941082828442777 
Si 10.655696249999998 5.15889639 20.68029659339156 
Si 8.5035429 5.49228753 19.550119215829636 
Si 10.92992211 7.955270369999999 18.647995857998385 
Si 8.554856399999998 7.55258157 18.3854468531675 
Si 10.59214896 4.20674589 22.851510500245414 
Si 8.76980295 4.97651355 24.17849593909052 
Si 9.32998347 7.270731989999999 24.65295752272844 
Si 10.96937649 6.9274854 26.386935395997412 
Si 10.55341134 6.94511118 30.167523547576888 
Si 11.943632519999998 5.20183683 29.36280186110075 
Si 10.86790608 4.70852676 27.298114551520303 
Si 8.27970201 6.3692759699999995 30.70482268924305 
Si 8.85294711 7.569620909999999 34.285008111753335 
Si 12.0684465 4.30701084 33.055769985396616 
Si 10.50994962 5.5491233399999995 34.48520345614256 
Si 9.523166579999998 9.329331869999999 1.256599078466275 
Si 8.146172879999998 10.839854699999998 2.686786046882745 
Si 11.338165799999999 10.22402754 0.023182427321236848 
Si 12.21712533 12.12909417 1.222467016555993 
Si 8.14270311 8.14291488 5.4304715371241805 
Si 9.50252715 9.502022160000001 6.786940164637107 
Si 10.85984253 8.14498371 8.144583972003147 
Si 8.14508145 10.860233489999999 8.144722228456454 
Si 10.85985882 10.85757822 5.430160460104238 
Si 9.496060019999998 9.51666687 12.237113246357602 
Si 10.858278689999999 10.86039639 10.860009843188536 
Si 11.26220553 11.105446859999999 16.589979422290025 
Si 10.86489243 8.207635049999999 13.613698187826765 
Si 8.27893638 10.96981632 13.784202958868205 
Si 9.75484296 12.20885001 15.161513746717233 
Si 11.066904719999998 11.410053569999999 20.87416670504196 
Si 10.28039094 10.19100771 18.98119391046939 
Si 9.792977849999998 8.46413739 22.60458447463827 
Si 11.165328899999999 10.34472015 23.01112757558889 
Si 10.2828996 11.8434816 24.58725114329406 
Si 8.941906799999998 11.628926009999999 26.55985965497173 
Si 11.164335209999999 12.109741649999998 29.641388614515307 
Si 8.75237265 9.57226464 27.68094667072869 
Si 10.63686501 8.38138419 28.257718029814132 
Si 12.205217339999999 10.0905147 28.776767319643707 
Si 9.30885534 11.41805196 30.94372984055836 
Si 11.88006894 8.18166879 31.795182208252417 
Si 10.222479989999998 9.744189299999999 32.51885104897705 
Si 8.28180342 13.15355598 0.13297194602092638 
Si 9.50290182 12.2173371 4.064912547806287 
Si 9.52430688 14.86457613 1.277354828519059 
Si 10.8727605 13.563347219999999 2.6959559061483636 
Si 8.14345245 13.57597197 5.430817178257449 
Si 9.50251086 14.932033019999999 6.787666011016971 
Si 10.859907689999998 13.574473289999998 8.144791356683108 
Si 9.50334165 12.21789096 9.501778445895939 
Si 8.14490226 13.57194834 10.861219587154975 
Si 9.496092599999999 14.940259469999999 12.238115605644081 
Si 10.91019492 13.626878219999998 13.608513570827736 
Si 8.937703979999998 13.686874289999999 16.87848607622939 
Si 9.62784612 13.29729894 21.040627474824156 
Si 10.59227928 15.32056581 20.230375530215724 
Si 11.01950082 14.75359236 18.00230365693917 
Si 8.80565724 13.02455547 23.246820264364803 
Si 8.371235519999999 15.951738149999999 25.962937417816725 
Si 11.96857251 12.73671117 25.925124277837135 
Si 10.386585449999998 13.08960144 27.66715558951127 
Si 9.26127225 15.093124829999999 27.96568583631543 
Si 8.35062867 15.30963522 31.718899210140023 
Si 8.22519567 13.04977239 32.39642495957329 
Si 10.780314749999999 15.85536651 31.754534810980022 
Si 16.2849501 2.70663237 2.7046487806500705 
Si 13.580891549999999 -0.009650652119999999 2.705727180985869 
Si 12.23396919 1.340647452 1.3138614450148967 
Si 14.934623129999999 1.3574961989999998 4.071687114018354 
Si 16.290325799999998 3.3080103e-05 5.430091331877584 
Si 13.57514118 0.000318635658 8.144722228456454 
Si 13.574603609999999 2.7146307599999995 5.431266511730698 
Si 12.218004989999999 1.357571133 6.787804267470278 
Si 14.9315769 1.3567419719999998 9.502677112842436 
Si 13.576981949999999 2.71433754 10.86007897141519 
Si 12.200965649999999 1.3602329189999998 12.235315912464605 
Si 14.9387445 4.06885104 12.200302465664489 
Si 16.282881269999997 2.68693776 13.560642273870023 
Si 13.61055564 0.0169960086 13.60789141678785 
Si 14.53413348 1.7831034 14.841899390783686 
Si 12.86545104 3.56532714 15.020250215550323 
Si 15.843197879999998 2.84734539 17.552140644970045 
Si 12.359695409999999 2.1423630599999997 19.174476432193238 
Si 14.086679759999999 0.974935323 17.966737184325822 
Si 14.230178369999999 2.93410593 22.636729100032255 
Si 16.21403973 3.00772044 23.95680171621199 
Si 13.43475396 0.1027843614 24.673695990724557 
Si 13.60140066 0.6173991449999999 22.377774762987364 
Si 15.38064333 1.262022138 25.37894215904597 
Si 14.404937489999998 0.961950564 29.19063801261962 
Si 12.50796699 3.2496106499999997 26.258564279101428 
Si 14.533612199999999 2.3928869699999997 27.27782541699743 
Si 16.18620012 0.19423544399999998 34.37235162613033 
Si 13.418626859999998 2.8518903 34.46463780871307 
Si 14.15721546 2.23757811 31.150872571726275 
Si 14.31071613 0.9940320899999999 33.18618038497889 
Si 15.74329131 4.05912591 31.335202988098462 
Si 14.966062829999998 4.07784312 1.285477395150873 
Si 13.57408233 5.43789522 2.6887527449310444 
Si 14.92967097 6.79138245 4.0701662930319715 
Si 14.9325543 4.07220678 6.787769703356952 
Si 13.575108599999998 5.43004344 8.144791356683108 
Si 12.2170113 6.78776607 6.787804267470278 
Si 13.577617259999998 8.144609039999999 10.85873097099544 
Si 12.217793219999999 4.0732819199999994 9.502884497522398 
Si 14.93265204 6.7869027 9.501916702349247 
Si 12.20746536 6.7891832999999995 12.228403089799231 
Si 16.264440989999997 8.11760022 13.515743490658423 
Si 16.03957383 4.98483774 16.329849905392017 
Si 13.400773019999999 7.66213182 16.18872463067842 
Si 13.52741148 5.32562454 13.540180318780518 
Si 14.994798389999998 6.57167922 14.882166582809486 
Si 13.34615265 8.05076235 21.5281197291863 
Si 14.556581099999999 4.46836329 20.874477782061902 
Si 12.60513684 4.45964814 19.454376621914214 
Si 14.8827069 6.42741498 22.2141828146113 
Si 12.69970029 4.07808747 24.025100404145885 
Si 14.164871759999999 5.846252939999999 24.471357671309075 
Si 16.119997559999998 4.92839289 25.32363957772298 
Si 15.794197559999999 5.3966815200000005 29.20598447893675 
Si 13.29985647 7.11099225 26.278784285397645 
Si 13.787856 6.6272607 28.67732636560231 
Si 13.57984899 10.85795289 2.699979168939611 
Si 15.59511747 11.461122719999999 0.30109283016621113 
Si 12.217679189999998 9.503309069999998 4.0728622938714665 
Si 14.85271701 9.452288789999999 1.2172201841529744 
Si 13.57393572 8.14482081 5.431404768184006 
Si 14.93178867 9.50327649 6.787424062223683 
Si 13.57489683 10.86007059 8.145033305476396 
Si 12.216750659999999 9.50198958 9.502504292275802 
Si 14.920467119999998 9.50182668 12.207007903649899 
Si 12.21404652 12.224960819999998 12.21606370134154 
Si 16.075509569999998 10.371957029999999 16.320310210113803 
Si 12.24530703 9.46225827 15.06290233139568 
Si 13.51574784 10.80061209 13.552865348371478 
Si 14.77620288 11.96837703 15.140395073474515 
Si 15.179021999999998 11.19668715 20.365659469777082 
Si 14.833185299999998 8.92486746 19.9038483516168 
Si 15.095454299999998 8.512649009999999 17.584976552630568 
Si 13.44488634 9.688151699999999 23.240806108645927 
Si 15.3401301 11.107417949999999 22.731987796361107 
Si 14.03113086 9.15945975 25.467253468596116 
Si 13.54842558 8.660578499999998 30.122763020818592 
Si 13.205032379999999 10.90612242 26.833814817200487 
Si 15.080858459999998 11.77788177 27.923206541036706 
Si 15.34869864 11.9710323 30.298832614105656 
Si 15.45994305 9.73842264 31.056339721777295 
Si 12.99544524 8.4760128 34.421778308187754 
Si 12.218982389999999 14.92991532 4.0701662930319715 
Si 14.92998048 12.219927209999998 4.075178089464368 
Si 14.98554567 14.96532978 1.287330031625193 
Si 13.57589052 13.57486425 5.430713485917469 
Si 12.217516289999999 12.21735339 6.787424062223683 
Si 14.93276607 14.932407689999998 6.787527754563664 
Si 12.21637599 14.93136513 9.502469728162474 
Si 14.932912679999998 12.21846111 9.502815369295744 
Si 13.57507602 13.57499457 10.861461535948264 
Si 14.94170928 14.927015699999998 12.23669847699768 
Si 12.979741679999998 12.86738955 16.402261722811808 
Si 12.41951229 14.84089047 15.045482018278937 
Si 16.19703297 13.51885923 13.768891056664401 
Si 13.33810539 13.748369039999998 18.56213860049445 
Si 15.672918509999999 16.13623869 21.509627928556423 
Si 13.14617661 12.43295154 20.469801143230935 
Si 14.96938599 15.45358995 19.275023437861098 
Si 13.16010456 14.190463349999998 22.06884071807182 
Si 14.876370089999998 13.309467569999999 23.411207187347387 
Si 13.71549582 14.12439111 25.253301607102802 
Si 14.706449099999999 14.036425109999998 27.38345334732434 
Si 13.18162365 15.24665808 28.784751629822214 
Si 14.02401213 13.17870774 34.52522869937507 
Si 14.12828442 13.30633989 31.995965142568195 
Si 15.461181089999998 15.24589245 32.41090732305724 
Si 12.236738489999999 14.04634572 30.614472097006615 
