&CONTROL
  dt          = 30.D0,
  prefix = 'x.66_y2.00_z3.17_struc45-scf',
  pseudo_dir = './',
  outdir='./',
  wf_collect= .true.,
  verbosity= 'high',
/

&SYSTEM
ibrav= 6, celldm(1) =30.783621515, celldm(3) =2.119710052438847, nat=  432, ntyp= 1,
  ecutwfc     = 12.D0, nbnd= 1728,
  degauss     = 0.05D0,
  occupations = "smearing",
  smearing    = "methfessel-paxton",
/
&ELECTRONS
  electron_maxstep=200,
  conv_thr    = 1.D-8,  mixing_beta = 0.3D0,  scf_must_converge=.false.,
/
&IONS
/
ATOMIC_SPECIES
Si  28.08  Si.pbe-hgh.UPF
K_POINTS {automatic}
1 1 1 0 0 0
ATOMIC_POSITIONS (angstrom)
Si 3.26063898 2.44955988 0.20907961474685546 
Si 1.404782811 1.291920804 1.2216810215799663 
Si 4.06756413 1.3600993409999997 4.0737203351568985 
Si 0.000224300268 2.7153801 8.145714166476086 
Si 2.7151357499999995 2.7147610799999997 5.4308904719051085 
Si 1.357620003 1.356955371 6.787300946964724 
Si 2.71173114 2.71770957 10.863024026573369 
Si 1.347842745 1.363549563 12.242949483902615 
Si 1.357817112 4.0735588499999995 9.503229603991839 
Si 4.073249339999999 1.3581820079999998 9.502262761842719 
Si 0.337668894 0.829727892 16.06522180013522 
Si 0.00551919861 2.8085589 13.738101807360723 
Si 2.3640862499999997 2.1414019499999997 16.41749764318186 
Si 3.9651651899999996 2.7568218599999996 20.380480022187946 
Si 3.2825979 1.414703421 18.58191191429043 
Si 0.902606094 1.220124258 23.84564228462832 
Si 3.68518896 3.9548536199999997 23.97865214028561 
Si 3.22801011 1.64336778 23.782176003554046 
Si 4.00512456 0.22484924099999998 25.459681662351233 
Si 1.41794676 2.89158903 29.673283338439518 
Si 0.683795556 1.230256638 26.245033728049417 
Si 2.58059664 0.299788128 27.309492404152028 
Si 0.36538958699999996 3.2314798799999997 27.48663169790122 
Si 3.3774056999999997 1.96633332 28.82981715356397 
Si 0.397181151 1.2260407859999998 31.081661579014245 
Si 1.360710216 4.06811799 4.069922026713933 
Si 2.71770957 5.42846331 2.6929834210239285 
Si 1.4276898089999999 6.82365294 1.2594120364493122 
Si 4.0726140299999996 4.07253258 6.786817525890165 
Si 2.7146959199999996 5.430206339999999 8.144781854403721 
Si 1.357571133 6.78770091 6.786990176273936 
Si -0.00169227036 5.42989683 10.863334797264157 
Si 1.3564992509999998 6.7914639 12.25434440923151 
Si 3.9064397399999997 6.96324195 15.019202185019367 
Si 0.31135728599999996 6.25465953 16.736866323081724 
Si 1.426733586 4.1936487300000005 15.32945492465611 
Si 2.7527493599999997 5.40270882 13.708647651889367 
Si 1.87967052 4.14363843 20.3253700196882 
Si 2.24363799 8.11981566 20.08997848645462 
Si 1.96333596 6.101077409999999 18.837158241657693 
Si 3.7895426999999997 6.14673828 17.317800334394867 
Si 2.16083592 5.1398696699999995 22.573278016388496 
Si 0.366463098 4.9474684799999995 24.17543904770796 
Si 2.5276541399999997 7.461927719999999 22.349384998714076 
Si 2.29361571 8.11188243 25.985125840320336 
Si 1.3197310919999998 7.8594037199999995 29.60021769602757 
Si 3.658734 4.909512779999999 26.085159472677336 
Si 1.33286409 5.00621022 26.38470788852027 
Si 0.765100575 7.04646756 27.42775791703526 
Si 3.7338146099999996 4.189690259999999 33.11741678413656 
Si 2.58779682 4.67736399 30.90258860096682 
Si 0.842139243 6.313613039999999 31.34243271866218 
Si 3.1348475999999996 7.97356404 34.497411301619316 
Si 0.00835740531 8.145863369999999 2.6867921782618946 
Si 1.357281171 9.50019768 4.067919282262189 
Si 2.7198109799999997 10.87425918 2.692534530026123 
Si 1.301026914 12.174706169999999 1.2518534026478116 
Si 2.71707426 8.146433519999999 5.429785509448973 
Si 0.000179256789 10.86209055 5.430027219986252 
Si 2.71487511 10.86026607 8.14526527547828 
Si 1.357411491 12.218233049999998 6.787749837962529 
Si 1.3566165389999998 9.50096331 9.502711652840523 
Si 2.70782154 8.14789962 10.861780943810217 
Si 1.3731117929999999 12.21888465 12.233660893255728 
Si 2.73416247 10.89353025 13.736237183215994 
Si 0.791197155 8.8006725 16.966560393650855 
Si 0.710252145 10.12589658 14.927110470315837 
Si 0.536880933 9.65760795 19.36823082213773 
Si 0.800045883 12.0537855 19.319129052993215 
Si 3.7240569 10.39083714 17.712824412463245 
Si 1.0289936880000001 8.28238986 23.97115911362994 
Si 0.622968696 10.582554149999998 23.95606947008834 
Si 2.39808348 11.719693889999999 22.96143060918278 
Si 0.837851715 11.13361227 26.28084141764355 
Si 3.35342682 9.032023079999998 29.14152015642439 
Si 2.85650037 10.10098917 27.02330712801298 
Si 0.488587599 10.58815791 34.18035613686199 
Si 1.101726909 11.67082389 30.555181498742517 
Si 3.27106458 10.74100698 30.82513763880708 
Si 2.8432403099999997 10.07802027 33.20329308502433 
Si 2.7198109799999997 16.28296272 2.7123340760369983 
Si 4.0707081 12.21997608 4.0696457860999 
Si 3.95185626 14.839408079999998 1.3070669953778233 
Si 2.19313899 13.94938764 0.027302655448954688 
Si 1.36013355 14.93149545 4.070267327481476 
Si 2.7147773699999997 16.2901629 8.144816384480476 
Si 0.0005475459959999999 13.574799089999999 8.144816384480476 
Si 2.7144027 13.575711329999999 5.429647389141956 
Si 4.09844997 14.90150556 12.220090573091316 
Si 1.358511066 14.93235882 9.50202105130544 
Si 2.7174489299999998 13.57343073 10.858189815827776 
Si 2.69211798 16.19300934 13.552606235037004 
Si 1.402823124 14.64283665 17.12999124692862 
Si 1.071160353 15.1772301 14.875902366489317 
Si 3.8830473 12.5099055 15.01360831258518 
Si 2.14808085 15.79763475 19.33532365899095 
Si 2.67740811 12.227941889999999 20.672949772296263 
Si 0.1406354796 15.735325499999998 20.571673057176113 
Si 3.75139152 14.300844389999998 20.30869199261591 
Si 2.1766535099999995 12.30325056 17.347806971094293 
Si 0.264362265 15.392600189999998 22.901520926014193 
Si 1.7021095199999998 13.78521702 24.02184926630515 
Si 3.88957959 14.42741769 24.404615167125773 
Si 0.988130223 13.45594725 26.28156654925539 
Si 0.940727952 14.000196149999999 30.03301767806507 
Si 2.25202734 14.38628544 28.077268660782305 
Si 0.619055838 15.6976956 34.35635593807829 
Si 1.506383541 15.57781749 31.915908233396415 
Si 3.92937606 15.911143469999999 32.200228885390736 
Si 5.44843485 2.70448209 2.7166192585621975 
Si 6.60701223 1.264897323 1.2152722393343816 
Si 8.1428823 2.7179376299999998 5.4307868816748455 
Si 5.42901717 -0.00016157301659999997 5.430441580907303 
Si 5.430255209999999 2.7151357499999995 8.144816384480476 
Si 6.7878801 1.35775521 6.7879224883463 
Si 4.073493689999999 4.07561139 12.232452340569328 
Si 6.7787577 1.363860702 12.23915117545965 
Si 5.691758579999999 0.06079607189999999 16.51376749717265 
Si 6.70069602 3.8729637899999996 15.347928515719623 
Si 7.293749759999999 1.9246960799999997 16.692046283454737 
Si 4.07681685 1.161511209 14.95880908077622 
Si 5.34092085 2.70914103 13.670008496001383 
Si 7.616780459999999 2.8531934999999997 18.91626664750163 
Si 7.42113756 3.52779498 25.118110143098406 
Si 5.89794111 3.5085890699999998 23.351585946428813 
Si 5.031459719999999 1.5999533009999998 22.23812909141195 
Si 6.6797796599999995 0.446676687 29.856292745236928 
Si 6.135938009999999 0.35870254199999996 26.36595805684273 
Si 6.5626871399999995 2.56222152 27.051380080414166 
Si 4.679481689999999 3.7622080799999997 27.91276737512516 
Si 7.94591991 2.1292821899999996 28.85074238007703 
Si 4.71616677 1.3522768829999998 30.713467370583903 
Si 5.60907054 2.94676326 32.370565754019346 
Si 7.664363549999999 2.89535202 34.43373784008452 
Si 4.64159115 0.41497634699999997 34.46923475898787 
Si 4.32374067 4.274593739999999 1.3876671005375443 
Si 6.78903669 4.06969812 4.076310090913466 
Si 4.06782477 6.78949281 4.071096049323578 
Si 6.71599233 6.700924079999999 1.3256200056178706 
Si 8.11558026 5.43089052 2.7345369153899672 
Si 8.14475565 5.42989683 8.144954504787494 
Si 5.4307439099999995 5.42792574 5.429163968067397 
Si 6.78773349 6.787407689999999 6.787646247732266 
Si 6.78613707 4.070040209999999 9.503229603991839 
Si 4.0725 6.7873262400000005 9.504092855910693 
Si 5.42940813 5.432715 10.860088970049258 
Si 6.79133358 6.7680063 12.2366995400101 
Si 7.996744709999999 5.22804744 13.70982167449901 
Si 7.48751931 5.8683096 16.832238395076903 
Si 5.86202166 4.12125597 19.932832107146126 
Si 6.38704836 7.92290214 19.85928304365962 
Si 5.8465624499999995 5.99449194 18.50905345233901 
Si 6.516521279999999 7.369693739999999 22.14976662499788 
Si 4.5841689 8.101717469999999 23.315191245529856 
Si 6.79649751 5.04118485 21.86862274006495 
Si 4.37756283 7.10858133 25.51458448439046 
Si 8.01513612 5.77900782 25.672973946462108 
Si 4.71748626 5.312820599999999 29.80888294985337 
Si 5.30164566 7.547857469999999 29.095042673113202 
Si 6.31571445 7.455183659999999 26.852659488693583 
Si 4.9837951799999995 6.32462508 34.13042564587537 
Si 6.4147902299999995 4.870074689999999 31.354069354528356 
Si 8.119392119999999 10.8512577 2.7043023801839645 
Si 4.26193641 9.60771168 1.4010267872337554 
Si 5.45203494 8.137897559999999 2.729709610659726 
Si 6.791007779999999 9.50093073 4.073029733621814 
Si 6.740671679999999 11.93802876 1.049020278785796 
Si 4.07222307 9.502478279999998 6.787784368039284 
Si 5.4301086000000005 8.14472307 8.145058095017756 
Si 5.42906604 10.85741532 5.430199870370024 
Si 6.78717963 9.50102847 9.504023795757185 
Si 4.0457518199999996 9.51567318 12.219123730942197 
Si 5.427502199999999 10.862611829999999 10.862575135575563 
Si 6.79548753 12.21083739 12.219330911402722 
Si 7.90755696 8.19284373 16.06204503307383 
Si 8.11538478 10.80592263 13.542868753392314 
Si 5.37447825 8.150831819999999 13.528193470771766 
Si 6.47130024 9.77297373 14.9133329696909 
Si 5.83069599 11.74021929 16.15437845831464 
Si 4.69262772 8.573150069999999 16.551923231986073 
Si 6.70481739 11.65215555 20.20706997672821 
Si 8.03657376 9.70139547 19.58829100129243 
Si 5.23014885 12.01236003 18.405221511539047 
Si 8.13727854 11.941205309999999 23.916152701360453 
Si 4.47150726 10.53515025 23.48480298254663 
Si 6.168892679999999 11.94902451 22.493686189469997 
Si 4.7475901799999995 10.778718329999998 25.796902391933035 
Si 6.791610509999999 9.75909465 26.451350936655935 
Si 7.9002753299999995 11.15518023 28.10244108673614 
Si 5.51973618 10.345632389999999 34.100315418945684 
Si 6.9065527499999995 8.535992579999998 30.64678979237149 
Si 6.6415958999999996 8.37687186 33.09459240340201 
Si 7.07518683 10.94455053 30.265923045772343 
Si 5.4409414499999995 13.55139036 2.6711949425920096 
Si 6.788564279999999 14.936186969999998 4.068126462722714 
Si 8.126299079999999 16.27330275 2.677565741753165 
Si 4.0710339 14.933287349999999 6.787991548499809 
Si 5.430271499999999 13.5746199 8.145334335631789 
Si 6.787863809999999 12.217174199999999 6.787611717655512 
Si 4.0716040499999995 12.218363369999999 9.502642592687017 
Si 6.78682125 14.93340138 9.503298664145348 
Si 5.42663883 16.2911403 10.863818218338714 
Si 5.51957328 13.54506984 13.68803319606709 
Si 6.918786539999999 14.820837479999998 15.123931907814942 
Si 8.0891253 16.212361859999998 13.624118023995013 
Si 5.389986329999999 14.455501649999999 18.55901847340238 
Si 7.468003889999999 13.93889688 19.610183069954612 
Si 6.502365269999999 15.98545845 22.516786810818576 
Si 7.46849259 15.72159303 24.675952510260505 
Si 5.05441233 14.13660861 22.361781296268845 
Si 7.293603149999999 13.51519398 25.458542169818347 
Si 5.01218865 13.05294894 25.995657513730375 
Si 7.97626818 13.59110538 27.68559400015909 
Si 6.20155413 15.14403108 28.212074080430813 
Si 4.47654087 13.554224819999998 28.26690784231653 
Si 7.73199963 15.637634369999999 31.662940891094934 
Si 5.6212228799999995 14.23415313 31.7161517393732 
Si 5.051398679999999 12.274596449999999 30.28342979468674 
Si 9.50327649 1.3570254179999999 4.068817064257798 
Si 10.85860449 2.71528236 2.6970337990271993 
Si 9.35319672 4.032947879999999 1.361144548582621 
Si 8.14527693 0.00029899480499999995 8.145230745401527 
Si 10.85994027 2.7146307599999995 8.145576046169069 
Si 9.4876218 4.0495311 12.247990875108732 
Si 12.194074979999998 1.3494717449999998 12.236526889626328 
Si 9.50200587 1.356108291 9.502884303224295 
Si 8.147133989999999 2.71687878 10.861090342275132 
Si 9.19992411 1.0557874799999998 15.429281376552588 
Si 10.638999 2.47080204 13.722666863051582 
Si 8.98864281 1.4186260529999999 20.23724926381141 
Si 10.92078342 0.86568318 18.880286307523722 
Si 11.550929489999998 2.95461504 17.953706227900746 
Si 9.818031869999999 2.72648988 22.094863802958656 
Si 9.717082739999999 0.0257660559 24.38106565477939 
Si 9.428652 2.39467887 24.394808625327574 
Si 12.12355557 2.60969058 21.665689478980344 
Si 10.89537102 3.3635754899999997 26.032984526701696 
Si 11.51955495 1.520692677 27.31284182159719 
Si 9.90446661 0.865010403 28.790003975066345 
Si 8.220145769999998 3.82396347 30.41913299633086 
Si 9.62949141 3.0380524199999996 32.07636950007331 
Si 8.784692009999999 1.1548241639999999 33.276151546975754 
Si 11.08319472 2.03822109 30.536466197141728 
Si 8.500122000000001 7.699354469999999 0.04583556918433087 
Si 12.128181929999998 6.813846359999999 1.3159999262341422 
Si 9.501126209999999 6.788906369999999 4.07054356809551 
Si 10.24655661 5.8678697699999995 0.10473179460018125 
Si 9.50288553 4.07186469 6.787784368039284 
Si 10.86026607 5.43015747 5.430372520753794 
Si 9.500067360000001 6.787440269999999 9.502884303224295 
Si 10.860282360000001 5.43041811 10.868134477932996 
Si 12.22989669 6.796106549999999 12.227859840361017 
Si 9.3823884 6.80809599 14.78318911040421 
Si 10.814686649999999 5.497989029999999 16.156795563687435 
Si 12.06657315 4.07880423 14.792305050667329 
Si 9.36950301 4.683505319999999 17.905813011442632 
Si 11.286461339999999 7.7350132799999995 19.989495963099817 
Si 10.269606959999999 5.61491865 19.870574378758253 
Si 12.21197769 4.15792476 19.86387554386793 
Si 9.59295294 6.19029774 23.80620893697499 
Si 11.956224689999999 6.16288167 24.485104776039883 
Si 9.14061222 4.9378248 21.841654750119893 
Si 11.301627329999999 7.0263656999999995 26.558843065591848 
Si 9.03534624 7.7359255199999994 29.819518213493676 
Si 11.648131919999999 4.384486079999999 30.15849997698994 
Si 9.59244795 5.39021439 29.34849343648924 
Si 9.82233243 5.2509837600000004 27.055489159547918 
Si 10.801263689999999 7.57672335 31.646953465557726 
Si 11.048529599999998 5.19515793 32.40599361276919 
Si 12.22052994 9.50143572 4.071406820014365 
Si 9.420034589999998 9.40850127 1.417345701507804 
Si 12.10009797 12.13733691 1.3188037684665859 
Si 10.86187878 8.15501835 2.7341536315379953 
Si 10.44177597 10.978010190000001 0.07093271957083946 
Si 9.505312739999999 12.2178258 4.072373662163484 
Si 8.143973729999999 8.1459774 5.431373892979667 
Si 9.50295069 9.502185059999999 6.787784368039284 
Si 10.86031494 8.14486968 8.14526527547828 
Si 8.14519548 10.8598914 8.144885444633985 
Si 10.85998914 10.858360139999998 5.429612859065202 
Si 8.15008248 8.14475565 10.86001990989575 
Si 12.22253361 12.22707852 12.232970291720642 
Si 9.473742719999999 9.50954814 12.188150252093655 
Si 10.85560713 10.86292134 10.859709139204963 
Si 9.501908129999999 12.217532579999999 9.502228231765965 
Si 11.595107969999999 9.943139069999999 15.003249289558912 
Si 10.849221449999998 8.223713279999998 13.521598226111708 
Si 9.87752295 11.84807538 14.713507415514178 
Si 11.04155748 11.226106889999999 21.517797160241983 
Si 9.78981759 9.20215584 21.17515520860977 
Si 10.35879471 11.72417364 19.181112336206567 
Si 11.69323893 8.6724702 17.77687770484234 
Si 9.517188149999999 9.88283349 17.683094016377854 
Si 8.456692859999999 9.73765701 24.78779542886745 
Si 8.62389342 8.18851059 23.00058771622208 
Si 9.74221821 9.679648319999998 28.50229937555011 
Si 11.732888789999999 10.381258619999999 29.620452321005548 
Si 12.07385478 10.560611519999998 25.963613602502452 
Si 10.26778248 9.14424489 26.29313412496806 
Si 8.79414021 12.138574949999999 31.68970170057946 
Si 11.056283639999998 11.244335399999999 31.829030560282774 
Si 11.60137962 9.31897143 33.15294823311666 
Si 9.365446799999999 14.68978443 1.266808378890068 
Si 10.85863707 13.575287789999999 2.709792662387887 
Si 8.14358277 13.573218959999998 5.428887727453363 
Si 9.502869239999999 14.932049309999998 6.787300946964724 
Si 10.86002172 13.574945699999999 8.144747324326968 
Si 10.85943528 16.288501319999998 5.431132182442388 
Si 8.146075139999999 13.5742941 10.861746413733462 
Si 9.496385819999999 14.93898885 12.224061531918052 
Si 10.86187878 16.2906516 10.860537861047066 
Si 10.92943341 13.6681245 13.624705035299835 
Si 10.564065 15.79662477 16.87205157357453 
Si 8.29622007 13.01474889 16.17088383500316 
Si 8.30873079 15.590214179999998 21.079645016307573 
Si 9.39240675 13.69835874 18.142067796595065 
Si 10.23741792 15.008726339999999 22.409985283417747 
Si 10.23290559 12.77134371 23.209356560278145 
Si 11.64251187 12.72957615 25.188344319216508 
Si 11.585333969999999 16.1160228 25.755120999060416 
Si 11.664014669999998 14.20382115 27.114984481795457 
Si 9.85654143 14.745007529999999 28.537071162841617 
Si 8.69078016 12.72877794 34.17786997133568 
Si 11.27665476 15.2228421 32.340835357933955 
Si 9.545369849999998 14.24998701 30.847409538313556 
Si 10.51574886 16.24701069 34.400036485172386 
Si 16.28584605 2.72313414 2.671039557246616 
Si 12.2222241 1.412365806 1.1999823213476088 
Si 14.932016729999999 1.3578676109999999 4.066986970189824 
Si 13.574733929999999 0.00022836299399999998 8.145437925862051 
Si 13.57496199 2.7157547699999998 5.42902584776038 
Si 12.2179887 1.357729146 6.786817525890165 
Si 14.93219592 1.355614704 9.502953363377804 
Si 13.574668769999999 2.71650411 10.865026771025112 
Si 13.44309444 3.2080059899999998 16.520224621525692 
Si 14.53634892 1.6927753499999998 14.978456694449376 
Si 14.8007682 0.640353384 17.558889330292896 
Si 15.875891909999998 3.44202813 20.733619117153445 
Si 12.76111359 0.732038391 20.41062477919439 
Si 15.051357269999999 1.2948025049999998 19.886527274218704 
Si 15.795517049999999 3.01079925 23.08922642325018 
Si 13.53029481 2.60226234 23.58324823137293 
Si 13.501591829999999 0.45318291299999997 24.542735474142688 
Si 14.89176414 0.18025862399999998 26.41730428097626 
Si 14.535827639999999 0.534427659 30.219894453458956 
Si 14.327690309999998 3.58726977 27.31971330687128 
Si 13.75483617 1.404854487 28.06677151744902 
Si 13.66924851 2.7095157 34.105046039461016 
Si 12.627959129999999 0.774317457 31.76653112135762 
Si 14.93017596 6.7884828299999995 4.066814319806054 
Si 12.21875433 4.07500866 4.0689206544880605 
Si 14.978215169999999 4.138816589999999 1.1454420651143047 
Si 13.57470135 5.42559627 2.6815539656182787 
Si 14.932244789999999 4.07235339 6.786817525890165 
Si 13.57287687 8.1448371 5.430096280139761 
Si 16.290325799999998 5.42989683 5.4287496071463455 
Si 13.57540182 5.43038553 8.145437925862051 
Si 12.21784209 6.78791268 6.787300946964724 
Si 13.575809069999998 8.14535838 10.855185699150159 
Si 12.21696243 4.0716855 9.502642592687017 
Si 14.93327106 6.78830364 9.502055581382193 
Si 14.946009839999999 4.07090358 12.217155516567207 
Si 12.73286673 6.922810169999999 16.560555751174633 
Si 13.640252310000001 5.44662666 13.606473154773601 
Si 14.84597295 6.84611685 15.141473186806088 
Si 13.53987333 7.373945429999999 20.84218167846874 
Si 14.327217899999999 5.21653041 19.89315704895552 
Si 14.370402689999999 5.32541277 17.42011295181765 
Si 13.43644812 7.515831329999999 23.249480509466558 
Si 15.4139238 6.959478959999999 24.385761745217966 
Si 12.975783209999998 4.10452614 25.281748176836693 
Si 13.639258619999998 5.04528993 29.017280940262676 
Si 14.94268668 7.92114282 26.624450211424882 
Si 13.14589968 7.1423016299999995 28.068428961133222 
Si 16.230671819999998 5.694022889999999 34.33180505350603 
Si 13.34224305 4.67824365 32.68285576818459 
Si 15.082666649999998 5.21073117 30.917540124201395 
Si 14.791352579999998 7.01377353 32.771321824828924 
Si 15.09679008 9.5242743 1.144571907180098 
Si 13.58810802 10.851795269999998 2.6839227288836183 
Si 14.932033019999999 9.50242941 6.786921116120428 
Si 13.57512489 10.86007059 8.14485091455723 
Si 16.2901629 8.14462533 8.144954504787494 
Si 12.218868359999998 9.50143572 9.502400882149736 
Si 14.90155443 9.5011425 12.216568505262385 
Si 16.2906516 10.860152040000001 10.865717372560198 
Si 15.174721439999999 11.85763761 14.852698154910476 
Si 13.472106929999999 10.77805044 13.653123288468565 
Si 16.17610032 8.19991359 13.659407762437834 
Si 13.51218033 11.13605577 21.476188417753136 
Si 14.554137599999999 9.41830785 20.115047322178192 
Si 13.55482755 10.084438529999998 18.024872716091213 
Si 14.69126682 11.2497111 23.562150354476103 
Si 13.643477729999999 9.44370396 24.628784425414228 
Si 15.34630401 10.114933409999999 27.489601284502086 
Si 12.56022531 8.25640731 30.131359336661117 
Si 16.26017301 9.784702529999999 29.599043673417924 
Si 13.269557069999998 11.175444989999999 27.951579181396912 
Si 14.525678969999998 9.30932775 31.152206525823136 
Si 15.659283779999999 11.27377143 32.19684493786882 
Si 13.44219849 8.325916739999998 34.391852856981636 
Si 13.6686132 13.37671269 0.06664511994026687 
Si 12.218917229999999 14.93138142 4.0680919326459595 
Si 14.92914969 12.22162137 4.070509038018756 
Si 15.039139769999998 14.9483556 1.2303584298683041 
Si 13.58470341 16.291629 2.67895730384636 
Si 16.28214822 13.56408027 2.701588316151082 
Si 16.290488699999997 16.289006309999998 5.429750979372218 
Si 13.575434399999999 13.5741312 5.431926374207735 
Si 12.217043879999999 12.217516289999999 6.787300946964724 
Si 14.932179629999998 14.933108159999998 6.787300946964724 
Si 16.289136629999998 16.2929322 10.863956338645732 
Si 12.215854709999999 14.93037144 9.502711652840523 
Si 14.931528029999999 12.21903126 9.50284977314754 
Si 13.57261623 13.572160109999999 10.860745041507588 
Si 14.915466089999999 14.9426541 12.23010429535004 
Si 12.25983771 14.87451303 15.292507742529088 
Si 13.743416879999998 13.23979524 16.345295252688768 
Si 13.47339384 16.26709626 13.684960019235964 
Si 16.22747898 13.55464836 13.5799195257496 
Si 12.48121881 12.253354289999999 18.207605882274592 
Si 15.30108297 14.633355869999999 17.409926579175153 
Si 12.50350353 14.96505285 21.471423267161054 
Si 13.362263459999998 13.134122009999999 20.197712325927814 
Si 15.471443789999999 13.83659568 19.540743085601857 
Si 14.18173191 15.00949197 23.160047610673107 
Si 13.90719654 13.21112484 24.604716961916534 
Si 15.043733549999999 14.1198462 26.465404677894906 
Si 14.869919249999999 14.44136193 30.07196760464384 
Si 13.665990509999999 13.4905635 28.2246084982926 
Si 14.60476692 13.362849899999999 32.294288814469255 
Si 12.27521547 13.17224061 32.61821546450068 
