&CONTROL
  dt          = 30.D0,
  prefix = 'x.66_y2.00_z3.15_struc30-scf',
  pseudo_dir = './',
  outdir='./',
  wf_collect= .true.,
  verbosity= 'high',
/

&SYSTEM
ibrav= 6, celldm(1) =30.783621515, celldm(3) =2.1043587689124634, nat=  432, ntyp= 1,
  ecutwfc     = 12.D0, nbnd= 1728,
  degauss     = 0.05D0,
  occupations = "smearing",
  smearing    = "methfessel-paxton",
/
&ELECTRONS
  electron_maxstep=200,
  conv_thr    = 1.D-8,
  mixing_beta = 0.3D0,
  scf_must_converge=.false.,
/
&IONS
/
ATOMIC_SPECIES
Si  28.08  Si.pbe-hgh.UPF
K_POINTS {automatic}
1 1 1 0 0 0
ATOMIC_POSITIONS (angstrom)
Si 2.72044629 -0.0156372597 2.7311085142152867 
Si 1.434036393 1.3600439549999999 1.4060595102423854 
Si 3.9840453 3.94408593 1.2625325600478596 
Si 0.000358096554 -0.000645846372 5.4308439684534955 
Si -0.000171993078 2.71492398 8.145443232575948 
Si 2.71490769 2.24945352e-05 8.14434627243689 
Si 2.7160317 2.71319724 5.429918408336165 
Si 1.3572534779999998 1.357784532 6.787612260447364 
Si 2.7146959199999996 2.71534752 10.861790776920026 
Si 1.365393591 1.358043543 12.24639443244251 
Si 4.07183211 1.356613281 9.502177244565473 
Si 3.73884822 1.3875088949999999 17.110967009111302 
Si 0.00608868072 2.5251129 13.897010921686727 
Si 1.267083441 4.04798355 15.359910107134526 
Si 1.9779318 3.22763544 19.604631645226466 
Si 1.04324418 1.059962607 19.56586096031161 
Si 2.70410742 3.4728488099999995 17.183126418258755 
Si 0.638019027 0.0868779909 21.655570025218413 
Si 2.43566451 0.381423834 25.207492675486105 
Si 3.3570757799999997 3.3010218899999995 29.608222513354796 
Si 0.6865518239999999 1.549069857 26.36392862208438 
Si 0.752073462 3.9072868199999995 26.75571479175006 
Si 0.7390691549999999 0.823922136 28.673441074855067 
Si 3.2208099299999997 1.96623558 34.24113082065613 
Si 1.227575304 2.55174705 30.25025271474324 
Si 2.11908465 1.3939825409999997 32.13335619345921 
Si 1.354436937 4.07465028 4.069173635838206 
Si 2.7042703199999996 5.4355983299999995 2.67267139080737 
Si 1.398434598 6.820737029999999 1.0590978742589912 
Si 2.7152009099999996 5.430141180000001 8.145306112558565 
Si 1.357455474 6.787684619999999 6.787166620390872 
Si 4.07091987 4.07083842 12.239915511621195 
Si 1.358571339 4.07256516 9.502314364582856 
Si -0.0016634044799999999 5.4329756399999996 10.865870097437151 
Si 1.3606352819999998 6.78040299 12.246085912403402 
Si 2.7151520399999995 8.14462533 10.862647777028666 
Si 4.03285014 6.73360182 15.038226546355565 
Si 2.6583488099999997 5.356559249999999 13.68522905483971 
Si 0.08883148769999999 8.103590819999999 13.81648719147895 
Si 0.38006687699999997 4.66905609 20.677767181264976 
Si 3.64998627 7.076082779999999 20.86185080460076 
Si 1.3222527839999998 6.81627357 20.57629836840205 
Si 1.4594944049999998 6.98800275 18.017775964065038 
Si 0.8813150639999999 5.0490854999999994 24.641906883788312 
Si 0.20668589099999998 8.11250145 22.320567829518396 
Si 3.22626708 5.33525193 24.561280313567497 
Si 2.2987144799999997 4.99327596 28.2947498668494 
Si 3.2079571199999997 6.451019189999999 26.699872664671105 
Si 0.21271970699999998 5.331260879999999 33.93998098248018 
Si 3.47990238 6.670282589999999 31.78318594906907 
Si 1.75446558 6.550469639999999 30.14004250077219 
Si 2.84066649 8.13793014 33.7705692010043 
Si -0.001339166691 8.1520047 2.659216489101728 
Si 1.360070019 9.49982301 4.067528195629618 
Si 2.72932434 10.84379688 2.6845974043191982 
Si 1.341007461 12.21412797 1.3206165994110173 
Si 9.79025742e-05 8.14506516 8.145408952571602 
Si 2.71448415 8.14475565 5.430192648370928 
Si -0.0010104670709999999 10.86020091 5.429849848327473 
Si 2.7150705900000003 10.8598914 8.145168992541183 
Si 4.07533446 9.49703742 12.225346509774322 
Si 1.356927678 9.50303214 9.502760004639349 
Si -0.00346322142 10.86327972 10.86144797687657 
Si 0.5048075519999999 11.402869679999998 16.77361748634641 
Si 2.6402506199999998 10.756124100000001 13.63048388789981 
Si 1.36811565 9.57130353 15.267491215418831 
Si 2.8320165 8.17487586 16.5183000139805 
Si 1.8668339999999999 10.71886887 20.583771409349385 
Si 3.7261094399999997 9.36044577 20.129424231753013 
Si 1.67094675 9.88017822 22.759283325133183 
Si 3.8556475199999998 9.20057571 23.598800631556536 
Si 0.7637582789999999 11.223809999999999 24.410174054412163 
Si 0.45217782 9.29030103 25.7120943394531 
Si 1.9635151499999999 8.705815829999999 29.080070486402384 
Si 2.4683585399999997 8.7040728 26.78389295532213 
Si 2.11364379 10.21184262 32.611802214110526 
Si 0.1065064635 11.18624526 33.79919300463286 
Si 2.69685837 10.755456209999998 30.160199143327393 
Si 3.90749859 11.715621389999999 33.06470963152438 
Si 0.20263131 16.083491669999997 0.26464026234773486 
Si -0.0025576928999999997 13.568820659999998 2.71128781570267 
Si 1.3581217349999999 14.93374347 4.072807316298838 
Si 0.000190503405 13.57499457 8.144791912493382 
Si 2.7138162599999998 13.57584165 5.430878248457841 
Si 1.357533666 12.21743484 6.78764654045171 
Si 0.00194250105 16.28574831 10.860728096785314 
Si 1.3571036099999998 14.933417669999999 9.501663044500289 
Si 2.7182145600000003 13.571459639999999 10.863539057141653 
Si 1.352718342 12.21513795 12.238372911425644 
Si 2.7532706399999998 16.234060139999997 13.603951164536328 
Si 1.078116183 15.307892189999999 15.070895390496906 
Si 1.8888417899999999 13.43959209 16.420910521634696 
Si 0.0118032453 13.62116043 13.686428854991805 
Si 3.56575068 12.5827218 14.882252526583159 
Si 0.04026154949999999 14.235831 20.72562206733141 
Si 2.07642114 13.04703567 20.513977320501773 
Si 2.75434578 16.09106652 18.579762355306542 
Si 3.05628093 13.7640726 18.469003661265962 
Si 2.5288433099999996 12.75318036 24.61318024014671 
Si 3.03166674 13.714616159999999 22.531184176217668 
Si 2.63720439 16.05245922 22.86921929906947 
Si 2.6256547799999996 14.05963836 28.00683211035084 
Si 1.4524359479999998 12.66117444 29.510044580909046 
Si 2.82326877 16.13425131 29.019669118745465 
Si 1.74158019 14.533221239999998 25.896726442858416 
Si 2.7331687799999997 13.44434877 34.17644445245602 
Si 3.2391850499999997 15.69906396 31.28098388540626 
Si 1.65092634 13.971688649999999 31.80203995145914 
Si 6.788743469999999 4.07339595 4.07263591627711 
Si 8.162023049999998 -0.010809245789999998 2.684354016288345 
Si 7.5784175099999995 3.1745300399999996 0.16582849262163235 
Si 4.07297241 1.3587000299999998 4.075755396672558 
Si 5.41696257 2.7193385699999997 2.7169645844222985 
Si 6.71726295 1.32105384 1.3512286432916236 
Si 8.14306149 2.71557558 5.431015368475222 
Si 5.42909862 0.001122327243 5.431392448523024 
Si 5.4297828 2.71490769 8.144826192497728 
Si 6.7870167299999995 1.357579278 6.788126460512549 
Si 5.42740446 0.0021275228699999997 10.86230497698521 
Si 6.7753856699999995 1.366115238 12.226032109861235 
Si 7.22567385 0.90839556 16.05284611497616 
Si 4.399407719999999 1.072004175 14.933124053032005 
Si 5.46079896 2.76133419 13.683446494613738 
Si 4.295102849999999 3.28267935 20.285089731486313 
Si 4.902084540000001 0.06149686769999999 19.60151216483102 
Si 5.53819275 2.10689973 18.65610392498416 
Si 7.72160661 2.32570701 17.91736983133682 
Si 5.26096953 2.4719912099999997 22.302913627280425 
Si 7.682217389999999 2.13306147 22.36177239474179 
Si 4.6076916599999995 3.3711014699999997 24.47767138296862 
Si 4.78533411 0.17497414799999997 22.04979007519263 
Si 4.2669374399999995 1.576238319 26.053420342722077 
Si 8.10979731 1.4132829329999999 26.118518070974343 
Si 4.52596473 1.5342671339999998 28.463167528199254 
Si 6.368754689999999 3.31578063 28.481884410571944 
Si 6.109466759999999 0.189219753 25.788984389200245 
Si 7.904510729999999 0.37940061599999997 30.678204288993513 
Si 5.09238432 0.30921352199999996 34.16129269053527 
Si 4.07587203 6.786918989999999 4.067391075612235 
Si 6.772844429999999 6.67090161 1.1848746382033737 
Si 8.145716760000001 5.42592207 2.6967599498610118 
Si 4.07248371 4.07227194 6.787509420434328 
Si 5.43095568 5.4285773399999995 5.430981088470877 
Si 6.7875054299999995 6.78779865 6.7875437004386745 
Si 6.7868049599999996 4.071538889999999 9.503102804682804 
Si 4.0721742 6.787456559999999 9.502691444630656 
Si 5.42968506 5.429326679999999 10.862716337037357 
Si 6.78473613 6.80177547 12.224318109643955 
Si 7.9138611899999995 4.4404911 17.056701762232244 
Si 6.80985531 4.2121053 14.965038737077744 
Si 4.67809704 4.74149772 16.094564880264738 
Si 7.10367804 5.7395697299999995 21.14421520039534 
Si 7.45041069 7.729262909999999 19.934713807070096 
Si 5.1005619 5.41295523 19.94965988896477 
Si 6.46427925 7.658075609999999 17.831258460420713 
Si 5.96318256 5.4400455 17.826116459768876 
Si 4.25822229 6.93593991 23.136671892973716 
Si 6.5563666199999995 6.35728653 23.35434992056818 
Si 6.57234711 4.57056675 24.899726796471448 
Si 6.46818885 5.23563858 27.152060201993702 
Si 5.10386877 6.94737549 27.951607023350103 
Si 5.79813228 4.78798938 34.243907501008124 
Si 6.49762488 4.55039973 30.474786743206817 
Si 5.412971519999999 6.7258152 30.320458163642996 
Si 4.590733769999999 4.38272676 31.885374642023255 
Si 4.19245956 9.406562759999998 1.1243052985251611 
Si 5.43484899 8.12726019 2.6851698803917694 
Si 6.786707219999999 9.50255973 4.069516435881662 
Si 4.07240226 9.502657469999999 6.787303740408255 
Si 5.4300760200000004 8.14496742 8.144929032510765 
Si 5.42947329 10.85958189 5.429884128331818 
Si 8.1420678 8.14715028 10.860796656794005 
Si 6.78716334 9.50236425 9.502074404552436 
Si 5.430206339999999 10.862432639999998 10.859322616607143 
Si 5.42908233 8.150440859999998 13.647795290094331 
Si 6.78480129 9.68148909 15.078574111470317 
Si 4.48312203 8.96832918 17.968412757807396 
Si 7.139727809999999 9.704001869999999 21.086761913112138 
Si 7.185584159999999 11.26688076 19.29816840637695 
Si 5.9238585 10.631163509999999 17.18148097805017 
Si 5.01758064 10.27560168 21.851583090066462 
Si 4.59369855 12.105033839999999 25.537369157303658 
Si 4.90509819 11.83693302 29.672086161450622 
Si 6.6485843099999995 10.23046209 29.26624519000325 
Si 4.35307896 9.8060913 25.832005794653952 
Si 8.12038581 8.36520822 26.476538436359622 
Si 6.0266484 8.998253909999999 27.291545539675884 
Si 5.75693487 10.662179669999999 34.12797252631136 
Si 7.0516152 8.418623129999999 30.713478413465115 
Si 7.60378104 9.57544119 32.84254092336065 
Si 4.07166921 12.21616422 4.069790675916426 
Si 4.10395599 14.96982582 1.3143742106196865 
Si 5.43998034 13.57237188 2.6988270341230503 
Si 6.84106695 12.24248886 1.2806049783388516 
Si 6.78828735 14.929768709999998 4.0699963559425 
Si 4.07271177 14.93257059 6.787920780486475 
Si 5.4299457 13.57502715 8.145134712536839 
Si 6.7879615499999995 12.2173371 6.78757798044302 
Si 4.07240226 12.216848399999998 9.501663044500289 
Si 6.78776607 14.932505429999999 9.50265716462631 
Si 4.091103179999999 14.921346779999999 12.218010588844368 
Si 6.77556486 12.21676695 12.226409189909036 
Si 8.02984599 16.15971258 13.563672159430268 
Si 5.39629056 13.55424111 13.657873611371933 
Si 7.2807340499999995 14.34404547 15.003226661918722 
Si 5.2971659099999995 12.753294389999999 16.50729613258557 
Si 7.404130799999999 15.13723815 17.30420339360736 
Si 6.47335278 13.3011108 20.267572649265716 
Si 5.45381055 14.307458129999999 18.452686379197463 
Si 8.06786685 16.13579886 22.683113155477294 
Si 6.171759719999999 15.33592728 23.734618008773737 
Si 6.2281882799999995 12.95178804 23.99915680230861 
Si 5.073259859999999 12.631200839999998 22.030250472715647 
Si 6.349890869999999 14.79094533 27.418073035715434 
Si 6.01454493 15.945385049999999 29.467228855481412 
Si 4.72797702 13.09238703 27.643429784283306 
Si 7.0752682799999995 14.773743089999998 32.33012341840286 
Si 5.20799445 14.01171318 30.90078435720939 
Si 9.5016312 1.3596611399999998 4.068693715777368 
Si 10.868345909999999 2.69910639 2.6740014549759783 
Si 8.145 -3.36116457e-05 8.145100432532493 
Si 10.85977737 -9.778870709999999e-05 5.429335648262289 
Si 10.86024978 2.71547784 8.145066152528146 
Si 9.50417244 1.358628354 9.501046004422069 
Si 8.147394629999999 2.71231758 10.861653656902643 
Si 10.85937012 -0.0015772955399999998 10.861756496915682 
Si 9.444958289999999 1.103087124 15.08368183211781 
Si 10.701910980000001 2.66077602 13.793485308563064 
Si 12.16364526 3.7627130699999998 15.36484642776029 
Si 11.69253846 1.6905110399999999 17.47289529499198 
Si 9.63494856 2.4641720099999995 21.056047029218497 
Si 9.68735349 1.5263062109999999 18.885882794112607 
Si 11.308420259999998 1.69200972 22.633647109206617 
Si 12.16279818 3.11064066 24.32413124350475 
Si 8.3271222 3.07037178 24.461319820895778 
Si 11.66997681 0.0743079753 27.069719631555607 
Si 9.562604669999999 1.81074753 29.830459781527217 
Si 11.41534782 0.5031166499999999 29.37700388404383 
Si 8.568002429999998 2.76110613 27.975191666339867 
Si 10.47264552 3.70902123 30.917718679356106 
Si 11.274325289999998 4.01831946 33.1635388840527 
Si 8.532978929999999 7.81620264 0.013269652562158195 
Si 10.872060029999998 8.1492354 2.7282221378493885 
Si 12.21921045 6.8535939599999995 1.2912729156911973 
Si 9.555828029999999 4.1091524999999995 1.2033447045447743 
Si 9.50295069 6.7848501599999995 4.072601636272765 
Si 9.502380539999999 4.0725814499999995 6.78757798044302 
Si 8.14498371 5.4302877899999995 8.144860472502073 
Si 10.85845788 5.43062988 5.430329768388311 
Si 9.50127282 6.7865280299999995 9.502760004639349 
Si 9.501419429999999 4.06886733 12.236487511186638 
Si 10.863686969999998 5.42997828 10.863093417085159 
Si 8.20932921 5.5140021 13.582834681859449 
Si 9.62923077 6.70946004 15.169244722964388 
Si 11.33329509 5.73303744 16.548329297787234 
Si 9.18466038 4.6996324199999995 20.64451557704976 
Si 9.554866919999998 7.6899551399999995 18.932263639992183 
Si 9.652672079999999 5.39793585 18.409082213669876 
Si 10.9937952 7.9767243 20.74331054957373 
Si 10.206890459999999 6.45114951 24.090033093828755 
Si 8.232591329999998 7.79971716 24.20500822840384 
Si 10.264589639999999 4.3131033 25.0580661365437 
Si 11.99092239 7.708199939999999 25.02323765212859 
Si 10.66968936 5.970904019999999 21.875407693086643 
Si 10.98807741 7.8785118899999995 29.24732262760449 
Si 8.85431547 7.01517447 29.959832517927452 
Si 11.720866769999999 4.3560111599999995 28.961255991340593 
Si 9.9742041 4.583419559999999 27.381564831087385 
Si 8.456139 6.3516338999999995 27.733174835660044 
Si 8.613044279999999 5.12035425 31.341179573037106 
Si 10.430372969999999 6.0256221299999995 34.22772733895701 
Si 9.45940752 9.43173081 1.4353860539600325 
Si 8.13547035 10.87222293 2.7166389243810154 
Si 10.859484149999998 10.72673694 0.04057484154356362 
Si 12.18518064 12.17214864 1.3512217872907546 
Si 9.505166130000001 12.21875433 4.073390076372713 
Si 8.147052539999999 8.14514661 5.430604008423076 
Si 9.502478279999998 9.50255973 6.787509420434328 
Si 10.86042897 8.144397269999999 8.145134712536839 
Si 8.145 10.86011946 8.144791912493382 
Si 10.86042897 10.86055929 5.43142672852737 
Si 9.50050719 9.507072059999999 12.233128070760769 
Si 10.86111315 10.85945157 10.86285345705474 
Si 10.83646638 8.193365009999999 13.692804935800083 
Si 8.15708718 10.925979929999999 13.624347767121952 
Si 8.32880007 8.37933165 16.46605728735783 
Si 10.69076862 11.453645609999999 20.61904553382099 
Si 9.38791071 11.11847886 18.731999854605277 
Si 10.798184879999999 9.758785139999999 22.187390012635806 
Si 8.59018941 9.763802459999999 22.933665707239168 
Si 8.364654360000001 11.979975510000001 23.68402072235966 
Si 9.46380582 12.188748149999999 25.717990500200543 
Si 8.946500579999999 10.914951599999998 29.2169505437543 
Si 9.52486074 10.18063098 27.012266344272412 
Si 11.38838787 8.756624339999998 27.048157508822236 
Si 10.87121295 9.87911937 30.45387594055601 
Si 11.97710847 9.515510279999999 32.66771290119817 
Si 9.10728288 11.50632747 32.95401949749249 
Si 12.215789549999998 14.93351541 4.072498796259728 
Si 9.573844770000001 14.889222899999998 1.1382298362903374 
Si 10.84648473 13.57611858 2.6993686581917102 
Si 8.14436469 13.573837979999999 5.4307411284404585 
Si 9.50242941 14.93213076 6.787509420434328 
Si 10.859972849999998 13.57492941 8.144929032510765 
Si 9.50137056 12.21658776 9.50289712465673 
Si 8.145032579999999 13.57709598 10.862819177050392 
Si 9.50905944 14.93768565 12.211771628053471 
Si 11.02269366 16.07583537 16.217492975848 
Si 9.12971421 12.68854164 14.939431573831593 
Si 10.8846522 13.611451589999998 13.595038363406477 
Si 10.199120129999999 12.489494129999999 17.080389245235043 
Si 8.31127203 14.62004694 20.922834932331554 
Si 9.157961069999999 15.526585439999998 18.971034324907038 
Si 10.980046439999999 14.547149189999999 18.004201082344185 
Si 9.67790529 13.068945719999999 22.004197669413003 
Si 11.314007729999998 14.21287839 23.209105542155935 
Si 10.16142507 16.156829249999998 23.711924645896964 
Si 11.620927619999998 13.04765469 25.24194407985341 
Si 11.56358682 13.45386213 29.13313593312935 
Si 9.2440863 13.244030639999998 28.948263869693616 
Si 9.65708667 15.993489419999998 25.998435215751766 
Si 8.5470372 14.05080918 26.86585644571242 
Si 8.159498099999999 13.46423886 34.07648395978429 
Si 8.96736807 14.599651859999998 30.821768947192815 
Si 11.26391598 15.02317557 30.897219236757447 
Si 11.477966579999999 15.63874209 33.97895734742111 
Si 16.27900425 2.73116511 2.6850053363709105 
Si 13.57313751 0.01336866543 2.7136154279977354 
Si 12.243661739999999 1.212200802 1.1414761527018642 
Si 14.93270091 1.35640314 4.0699277959338085 
Si 12.21746742 4.07207646 4.06883083579475 
Si 13.575010859999999 6.26508513e-05 8.14520327254553 
Si 13.57556472 2.71454931 5.4308439684534955 
Si 12.217597739999999 1.357419636 6.787200900395218 
Si 14.931153359999998 1.356497622 9.502520044608929 
Si 13.57597197 2.71676475 10.86285345705474 
Si 12.221686529999998 1.364215824 12.262711714511008 
Si 14.926022009999999 4.05529776 12.268196515206302 
Si 13.82273289 0.1030034619 13.70144349689517 
Si 15.53578929 0.712669581 15.460727599914888 
Si 15.29308458 0.714678138 18.37823020975885 
Si 13.358679659999998 1.7273915999999998 19.337898931413477 
Si 15.34118895 1.415038995 22.853519057079193 
Si 15.938966789999998 3.8367674099999998 22.903533583419403 
Si 13.29998679 0.848093238 21.614399739999367 
Si 15.089492159999999 0.699300378 25.1656025101758 
Si 13.54324536 1.359837072 29.696904884596822 
Si 13.04851806 1.67557311 26.00830785700329 
Si 13.39935579 2.94785469 27.973683346148658 
Si 13.271039459999999 2.8248489 33.94975078371867 
Si 15.657915419999998 3.98986083 30.46690234220733 
Si 14.372292329999999 2.3140596600000003 31.776569908230368 
Si 16.09556256 0.683093457 32.448320873386436 
Si 14.85460665 4.11835635 1.1161706534939542 
Si 13.572355589999999 5.4344091599999995 2.6938221534885947 
Si 14.933352509999999 6.7877171999999995 4.067013995564435 
Si 16.290488699999997 5.42968506 5.430364048392657 
Si 14.932538009999998 4.0726140299999996 6.787269460403909 
Si 13.57435926 5.42997828 8.145168992541183 
Si 12.21741855 6.7874728499999994 6.787303740408255 
Si 12.212270909999999 6.78730995 12.25448451346807 
Si 13.57764984 8.14138362 10.86463601728071 
Si 12.21844482 4.07287467 9.50180016451767 
Si 14.93242398 6.7879941299999995 9.501525924482905 
Si 14.85478584 6.747236549999999 15.099416354112433 
Si 16.25880465 5.55489 16.78006212716338 
Si 12.96822465 7.566444359999999 16.475381448539828 
Si 13.443273629999998 5.2753698899999995 13.795404988806416 
Si 13.259685329999998 7.53710607 20.63659689604593 
Si 13.15832895 4.11822603 19.442967144732695 
Si 15.148070999999998 5.17950324 18.865486191526987 
Si 14.17945131 7.3702964699999995 18.535643989713776 
Si 13.82879277 4.6795794299999995 23.638873956636523 
Si 12.90255966 5.34248469 21.520986728157652 
Si 16.12157769 7.2584493299999995 24.501221745954034 
Si 14.01383088 6.50971206 25.29716916685415 
Si 12.818568419999998 6.41197206 29.40086276706836 
Si 14.546122919999998 6.59303541 27.741367756698637 
Si 15.217694459999999 4.389666299999999 28.13157704616442 
Si 13.94792154 7.03987011 31.641540971113113 
Si 16.07166513 5.9479351199999995 31.683122616384306 
Si 13.482141569999998 8.08607907 33.888149615909654 
Si 12.21756516 9.49993704 4.072293116233654 
Si 14.966437499999998 9.58749579 1.0061832595511477 
Si 13.591642949999999 10.84505121 2.6860063124978018 
Si 13.57393572 8.14587966 5.430295488383965 
Si 14.932798649999999 9.502380539999999 6.78702950037349 
Si 13.574978279999998 10.86018462 8.145374672567257 
Si 12.215789549999998 9.50207103 9.50289712465673 
Si 14.957038169999999 9.48174111 12.245708832355598 
Si 12.229456859999999 12.20080275 12.244680432225232 
Si 12.42329157 11.53200051 17.06791132365325 
Si 12.23914941 9.63154395 15.281820257235285 
Si 13.722581969999998 10.811477519999999 13.762084824582509 
Si 15.15119868 12.18941604 15.21284888849197 
Si 14.40584973 11.11758291 20.88570968762529 
Si 12.68197677 11.70008073 19.43545982378101 
Si 16.17570936 10.72642743 19.371390495659114 
Si 16.21498455 8.42834826 19.005142929230896 
Si 14.32969398 9.067013999999999 22.0298391126635 
Si 12.65315976 9.529780319999999 23.656939518926645 
Si 13.189947839999999 11.371071599999999 25.064785017395437 
Si 12.34770597 11.29278186 29.31344875598712 
Si 15.89498379 8.36651142 28.822079173697517 
Si 13.0636026 10.36794969 27.217946370345913 
Si 15.34623885 10.08621414 27.41964991591533 
Si 15.636771 12.11058873 28.623837908567005 
Si 14.340396509999998 11.34543114 30.484762224471382 
Si 14.84862822 9.03936987 30.79389930365986 
Si 14.935160699999999 12.21622938 4.070716236033757 
Si 14.84484894 14.884172999999999 1.3778676346685772 
Si 13.575857939999999 13.57509231 5.429849848327473 
Si 12.2173371 12.217662899999999 6.78788650048213 
Si 14.93245656 14.93242398 6.787509420434328 
Si 12.21657147 14.932407689999998 9.500154724309082 
Si 14.932733489999999 12.217532579999999 9.501560204487252 
Si 13.57191576 13.57631406 10.86192789693741 
Si 14.9405364 14.925810239999999 12.227711830074167 
Si 13.753809899999998 13.503481469999999 16.54212461700068 
Si 12.504203999999998 14.848009199999998 14.935866453379651 
Si 12.846098519999998 14.05480023 19.47992098941723 
Si 14.98636017 14.633306999999999 18.66268568581851 
Si 14.780715209999999 13.13092917 22.10491232218033 
Si 15.13929069 12.62359341 24.380213330614122 
Si 13.053975209999999 14.727903029999998 21.730300434691785 
Si 15.672543839999998 14.64198957 25.63222192932789 
Si 15.118911899999999 15.881186159999999 29.344095079872073 
Si 12.496661729999998 14.19728886 27.131869279434152 
Si 14.75528652 14.15456019 27.735882956003344 
Si 14.75144208 12.79033785 32.450343393642825 
Si 13.29469254 13.77532899 34.173667772104025 
Si 15.72087627 14.82534981 31.48381867111908 
