&CONTROL
  dt          = 30.D0,
  prefix = 'x.66_y2.00_z3.17_struc3-scf',
  pseudo_dir = './',
  outdir='./',
  wf_collect= .true.,
  verbosity= 'high',
/

&SYSTEM
ibrav= 6, celldm(1) =30.783621515, celldm(3) =2.1190173891003106, nat=  432, ntyp= 1,
  ecutwfc     = 12.D0, nbnd= 1728,
  degauss     = 0.05D0,
  occupations = "smearing",
  smearing    = "methfessel-paxton",
/
&ELECTRONS
  electron_maxstep=200,
  conv_thr    = 1.D-8,
  mixing_beta = 0.3D0,
  scf_must_converge=.false.,
/
&IONS
/
ATOMIC_SPECIES
Si  28.08  Si.pbe-hgh.UPF
K_POINTS {automatic}
1 1 1 0 0 0
ATOMIC_POSITIONS (angstrom)
Si 1.3177958399999998 1.336402278 1.3035711608688483 
Si 4.0420865699999995 4.05217008 1.156514197786623 
Si 1.3604218829999999 4.071050189999999 4.071180996873561 
Si 4.07204388 1.355577237 4.070179951868775 
Si 0.001050027336 -5.7648355199999995e-06 5.430289444232009 
Si -0.000304983009 2.7156896099999996 8.145192534795134 
Si 2.71555929 -0.000495154098 8.144674752896107 
Si 2.71549413 2.7152497799999997 5.430220406645471 
Si 1.3574571029999998 1.3577633550000001 6.787430320374155 
Si 2.71795392 2.71551042 10.864479512103351 
Si 1.345404132 1.350851508 12.246508438192045 
Si 2.2898038499999998 2.66753637 16.60640462196287 
Si 2.76640038 0.0189651438 13.689601109572617 
Si 3.8151831599999997 1.5608898809999998 15.142082892722208 
Si 3.1612374 1.82584836 20.68894230182175 
Si 2.14003359 0.775721655 18.769179614197235 
Si 1.7524781999999999 2.19302496 22.601939305965654 
Si 0.1074708315 0.563847399 23.143366578381197 
Si 3.1518054899999997 2.6813665799999997 24.462536781928055 
Si 1.587699963 3.60613359 25.983641926095313 
Si 1.9930000499999998 3.16079757 29.650400741035778 
Si 0.18878481 1.7927144999999998 26.75986603032281 
Si 1.1416243769999999 1.083739491 28.804759343545438 
Si 2.53421901 2.7386747999999996 34.36342417994279 
Si 4.03583121 2.5339909499999997 30.63587777005659 
Si 3.94612218 1.425552561 32.88539848977455 
Si 0.562725018 3.63868101 33.253230750843095 
Si 2.71585251 5.424358229999999 2.6882062558493107 
Si 1.295963982 6.73096284 1.2746133451959505 
Si -0.0050116347899999995 8.15122278 2.6811022881946647 
Si 0.00090041346 5.43009231 5.429668105953176 
Si 2.7147447899999997 5.43004344 8.14505445962206 
Si 1.3573235249999998 6.787423979999999 6.7874648391674235 
Si 1.3583497949999999 4.07390094 9.502436967317085 
Si -0.00530707023 5.43315483 10.859301693113085 
Si 1.351332063 6.79946229 12.233943597442332 
Si 2.7135556199999997 8.14462533 10.861752527435144 
Si 3.8022489 6.959234609999999 14.735727658366082 
Si 4.09017465 6.366979079999999 16.969818477493053 
Si 0.962248671 4.26042144 15.087853868497481 
Si 2.5143452099999997 5.29843653 13.61034596022827 
Si 0.555171345 7.15275981 16.426354596274667 
Si 3.8879831699999996 4.1081751 17.74918379190798 
Si 1.70629605 5.6773907999999995 20.917318638085774 
Si 3.3506901 4.13981028 20.113617574416594 
Si 0.0569631978 6.48473949 19.395626674432958 
Si 3.0850327799999997 7.29529731 21.938073873826937 
Si 0.550805625 4.26763791 22.39458491480211 
Si 0.179113437 4.94437338 24.643967559346997 
Si 2.74170474 4.52785437 27.844239402057713 
Si 2.5131397499999997 6.9107066999999995 28.231954488048878 
Si 0.237609198 7.424069759999999 28.70351572288909 
Si 0.7215003899999999 4.49203266 31.070641971272643 
Si 2.3759942400000003 6.005227049999999 31.94790258339688 
Si 1.022824665 7.82260461 32.73475847595106 
Si 3.4792181999999996 7.341674939999999 30.32355172856371 
Si 2.78456373 7.931470679999999 34.45434668141187 
Si 3.99127806 9.61339689 1.225458583581686 
Si 1.3554387719999998 9.50606208 4.069316982037065 
Si 2.69448003 10.878527159999999 2.7006088582706624 
Si -0.000244638333 8.14441356 8.145227053588401 
Si 2.7151520399999995 8.145 5.4306346321646926 
Si -0.0007805272049999999 10.86007059 5.431083376477183 
Si 2.7147284999999997 10.860282360000001 8.146435211352797 
Si 4.06850895 9.502445699999999 12.231665357086614 
Si 1.3566556349999999 9.501126209999999 9.502989268009381 
Si 7.757933309999999e-06 10.85902803 10.864203361757204 
Si 0.0984525246 8.19764928 13.816733825180297 
Si 1.041312186 10.08885312 15.076393629132358 
Si 2.83268439 10.933391879999999 13.738238089287854 
Si 0.33791813099999995 11.30773608 16.99001197155509 
Si 0.769485843 8.42890212 18.216775365522324 
Si 1.1544723 10.71334656 21.318012790345875 
Si 2.9303592299999996 12.21002289 20.718007125753783 
Si 3.0521106899999997 8.339193089999998 17.684599129702725 
Si 2.43164088 9.30694941 22.913989197112386 
Si 1.65768669 8.81080488 25.01639081992024 
Si 0.594099558 9.737070569999998 29.32782261794217 
Si 0.6060971430000001 10.68146703 26.015882479008038 
Si 3.4603869599999997 8.31119058 26.521962507116694 
Si 3.9845828699999997 10.594967129999999 27.09801212918049 
Si 1.85981301 11.20887207 27.93350500144991 
Si 1.63820385 9.728241389999999 31.425149978139565 
Si 3.91844547 9.29533464 31.550280603737672 
Si 0.6065548919999999 11.64291912 32.22836777870299 
Si 2.71551042 16.2957015 2.6963872098539317 
Si 0.00291051801 13.591708109999999 2.69719840149574 
Si 1.519570296 12.457989269999999 1.249780525318632 
Si 1.3567729229999999 14.931055619999999 4.071664259979319 
Si 0.00026851621499999996 13.574717639999998 8.144985422035523 
Si 2.7146959199999996 13.575988259999999 5.430116850265667 
Si 1.357538553 12.21714162 6.787430320374155 
Si 1.3576314059999999 14.931951569999999 9.501850147831522 
Si 2.7114216300000002 13.57603713 10.861338301915922 
Si 1.37906253 12.21316686 12.233909078649063 
Si 0.41391261 13.53887964 16.207229296606585 
Si 2.4385804199999996 14.64156603 15.510640048449384 
Si 3.34023192 15.14963484 17.783737103969695 
Si 0.20760953399999998 15.980245649999999 19.492935152656703 
Si 2.5734453299999998 12.91283865 18.388713474792443 
Si 2.79147069 14.081515829999999 22.171386397528348 
Si 2.56723884 13.424914799999998 24.46160477450981 
Si 0.36165428999999993 12.58176069 24.67009828585121 
Si 0.596126034 15.09310854 21.642558484655783 
Si 0.38467206 16.196886359999997 25.37290091679673 
Si 2.53219905 15.424479719999999 25.806284366282043 
Si 2.50659117 15.32491524 28.137269438113535 
Si 1.265832369 13.397710499999999 28.690433100240348 
Si 0.061824296699999996 16.17807141 34.3397788065539 
Si 3.25531215 13.44219849 34.39380071801902 
Si 3.8833242299999995 13.936420799999999 31.067328167118873 
Si 0.703703565 15.394049999999998 32.058466278235706 
Si 2.9926684799999994 15.501922379999998 32.62661109664103 
Si 1.560042801 13.379563439999998 30.997841836269494 
Si 5.42476548 2.72766276 2.6931251838900634 
Si 6.912563759999999 1.48473576 1.3485353409803236 
Si 5.43089052 -0.001016411292 5.431117895270451 
Si 5.42996199 2.71487511 8.145088978415329 
Si 6.78727737 1.357569504 6.787879064686645 
Si 4.073021279999999 1.3568690339999998 9.501332365932496 
Si 6.7758255 1.356333093 12.20512040506318 
Si 7.16566149 3.4761230999999997 15.05927230767121 
Si 5.63290281 0.8447749649999999 16.62552803343359 
Si 5.43509334 2.62987389 13.672963051217229 
Si 5.23630647 0.600592752 20.69719229341291 
Si 7.15372092 3.9100561199999997 19.838433754480555 
Si 6.25262328 3.1638438 17.383215545675938 
Si 7.159666769999999 1.92795408 21.151632206791973 
Si 7.50128436 0.842090373 24.43737258163536 
Si 4.160694059999999 0.7970420069999999 25.505004338635064 
Si 6.91971507 2.88948762 23.27201812089269 
Si 5.24743254 0.83585619 29.52837680683183 
Si 7.789796549999999 1.231468614 26.724553304809195 
Si 5.51752074 1.6688290499999998 27.323523405603236 
Si 5.04867825 3.9654747 27.67551154056156 
Si 7.2374189399999995 1.181720583 30.78033891988503 
Si 7.63282611 3.4889759099999997 30.848996799695964 
Si 5.55697512 0.32212823399999996 34.33349638617905 
Si 6.78406824 4.07577429 4.07097388411395 
Si 4.07232081 6.7894276499999995 4.068212380652474 
Si 6.8028669 6.76854387 1.1427619105484748 
Si 4.072304519999999 4.07277693 6.787257726407812 
Si 5.430222629999999 5.43005973 5.430772707337766 
Si 6.787391399999999 6.787440269999999 6.78732676399435 
Si 6.787407689999999 4.07194614 9.50233341093728 
Si 4.07280951 6.788531699999999 9.501021696793078 
Si 4.0749435 4.0666356 12.242573295759442 
Si 5.42776284 5.432666129999999 10.864686624862962 
Si 6.80405607 6.76310301 12.235117236413458 
Si 8.14596111 8.14508145 10.862132234161097 
Si 8.10821718 5.351248709999999 13.843002626857583 
Si 5.93373024 7.9373024999999995 17.318251176744724 
Si 5.346882989999999 5.22889452 20.54127090421935 
Si 7.84431918 7.60464441 20.683799001624752 
Si 5.8684725 7.3358919899999995 19.52710875799246 
Si 4.93086897 6.035966279999999 22.68916829655501 
Si 7.05477546 7.027147619999999 22.867250751026912 
Si 5.01200946 4.10213151 24.04044097784152 
Si 6.017737769999999 5.1520220100000005 25.94218485537991 
Si 7.484456789999999 7.3182499199999995 30.132559245409407 
Si 5.60903796 4.17747276 29.939081409139778 
Si 5.69151423 7.513501859999999 26.125755797981494 
Si 5.57057727 5.25818394 34.25900483030575 
Si 5.48267643 6.3242829899999995 30.71948228735276 
Si 4.45305069 6.8692812299999995 32.91142565989896 
Si 7.587539909999999 4.275115019999999 33.13869739477839 
Si 8.146417229999999 10.860233489999999 2.6715647456145937 
Si 5.4324869399999995 8.15058747 2.674505746801065 
Si 6.786739799999999 9.501614909999999 4.067452967200568 
Si 4.0723696799999995 9.50288553 6.787223207614544 
Si 5.43001086 8.14495113 8.145123497208596 
Si 5.431623569999999 10.86042897 5.429633587159907 
Si 6.78675609 9.5027715 9.50257504249016 
Si 5.42730672 10.861487819999999 10.863133279165881 
Si 6.78717963 12.23367597 12.224312854120436 
Si 7.94631087 8.74455345 16.320658051286692 
Si 6.4440959399999995 9.851426369999999 14.847672104935647 
Si 5.48365383 8.15374773 13.557083462215061 
Si 4.1198387400000005 9.94918266 16.148271197704084 
Si 4.74873048 10.72145898 21.12049625526384 
Si 6.89917338 11.443724999999999 20.638890051582507 
Si 4.093742160000001 8.60766858 20.24920739437504 
Si 6.99303636 12.065155919999999 18.357888192403724 
Si 4.49543727 11.53516077 17.922364577735763 
Si 4.60677942 10.208193660000001 23.413165466567357 
Si 6.471837809999999 8.87286978 24.266262923403684 
Si 4.32142749 11.92115232 25.07030917500555 
Si 6.961955039999999 8.26706097 28.008065594909752 
Si 7.731527219999999 11.93134986 28.072477663148664 
Si 5.9845061699999995 10.4008392 28.38787587724244 
Si 4.85495757 11.51711145 34.25779667254135 
Si 7.75663011 9.25783506 31.68790703249896 
Si 5.7594109499999995 10.59521148 30.72969985016022 
Si 4.0721742 12.21683211 4.067452967200568 
Si 4.2371756099999995 15.102931409999998 1.2461422445081378 
Si 5.44879323 13.590274589999998 2.687084395068086 
Si 6.82674804 12.29924322 1.0785914738624371 
Si 6.78594159 14.930860139999998 4.075081620512895 
Si 4.072548869999999 14.932847519999997 6.7876719519270345 
Si 5.42965248 13.575499559999999 8.145330609968207 
Si 6.787391399999999 12.21764661 6.787257726407812 
Si 8.1414162 13.57603713 10.858645836040985 
Si 4.07232081 12.218004989999999 9.501090734379616 
Si 6.787652039999999 14.933140739999999 9.501815629038253 
Si 4.07802231 14.935176989999999 12.23156180070681 
Si 5.4304995599999994 16.28996742 10.85716152793044 
Si 5.53516281 13.70480958 13.628675439453813 
Si 6.72961077 15.391508759999999 15.021474229042264 
Si 7.417146509999999 14.407446149999998 18.43075736499341 
Si 5.474140469999999 15.79756959 18.587300092465803 
Si 5.03157375 15.01705053 22.12274941781311 
Si 7.806314609999999 12.824791199999998 23.969194188535454 
Si 5.623308 15.716787479999999 24.28448884624942 
Si 6.97176162 13.50846621 21.83175599056013 
Si 6.03614547 13.60762344 25.34166140888879 
Si 4.69075437 14.89316508 29.048600099193727 
Si 6.59953512 13.96830033 27.605472909019884 
Si 7.30251378 16.17763158 32.78998854518057 
Si 7.741936529999999 13.902733079999999 31.871788644239963 
Si 5.59364391 12.61015416 31.94631471890653 
Si 12.125331179999998 1.2848721209999998 1.3522978894465838 
Si 8.14172571 -0.0170826714 2.6997769553528927 
Si 9.507625919999999 1.3553491770000001 4.069662169969749 
Si 10.86775947 2.7150380100000002 2.722949421273999 
Si 9.494903429999999 4.03561944 1.4118255484380156 
Si 8.144739359999999 0.00043400469599999997 8.144536677723032 
Si 8.14410405 2.7140606099999998 5.428977730087808 
Si 10.85977737 2.71494027 8.144674752896107 
Si 12.198929399999999 1.3522882859999998 12.223656997048336 
Si 9.50169636 1.3554322559999998 9.503127343182454 
Si 8.14156281 2.7183937499999997 10.863340391925492 
Si 10.86124347 0.000869571603 10.859819475012111 
Si 8.190497970000001 0.1521512064 13.560535341541906 
Si 9.10896075 1.8024396299999998 14.998726344278358 
Si 10.81133091 2.68156206 13.648005963684142 
Si 9.148073039999998 0.594299925 21.258985653856836 
Si 11.150244359999999 1.87494642 20.918871983782857 
Si 11.88559125 3.6435843 19.4204111679997 
Si 10.82463984 1.6861779 24.735891105820865 
Si 11.273885459999999 3.1631596199999996 22.96007178612576 
Si 9.52640829 0.040565683799999995 23.566256314712906 
Si 10.821609899999999 3.66171507 28.198367702198684 
Si 9.477017009999999 2.8435824 26.427933314253455 
Si 8.53604145 2.4330743999999997 34.455347726416655 
Si 10.402924319999999 0.40931720099999996 34.482168828786236 
Si 10.8699912 2.2128498899999998 31.65929095287942 
Si 10.61956503 0.0630918216 30.652446790825444 
Si 12.125787299999999 3.7329023699999997 33.04656673554492 
Si 10.876328009999998 8.11466802 2.7246581015407876 
Si 8.13173994 5.442847379999999 2.702058647587937 
Si 9.50361858 6.787391399999999 4.073286643262936 
Si 8.14563531 8.145162899999999 5.429978775092592 
Si 9.502103609999999 4.07225565 6.787740989513571 
Si 8.14477194 5.430141180000001 8.145330609968207 
Si 10.85943528 5.428479599999999 5.431325008030062 
Si 9.50339052 6.7882059 9.502264373350744 
Si 9.50451453 4.08486411 12.246681032158389 
Si 10.858555619999999 5.42916378 10.863789136237981 
Si 9.21149001 6.95162718 15.30242268745413 
Si 11.82627936 4.3242945299999995 17.137200106051736 
Si 10.139677919999999 6.00859908 17.279900797423483 
Si 10.96787781 5.5926827999999995 20.449381876538748 
Si 8.81176599 5.6926545299999995 19.578507241169174 
Si 8.16746391 4.9462793099999995 23.378301485366226 
Si 10.56460257 7.3593984599999995 23.882862686571077 
Si 10.36004904 5.29900668 22.686717462232952 
Si 8.36248779 4.86170163 25.70376355027477 
Si 10.794079799999999 7.608130469999999 29.02302167338181 
Si 9.738585539999999 6.74021556 26.011256960710064 
Si 11.42883594 5.871192929999999 27.547412298742362 
Si 9.829842119999999 4.106432069999999 30.32683101392421 
Si 9.65865051 6.469720109999999 30.777266747284138 
Si 9.099594 6.303187439999999 33.11950494572114 
Si 10.84964499 5.26676877 34.4237975493693 
Si 9.61002486 9.422983079999998 1.2883276617615034 
Si 11.3669991 10.45114272 0.14391057507580668 
Si 9.5030973 9.502413119999998 6.787568395547229 
Si 10.860217200000001 8.145114029999998 8.14526157238167 
Si 8.14535838 10.859875109999999 8.144226008583617 
Si 10.860298649999999 10.86033123 5.430496556991619 
Si 9.50935266 9.487572929999999 12.231941507432762 
Si 10.86334488 10.85927238 10.862580978473588 
Si 9.50264118 12.21839595 9.502851192836307 
Si 11.60444214 10.15139043 15.036627979287111 
Si 10.73800962 8.19706284 13.874967029424162 
Si 8.188005599999999 10.92992211 13.547245606133554 
Si 9.46346373 12.136424669999998 15.183194775504923 
Si 8.66144187 9.826470089999999 20.999404328478136 
Si 12.133329569999999 9.88410411 20.169986763823964 
Si 10.11349989 10.94956785 19.49124373178655 
Si 8.817320879999999 10.82604078 17.37531074201746 
Si 11.924035649999999 10.720807379999998 22.381640367326444 
Si 9.91215549 9.55369404 23.027901214898254 
Si 8.275319999999999 10.50838578 24.46950957816828 
Si 11.508689519999999 11.404319489999999 26.35841246461081 
Si 11.829667679999998 9.480731129999999 29.98837424592712 
Si 9.247067369999998 10.74924972 26.596143393850582 
Si 9.21598605 8.541759240000001 27.44409755048991 
Si 8.173018800000001 8.28993213 34.07215460234366 
Si 9.79634988 10.27190385 30.996219452985876 
Si 10.38010203 11.76538734 32.91435975732678 
Si 9.50198958 12.2150565 4.068281418239011 
Si 9.41140089 14.84209593 1.2012401982245458 
Si 10.86370326 13.57776387 2.685268706542166 
Si 8.14574934 13.577812739999999 5.429978775092592 
Si 9.50246199 14.93263575 6.787706470720303 
Si 10.860282360000001 13.57476651 8.14460571530957 
Si 10.8598914 16.290325799999998 5.430600113371424 
Si 12.207253589999999 12.239686979999998 12.227212432754985 
Si 9.494870849999998 14.94079704 12.231147575187588 
Si 12.071883689999998 14.96651895 15.068419787887349 
Si 8.5121766 14.33028042 16.20263829710188 
Si 10.777578029999999 13.565807009999999 13.679832291077648 
Si 10.06616115 16.11898758 15.968497322362026 
Si 12.00704949 15.973957709999999 17.262365250443114 
Si 8.5713093 14.675807609999998 20.47088708474499 
Si 10.443111749999998 13.296060899999999 20.16601710259809 
Si 12.074148 14.816341439999999 19.343296183837996 
Si 9.88894224 13.96999449 23.98079250307365 
Si 11.35196343 13.052965229999998 22.320438546861492 
Si 11.39773833 13.68133569 25.758130649672566 
Si 8.459136359999999 15.678636299999999 30.013193258287128 
Si 8.9414181 12.23056458 30.05886162178128 
Si 11.01265902 13.14534582 29.490647765789422 
Si 10.732682789999998 14.74518672 27.7319152487622 
Si 8.44204815 15.46818579 27.686074291301704 
Si 12.20987628 16.190174879999997 28.90607200178832 
Si 8.529248520000001 13.299970499999999 34.10384285456409 
Si 11.551450769999999 13.57457103 31.82946860369285 
Si 11.66675139 15.80043663 32.699721900783594 
Si 16.288403579999997 2.71401174 2.70982192419401 
Si 14.934623129999999 1.358012592 4.0694550572101384 
Si 14.835237839999998 4.024623689999999 1.3892951320717022 
Si 13.57492941 -0.000173380986 8.144778309275912 
Si 13.573903139999999 2.7156081599999995 5.430393000611814 
Si 12.21714162 1.3576069709999998 6.78777550830684 
Si 16.2924435 -0.00188131581 10.863961730204325 
Si 14.93136513 1.3570303049999999 9.502644080076696 
Si 13.57489683 2.71775844 10.862373865713977 
Si 16.138975409999997 2.65922847 13.677657607101736 
Si 14.2166088 0.491531202 17.02045754721786 
Si 14.262399989999999 1.8031400999999998 14.96475985170221 
Si 12.57866559 3.63835521 14.93148373499143 
Si 12.92344344 0.23689406699999999 21.062470163779583 
Si 14.24571903 3.35109735 19.469393335647624 
Si 14.51611674 0.9983929229999999 19.347541995410015 
Si 14.148565469999998 1.334458881 22.991449369206773 
Si 13.534171829999998 3.58474482 23.210229480942175 
Si 13.070819069999999 0.8982517769999999 25.092677353043502 
Si 14.166565919999998 2.34375633 26.668149596608554 
Si 12.712520519999998 2.2300032599999997 28.587463539920584 
Si 13.572078659999999 2.59315623 34.49356003056482 
Si 13.121757899999999 2.9526602399999997 30.888451780401795 
Si 15.32284641 1.7175035699999999 33.13186267371125 
Si 15.84748215 0.42665301899999997 30.45927962369523 
Si 12.21551262 4.074096419999999 4.074011537921573 
Si 13.56300513 5.448385979999999 2.7083134529281794 
Si 12.24884196 6.87661173 1.2258969722561954 
Si 14.9307624 6.786642059999999 4.069489576003407 
Si 13.57525521 5.4298316699999996 8.14460571530957 
Si 14.93289639 4.07240226 6.787637433133765 
Si 12.21732081 6.787684619999999 6.787361282787618 
Si 12.217581449999999 4.07142486 9.501988223004597 
Si 14.93081127 6.78496419 9.501194290759422 
Si 14.92892163 4.06999134 12.219480223062854 
Si 12.20262723 6.80762358 12.249408016826596 
Si 13.839381269999999 5.683369229999999 16.852074873654388 
Si 13.59908748 5.44006179 13.611347005233053 
Si 15.4219059 6.174919979999999 14.976461722620213 
Si 12.221702819999999 7.37575362 17.487151632207222 
Si 14.677371449999999 4.51120599 21.45097918201592 
Si 14.450810129999999 6.812347679999999 20.862123087649532 
Si 12.319752329999998 7.48962072 19.868223473071225 
Si 15.566251589999998 4.71114945 18.069656268612214 
Si 16.19564832 7.29497151 24.739964323426538 
Si 14.591962979999998 7.921745549999999 23.02103197503783 
Si 12.758116229999999 7.71924456 24.554356772022118 
Si 14.273917019999999 4.306228920000001 25.312631103750025 
Si 13.349508389999999 6.236821979999999 26.28295438252599 
Si 15.1487226 7.60897755 26.842573058994006 
Si 12.944359799999999 5.2598943899999995 30.03045265492135 
Si 16.0609626 5.557789619999999 34.372191953432974 
Si 15.296847569999999 5.98323555 30.245746368536633 
Si 15.006820409999998 7.11095967 32.415666750977564 
Si 12.218298209999999 9.50435163 4.072492711017762 
Si 14.977645019999999 9.603492569999998 1.1459756102017669 
Si 13.592587769999998 10.85710581 2.7069706718700366 
Si 13.574717639999998 8.14482081 5.430082331472398 
Si 14.9325543 9.50278779 6.7874648391674235 
Si 13.57533666 10.85977737 8.144916384448987 
Si 12.217793219999999 9.502657469999999 9.50233341093728 
Si 13.57859466 8.14403889 10.861856083814947 
Si 14.921965799999999 9.490782059999999 12.248476009408348 
Si 14.93193528 12.217662899999999 9.502436967317085 
Si 13.06313019 9.6145209 16.808719269309222 
Si 13.383668519999999 10.76534424 13.615075034906049 
Si 15.310351979999998 11.47856931 14.818814393763228 
Si 16.23063924 10.372804109999999 19.159414572096992 
Si 13.85897814 10.87958601 18.86289813792106 
Si 14.06797884 10.238802569999999 23.212783871644035 
Si 15.77486133 11.76353028 22.64636499290214 
Si 13.09175172 9.97992189 25.32888945537946 
Si 14.8442625 9.92849436 26.867806296873237 
Si 12.28997421 11.360369069999999 28.59771562152131 
Si 14.67227268 11.43342972 28.7334780354461 
Si 13.15966473 8.793928439999998 34.28506651922342 
Si 13.628116259999999 9.18604503 31.78041739845839 
Si 14.784494489999998 11.28413187 31.19201004840449 
Si 16.13511468 11.50720713 34.465530770430846 
Si 12.33978903 12.23299179 1.2876062189821926 
Si 12.21927561 14.93289639 4.070766771354339 
Si 14.93366202 12.212515259999998 4.07142262842644 
Si 14.86542321 14.84786259 1.1913471120738097 
Si 13.57066143 16.27296066 2.693180413959293 
Si 13.57520634 13.574799089999999 5.429840699919518 
Si 12.2179887 12.216685499999999 6.787568395547229 
Si 14.932977839999998 14.93235882 6.787292245201081 
Si 12.21624567 14.931967859999999 9.50122880955269 
Si 13.575988259999999 13.574668769999999 10.861614452262069 
Si 14.9320656 14.92411608 12.255966587547599 
Si 13.46622624 16.279737299999997 13.65518587268398 
Si 16.23943584 13.35380895 13.706825987413572 
Si 15.262100999999998 14.63980671 17.810730800305617 
Si 14.98605066 13.62453246 21.523261535120046 
Si 13.947383969999999 13.290701489999998 19.356413325280005 
Si 13.13102691 14.58218898 22.586095179855437 
Si 13.258121489999999 14.8387239 24.940656587489276 
Si 15.364125269999999 14.2599402 25.790612834138173 
Si 14.230210949999998 15.09592671 29.673252182179493 
Si 15.306882209999998 13.643917559999998 28.08307493268208 
Si 14.11697916 13.03354755 34.3312526646166 
Si 13.874307029999999 13.432652549999998 31.743585846040958 
