&CONTROL
  dt          = 30.D0,
  prefix = 'x.66_y2.00_z3.17_struc13-scf',
  pseudo_dir = './',
  outdir='./',
  wf_collect= .true.,
  verbosity= 'high',
/

&SYSTEM
ibrav= 6, celldm(1) =30.783621515, celldm(3) =2.1163055416155427, nat=  432, ntyp= 1,
  ecutwfc     = 12.D0, nbnd= 1728,
  degauss     = 0.05D0,
  occupations = "smearing",
  smearing    = "methfessel-paxton",
/
&ELECTRONS
  electron_maxstep=200,
  conv_thr    = 1.D-8,
  mixing_beta = 0.3D0,
  scf_must_converge=.false.,
/
&IONS
/
ATOMIC_SPECIES
Si  28.08  Si.pbe-hgh.UPF
K_POINTS {automatic}
1 1 1 0 0 0
ATOMIC_POSITIONS (angstrom)
Si 0.00219722778 2.7094342499999997 2.6956185890335767 
Si 2.7365082299999997 0.00310093182 2.6924158970889227 
Si 1.492401834 1.4458352399999999 1.2783705204056788 
Si -0.0016138942829999998 0.000278176185 5.430062492039913 
Si 0.000196200018 2.71458189 8.145179924603053 
Si 2.71448415 0.00050881815 8.145179924603053 
Si 2.71625976 2.71334385 5.430200390509004 
Si 1.357620003 1.357463619 6.787603971012846 
Si 2.71402803 2.71555929 10.861503968770743 
Si 1.348741953 1.360842165 12.229939426801918 
Si 4.07197872 1.357434297 9.50123899503325 
Si 2.73631275 0.1252805256 13.677494131474438 
Si 4.05922365 1.5482537279999997 17.156465658953604 
Si 1.7484871499999999 3.6925194599999998 15.123497478369675 
Si 3.5974021499999997 2.09419353 14.90492840485938 
Si 2.0889318599999998 1.197297081 18.573992971981408 
Si 0.20768120999999998 2.33054514 17.679273229897394 
Si 2.9371358699999996 3.3640478999999996 22.134393545459204 
Si 0.785366964 2.6125576199999996 22.670922014077615 
Si 4.03418592 1.329848811 21.72611065309605 
Si 0.879642081 2.00163375 24.968655255317547 
Si 2.59507845 0.987884244 29.709432249602756 
Si 2.94239754 1.81607436 26.17340523053691 
Si 2.18848005 2.74761801 28.1916527495453 
Si 2.68107336 3.0448290599999996 34.46186166452621 
Si 1.5775219710000001 1.218780333 31.832517079738086 
Si 3.4412462099999996 2.7599495399999996 32.30116502694612 
Si 1.3558867469999998 4.0729887 4.06731534585877 
Si 2.7069744599999996 5.452442189999999 2.693791434318112 
Si 1.453558329 6.904597949999999 1.1555960659116387 
Si -0.000332708589 5.429522159999999 5.430407238212642 
Si 2.7152660699999998 5.4297990899999995 8.144869653047595 
Si 1.357188318 6.78770091 6.787121326371025 
Si 1.358414955 4.07215791 9.501687165057799 
Si 1.351346724 6.78553434 12.244453240673817 
Si 2.74466952 5.44566555 13.677114910684436 
Si 0.760814676 6.612404219999999 17.977719991629034 
Si 3.7704834 6.3252441 20.31413375344918 
Si 2.71034649 4.27881285 19.948702810356256 
Si 0.511722657 4.59405693 19.1050744510707 
Si 2.60830593 7.69195881 18.876231941613078 
Si 0.905802192 6.679225799999999 23.229410813898873 
Si 3.7837434599999997 5.07167973 23.788761479151958 
Si 3.26291958 6.96083103 22.50975317832673 
Si 0.733932918 6.03406035 25.55720592140079 
Si 2.71085148 6.06447378 29.595976284157583 
Si 0.35889150599999997 5.753090429999999 29.186866000979876 
Si 3.02730102 5.871860819999999 25.954732733174797 
Si 3.59078841 4.6512837 27.95384683959672 
Si 2.84192082 5.0471632799999995 31.745882366531244 
Si 0.602928738 4.641933239999999 32.70462147289107 
Si 3.0494717099999997 7.9208495999999995 34.00596932570915 
Si 1.3544304209999998 9.50480775 4.07086623143788 
Si 2.71213839 10.85195817 2.678591575562483 
Si 1.2368801520000001 12.164085089999999 1.1987651816607856 
Si -3.86830485e-05 8.14506516 8.145007551516688 
Si 2.7152009099999996 8.145798209999999 5.430096966657186 
Si 0.00033275420099999995 10.86039639 5.43085540823719 
Si 2.71541268 10.8600543 8.144800703813049 
Si 4.08510846 9.498943350000001 12.243867172180178 
Si 1.358491518 9.505426769999998 9.502549030489622 
Si 2.7146470499999995 8.14587966 10.865571973608947 
Si -0.0019258526699999997 10.86049413 10.859780237907097 
Si 1.368374661 12.2261337 12.212047100437275 
Si 2.7426332700000002 10.91698785 13.577586690617522 
Si 0.995030667 9.97532811 14.766926511915893 
Si 2.63676456 9.555551099999999 16.465732227273435 
Si 2.0826439199999998 9.7321347 19.86648084816035 
Si 0.30709256399999996 10.24570953 21.300038858220066 
Si 4.009017869999999 10.50480198 20.928678280956202 
Si 1.3436594729999998 10.91016234 17.953311962599813 
Si 1.300909626 11.94864984 22.504133815711242 
Si 1.64287908 10.871962289999999 24.5291728343224 
Si 3.80091312 9.910836 24.693375436393303 
Si 3.8444237099999996 8.18153847 26.280621290255684 
Si 3.1673135699999997 8.3610054 29.899249492307437 
Si 0.25668641699999994 9.18340605 27.560146710340003 
Si 2.67491574 11.93915277 27.8337027984006 
Si 2.59116885 9.48333753 27.89051696766637 
Si 3.71462499 11.094271919999999 32.34880894801729 
Si 2.1683130299999998 9.09690615 32.00457989454721 
Si 0.538198794 15.68798676 -0.0008961849133181187 
Si 4.051208969999999 14.83525413 1.2029572951211724 
Si 1.3589362349999998 14.93361315 4.067866939735136 
Si -0.0001330816437 13.574310389999999 8.14455938149214 
Si 2.7162434699999998 13.57450587 5.430131441274459 
Si 1.3574831669999998 12.21743484 6.787638445630119 
Si 1.3575597299999997 14.931251099999999 9.502031911230526 
Si 2.7119917799999995 13.574245229999999 10.859159694796185 
Si 2.6961578999999998 13.9921326 16.37316787989565 
Si 1.1812677209999998 15.28788807 15.045171147925608 
Si 0.1494038979 13.67475453 13.61843911208593 
Si 3.9051365399999995 12.428504369999999 14.929060636950423 
Si 0.0840495582 15.40038681 21.198890331141328 
Si 2.33230446 16.20389106 20.60806434031807 
Si 3.1396205699999995 14.10256251 19.89464661047232 
Si 1.511221671 13.232204099999999 18.422683876770577 
Si 3.41290161 12.60989352 21.74117606084431 
Si 3.4974141299999997 15.202952009999999 24.47101415498299 
Si 1.1777849189999998 14.72112639 24.697684763552417 
Si 1.353303153 12.713269859999999 25.967867562355778 
Si 1.8831728699999999 13.180646249999999 29.687609816869 
Si 3.3638524199999997 15.81701985 26.71620807949899 
Si 1.8280638 15.330600449999999 28.53774343234812 
Si 2.22571899 13.93228314 34.3046574097617 
Si 3.15268515 13.414977899999998 31.92142711768494 
Si 8.138874959999999 0.0220449312 2.687096463643712 
Si 4.07408013 1.355859054 4.075968474794272 
Si 5.41510551 2.7031300199999997 2.71372810548704 
Si 6.59456667 1.294916535 1.22199073131755 
Si 5.42989683 0.00280277595 5.429752220484457 
Si 5.429294099999999 2.715543 8.145076500751234 
Si 6.787521719999999 1.3574961989999998 6.787259224840117 
Si 6.78398679 1.362406005 12.243522426007447 
Si 5.4806238899999995 2.92890942 13.597926714808544 
Si 7.67091213 2.97069327 21.360989981558582 
Si 6.02549181 1.5066572129999998 20.44434438288899 
Si 5.879093579999999 2.70005121 18.376315516538504 
Si 5.0244876 0.6410652569999999 23.745185562918987 
Si 5.14597842 2.3610726 25.320227402266756 
Si 6.648307379999999 2.15800146 27.13772922489495 
Si 6.41853693 0.320403123 28.57156303189285 
Si 5.84646471 2.49010569 31.586506210878547 
Si 4.898223809999999 0.735052041 30.273299089718588 
Si 7.6287210299999995 3.11231853 34.41504513426959 
Si 4.17250431 4.17012597 1.3922505236433058 
Si 6.78892266 4.07240226 4.069004602105142 
Si 4.0698936 6.787391399999999 4.070521485265151 
Si 5.88567474 5.068128509999999 0.040866556061488764 
Si 6.88403997 6.9165059399999995 1.3044505683726404 
Si 4.0725814499999995 4.0723696799999995 6.787569496395573 
Si 5.4291312000000005 5.42996199 5.429614322015365 
Si 6.78778236 6.78713076 6.787707394864665 
Si 6.78730995 4.072516289999999 9.5020663858478 
Si 4.07474802 6.78781494 9.501997436613253 
Si 4.05391311 4.09618566 12.205531397772694 
Si 5.4261664199999995 5.43066246 10.859918136376189 
Si 6.786544319999999 6.81910803 12.225871421963713 
Si 6.33405699 4.8214001699999995 15.025899836870048 
Si 4.5198234 6.571956149999999 14.970809398467924 
Si 4.12368318 7.833388589999999 17.09165337848052 
Si 6.623302229999999 4.959734849999999 17.708542179962098 
Si 7.449286679999999 6.73024608 21.389362591574194 
Si 6.00765426 6.56952894 19.566137982478693 
Si 7.518942719999999 4.8172787999999995 22.791169479125553 
Si 5.919818579999999 4.48458813 24.496180625592217 
Si 6.20215686 7.868607569999999 26.431309842355603 
Si 6.7274442 5.58922932 26.444065450746585 
Si 5.908399289999999 4.19068395 28.142974589955944 
Si 6.522776639999999 6.55261992 31.499182005326247 
Si 4.585797899999999 6.296085 32.941599992025104 
Si 6.6919319999999995 4.37987601 30.358623767469055 
Si 8.15107617 10.85568858 2.692926121424562 
Si 4.10925024 9.44539812 1.200578546529341 
Si 5.42852847 8.146303199999998 2.7043337722801706 
Si 6.7870167299999995 9.50345568 4.070590434499697 
Si 4.07310273 12.220676549999999 4.068970127487869 
Si 6.7504456799999994 12.23119989 1.3050262944810982 
Si 4.07223936 9.50285295 6.787431597926481 
Si 5.42992941 8.145032579999999 8.144938602282142 
Si 5.42988054 10.860103169999999 5.430441712829915 
Si 6.788596859999999 9.502347959999998 9.501928487378708 
Si 5.43129777 10.85749677 10.86122817183256 
Si 6.806173769999999 12.20091678 12.230559969912829 
Si 7.899135029999999 8.353528289999998 16.894872263086707 
Si 5.56854102 8.27481501 13.732170874469283 
Si 6.858562409999999 9.643435649999999 15.157041280976223 
Si 4.8661487999999995 10.67640084 16.147634933696224 
Si 7.741529279999999 10.71308592 21.118426574426337 
Si 5.86941732 10.687478039999998 19.576204570722386 
Si 6.11823078 8.63730009 18.401378563295914 
Si 7.641052559999999 8.790979949999999 24.74246729138994 
Si 6.9373245599999995 8.78604408 22.47562330722654 
Si 4.53559212 8.99877519 22.665854245338497 
Si 5.2480515599999995 11.72132289 25.307678641579415 
Si 7.51185657 11.024013149999998 25.51986991089422 
Si 7.0840323 8.74878885 28.435112496726642 
Si 6.43049379 12.18814542 29.29728820010503 
Si 7.79238666 10.93252851 27.871521453548993 
Si 8.02023489 8.44318845 34.235053157487684 
Si 5.23195704 11.05027263 34.28514477638524 
Si 7.179442829999999 10.62184563 32.96100920154976 
Si 5.56253001 8.49562596 30.239376066322034 
Si 5.73463386 10.66649652 31.070386715685707 
Si 5.4223219799999995 13.567941 2.707777786545735 
Si 6.7870656 14.93164206 4.066660328130584 
Si 4.07267919 14.932309949999999 6.787500547161027 
Si 5.43015747 13.574587320000001 8.144938602282142 
Si 6.787440269999999 12.21736968 6.78729369945739 
Si 4.07280951 12.22004124 9.501411368119614 
Si 6.78817332 14.934329909999999 9.503445370538715 
Si 4.07240226 14.94451116 12.237903063391961 
Si 5.426117549999999 16.2917919 10.86302085193075 
Si 4.6848411 15.554376179999998 16.66716741599909 
Si 5.45016159 13.55520222 13.545215024998253 
Si 6.71309271 14.74824924 15.092160051268595 
Si 8.01885024 16.27385661 13.782951985712291 
Si 6.474949199999999 15.44516802 20.184198920947555 
Si 5.0601627 14.43219066 18.632530872110827 
Si 5.8673322 12.29839614 17.912942185773225 
Si 6.458251949999999 14.358331799999998 22.285771589904588 
Si 4.70025144 13.36482099 23.58270669171173 
Si 7.253497169999999 16.047555929999998 23.676477650694064 
Si 8.12046726 12.74689242 22.22968138760155 
Si 7.3129393799999995 14.70607443 25.61546802459202 
Si 5.491668509999999 14.94503244 27.167205022663296 
Si 4.88796111 12.67466256 27.515984725613396 
Si 7.75690704 14.026960619999999 34.44652045983976 
Si 5.1546446999999995 15.03806463 31.689033722648205 
Si 7.2345193199999995 14.00376366 30.657380800756158 
Si 5.755501349999999 15.660489239999999 34.13183615337257 
Si 9.498470939999999 1.359284841 4.070659383734243 
Si 10.85969592 2.7095157 2.6933949762194738 
Si 9.45360828 4.02389064 1.2304714871666873 
Si 8.1456516 0.000596401335 8.144352533788503 
Si 8.14700367 2.71581993 5.4310277813235555 
Si 10.86081993 0.0013835634569999999 5.429890118953549 
Si 10.85894658 2.71487511 8.145042026133961 
Si 9.50381406 1.3571541089999999 9.49996343419415 
Si 8.14811139 2.71397916 10.861297121067105 
Si 9.27345717 1.329692427 15.44452511441508 
Si 10.652682599999999 2.79599931 14.005726962529883 
Si 12.10926924 2.3375009700000002 21.346855388476687 
Si 11.627085239999998 0.390218805 20.12869478713816 
Si 9.332215199999998 3.06993195 19.77408887386893 
Si 9.65547396 0.819440757 18.84744563619019 
Si 8.195189489999999 2.28993417 17.653727538498156 
Si 9.96814422 2.60066592 22.301354116911945 
Si 9.575196839999998 0.490379499 23.433741870475455 
Si 10.07782479 3.9702150899999995 25.66700757741503 
Si 10.071927809999998 0.3885165 25.809801442159454 
Si 10.44164565 0.46929861 29.93524099274036 
Si 10.16282601 2.57518836 28.91903269938658 
Si 9.016808219999998 2.24243253 26.80991008924678 
Si 10.79600202 1.2594955589999999 32.25479666671405 
Si 11.88511884 3.4807657499999998 32.76091852289775 
Si 8.538208019999999 2.29190526 32.365012018135566 
Si 10.873086299999999 8.13516084 2.6765162036026537 
Si 12.129990119999999 6.61532013 1.056436724249547 
Si 8.15985648 5.435614619999999 2.696542508776491 
Si 9.50239683 6.78493161 4.071728096869704 
Si 9.50272263 4.07284209 6.787810818716484 
Si 8.14493484 5.4300760200000004 8.144835178430322 
Si 10.860168329999999 5.43051585 5.430200390509004 
Si 8.14151394 8.14368051 10.861021324128922 
Si 9.50233167 6.7865606099999995 9.500894248860519 
Si 9.4944636 4.060152179999999 12.24603907306837 
Si 10.86109686 5.43089052 10.8605386794871 
Si 11.653132949999998 4.69863873 15.158385791049868 
Si 8.69760567 6.02596422 17.002157272040023 
Si 8.181147509999999 5.52889116 13.60213261811584 
Si 9.986372730000001 6.486401069999999 14.975566895651589 
Si 9.48283254 7.07342751 20.21653611194955 
Si 10.16351019 5.1756588 18.87275000526851 
Si 11.04142716 6.66876762 23.709918029448794 
Si 10.87033329 8.06760621 21.803575118108295 
Si 9.66417282 7.70279166 25.369215833411573 
Si 9.7777467 4.62461697 23.472181068734756 
Si 9.06810543 5.802009299999999 26.64419060401587 
Si 12.138298019999999 5.918108129999999 28.683088418770737 
Si 9.77600367 6.01055388 28.844636475311624 
Si 8.77034052 6.853365899999999 32.648496795970765 
Si 9.062599409999999 4.14986121 30.28436544186319 
Si 10.545445529999999 5.268006809999999 33.98445716453085 
Si 9.55379178 9.53088804 1.2455162101445887 
Si 8.14486968 8.14410405 5.43002801742264 
Si 9.502022160000001 9.50269005 6.787603971012846 
Si 10.859875109999999 8.14457646 8.144938602282142 
Si 8.14498371 10.85979366 8.145697043862146 
Si 10.858588199999998 10.85919093 5.430165915891732 
Si 9.49030965 9.52784181 12.243143205217445 
Si 10.85495553 10.859174639999999 10.866089092868041 
Si 10.91566836 8.26460118 13.619335452135026 
Si 8.201949840000001 11.12585823 13.888858009974692 
Si 9.23032125 11.07946431 19.22528744150136 
Si 9.61095339 8.82750213 18.53558824833938 
Si 12.04850754 8.74888659 18.066354232637703 
Si 11.05902036 10.93334301 24.18163421759412 
Si 10.19498247 10.33321941 22.059962846766975 
Si 10.83491883 9.58557357 26.16357996461413 
Si 11.51663904 11.079415439999998 29.94137747461494 
Si 9.33529401 8.3007324 29.03069598473356 
Si 10.109427389999999 10.93194207 28.002697372272443 
Si 10.169097659999998 8.352273959999998 31.222523201711088 
Si 10.84366656 11.02901418 34.382397671712134 
Si 11.44493046 10.11929913 32.254382971306775 
Si 12.216538889999999 14.92960581 4.070659383734243 
Si 9.500165099999998 12.22070913 4.070452536030605 
Si 9.53869095 15.079832189999998 1.1940973184820327 
Si 10.85115996 13.582585709999998 2.686672425851255 
Si 8.144739359999999 13.57387056 5.430751984385371 
Si 9.502250219999999 14.93252172 6.787431597926481 
Si 10.85985882 13.575108599999998 8.144800703813049 
Si 9.50370003 12.21911271 9.5020663858478 
Si 8.14715028 13.570547399999999 10.862572681906203 
Si 9.50615982 14.944690349999998 12.247418057759287 
Si 10.85148576 16.2976563 10.859297593265277 
Si 10.833469019999999 13.803820199999999 15.812369280717107 
Si 8.45641593 13.048045649999999 15.613554162904194 
Si 11.36493027 14.0454009 13.523461541499042 
Si 11.07436554 16.111754819999998 16.405574020132192 
Si 9.84595293 13.781730959999999 20.989939675850174 
Si 11.208367079999999 12.226948199999999 19.8209743533601 
Si 8.60300964 14.93688744 19.317231245768234 
Si 8.19020475 12.83355522 17.944934630602493 
Si 10.8372483 13.17320172 24.871574733077015 
Si 11.067833249999998 15.40265112 22.094954583298986 
Si 8.49728754 12.91489119 24.53951521950427 
Si 10.704126419999998 13.131401579999999 27.196646345814365 
Si 8.42236983 15.61399758 29.28311913240586 
Si 9.133672679999998 14.90287392 27.128248705144898 
Si 10.54503828 12.479703839999999 32.363564084210104 
Si 8.212929299999999 12.786346799999999 32.490671998095344 
Si 11.27618235 16.07378283 34.27173415026607 
Si 12.271892309999998 1.334190096 1.3159444057714311 
Si 14.93183754 1.3562549009999998 4.0743481677824445 
Si 13.57533666 -5.044393979999999e-05 8.144973076899415 
Si 13.57496199 2.71458189 5.430889882854463 
Si 12.21735339 1.357716114 6.7875350217783 
Si 16.28991855 0.0050560902 10.860745527190739 
Si 14.932538009999998 1.3558150709999999 9.501997436613253 
Si 13.5786924 2.71534752 10.867950722200778 
Si 12.197740229999999 1.368664623 12.25693305212661 
Si 14.922747719999998 4.06802025 12.270343678245776 
Si 16.254129419999998 2.5625636099999998 13.794087287091443 
Si 15.881544539999998 0.8287814429999999 15.609244835745079 
Si 13.291369379999999 0.11919555899999999 18.470396747076297 
Si 13.3309215 3.70446003 19.7978074105527 
Si 14.70451059 1.8120996 19.332710348923772 
Si 13.6813194 0.18533784599999997 24.70492443317973 
Si 13.72238649 1.96703379 23.092787905646304 
Si 15.45129306 1.2760690049999999 21.552703328213273 
Si 15.946362449999999 0.051355691099999996 25.61239978365473 
Si 16.049543309999997 3.8875270499999997 25.83386472501595 
Si 12.35443374 0.0193833081 28.559427966612784 
Si 14.38840314 2.8229103899999997 29.377648532968202 
Si 14.445043469999998 0.514799838 29.53695573938635 
Si 12.3520554 3.44987991 26.09301042305647 
Si 12.27555756 1.053402624 26.361671115464315 
Si 16.26251877 3.6523157399999997 28.19303173423622 
Si 12.35834334 3.6018819 28.451556889165822 
Si 13.536305819999999 2.7965042999999996 34.44565859440794 
Si 13.992963389999998 3.71589561 31.472084956149736 
Si 15.44073714 0.49867925399999996 31.700961940224634 
Si 15.51213621 2.54137032 32.90336764146944 
Si 16.00500645 5.742892889999999 0.11740882506168314 
Si 16.3038465 8.146238039999998 2.6934984000712925 
Si 12.21890094 4.07631186 4.071969419190613 
Si 14.88389607 4.089718529999999 1.372206981160832 
Si 13.54785543 5.436934109999999 2.706219533844999 
Si 14.93463942 6.786674639999999 4.0677979905005905 
Si 14.932538009999998 4.07277693 6.7875350217783 
Si 13.57489683 5.430434399999999 8.145248873837598 
Si 12.21764661 6.7870656 6.787224750222844 
Si 16.290488699999997 5.42849589 10.866778585213499 
Si 12.2160339 4.071473729999999 9.502583505106893 
Si 14.93175609 6.78939507 9.501376893502341 
Si 12.203572049999998 6.804104939999999 12.213701882066374 
Si 16.18668882 8.14017816 13.648500978347913 
Si 13.40668629 5.471843579999999 13.688043364359949 
Si 14.17339143 7.47438957 14.984840567698004 
Si 13.48608375 7.01408304 17.21376247286119 
Si 15.001281809999998 5.11551612 20.62388818964634 
Si 14.62348413 7.472727989999999 20.5898272677807 
Si 15.238855169999999 8.01425646 18.37793582355033 
Si 12.39336684 4.92161625 17.717160834280328 
Si 15.921829709999999 4.675229999999999 22.719910445222432 
Si 13.26784662 6.44435658 24.585642257415437 
Si 14.148516599999999 4.1045424299999995 24.393101519946192 
Si 13.43227788 6.79139874 26.914023433410993 
Si 15.80442768 6.983474129999999 27.36215898334164 
Si 15.27956388 5.65579026 31.182739493378143 
Si 14.2302924 7.66801251 31.888641756658394 
Si 12.440949929999999 7.6452065099999995 30.27853923154407 
Si 14.103409589999998 7.3855276199999995 34.3002101841335 
Si 14.93514441 12.215561489999999 4.071245452227882 
Si 12.21712533 9.50384664 4.068935652870597 
Si 14.80660002 9.29225583 1.258495903547842 
Si 13.57276284 10.85914206 2.682521681931596 
Si 13.576086 8.14648239 5.429717745867184 
Si 14.932782360000001 9.50255973 6.787672920247392 
Si 13.576232609999998 10.8598914 8.144180160702138 
Si 12.22028559 9.50226651 9.502652454341439 
Si 13.574717639999998 8.145048869999998 10.85757386240163 
Si 14.92761843 9.5118939 12.21459822211547 
Si 12.6307773 9.40672566 14.880589325064701 
Si 13.745892959999999 10.9934694 13.628884921119624 
Si 13.04082918 10.55334618 16.97399150972805 
Si 15.63804162 11.79391113 14.934438677244998 
Si 15.268486679999999 10.366157789999999 17.85095682391652 
Si 12.93336405 10.960693919999999 20.896685836126935 
Si 12.62347938 8.67515805 20.37132714350495 
Si 15.05422431 11.45693619 19.999932091623812 
Si 15.75542736 8.37134955 22.43804597439906 
Si 13.219628219999999 10.851176249999998 23.244648594733505 
Si 14.227897769999998 8.861711129999998 24.216729377977952 
Si 15.85175013 10.10079369 25.519904385511495 
Si 15.417947429999998 10.143994769999999 29.38226813168277 
Si 13.134806189999999 9.62810676 29.01945725950259 
Si 13.03325433 9.066867389999999 26.70814101905713 
Si 15.89086242 9.410537519999998 31.59043631724766 
Si 14.436083969999999 10.971738539999999 32.894680037916665 
Si 16.13487033 10.701291959999999 34.42287087239054 
Si 12.29513814 12.35881575 1.2338879217384338 
Si 15.024234419999999 14.98704435 1.410873711894136 
Si 13.59011169 16.2935838 2.7177685306314263 
Si 16.291466099999997 13.54803462 2.712704209354035 
Si 13.574733929999999 13.57435926 5.43061408591628 
Si 12.21764661 12.21746742 6.787431597926481 
Si 14.93276607 14.932114469999998 6.787328174074663 
Si 12.21776064 14.9320656 9.504272761353267 
Si 14.93193528 12.21785838 9.500446078835973 
Si 13.5808101 13.56890211 10.855608809217072 
Si 12.232063259999999 12.23152569 12.2384891318856 
Si 14.925940559999999 14.92452333 12.23893730191015 
Si 13.62106269 16.16606568 15.911139059204015 
Si 13.14187605 15.897378419999999 13.564141589881086 
Si 14.03657172 14.300469719999999 17.8094838593372 
Si 15.722928809999999 13.719209939999999 19.52576820565211 
Si 12.281584859999999 12.722783219999998 17.469288336088052 
Si 14.24210265 12.93627996 23.82661460891762 
Si 12.51844146 14.562103409999999 23.815789579093924 
Si 16.25668695 13.812714539999998 22.92103536239263 
Si 15.25861494 12.37578993 25.926670394714645 
Si 15.86968542 12.447808019999998 29.676198718551664 
Si 14.760597059999998 13.539694139999998 27.900618030527333 
Si 15.834889979999998 15.67855485 27.914821572843778 
Si 12.49631964 14.00189031 28.43462985208482 
Si 13.133128319999999 14.33049219 34.40632305609954 
Si 12.304781819999999 13.1844744 30.667240541296213 
Si 14.51981457 12.96338652 31.586333837792186 
Si 15.06789162 14.83069293 32.89295630705302 
