&CONTROL
  dt          = 30.D0,
  prefix = 'x.66_y.66_z3.17_struc47-scf',
  pseudo_dir = './',
  outdir='./',
  wf_collect= .true.,
  verbosity= 'high',
/

&SYSTEM
ibrav= 6, celldm(1) =30.783621515, celldm(3) =2.115268347576902, nat=  432, ntyp= 1,
  ecutwfc     = 12.D0, nbnd= 1728,
  degauss     = 0.05D0,
  occupations = "smearing",
  smearing    = "methfessel-paxton",
/
&ELECTRONS
  electron_maxstep=200,
  conv_thr    = 1.D-8,
  mixing_beta = 0.3D0,
  scf_must_converge=.false.,
/
ATOMIC_SPECIES
Si  28.08  Si.pbe-hgh.UPF
K_POINTS {automatic}
1 1 1 0 0 0
ATOMIC_POSITIONS (angstrom)
Si 2.7087012 -0.00888601581 2.7046589124902582 
Si 1.444751955 1.4494939740000001 1.3210952546983903 
Si 1.356636087 4.07241855 4.076865305314611 
Si 0.000506996928 -0.0012082797989999999 5.430812551578626 
Si -0.0001117192635 2.7147936599999998 8.144840518512659 
Si 2.7147936599999998 0.000341044182 8.144840518512659 
Si 2.71336014 2.71541268 5.43002002398684 
Si 1.3575010859999999 1.357435926 6.7876887041601135 
Si 2.7140606099999998 2.71365336 10.86258991935595 
Si 1.362054141 1.360307853 12.215331145371593 
Si 0.0510338007 2.6455285799999997 13.732228956051218 
Si 3.64141773 1.68039495 14.6471848319082 
Si 1.67772339 2.28004614 16.141960785460565 
Si 2.7617414399999998 0.999474579 19.723599719072674 
Si 0.39909033899999996 1.069171344 19.89537146016208 
Si 2.50383816 3.0419620199999997 18.36276092853225 
Si 0.962484876 3.90603249 24.892051180048536 
Si 3.6064431 3.8151342899999996 22.402997676017765 
Si 3.9852996299999996 1.508418162 21.716978901022976 
Si 3.75741882 0.9343764809999999 25.476902085065696 
Si 1.484147691 1.73833848 25.742088708821782 
Si 0.9664303139999999 2.1454744499999996 27.96089030405331 
Si 2.38672935 3.3259781699999995 29.364835704042648 
Si 0.8721633419999999 0.1444872501 29.091758262090078 
Si 3.32035812 2.33380314 34.43198146415535 
Si 1.1875654349999998 3.1058513999999997 31.58353392611003 
Si 0.9719281889999999 0.7862498819999999 32.632220218650666 
Si 4.073461109999999 6.78822219 4.070077134202351 
Si 0.0001549573218 5.270906429999999 0.0031195643356512546 
Si 2.69581581 5.42481435 2.704782960287234 
Si 1.25543772 6.800293079999999 1.3274699331540654 
Si 3.0145948199999997 7.92531306 0.14300540154805 
Si 0.00278290215 5.42981538 5.430640262971716 
Si 2.7150543000000003 5.430141180000001 8.144840518512659 
Si 1.357488054 6.78719592 6.787757619602878 
Si 4.087682279999999 4.06225359 12.228114960004326 
Si 1.357224156 4.071506309999999 9.502164621472112 
Si 0.001361101176 5.42872395 10.868172070219838 
Si 1.3872792059999999 6.78090798 12.224944849637179 
Si 0.9582071219999999 4.541049269999999 14.960164315221158 
Si 2.82258459 5.41831464 13.709624690824608 
Si 0.980812755 8.048758679999999 18.793482445807594 
Si 1.9661215499999998 6.02221752 19.735177513457035 
Si 1.276047828 4.14456696 22.599785722830525 
Si 0.858456936 6.32120418 21.789236742761087 
Si 1.98604422 7.6948421399999996 25.202170672486787 
Si 2.45985516 5.434425449999999 25.74891133765542 
Si 0.944443701 6.56446275 29.448395678394068 
Si 2.4656869799999996 5.3699984999999995 28.171633728025792 
Si 1.085635647 7.013447729999999 31.82959651449909 
Si 1.8704666699999999 5.00202369 32.865705738735286 
Si 1.3579800119999998 9.500718959999999 4.067527262820081 
Si 2.71728603 10.87637688 2.68007677405632 
Si -9.201830039999999e-05 8.14508145 8.145116180283715 
Si 2.71634121 8.14490226 5.430399058922042 
Si 0.001310043429 10.86130863 5.429399785001963 
Si 2.7151520399999995 10.859809949999999 8.14487497623404 
Si 1.358866188 9.501403139999999 9.50195787514382 
Si 2.71591767 8.14442985 10.855629459636779 
Si 0.873886824 9.77564529 14.842835773915354 
Si 2.62718604 10.81058157 13.588919292823366 
Si 1.68974541 9.399769829999999 16.97931787276522 
Si 2.1032018999999997 11.562935219999998 19.874662369611478 
Si 0.1357398459 10.042833869999999 20.22234077835614 
Si 1.8958139099999998 11.70390888 17.544941369251205 
Si 0.677937672 10.38270843 22.55223406732333 
Si 1.80846693 8.262711539999998 22.880753982979577 
Si 2.2585922099999998 12.056554799999999 23.511054622499632 
Si 3.9921251399999997 8.936009819999999 22.053940958417822 
Si 4.05733401 8.675174339999998 25.81196896778453 
Si 1.5820831709999998 11.72259351 25.804181522752195 
Si 1.6367866199999999 11.993137829999998 30.133001686812193 
Si 2.40155325 10.01725857 29.053475733634645 
Si 0.0384466806 8.51149242 26.39568276799608 
Si 3.2897817899999997 10.553199569999999 26.957860492343865 
Si 0.482327352 8.69286528 28.694426276833916 
Si 4.00215978 9.20544642 30.661720963698023 
Si 2.47065543 8.99129808 32.48305274278786 
Si 1.582189056 11.33937126 32.69276243511889 
Si 1.3951407599999999 12.40178877 1.2295204143535132 
Si 1.355762943 14.93375976 4.074763384310307 
Si -0.000497933172 13.575222629999999 8.144806060791277 
Si 2.71453302 13.576688729999999 5.428917376902614 
Si 1.357649325 12.217516289999999 6.7875853309959675 
Si -0.00168608016 16.2930951 10.862210884420746 
Si 1.358507808 14.93214705 9.503749676655687 
Si 2.7152660699999998 13.57590681 10.86007450569506 
Si 1.363800429 12.22826769 12.217260777768987 
Si 2.5782671699999997 16.22938491 13.619345460803695 
Si 3.8712696299999996 12.70004238 16.648764951547427 
Si 2.83001283 14.89868739 16.60875953702289 
Si 0.019091880000000002 13.16732103 16.746418133944093 
Si 0.8860945499999999 15.164621639999998 14.920365647024916 
Si 1.84340898 13.85532918 20.529496906755536 
Si 3.17544228 15.054875909999998 18.978864986842908 
Si 2.0913427799999997 14.38250616 22.826965479902235 
Si 3.73860387 16.077334049999997 23.327911833354154 
Si 0.36822893399999995 14.79933468 24.290695026489388 
Si 1.530942345 14.02823124 26.22911414283536 
Si 2.98421397 15.796152359999999 30.083589314350363 
Si 3.3223617899999995 13.577943059999999 29.474170053987823 
Si 3.7432628099999996 13.95448641 27.144035560970963 
Si 2.62907568 13.35247317 33.8461657429395 
Si 2.8896668099999996 15.56830413 32.66926226913634 
Si 6.7860719099999995 4.07238597 4.072937125077059 
Si 4.06986102 1.3593060179999998 4.06938797977471 
Si 5.444997659999999 2.7266364899999997 2.6980120180356653 
Si 6.76414557 1.2984661259999999 1.2642882552279795 
Si 5.42991312 -0.001415557017 5.429020750066761 
Si 5.42988054 2.71490769 8.14504726484095 
Si 6.78766833 1.357426152 6.7874475001104395 
Si 8.148942179999999 2.71482624 10.862176426699365 
Si 4.07176695 1.3571361899999999 9.501509924765854 
Si 6.79713282 1.3216826339999999 12.213435970695583 
Si 7.1222160599999995 3.3500384999999997 14.981252440706958 
Si 4.25610459 0.667342656 16.57743746828663 
Si 5.43636396 2.59322139 13.563696240771721 
Si 7.06080276 2.83636593 19.79613322258184 
Si 6.294846959999999 1.17301032 21.273611400000426 
Si 5.71119255 3.2689468799999997 17.767986199757072 
Si 7.63290756 1.160067915 23.20158982676764 
Si 7.34739273 2.37943143 25.188387583933977 
Si 5.128287479999999 2.87956701 25.827474942406447 
Si 4.641933239999999 2.68055208 29.575027804473017 
Si 5.005737809999999 0.45010084499999997 29.194511187251283 
Si 5.727384809999999 3.9422451599999997 27.958650552163476 
Si 7.18791363 0.37525643999999997 30.21228890371224 
Si 7.31952054 2.16613017 31.999921031290455 
Si 4.9702093199999995 3.02101308 31.90946951266263 
Si 4.781343059999999 0.38162583 34.2227197222023 
Si 4.11125391 4.12213563 1.315723295934932 
Si 4.70891772 6.0885666899999995 0.06139022099143442 
Si 6.724186199999999 6.87105684 1.225895462064124 
Si 4.0720927499999995 4.07276064 6.7874130423890575 
Si 5.430141180000001 5.4299457 5.430950382464155 
Si 6.7875054299999995 6.78770091 6.787309669224912 
Si 6.78719592 4.072548869999999 9.503508472606011 
Si 4.0706592299999995 6.78827106 9.502130163750731 
Si 5.4270135 5.43251952 10.862865581127004 
Si 6.79206663 6.7841334 12.243104068805508 
Si 4.2932295 6.58726875 15.205641122346725 
Si 8.01964845 5.170446 13.59088338294214 
Si 5.4327312899999995 8.12206368 13.726267770252127 
Si 5.60073006 5.76628533 17.102090734049384 
Si 4.07665395 5.263005779999999 20.571604242284376 
Si 8.07519735 4.66327314 20.910495932076614 
Si 7.2773946 6.8618367 21.384599720571938 
Si 5.0880674699999995 7.336282949999999 20.691413739529683 
Si 4.8555603 7.67412126 18.364483814601353 
Si 7.1672090399999995 7.6957543799999995 23.59289171078195 
Si 4.3944718499999995 4.69371915 24.517599121790045 
Si 6.328111139999999 6.0031582199999995 24.96361986735901 
Si 8.061921 4.55665509 25.560565432581257 
Si 5.6055519 7.229257649999999 26.84342639963415 
Si 7.9786791 4.74557022 27.88274019195887 
Si 7.65309087 7.1894611799999995 28.048860866741624 
Si 4.6347982199999995 5.9636061 28.49346884573393 
Si 5.04020745 6.96474063 30.58005616402262 
Si 4.3098453 5.27994738 32.344567160553495 
Si 7.374987989999999 7.2171216 30.390952189078053 
Si 4.20964551 9.63012672 1.2338104006655757 
Si 5.4258732 8.15845554 2.7078462517180966 
Si 6.78822219 9.501403139999999 4.075245792409655 
Si 7.71785991 8.64088389 0.06326678849789966 
Si 4.07269548 12.21606648 4.068457621297395 
Si 6.861348 12.114384300000001 1.1190903088683908 
Si 4.0728909600000005 9.502217639999998 6.787826535045642 
Si 5.429766509999999 8.145032579999999 8.144427025856073 
Si 5.431411799999999 10.85951673 5.429813277658547 
Si 6.78522483 9.50088186 9.502405825521787 
Si 4.0633613099999994 9.48651408 12.228631825825056 
Si 5.43201453 10.86111315 10.860143421137824 
Si 6.8053104 12.196485899999999 12.210438148935346 
Si 8.0247798 10.868899769999999 13.814376163825973 
Si 6.15817386 9.89378037 15.18145180193654 
Si 4.48688502 11.64008466 14.734225036119202 
Si 4.230757349999999 11.01922389 20.92162577608301 
Si 6.237603899999999 10.97063082 19.60737382485109 
Si 6.297893189999999 9.41671143 17.750688423623295 
Si 5.9834799 11.461187879999999 24.570629554996984 
Si 5.40267624 9.23615307 23.94680696709675 
Si 5.059950929999999 12.027998429999998 26.698359392615814 
Si 7.820845289999999 9.4376115 31.111325312290724 
Si 6.01954596 10.38134007 34.21272698300151 
Si 5.72746626 10.784582729999999 31.72639563895992 
Si 4.0801563000000005 14.96386368 1.2623172735649275 
Si 5.44227723 13.569635159999999 2.678440032290674 
Si 6.7906493999999995 14.93333622 4.071972308878363 
Si 4.07207646 14.932994129999999 6.78796436593117 
Si 5.430141180000001 13.57463619 8.144840518512659 
Si 6.78807558 12.216978719999998 6.787929908209788 
Si 8.144250659999999 13.57556472 10.861039321893758 
Si 4.0725814499999995 12.21720678 9.501854501979674 
Si 6.78590901 14.931088199999998 9.50195787514382 
Si 4.0607386199999995 14.927765039999999 12.242311541213722 
Si 5.43289419 16.290488699999997 10.860005590252296 
Si 6.336386459999999 15.9373215 16.700899483998434 
Si 5.37998427 13.4333856 13.539644751247064 
Si 7.01810667 14.47824249 14.803347225211551 
Si 8.09523405 16.219496879999998 13.666449165932928 
Si 6.62978565 15.13929069 20.744168510965572 
Si 5.5363194 14.785097219999999 18.717124135225024 
Si 6.00900633 12.625303859999999 17.90302600985324 
Si 5.42971764 14.55255747 22.70405478773254 
Si 4.58832285 12.33221418 22.877997365269017 
Si 7.34859819 15.214925159999998 23.929681479569886 
Si 7.26607305 15.40656072 26.234627378256484 
Si 5.03075925 15.910231229999999 26.999175300280918 
Si 6.75795537 12.22033446 28.337892233694078 
Si 7.0050909599999995 14.57186112 31.252912089449477 
Si 5.5493514 13.05143397 30.210910594856955 
Si 12.17227896 1.268521848 1.317067147068831 
Si 8.12506104 -0.01154236095 2.709675956723482 
Si 9.50409099 1.357225785 4.069353522053328 
Si 10.860217200000001 2.72570796 2.687991712657772 
Si 9.486318599999999 4.01616918 1.131767304564839 
Si 8.14542354 -0.00027209349899999996 8.14487497623404 
Si 8.14384341 2.7158688 5.429468700444726 
Si 10.86189507 -0.0014020298009999998 5.430157854872368 
Si 10.859972849999998 2.71490769 8.145012807119569 
Si 9.501403139999999 1.3563982529999998 9.50226799463626 
Si 10.858490459999999 0.000166335561 10.862831123405623 
Si 8.52413346 0.41254587899999995 16.962261300681117 
Si 8.931741839999999 1.7216086499999999 14.989177716624825 
Si 10.87570899 2.69964396 13.7454951787833 
Si 10.27001421 0.798021036 20.301593537534803 
Si 8.95720311 1.8658565999999999 18.684837250290062 
Si 10.806574229999999 3.5192427299999998 17.90430094554437 
Si 9.796252139999998 1.6632578699999998 22.421398099235766 
Si 11.425643099999998 0.38297301300000003 23.543100303384918 
Si 9.83042856 4.05316377 22.38997265733536 
Si 11.61766962 3.5249279399999995 25.681374203746646 
Si 11.1039156 1.1894208659999999 25.754906981175893 
Si 9.56030778 3.30082641 28.979908498484015 
Si 8.75484873 0.929078973 26.43368963468046 
Si 11.63278674 3.9827909699999995 28.08083763218415 
Si 9.04577184 0.989273781 28.759654743410096 
Si 8.57481165 2.09007216 34.266549943800236 
Si 10.48134438 0.1255237353 34.359344587482035 
Si 9.225189899999998 3.49023024 31.27985802757022 
Si 10.967714909999998 2.9928313799999997 32.784488889437846 
Si 10.869665399999999 8.15120649 2.702746508953556 
Si 8.136724679999999 5.422256819999999 2.673874384207555 
Si 9.50251086 6.78704931 4.068319790411868 
Si 10.705771709999999 5.78391111 0.11806007873074487 
Si 9.502315379999999 4.07241855 6.7874475001104395 
Si 8.14550499 5.42963619 8.144840518512659 
Si 10.860933959999999 5.42908233 5.429951108544076 
Si 10.86125976 5.42869137 10.858834027725308 
Si 12.22142589 6.7870167299999995 12.246894418157531 
Si 9.50283666 6.78685383 9.501682213372765 
Si 9.521032589999999 4.05031302 12.218260051689066 
Si 9.73632123 5.993742599999999 14.967917302532115 
Si 8.18212491 6.179432309999999 17.00061274457931 
Si 10.6433973 7.927218989999999 13.686641390662796 
Si 11.637527129999999 4.43697246 15.316698358360998 
Si 11.67263208 5.09308479 21.42360586117639 
Si 9.03601413 8.00150139 20.321992508592967 
Si 10.87627914 6.65180973 19.87311177214929 
Si 9.333176309999999 5.163767099999999 18.90009463576359 
Si 10.08668655 4.91026212 24.56890666892788 
Si 10.777594319999999 7.134482429999999 24.94694233021011 
Si 11.65398003 6.2076140099999995 28.922088442004974 
Si 10.793118689999998 7.65867834 27.293961106704163 
Si 10.98294606 6.65575191 31.114908915314455 
Si 8.78325849 5.776531739999999 31.58908161925254 
Si 9.15989958 7.1253274499999995 33.43749716734865 
Si 11.993675399999999 5.156436599999999 32.74058975239714 
Si 9.55162521 9.60999228 1.3572414044281376 
Si 8.13793014 10.86508791 2.7130976084567173 
Si 10.65631527 11.31430095 0.11687232107470637 
Si 12.21476328 9.50402583 4.073419533176408 
Si 8.14421808 8.1476064 5.430261228036514 
Si 9.50275521 9.50220135 6.7876197887173495 
Si 10.860217200000001 8.14490226 8.144806060791277 
Si 8.14462533 10.86007059 8.14504726484095 
Si 10.86049413 10.86024978 5.43036460120066 
Si 8.145439829999999 8.14811139 10.862624377077331 
Si 9.48516201 9.50176152 12.257231734572139 
Si 10.86287247 10.85998914 10.864829671245781 
Si 12.21683211 12.20995773 12.235178792887641 
Si 11.976033329999998 9.310386600000001 15.12807679151578 
Si 8.50821813 8.34451992 18.024144900511065 
Si 10.57675491 9.372467789999998 17.4381568906883 
Si 8.516900699999999 11.34090252 20.416372207458338 
Si 10.02434472 11.47081527 18.3710996971067 
Si 9.32258781 8.67005928 23.808872708404497 
Si 9.8357391 9.71735967 21.6705298926 
Si 8.24891391 12.14841411 25.002832754291756 
Si 9.47307483 10.23577263 25.5167696687047 
Si 11.81047806 10.7276166 25.65336007626306 
Si 8.33482737 10.67423427 29.214565581095624 
Si 9.00612198 9.11383146 27.561008447414878 
Si 11.70785106 9.87931485 33.00636215741672 
Si 11.611691189999998 10.96328403 30.94189669625529 
Si 10.09590669 8.72813313 31.792588921734794 
Si 8.80006977 12.95778276 0.004451593025344162 
Si 9.50026284 12.216685499999999 4.07090411951552 
Si 9.407393549999998 14.836459589999999 1.3477241817824213 
Si 10.88141049 13.582080719999999 2.708766272878996 
Si 8.145439829999999 13.57558101 5.431019297906919 
Si 9.50246199 14.93276607 6.7876197887173495 
Si 10.85985882 13.575108599999998 8.144771603069893 
Si 9.500979599999999 12.217109039999999 9.502578114128696 
Si 9.49664646 14.954057099999998 12.214366329172897 
Si 12.09091041 14.92817229 14.858893072079379 
Si 11.9757564 14.67313605 17.17596808869245 
Si 8.45177328 12.719769569999999 17.193231407104847 
Si 8.84861397 12.784245389999999 14.882255407176393 
Si 10.74757185 13.545786599999998 13.5721728402317 
Si 9.68420952 14.719432229999999 17.7922788933314 
Si 8.566080209999999 13.66400313 21.069656147140204 
Si 10.44389367 14.771772 20.208454316639184 
Si 12.20292045 12.401462969999999 17.850753646516697 
Si 11.33700921 14.31413703 23.522701332326758 
Si 9.04950225 13.67825688 23.403512074066324 
Si 8.30684115 13.445228429999998 27.029360264211572 
Si 9.85988088 12.28669992 30.07687005868087 
Si 10.98618777 15.835215779999999 29.061814502209096 
Si 10.473003899999998 13.632025859999999 28.173080952323836 
Si 8.944676099999999 13.496981759999999 32.0527447181691 
Si 10.90490067 14.692667759999999 32.68562968679281 
Si 14.892692669999999 3.9010314599999996 1.3372524802544232 
Si 15.89460912 0.556119423 0.12713210761620514 
Si 16.3116657 2.71091664 2.723831188667219 
Si 13.57317009 -0.023506795799999997 2.700723840708431 
Si 14.935747139999998 1.3553899019999998 4.069491352938857 
Si 12.214437479999999 4.07481318 4.070456169137554 
Si 13.57512489 0.00011250867689999999 8.14487497623404 
Si 13.57595568 2.71655298 5.429158580952289 
Si 12.21702759 1.357564617 6.7875508732745855 
Si 14.93038773 1.35700587 9.50230245235764 
Si 13.57590681 2.71653669 10.862693292520095 
Si 12.234018059999999 1.3515878159999999 12.24737682625688 
Si 15.505392149999999 0.684781101 15.02494483141937 
Si 14.958097019999999 1.226195541 17.221934689016077 
Si 15.98568651 2.81722518 21.42498417003167 
Si 12.56845176 1.2881431529999998 20.037785222634 
Si 12.514499279999999 3.6228959999999995 19.778869904169444 
Si 16.01357499 2.99048562 18.35238915439626 
Si 13.36267071 0.5564712869999999 22.178746825263527 
Si 14.73824718 2.04261939 23.28725172212336 
Si 13.607802629999998 3.87599373 24.330355863800104 
Si 15.80786487 0.6373022669999999 24.92537179662496 
Si 12.54662316 0.54240813 27.573619973440703 
Si 15.269040539999999 3.40855218 27.77822992300718 
Si 13.32135927 2.45998548 28.69077375836742 
Si 13.98520935 1.97030808 34.36154988165049 
Si 14.125319639999999 2.07293508 30.874841970445864 
Si 12.59311482 1.3198565249999998 32.41789319165445 
Si 15.727147919999998 0.30300214499999994 30.934488286158157 
Si 13.57444071 5.429701349999999 2.6835535581437666 
Si 12.334266719999999 6.98298543 1.2459843136298463 
Si 14.9315769 6.787342529999999 4.069008944839508 
Si 14.9325543 4.0729887 6.787826535045642 
Si 13.57483167 5.42988054 8.145288468890625 
Si 12.217304519999999 6.787619459999999 6.7874819578318215 
Si 12.21632712 4.07132712 9.50195787514382 
Si 14.93110449 6.788043 9.502095706029348 
Si 14.91950601 4.05777384 12.255784510274093 
Si 16.26509259 8.05045284 13.568864898979024 
Si 15.73843689 7.647063569999999 16.874049533943126 
Si 13.55055957 5.3957367000000005 13.79597574060797 
Si 15.498306 6.23577942 14.983388819432644 
Si 14.87451303 6.407329409999999 21.193772859558266 
Si 14.75935902 4.34094291 19.97682951350919 
Si 13.36309425 5.788732949999999 22.904943303389764 
Si 13.05260685 7.56839916 24.45443811849679 
Si 15.21295407 4.6684370699999995 25.806421274642027 
Si 15.350213609999999 5.19431085 29.2688709499937 
Si 14.50552824 6.97252725 26.337931626959804 
Si 13.87756503 6.9312483899999995 28.72299172785962 
Si 15.047463959999998 7.731282869999999 32.18140984980959 
Si 15.24823821 4.0592725199999995 31.302117715583012 
Si 14.4015003 5.579325 32.84985518689955 
Si 16.277114609999998 8.16513444 2.707008929088513 
Si 15.027590159999999 9.648143459999998 1.2279250218535256 
Si 13.58866188 10.843813169999999 2.7164400074307737 
Si 13.574750219999999 10.8600543 8.144737145348511 
Si 13.573919429999998 8.145781920000001 5.429985566265458 
Si 14.932603169999998 9.50252715 6.7875164155532035 
Si 12.21790725 9.500784119999999 9.501992332865202 
Si 13.57525521 8.147052539999999 10.859936674809532 
Si 14.917974749999999 9.4908798 12.227356890133922 
Si 16.290325799999998 10.858783679999998 10.861039321893758 
Si 14.041491299999999 11.03292378 16.977009205432623 
Si 13.515992189999999 10.77026382 13.685917778513772 
Si 13.55337774 8.679833279999999 16.878253375951733 
Si 15.491285009999999 11.644727309999999 15.017812083093292 
Si 12.329933579999999 8.26430796 18.85388683139029 
Si 12.2704425 9.8096751 21.42460513509647 
Si 14.2027623 8.60931387 20.460202429056277 
Si 12.748065299999999 11.7607284 20.144362954868612 
Si 14.90660433 11.584780109999999 19.124483317403353 
Si 15.0680871 11.037273209999999 23.862351091989403 
Si 13.009829309999999 9.892770389999999 23.710840491072627 
Si 15.70020426 10.79508978 26.128842173613663 
Si 14.807756609999998 8.800770239999999 30.0311791201283 
Si 13.167646829999999 10.28558745 29.282860784874803 
Si 12.51992385 9.19251216 27.3078820261425 
Si 14.35616523 11.84142906 27.97139990907483 
Si 15.945955199999998 11.39487129 34.33498297846495 
Si 13.62445101 8.54275293 34.07127803672829 
Si 12.394148759999998 12.278375729999999 1.3541815587694135 
Si 12.21706017 14.933694599999999 4.075280250131037 
Si 14.930713529999998 12.215903579999999 4.070628457744464 
Si 15.005175119999999 14.92600572 1.2264502313783745 
Si 16.299122399999998 13.590535229999999 2.7077290954653974 
Si 13.573756529999999 13.57670502 5.430674720693098 
Si 12.217793219999999 12.21741855 6.7876887041601135 
Si 14.93265204 14.932375109999999 6.7876542464387315 
Si 12.21756516 14.93172351 9.502647029571461 
Si 14.93131626 12.21785838 9.502647029571461 
Si 13.57437555 13.57791048 10.859729928481242 
Si 14.91891957 14.923008359999999 12.212608985382413 
Si 13.64790861 16.21801449 13.706489038178843 
Si 16.22000187 13.505045309999998 13.541195348709257 
Si 12.27254391 13.74411735 21.36085835053972 
Si 16.09422678 15.016219739999999 20.17861392992235 
Si 14.881843529999998 13.95038133 18.53625555569076 
Si 13.50124974 16.03025595 18.34711712302481 
Si 14.35841325 14.721973469999998 21.79829912348456 
Si 14.84131401 13.41387018 23.73995726564044 
Si 13.107373829999998 14.13784665 25.17009053388012 
Si 15.85935756 13.064742899999999 29.350914784604306 
Si 14.353558829999999 15.748927649999999 26.467561574798992 
Si 12.384586529999998 12.7133676 26.87082028813286 
Si 16.20939708 14.765337449999999 27.765721770145507 
Si 14.14201689 13.08658779 34.364582161132105 
Si 14.58143964 14.40868419 30.96667179792897 
Si 12.83612904 13.166457659999999 32.28967601039193 
Si 12.34506699 15.616538819999999 31.029109189073207 
