&CONTROL
  dt          = 30.D0,
  prefix = 'x.66_y.66_z3.16_struc46-scf',
  pseudo_dir = './',
  outdir='./',
  wf_collect= .true.,
  verbosity= 'high',
/

&SYSTEM
ibrav= 6, celldm(1) =30.783621515, celldm(3) =2.108862401886256, nat=  432, ntyp= 1,
  ecutwfc     = 12.D0, nbnd= 1728,
  degauss     = 0.05D0,
  occupations = "smearing",
  smearing    = "methfessel-paxton",
/
&ELECTRONS
  electron_maxstep=200,
  conv_thr    = 1.D-8,
  mixing_beta = 0.3D0,
  scf_must_converge=.false.,
/
ATOMIC_SPECIES
Si  28.08  Si.pbe-hgh.UPF
K_POINTS {automatic}
1 1 1 0 0 0
ATOMIC_POSITIONS (angstrom)
Si 0.031104614699999998 2.71223613 2.72656158856613 
Si 1.4959888919999997 1.5766520849999999 1.2177066774826324 
Si 4.07085471 1.35648459 4.069912276098414 
Si -2.9714263199999996e-05 2.71487511 8.145114970949944 
Si 2.7146796299999996 0.000450925119 8.144908850738783 
Si 2.7156081599999995 2.71660185 5.430717910179128 
Si 1.3571296739999998 1.3578203699999998 6.787435493405162 
Si 2.71275741 2.71536381 10.861435820358256 
Si 1.3715300339999998 1.360452834 12.246048338827993 
Si 0.033514394399999994 2.7364593599999996 13.699367594351184 
Si 0.0287728641 0.40148496899999997 18.240161492845445 
Si 0.9892591199999999 0.659189511 20.831023840394153 
Si 1.87924698 1.6833434399999998 18.745259070293915 
Si 3.94477011 1.304415234 17.548525124296848 
Si 2.18610171 4.000824 19.22538174882345 
Si 3.21958818 0.375052815 21.610639185739696 
Si 0.0270861975 1.94774643 22.612830005769904 
Si 1.07647578 1.1325606209999999 24.579422940450925 
Si 3.9380749199999996 2.94317946 25.19098160696372 
Si 1.64348181 3.1329579599999997 25.69779685283853 
Si 1.83479157 3.0840716699999997 28.01819512997631 
Si 2.8401452099999998 1.033189992 28.543011540959117 
Si 3.0547170899999996 2.96688141 33.992108503300045 
Si 0.5997652199999999 1.144797669 31.909469889735742 
Si 2.84794812 0.592323948 30.83355674084718 
Si 1.35509994 4.07033343 4.075511875168271 
Si 0.1186242687 5.551501679999999 0.06509963335814788 
Si 2.7270763199999997 5.42329938 2.7038814946647847 
Si 1.5598294019999999 6.93714537 1.2981141718562899 
Si 2.7148914 5.43035295 8.145698978214899 
Si 1.357546698 6.7872936600000005 6.787710320353376 
Si 4.06380114 4.07785941 12.257041416756547 
Si 1.3580875259999998 4.0721253299999995 9.50255397491504 
Si -0.000278231571 5.43106971 10.864390210051555 
Si 1.3708279349999999 6.781364099999999 12.22760057992914 
Si 2.71443528 8.141953769999999 10.859340264878128 
Si 3.34381572 7.493790959999999 15.198514243489027 
Si 0.707308542 4.5825398999999996 15.239085571719093 
Si 2.6476137 5.52672459 13.848942160916552 
Si 2.8935927 7.25647824 17.81637833869974 
Si 0.0644030037 5.1186438 19.078074504580844 
Si 0.695607435 7.391587499999999 18.776039688493864 
Si 4.018058819999999 5.1561108 17.989862849759714 
Si 0.399833163 4.96976949 24.85964336752344 
Si 2.95393086 7.11122031 21.64963025901753 
Si 0.6430835879999999 4.243887089999999 22.619219732315877 
Si 2.68798032 4.702336559999999 21.553303413668587 
Si 3.5379273599999994 7.41090744 25.66942097043545 
Si 2.8860992999999997 5.12380773 28.526144037012497 
Si 1.2257980649999998 6.945681329999999 25.844897976869973 
Si 1.1788063020000001 6.68895093 28.185976981860843 
Si 2.7851990399999997 5.12278146 32.93258191119873 
Si 3.7266144299999997 5.41859157 30.702498639917714 
Si 3.64257432 7.04746125 34.22385632738135 
Si 0.649804842 5.40484281 32.13812591064964 
Si 3.7051930799999995 9.14377248 1.3442988405036218 
Si 0.013862203559999998 8.15708718 2.696969596917207 
Si 1.3533699419999998 9.5060295 4.07530575495711 
Si 2.7029182499999997 10.849677569999999 2.7114254943932536 
Si 0.00028026945 8.14452759 8.144908850738783 
Si 2.7169439399999997 8.14734576 5.428725414804578 
Si 0.00217675125 10.859663339999999 5.431301917444083 
Si 2.7151520399999995 10.859809949999999 8.144874497370257 
Si 4.07482947 9.500767830000001 12.221588740436964 
Si 1.357522263 9.50099589 9.501832554175976 
Si 1.372274487 12.22430922 12.24848742799339 
Si 0.12210609329999998 8.20691829 13.5947615871873 
Si 1.5860383829999998 9.41537565 15.011872392283319 
Si 2.85925338 10.890598049999998 13.694283295809226 
Si 3.9415609799999998 8.19742122 19.775997539569833 
Si 0.8704936169999999 8.18118009 20.989495929407944 
Si 0.911989134 10.505828249999999 20.643591861712327 
Si 3.20810373 10.47632706 19.886512326120314 
Si 0.681555681 10.74786507 24.889908685195486 
Si 3.00069945 10.908207540000001 25.364500471392223 
Si 1.013891229 10.273549139999998 29.826968689645547 
Si 2.43944379 8.59072698 28.976619758503467 
Si 3.6217719899999996 9.3563244 27.025520193028 
Si 0.37541934 12.178615769999999 28.536106513885247 
Si 1.310462082 11.35437435 32.131530063892505 
Si 3.68163774 11.864593439999998 32.850030766629004 
Si 2.72139111 16.3028691 2.6800436922440887 
Si 0.00431810433 13.59846846 2.7073683615702477 
Si 1.398273327 12.28272516 1.3510630187665345 
Si 1.3555821239999999 14.92836777 4.07121770410243 
Si -0.000437280615 13.57499457 8.14494320410731 
Si 2.713914 13.5738054 5.430717910179128 
Si 1.356829938 12.21741855 6.7881225607756965 
Si 3.5839303199999996e-06 16.2924435 10.865455164475883 
Si 1.3581982979999998 14.931413999999998 9.502176087861244 
Si 2.7150868799999994 13.57660728 10.861573233832363 
Si 2.6677481399999996 16.19691894 13.730732219816085 
Si 0.6597857249999999 15.37220511 15.023071590423031 
Si 0.8477723249999999 14.630049 17.394896860245325 
Si 3.99706101 14.864396939999999 20.324792601784303 
Si 2.93428512 13.89709674 18.449270447067633 
Si 2.68552053 13.94938764 23.698259037740375 
Si 3.03551118 16.235265599999998 23.939900631957375 
Si 0.364076613 13.714909379999998 23.014627004058507 
Si 3.8996793899999997 13.082971409999999 25.534480938862465 
Si 3.9946338 13.84179219 27.724679949283953 
Si 0.9651205979999999 15.95401875 28.155677310820273 
Si 1.93572441 13.91697054 28.79104286172209 
Si 2.86396119 13.547138669999999 34.30266295478166 
Si 1.1553226380000001 13.92457797 32.52556320089407 
Si 2.7621323999999996 14.55843816 30.90291619190264 
Si 6.788841209999999 4.07399868 4.0731758461084535 
Si 5.4426519 2.69364924 2.718038517834649 
Si 6.84334755 1.378710666 1.292634809576277 
Si 5.430190049999999 0.000198391023 5.429927782703014 
Si 5.43032037 2.7145656000000002 8.14473708389615 
Si 6.7878801 1.357393572 6.787366786668109 
Si 6.7877497799999995 4.07179953 9.502004321018612 
Si 4.07183211 1.3584850019999999 9.502519621546512 
Si 5.43015747 0.000806084586 10.861057933304464 
Si 6.78312342 1.36648665 12.234024659843639 
Si 8.03033469 0.0628609923 16.18957457211658 
Si 4.27747707 1.135196343 15.075838364480086 
Si 5.40816597 2.69812899 13.701153969514573 
Si 5.645055149999999 2.0750853599999997 19.10026678064911 
Si 7.304289389999999 0.503567883 18.57462588882166 
Si 5.058517409999999 1.7954023499999998 21.43780738868173 
Si 4.6801007100000005 0.7143702569999999 25.46419394685678 
Si 6.845220899999999 1.233617265 24.72724548522143 
Si 7.27993584 3.55547169 24.849199943491314 
Si 6.72542424 0.4409377199999999 22.5365998810091 
Si 4.33416627 3.5671679099999998 22.870548976457414 
Si 6.637393079999999 3.2784113699999997 28.61082509043088 
Si 5.647857029999999 3.94703442 26.506990448485585 
Si 8.09331183 1.3848405929999998 28.387974788798 
Si 4.2332823 1.8399392099999998 32.21518051625509 
Si 5.1754959 3.3760699199999995 30.625478387680793 
Si 6.073905689999999 0.301843926 32.28189475793399 
Si 8.03204514 2.88575721 34.082389155788285 
Si 4.2801975 4.137774029999999 1.3356143089400654 
Si 4.07567655 6.7821623099999995 4.07351937979372 
Si 6.9141276 6.90674823 1.3340855840406258 
Si 4.0726629 4.07274435 6.788053854038643 
Si 5.4295547399999995 5.42887056 5.431473684286717 
Si 6.787407689999999 6.78675609 6.7879851473015895 
Si 4.07272806 6.789574259999999 9.501935614281559 
Si 5.430646169999999 5.4304995599999994 10.867344599744854 
Si 6.783775019999999 6.793939979999999 12.260476753609218 
Si 6.684357149999999 8.04874239 17.089495414042723 
Si 6.6928442399999994 4.16360997 15.093186815586082 
Si 5.58931077 6.1913403 15.95002853337971 
Si 7.08644322 4.93893252 20.92570172405381 
Si 7.8576932699999995 7.12058706 20.449323562693685 
Si 6.57049005 4.20492141 18.76408471624656 
Si 6.261696809999999 4.81301082 23.134451553479728 
Si 4.3218999 7.87204476 23.50079587544875 
Si 6.49301481 7.025160239999999 23.899466717201413 
Si 7.410483899999999 7.58361402 26.046002596225435 
Si 7.87318506 5.28041979 29.115682194299662 
Si 4.632371009999999 5.93498457 27.152799423419527 
Si 6.50371734 6.937373429999999 28.144581172786136 
Si 5.622135119999999 5.52369465 34.340382953424005 
Si 4.11868215 7.838275589999999 30.589304290622145 
Si 8.155295279999999 5.63306571 31.4406494694515 
Si 6.6142124099999995 4.1698979099999995 32.559985276157846 
Si 7.544827529999999 7.82100819 32.28453996731055 
Si 8.14747608 10.851567209999999 2.6983815203636556 
Si 5.421181679999999 8.14967523 2.7041631922867038 
Si 6.78916701 9.50205474 4.071011583891269 
Si 4.074096419999999 12.22105122 4.073072786002873 
Si 6.56791623 11.966780609999999 1.3258373402573587 
Si 8.14311036 8.14275198 5.430202609651227 
Si 4.0721742 9.50255973 6.78777902709043 
Si 5.42991312 8.145048869999998 8.14504626421289 
Si 5.43048327 10.86112944 5.429549895649219 
Si 8.14612401 8.145097739999999 10.863359608995754 
Si 6.78814074 9.50312988 9.502073027755666 
Si 5.42968506 10.858588199999998 10.861573233832363 
Si 4.07118051 12.21694614 9.502588328283565 
Si 7.9672761 10.73662497 13.781815678815327 
Si 5.25820023 8.18017011 13.798236588971104 
Si 6.220939229999999 9.810212669999999 15.3312556594763 
Si 4.41169038 11.57461515 15.507969387177786 
Si 4.21625925 11.90305413 17.985156438271552 
Si 6.858252899999999 10.70881794 20.3242773012564 
Si 6.25589757 8.54892684 19.4589846548052 
Si 6.54642972 11.03466681 24.32922735747077 
Si 7.94896614 10.99141686 22.444807680305683 
Si 4.43794986 10.1996577 23.617666035176672 
Si 4.702157369999999 11.18598462 21.503181848988092 
Si 7.34345055 9.9570996 26.276548052408298 
Si 6.12398115 8.74302219 29.618684216267997 
Si 5.640868619999999 10.229240339999999 27.89885152771446 
Si 4.984854029999999 10.3381227 34.105062379015926 
Si 8.02155438 9.56789892 30.821258234914605 
Si 5.01176511 8.35841529 32.75968140740371 
Si 7.70534919 13.78546137 0.11665167230409565 
Si 4.2166339200000005 15.011251289999999 1.2623385738725563 
Si 5.42259891 13.559258429999998 2.7069148971056944 
Si 6.78931362 14.93183754 4.068881675042612 
Si 6.1780965299999995 15.717162149999998 0.11976614869472872 
Si 4.07279322 14.93219592 6.787710320353376 
Si 5.42986425 13.57507602 8.145183677686997 
Si 6.787456559999999 12.217548869999998 6.787607260247796 
Si 8.1467919 13.573854269999998 10.857176002660943 
Si 6.78766833 14.930974169999999 9.502760095126199 
Si 4.06319841 14.91709509 12.244742910823977 
Si 6.78719592 12.22530291 12.258175077917926 
Si 5.37987024 13.59196875 13.781609558604167 
Si 6.0045591599999995 15.58988838 15.132933662971507 
Si 8.04136302 16.186265279999997 13.543059767554576 
Si 4.491153 15.31152486 17.37730793555964 
Si 6.0681879 14.829536339999999 19.124004958301082 
Si 6.47781624 12.50620767 18.716402240731462 
Si 6.21523773 13.34576169 24.814777868227534 
Si 6.38253603 14.34226986 22.655153355794834 
Si 4.30798824 13.412404079999998 22.0547251806847 
Si 7.57620207 13.64219082 28.77668315367792 
Si 5.53829049 12.40569837 28.872975645658336 
Si 6.69505968 15.89900742 29.06246882645176 
Si 4.70855934 16.13029284 27.68998304707196 
Si 5.49636003 12.62147571 31.300728199442137 
Si 7.7429628 12.3437475 32.2109550519263 
Si 5.155426619999999 14.96379852 30.829777870309236 
Si 8.161729829999999 0.00139820328 2.703702857148446 
Si 9.5030973 1.35588186 4.0723513652638115 
Si 10.86026607 2.71609686 2.6787279582295147 
Si 8.1445113 0.000300877929 8.145286737792578 
Si 8.14563531 2.7158688 5.430374376493861 
Si 10.86018462 0.001200664224 5.430958383758816 
Si 10.859875109999999 2.7151520399999995 8.145458504635211 
Si 12.224015999999999 1.3699336139999998 12.23684163606283 
Si 9.500849279999999 1.3561783379999999 9.502073027755666 
Si 8.14576563 2.71629234 10.859855565406027 
Si 10.860477839999998 0.0034199877599999998 10.86140146698973 
Si 9.95630139 0.797659398 14.613716851058552 
Si 10.884196079999999 2.7943540199999997 13.685832367151653 
Si 10.12832379 3.1036848299999997 19.44706403592642 
Si 8.98419564 3.63980502 21.455224546524782 
Si 9.28339407 0.923581098 19.699664354703447 
Si 8.835419069999999 1.2934308869999998 21.959635056602718 
Si 10.45466136 0.220605696 23.30649322306158 
Si 10.53819648 0.8726341229999999 25.576392048465074 
Si 9.949394429999998 1.213929171 29.862764899650394 
Si 12.05178183 2.46091401 29.607175837811546 
Si 11.22048684 3.08974059 25.848917320987603 
Si 8.378500859999999 0.332258985 26.248790530638704 
Si 11.676997799999999 3.36694752 31.794729638856474 
Si 8.49152088 0.6628791959999999 31.607297660174652 
Si 9.914110289999998 1.8956021399999998 32.96727881341072 
Si 8.67141135 7.76915712 0.07399062866655011 
Si 10.86440373 8.16010083 2.7096391192298643 
Si 12.184675649999999 6.7908611699999994 1.3254835005615335 
Si 9.387193949999999 4.08377268 1.2565019365598653 
Si 8.13556809 5.430206339999999 2.715781501522443 
Si 9.50345568 6.78507822 4.070461929994842 
Si 10.29252699 5.95495611 0.11254060469250221 
Si 9.502282799999998 4.07264661 6.787504200142216 
Si 8.14539096 5.429733929999999 8.144908850738783 
Si 10.860412679999998 5.4307439099999995 5.430099549545647 
Si 10.85914206 5.42999457 10.862294654571425 
Si 9.50127282 6.78727737 9.501729494070398 
Si 9.49601115 4.07613267 12.238937191542961 
Si 9.0461628 7.8860215799999995 17.16301162268992 
Si 11.76388866 4.7464173 15.268251581598284 
Si 8.21853306 5.44934709 13.753233676201091 
Si 9.91350756 6.57193986 15.201228159602639 
Si 8.913888 4.49887446 18.017414251318147 
Si 11.38824126 7.10043633 20.55337991596114 
Si 9.645895439999999 6.54528942 18.992981210740144 
Si 11.91230685 5.61719925 22.306775845565294 
Si 8.48407635 7.406215919999999 22.68614009420594 
Si 9.7217091 5.30720055 22.92596095989102 
Si 9.4605804 4.433404949999999 25.047040992836735 
Si 11.43059526 7.64403363 25.595252047786246 
Si 11.133693719999998 7.631115659999999 29.285765721875485 
Si 9.50283666 6.466853069999999 26.19684823742629 
Si 11.72019888 4.11197067 27.951961835456782 
Si 10.036692539999999 5.7524877 28.347231693725302 
Si 10.606142069999999 5.525551709999999 32.11806354343003 
Si 12.1673268 7.10364546 31.271802663142637 
Si 9.59013477 9.59992506 1.2376900319546298 
Si 12.21719049 9.50138685 4.074859161166263 
Si 9.50270634 9.50257602 6.787538553510743 
Si 10.86002172 8.14465791 8.145114970949944 
Si 8.14539096 10.859972849999998 8.144668377159096 
Si 10.8610317 10.85813208 5.430202609651227 
Si 9.483418979999998 9.49726548 12.251476171055215 
Si 10.8577737 10.862497799999998 10.86404667636629 
Si 12.236233499999999 12.20541282 12.230451909516859 
Si 11.80865358 10.0287756 15.370384146228243 
Si 10.918926359999999 8.25917661 13.76206249191246 
Si 9.79491636 11.68273188 14.987481500629343 
Si 10.83597768 9.34635492 21.039033486823485 
Si 9.28370358 9.81169506 19.261384079039463 
Si 10.09543428 11.87109315 18.539173212502078 
Si 9.60013683 9.46442484 23.02403982703483 
Si 10.72328346 9.8086977 25.097918331624818 
Si 9.893128769999999 9.65793375 29.268176797189803 
Si 9.46510902 10.65177036 27.03812787927731 
Si 11.142832409999999 10.868964929999999 34.15453122969441 
Si 11.02005468 11.54869776 30.14820703873897 
Si 12.207221009999998 9.10244475 32.76246403025438 
Si 12.219552539999999 14.93437878 4.072110891684125 
Si 9.501484589999999 12.21875433 4.069603095781673 
Si 9.499203989999998 14.83818633 1.2992409623439665 
Si 10.87046361 13.56909759 2.713105374114211 
Si 8.1453258 13.576965659999999 5.430614850073548 
Si 9.50314617 14.93245656 6.787950793933063 
Si 10.85971221 13.574782799999998 8.14494320410731 
Si 9.501680069999999 12.21841224 9.501660787333345 
Si 9.498340619999999 14.90818446 12.215370780733625 
Si 11.495348009999999 15.292107179999999 14.970236109628926 
Si 9.591340229999998 14.720474789999999 16.824012582068175 
Si 10.77202314 13.448014019999999 13.585383117579502 
Si 8.59986567 12.61390086 16.931126385134508 
Si 10.0361061 13.36555404 20.36007351126125 
Si 10.26900423 15.25551984 19.033999132761057 
Si 8.42626314 13.262470919999998 22.075646382117473 
Si 11.73935592 13.207606199999999 23.854738631379618 
Si 9.65105937 14.30016021 23.776412951138678 
Si 12.10078215 13.05407295 21.515755181868872 
Si 8.257612769999998 14.29486596 25.68749084228051 
Si 9.38634687 13.08186369 27.310515738325734 
Si 11.368155689999998 14.30149599 28.107376474671693 
Si 9.17037405 13.13816193 30.466216171190883 
Si 11.60900334 15.55243767 32.1587722851342 
Si 10.45646955 15.16693482 30.15737938813561 
Si 10.800905310000001 16.26268167 34.207641537436736 
Si 14.06727837 2.3698691999999997 0.1001538106028202 
Si 12.259984320000001 1.300552875 1.2273393620175268 
Si 14.93281494 1.355644026 4.0693969755705135 
Si 12.21743484 4.07337966 4.06922520872788 
Si 15.041420369999999 4.0651695 1.364828413535194 
Si 13.57538553 -5.39747973e-05 8.144874497370257 
Si 13.57505973 2.71601541 5.429790369228907 
Si 12.21771177 1.3569716609999998 6.78767596698485 
Si 14.931039329999999 1.3584165839999998 9.501798200807452 
Si 13.57766613 2.71366965 10.86129840688415 
Si 14.811030899999999 1.79945856 16.989733231841107 
Si 15.27207048 0.9201569399999999 14.824234293390337 
Si 12.43516698 3.3991039799999996 19.304806736857245 
Si 12.76617978 1.424086461 18.082067290885448 
Si 12.78378927 0.0585464229 22.886488939453816 
Si 13.934417129999998 2.08181313 22.920911014717593 
Si 13.265973269999998 3.8539533599999998 21.476523635011354 
Si 13.46528142 2.83843476 25.104033231222576 
Si 16.059024089999998 3.4122337199999997 29.197202737813583 
Si 15.7635072 0.1607407605 29.960706353320095 
Si 14.31330624 1.77645708 28.960198848347694 
Si 14.093179469999999 1.122802911 26.707751534155776 
Si 15.93681651 0.734993397 34.29173858359016 
Si 15.98446476 3.34863756 31.612107131768393 
Si 13.84622307 3.8420942399999998 32.60014436396559 
Si 13.57351218 5.42105136 2.6946095204994207 
Si 14.932179629999998 6.786365129999999 4.068950381779666 
Si 16.2919548 5.43012489 5.42985907596596 
Si 14.93270091 4.07253258 6.787401140036636 
Si 13.575304079999999 5.42992941 8.145080617581417 
Si 12.21746742 6.7875054299999995 6.787504200142216 
Si 13.573821689999999 8.14706883 5.43102709049587 
Si 12.2222241 6.80578281 12.246804112935582 
Si 13.575434399999999 8.141106689999999 10.86140146698973 
Si 12.218705459999999 4.0716366299999995 9.50234785470388 
Si 14.93234253 6.788368799999999 9.501557727227764 
Si 14.92167258 4.06570707 12.247044586515267 
Si 15.38875575 6.58272384 15.002459569306996 
Si 15.44800248 8.098166249999998 16.9866414286737 
Si 15.37603326 4.172488019999999 17.128280367109397 
Si 13.54550967 5.467917689999999 13.727193822857831 
Si 15.0369732 7.339638689999999 21.45336946462434 
Si 15.280085159999999 5.03924634 21.19661238825558 
Si 13.43385801 7.1345475899999995 19.538272229364885 
Si 13.081032899999999 5.00270787 17.56099539707205 
Si 12.964657139999998 6.62274837 24.133756690553696 
Si 14.331029759999998 5.007936959999999 25.30943202164388 
Si 15.435068219999998 5.65548075 28.920314587488164 
Si 13.61521458 5.54052222 27.47733569589152 
Si 12.704668739999999 7.6894990199999995 27.542160502301453 
Si 14.6458503 6.260686829999999 32.986447993048635 
Si 14.671865429999999 7.00364115 30.70631186382418 
Si 13.605684929999999 8.05446018 34.316850895983194 
Si 14.956500599999998 9.54910026 1.2863240957779174 
Si 13.57374024 10.858588199999998 2.709463917050378 
Si 14.932244789999999 9.50345568 6.787950793933063 
Si 13.57509231 10.86000543 8.14494320410731 
Si 12.21821676 9.50205474 9.502760095126199 
Si 14.923741409999998 9.49794966 12.239315078596755 
Si 16.2890226 10.860933959999999 10.867859900272755 
Si 13.500125729999999 10.75993596 13.744542273963829 
Si 14.982955559999999 11.96135604 15.162202732956276 
Si 16.26629805 10.25655867 16.54142177256732 
Si 12.695904719999998 10.80297414 21.07245931439999 
Si 13.59931554 10.69023105 18.913727989548985 
Si 15.87434436 11.28154176 18.810530470494697 
Si 13.302202229999999 8.64041148 17.786971855240864 
Si 12.25519506 11.90859273 17.44405653060707 
Si 12.547665719999998 11.196833759999999 24.724256742159607 
Si 16.263984869999998 11.40288597 22.713004428393845 
Si 14.02769367 10.48950567 22.97951786142419 
Si 14.512304879999999 8.2681524 23.57908720232116 
Si 15.94536876 8.6820813 25.504181267821895 
Si 14.491144169999998 9.19780641 27.47774793631384 
Si 15.17245713 9.196454339999999 29.86156253175196 
Si 13.651720469999999 11.30643288 26.797929126538435 
Si 14.54760531 10.872939689999999 31.45682990602759 
Si 12.342704939999999 11.534264819999999 32.093226057985206 
Si 15.96742542 11.28400155 34.07222055870437 
Si 14.19209235 13.1632974 0.030644269680264912 
Si 12.324264659999999 12.28997421 1.329664305511236 
Si 14.93025741 12.21728823 4.071458177682117 
Si 15.046323659999999 15.06818484 1.2513764139756778 
Si 13.57310493 16.282115639999997 2.6988006314596817 
Si 16.2913032 16.290325799999998 5.429893429334487 
Si 13.57463619 13.57463619 5.429721662491853 
Si 12.21732081 12.217614029999998 6.787435493405162 
Si 14.932375109999999 14.932538009999998 6.787401140036636 
Si 12.217239359999999 14.93056692 9.502416561440933 
Si 14.930843849999999 12.21844482 9.501832554175976 
Si 13.57833402 13.575010859999999 10.858618844139064 
Si 14.923773989999999 14.91005781 12.22928389498695 
Si 13.45778802 16.14700638 13.613758999982581 
Si 16.23129084 13.527818729999998 13.700432548775513 
Si 13.4524449 13.856371739999998 17.99230193892511 
Si 13.521595949999998 14.983232489999999 21.17016029449 
Si 15.94504296 14.874806249999999 21.011619498739154 
Si 12.53720754 15.623054819999998 19.155987944399463 
Si 15.65245827 13.62278943 18.96099822464176 
Si 13.206970890000001 14.824307249999999 24.65266432214991 
Si 15.4634454 14.22887517 25.02251268770865 
Si 12.67366887 12.43195785 28.654213394880134 
Si 14.714675549999999 12.58182585 29.858676848795714 
Si 16.07492313 16.21882899 26.120171518874635 
Si 15.774910199999999 12.24173952 26.30756914418793 
Si 12.26915559 15.86390247 26.529182724553852 
Si 15.30030105 14.40104418 31.18001046243922 
Si 13.35317364 14.06040399 32.36973632125684 
