&CONTROL
  dt          = 30.D0,
  prefix = 'x.66_y2.00_z3.17_struc34-scf',
  pseudo_dir = './',
  outdir='./',
  wf_collect= .true.,
  verbosity= 'high',
/

&SYSTEM
ibrav= 6, celldm(1) =30.783621515, celldm(3) =2.117028552714252, nat=  432, ntyp= 1,
  ecutwfc     = 12.D0, nbnd= 1728,
  degauss     = 0.05D0,
  occupations = "smearing",
  smearing    = "methfessel-paxton",
/
&ELECTRONS
  electron_maxstep=200,
  conv_thr    = 1.D-8,  mixing_beta = 0.3D0,  scf_must_converge=.false.,
/
&IONS
/
ATOMIC_SPECIES
Si  28.08  Si.pbe-hgh.UPF
K_POINTS {automatic}
1 1 1 0 0 0
ATOMIC_POSITIONS (angstrom)
Si 2.73745305 -0.011393356319999999 2.6955394102178745 
Si 2.06431767 3.17158155 0.008117062820268837 
Si 1.338366852 1.3416427709999998 1.4044963764479361 
Si 4.07476431 1.357281171 4.07218802260341 
Si -0.0006967607669999999 0.001259862084 5.430434694550931 
Si 0.00011787720929999999 2.7147610799999997 8.144893341133676 
Si 2.71536381 -5.4639917999999994e-05 8.145445123455655 
Si 2.71432125 2.71404432 5.430089830599695 
Si 1.357300719 1.357652583 6.787612288249618 
Si 2.7147610799999997 2.71770957 10.865076729306956 
Si 1.352804679 1.353073464 12.24701555470447 
Si 1.67832612 3.1462506 16.767871577867414 
Si 2.7290637 0.0224894853 13.752553620225381 
Si 3.77466993 1.8611325 15.420384661198492 
Si 1.85481198 3.36100167 20.314762829946396 
Si 3.8257065 2.02312026 19.778223494611638 
Si 2.59994916 0.0323268534 19.236304281637576 
Si 0.8701319789999999 0.911163231 17.81712014950645 
Si 1.79883954 1.096437546 24.49903163670188 
Si 0.7379255969999999 0.34866138599999996 22.491716522130915 
Si 3.76284339 2.26606932 25.212520665416424 
Si 2.65313601 0.8338231979999999 29.235806979734406 
Si 0.757296036 1.237934115 30.597640236774794 
Si 1.027138257 2.90753694 32.27661038337286 
Si 4.07144115 6.786414 4.073843369569349 
Si 1.355464836 4.07219049 4.06763581844708 
Si 0.35650176299999997 5.1289065 0.006143165022572753 
Si 2.72789082 5.448255659999999 2.6919148900903713 
Si 1.361063709 6.8621625 1.2966298297799799 
Si -0.0181765449 8.13892383 2.7090511798273456 
Si 2.71500543 5.42986425 8.1449278275288 
Si 1.3571394479999999 6.787586879999999 6.787267424298381 
Si 4.07106648 4.0736403 12.248188092138676 
Si 1.3574587319999998 4.07186469 9.50186401646162 
Si 1.371565872 6.78524112 12.225116693800912 
Si 4.01152653 6.976208789999999 15.144976309740503 
Si 0.760299912 4.3468236000000005 14.925194513617067 
Si 2.6683182899999998 5.45542326 13.715722150233253 
Si 2.4959537999999997 7.0420041 18.44566918703128 
Si 1.369866825 4.90330629 18.574613818398852 
Si 2.32671699 4.60873422 22.273555586578293 
Si 0.239441823 5.65373772 22.838546197890118 
Si 3.3026020199999997 7.40387016 23.986874182719585 
Si 1.031090211 7.0266915 24.601249311848573 
Si 3.45960504 6.65977554 21.722290560525707 
Si 3.29958837 4.36842414 26.241974046254445 
Si 3.19461561 6.00473835 29.914361290188626 
Si 1.456883118 5.7691035 26.531487333318033 
Si 2.3851655099999998 7.289660969999999 28.134242546692693 
Si 1.433159991 4.97027448 31.102383115805488 
Si 2.2302638999999997 8.85967488 0.1765634457543969 
Si 1.356192999 9.5027715 4.064532042885945 
Si 0.36103852799999997 10.33098768 0.04431294855026656 
Si 2.72714148 10.88585766 2.6950634979651666 
Si 1.053166419e-05 8.1448371 8.1449278275288 
Si 2.7169602299999998 8.14415292 5.430331235365561 
Si -0.001056755106 10.86139008 5.4326763102339735 
Si 2.7145656000000002 10.85992398 8.14503128671417 
Si 1.3574424419999997 9.50027913 9.501829530066496 
Si 2.7128551499999998 8.14763898 10.857834586330977 
Si 1.354655223 12.221018639999999 12.215770880722385 
Si 2.673189 10.873249199999998 13.617504896920911 
Si 0.8728507799999999 9.79981965 14.876879074048741 
Si 0.760267332 8.37833796 17.301686487987403 
Si 0.8519002109999999 11.90197899 18.58164904300409 
Si 0.37655638199999997 9.23527341 20.95472686425718 
Si 2.48564223 8.38434897 20.43463753939643 
Si 2.57836491 10.15305201 18.72356055893818 
Si 3.6478848599999996 11.16024642 24.817651441249886 
Si 0.463865895 11.35483047 22.272727913095324 
Si 2.8539102599999997 11.44853055 22.59183052717506 
Si 0.935932176 9.005486669999998 28.804002826390366 
Si 1.7947833299999998 11.864495699999999 26.09609659488113 
Si 0.174260646 10.269281159999998 26.947427744905163 
Si 2.7381860999999996 9.08419995 32.31713189764323 
Si 1.485025722 10.363583969999999 30.687132432120833 
Si 4.0807916099999995 14.91295743 1.0742236189876282 
Si 0.015551965259999998 13.56152274 2.695480783346164 
Si 1.4969060189999999 12.27309777 1.1044509443135646 
Si 1.3577405489999999 14.932114469999998 4.06884284227641 
Si 0.000361584243 13.574408129999998 8.145410637060532 
Si 2.7173511899999996 13.573919429999998 5.430227776180189 
Si 1.357520634 12.21658776 6.787853693015484 
Si 1.3576004549999998 14.93245656 9.502519257968972 
Si 2.7134253 13.572583649999999 10.861731548979956 
Si 1.5760412099999999 14.570704529999999 14.990235854820392 
Si 2.9173272299999997 12.88024236 16.41555856528354 
Si 4.0498569 14.814370349999999 18.0734230380659 
Si 1.8171657899999998 15.01182144 21.136884003300644 
Si 0.502173459 13.078361339999999 20.624588603737852 
Si 3.54936294 13.65826905 21.97990393209986 
Si 1.2221996039999998 13.38752925 24.371811325090494 
Si 2.60159445 15.253955999999999 25.068643424960282 
Si 2.01231999 12.556722959999998 29.96091792360564 
Si 2.3427626399999997 15.413369939999999 27.46613761396096 
Si 0.0541899882 14.941416059999998 27.580425527400955 
Si 2.8317721499999995 13.091849459999999 27.838728626877582 
Si 1.152928008 15.33131721 33.193569143317326 
Si 2.67072921 13.68487062 33.89467755618246 
Si 3.5208228599999996 13.6013355 31.431038461334495 
Si 6.7862511 4.07176695 4.067532359261708 
Si 5.412662009999999 2.71217097 2.689535328826835 
Si 6.817593059999999 1.3758892379999998 1.2878082099073336 
Si 5.43012489 0.000337020552 5.430710585711922 
Si 5.42996199 2.71531494 8.1449278275288 
Si 6.787456559999999 1.3575010859999999 6.7875088290642465 
Si 4.0738032 1.358017479 9.503657309008053 
Si 5.42795832 -0.000986773266 10.86176603537508 
Si 6.78623481 1.363383405 12.254361156865823 
Si 5.368011119999999 2.73854448 13.805904073481766 
Si 7.764856559999999 2.32386624 20.75546447323235 
Si 5.17129308 2.0597076 17.56519703312771 
Si 7.160448689999999 3.4924131 17.47646353847439 
Si 5.4693675 1.9614137399999998 21.555859217658657 
Si 5.07327615 3.3669801 23.498615800558028 
Si 7.35783462 3.2481608399999997 24.24707403392802 
Si 5.254420949999999 1.361643633 26.947876068041772 
Si 7.27638462 2.5610323499999996 26.5027946525751 
Si 4.480580789999999 2.3755544099999995 28.972744757730705 
Si 7.9337024099999995 2.94239754 34.418629357297064 
Si 7.885158209999999 3.21079158 30.33768179033223 
Si 5.703487379999999 2.45231289 31.03261713847021 
Si 5.81642595 0.1483958727 31.879430570733035 
Si 4.07961873 4.13889804 1.1765550992382283 
Si 6.853154129999999 6.7608549899999995 1.2582257801702106 
Si 4.07256516 4.07259774 6.7873363970886285 
Si 5.42963619 5.43183534 5.430296748970437 
Si 6.787489139999999 6.787456559999999 6.7875778018544946 
Si 6.787619459999999 4.0721742 9.50196747564699 
Si 4.0718483999999995 6.788662019999999 9.502726176339714 
Si 5.429522159999999 5.42906604 10.864697378960596 
Si 6.7960251 6.77918124 12.238945738245521 
Si 6.02539407 6.13893537 16.52960507395767 
Si 6.64219863 4.2444409499999995 15.232882130910854 
Si 5.30392626 8.09810109 13.550015021663802 
Si 8.125614899999999 5.399076149999999 13.763140943528361 
Si 5.57552943 7.07644116 20.61041469534201 
Si 7.755392069999999 6.239591279999999 20.63217561066507 
Si 4.903289999999999 7.44993828 18.199091461896717 
Si 4.5786302999999995 5.4849570299999995 24.59062750215047 
Si 6.568176869999999 6.4796733 25.43130235608127 
Si 7.2332975699999995 7.0473798 29.752102801131546 
Si 6.11533116 6.18213645 27.80548374197832 
Si 7.87305474 4.18504761 28.168453050655422 
Si 4.312777499999999 4.62450294 28.34398880183513 
Si 6.05533509 4.80313908 34.39500617663732 
Si 5.06478906 6.90880077 31.075518214004113 
Si 6.01316028 4.9097082599999995 32.06613991393283 
Si 7.763569649999999 8.64000423 0.20883408999141334 
Si 8.15633784 10.879732619999999 2.7157105027257353 
Si 4.20798393 9.625370039999998 1.3330026307169622 
Si 5.42968506 8.12582667 2.6997777881785785 
Si 6.78669093 9.50220135 4.067670304842204 
Si 6.105622319999999 10.50599115 0.1437189479025218 
Si 4.07137599 12.21735339 4.075188338979173 
Si 4.0721253299999995 9.5029344 6.787405369878876 
Si 5.429733929999999 8.145179189999999 8.144962313923923 
Si 5.42950587 10.860999119999999 5.431124422453405 
Si 6.78778236 9.50264118 9.502450285178723 
Si 4.04783694 9.50528016 12.21211532283927 
Si 5.42686689 10.86052671 10.863938678267875 
Si 8.03362527 10.86109686 13.642542019780729 
Si 6.64115607 9.22476636 16.889539579863882 
Si 6.06406653 10.01636262 14.729898058031468 
Si 4.49942832 12.123343799999999 14.708171629103527 
Si 4.09991607 10.712890439999999 17.059936858170158 
Si 4.09458924 10.049398739999999 21.09250001277642 
Si 6.8202972 11.280124529999998 18.010795744521232 
Si 4.8957314400000005 11.217733829999998 19.287930415137776 
Si 6.104091059999999 9.03845763 21.986835697519727 
Si 6.51428955 8.64679716 24.407815121599654 
Si 4.42886004 9.01208412 25.33622336472519 
Si 7.373978009999999 9.86514255 29.411618622075107 
Si 4.95678636 9.828082799999999 29.31584990281655 
Si 6.09055407 11.884972229999999 29.058995231935118 
Si 4.50861588 8.200060200000001 27.608842316982894 
Si 4.9315042799999995 9.18866772 31.56429389209253 
Si 6.3620595 10.86922557 32.356136010528154 
Si 5.41644129 13.57758468 2.6890214815394917 
Si 6.93507654 12.3639471 1.3077999731605512 
Si 6.78540402 14.93478603 4.0690152742520285 
Si 8.1472806 13.57660728 5.429020752350859 
Si 4.0723696799999995 14.932880099999998 6.7871639651130105 
Si 5.4300760200000004 13.57554843 8.144824368343428 
Si 6.787391399999999 12.21743484 6.7879916385959795 
Si 4.07222307 12.21719049 9.502208880412857 
Si 6.78835251 14.93156061 9.501553638905506 
Si 4.05959832 14.960605679999999 12.226323717630242 
Si 6.79851747 12.22632918 12.205080098234033 
Si 8.09666757 13.32569241 16.991688282220327 
Si 5.634368909999999 13.798754009999998 13.47638656807467 
Si 6.930352439999999 14.934362489999998 15.17687622522994 
Si 5.81028462 16.14682719 17.078869889093077 
Si 6.762646889999999 14.749910819999998 20.55937483055891 
Si 4.83707115 13.51897326 19.96817455895306 
Si 7.544615759999999 15.538721489999999 18.49667456541926 
Si 6.06113433 16.07290317 22.495889375940884 
Si 4.58312634 14.71969287 23.832513078145837 
Si 5.341719059999999 12.84738543 25.119234966606772 
Si 7.6475034 12.38755131 25.020672849343196 
Si 5.12592543 13.303945259999999 27.422719242500204 
Si 5.50566162 15.55797627 28.104066950959446 
Si 7.808481179999999 15.25630176 28.468967497763476 
Si 7.831498949999999 14.18564151 34.414697908252954 
Si 7.32864294 14.79780342 30.77769370571571 
Si 5.7562995599999995 12.8384748 31.150905473744555 
Si 4.23921186 15.68370249 30.23780919005395 
Si 6.045153839999999 15.950500109999998 34.292133259983274 
Si 9.50109363 1.3559160689999998 4.071774185861925 
Si 10.860933959999999 2.71805166 2.7036747508275587 
Si 8.14498371 4.415485949999999e-05 8.144755395553181 
Si 8.14658013 2.71448415 5.430227776180189 
Si 10.85994027 -0.000596658717 5.43264182383885 
Si 10.8597285 2.71533123 8.144824368343428 
Si 9.50213619 1.356722424 9.502312339598229 
Si 8.14438098 2.7179376299999998 10.861938467350699 
Si 10.85894658 0.000402713235 10.861248739448223 
Si 12.049875899999998 0.407085471 16.225090205015263 
Si 8.24578623 0.0971688726 13.758140416235422 
Si 9.854928719999998 1.2420424529999998 15.096902274938044 
Si 10.839349709999999 2.81175174 13.685132717758517 
Si 9.17988741 2.20869594 17.156360818936065 
Si 11.18494206 3.6193610699999996 17.36193422026853 
Si 11.23291611 0.46758001499999996 19.997005185276485 
Si 9.02930265 0.970229142 19.210508458085037 
Si 10.860477839999998 2.80973178 23.074019303794845 
Si 8.728393769999998 1.95434388 22.819992517313562 
Si 10.87228809 3.04227153 25.43147478805689 
Si 9.36321507 1.5217433819999997 26.50648469685334 
Si 9.6772374 0.4408074 28.59684305088221 
Si 10.72479843 0.196266807 34.41811206137021 
Si 11.72821356 3.16117224 30.638954938133004 
Si 9.122481449999999 1.059653097 32.76738627237846 
Si 9.78473511 1.79132985 30.556463480997078 
Si 9.53917965 4.0847012099999995 1.2514595494469378 
Si 8.16021486 5.43460464 2.700505451115689 
Si 9.50132169 6.78605562 4.074567583866947 
Si 9.50272263 4.0725814499999995 6.787474342669123 
Si 8.14490226 5.42981538 8.144824368343428 
Si 10.86095025 5.43142809 5.43115890884853 
Si 8.14635207 8.14534209 10.862904086414163 
Si 12.21368814 6.8015474099999995 12.233531374211099 
Si 9.50143572 6.786739799999999 9.502415798783598 
Si 9.485064269999999 4.07484576 12.232289863986644 
Si 10.859598179999999 5.42904975 10.863042031994658 
Si 8.21429766 7.411493879999999 16.813738483381957 
Si 10.835391239999998 8.11061181 13.717584415569933 
Si 11.49546204 4.64537043 15.185152960059632 
Si 9.76033269 6.49536057 15.086590842796053 
Si 11.11228866 7.24040001 19.287102741654806 
Si 8.80766091 7.802030339999999 19.168228137663363 
Si 11.13178779 4.8717688500000005 19.62493146828672 
Si 8.49292182 4.25449188 19.65955580899093 
Si 10.32847902 5.2825212 25.819343274013313 
Si 9.09428346 6.41738034 22.546929240723983 
Si 8.373907079999999 5.378176079999999 24.500893902038563 
Si 10.93101354 4.95874116 22.070672124065478 
Si 11.432680379999999 7.907280029999999 30.007578016208026 
Si 10.04182389 5.33295504 28.104549760491174 
Si 9.45165348 7.5958478099999995 28.68240379718415 
Si 8.38895904 5.408703539999999 31.055826482388472 
Si 10.27635102 6.607175129999999 32.071450818781884 
Si 10.98033966 5.37773625 34.161050472118035 
Si 9.615302819999998 9.577053900000001 1.4484734275096975 
Si 10.88380512 8.11269693 2.7081545335541293 
Si 8.14664529 8.14648239 5.42967599385821 
Si 9.50278779 9.50262489 6.787612288249618 
Si 10.860152040000001 8.14477194 8.1449278275288 
Si 8.144739359999999 10.860575579999999 8.14503128671417 
Si 10.859809949999999 10.861829909999999 5.429779453043581 
Si 9.49356765 9.50018139 12.24515328936779 
Si 10.861764749999999 10.86026607 10.862766140833669 
Si 12.19557366 9.42435144 15.188843004337869 
Si 10.94210703 11.093815799999998 16.26199064779764 
Si 11.720182589999999 8.544039839999998 21.137159894461632 
Si 12.20826357 10.613000159999999 20.201026698828382 
Si 8.43243705 10.146259079999998 19.367628474268685 
Si 10.490043239999999 10.941992999999998 18.607548325742 
Si 8.156565899999999 10.25561385 21.68342439322128 
Si 9.792912689999998 8.69524362 22.49630321268237 
Si 10.91897523 11.944512179999998 23.554173383102334 
Si 10.288389330000001 9.8645724 24.427989662747027 
Si 8.15863473 10.087826849999999 25.428474471681128 
Si 12.14103474 8.94850425 25.424887886588262 
Si 8.84762028 9.66466152 27.638293698418547 
Si 10.67063418 11.08633869 28.227114408760862 
Si 11.596085369999999 9.65566944 33.57085030597077 
Si 11.97676638 9.915055109999999 31.20191085213253 
Si 8.49016881 10.257340589999998 31.452213107940455 
Si 9.30497832 8.5683771 32.91871257418132 
Si 10.337666579999999 11.41388172 30.554187378918915 
Si 12.20914323 14.940552689999999 4.076153958042637 
Si 9.5027715 12.21135867 4.073050182481503 
Si 9.52256385 14.98916205 1.296743634883888 
Si 10.877712659999998 13.579311419999998 2.6814103341356876 
Si 8.15024538 16.2966789 2.709420184255169 
Si 9.502217639999998 14.93371089 6.7879226658057314 
Si 10.85998914 13.574978279999998 8.144962313923923 
Si 9.502543439999998 12.21914529 9.502381312388476 
Si 8.14508145 13.574603609999999 10.858455341443202 
Si 9.49195494 14.94724788 12.228323928547418 
Si 12.17138301 14.767911269999999 14.93247114298817 
Si 12.140497169999998 13.181639939999998 16.714590097401274 
Si 9.34967808 12.22538436 15.028860617358953 
Si 10.746024299999998 13.517458289999999 13.57756965136765 
Si 10.8341532 14.46692094 20.326626149868954 
Si 10.35768699 13.25411415 18.339933899581972 
Si 11.82088737 15.558855929999998 24.87979592526282 
Si 8.69675859 12.32718057 22.86127273227665 
Si 8.35810578 15.985067489999999 23.191479965586222 
Si 8.83769967 14.28962058 21.611313341017592 
Si 9.439224209999999 15.803694629999999 25.252835261316047 
Si 11.88919134 13.250090519999999 25.24690360135477 
Si 11.52147717 15.274139309999999 28.280775239573362 
Si 8.6493384 13.96597086 26.577595643598443 
Si 10.75100904 13.236113699999999 27.256012008472165 
Si 9.060498 14.696952029999999 32.45369802233314 
Si 11.00783718 13.423155479999998 31.774591929556944 
Si 16.2927693 2.70301599 2.729167094103009 
Si 16.00982829 0.163497843 0.16980135339853883 
Si 13.57541811 -0.01017690057 2.721900810650442 
Si 12.293199629999998 1.411188039 1.3599985808198065 
Si 14.93485119 1.358713062 4.074153747125462 
Si 15.05899728 4.00608567 1.2624227744567666 
Si 13.57499457 -0.00016476194700000001 8.145065773109295 
Si 13.57455474 2.7150380100000002 5.431020963268035 
Si 12.21644115 1.357297461 6.788302016152092 
Si 16.2929322 -0.00011257237079999999 10.863628300711762 
Si 14.930208539999999 1.357730775 9.502381312388476 
Si 13.576004549999999 2.71712313 10.857972531911471 
Si 12.22035075 1.3601563559999998 12.245429180528781 
Si 16.0875153 2.5714090799999996 13.685891418451238 
Si 14.800344659999999 1.06191252 15.230640515227812 
Si 13.40632791 2.84970744 17.752561617834854 
Si 14.24193975 2.92545594 21.506302267865877 
Si 16.23648735 1.8466344 20.835955719451103 
Si 15.30805509 0.256727142 19.279377789147095 
Si 13.05764046 0.5904880650000001 18.476500024271882 
Si 12.360167820000001 1.500028812 21.836440528385204 
Si 15.9337377 1.4325002459999998 25.484514863757166 
Si 14.707084409999998 3.39718176 25.50341340828496 
Si 15.23289303 2.12115348 29.34030075695926 
Si 12.86147628 0.278332569 26.813999882171508 
Si 12.736662299999999 2.68951158 26.71867948604956 
Si 15.105977639999999 0.589807143 27.527523397281175 
Si 13.575662459999998 2.83297761 34.403972639369485 
Si 13.64337999 1.8187459199999998 31.019167444371963 
Si 15.246120509999999 1.8332928899999998 33.023378783381794 
Si 12.215626649999999 4.07393352 4.07098099877408 
Si 13.588938809999998 5.422256819999999 2.6887731794946013 
Si 12.25436427 6.73700643 1.1847835531147468 
Si 14.93180496 6.787391399999999 4.071981104232668 
Si 16.28848503 5.4307602 5.430779558502169 
Si 14.932994129999999 4.0723370999999995 6.7873363970886285 
Si 13.57486425 5.429733929999999 8.144962313923923 
Si 12.21714162 6.7872936600000005 6.7875088290642465 
Si 16.291629 5.4304995599999994 10.864593919775224 
Si 12.217581449999999 4.0700565 9.502760662734836 
Si 14.9301108 6.7877171999999995 9.50196747564699 
Si 14.91359274 4.05664983 12.23104835376219 
Si 15.32737503 6.155502299999999 14.99178774260096 
Si 16.24790664 8.01148716 13.619125757491727 
Si 13.485220379999998 5.3746411499999995 13.644162880351544 
Si 14.906376269999999 7.03983753 17.15284320663345 
Si 15.632226089999998 7.12395909 21.1600933472189 
Si 13.67250651 4.23722448 19.640450346092393 
Si 15.415227 5.7964706999999995 19.14946753871606 
Si 13.62666645 7.73406846 22.197547571725625 
Si 14.59419471 4.3387926299999995 23.353876400223793 
Si 12.802213259999998 5.833677059999999 23.211171697201863 
Si 12.22735545 6.59512053 25.347121065584282 
Si 15.35668074 8.07694038 29.939294953863072 
Si 14.76251928 4.41612126 29.01502507815238 
Si 14.199797519999999 6.860321729999999 26.680847910598843 
Si 15.58472445 5.00811615 26.955049238227502 
Si 13.39880193 7.93508706 28.647848429270184 
Si 12.30947334 4.1909608799999996 28.59384273450645 
Si 12.540009419999999 4.26630213 32.80121742599482 
Si 15.608426399999999 5.86527966 30.696685163570102 
Si 14.5446894 5.90608611 32.88539871649181 
Si 13.45845591 8.10160344 34.21202136411089 
Si 12.213411209999999 9.50371632 4.070222298081358 
Si 14.870912939999998 9.38755233 1.2490627449858396 
Si 13.587488999999998 10.87074054 2.6873281995389173 
Si 13.577389199999999 8.14534209 5.429641507463086 
Si 14.933352509999999 9.50249457 6.787853693015484 
Si 13.57499457 10.85977737 8.145134745899542 
Si 12.217728059999999 9.500849279999999 9.50186401646162 
Si 13.57667244 8.14558644 10.857041399243132 
Si 14.92709715 9.47713104 12.221047299176313 
Si 16.2924435 10.859549309999998 10.860696957126246 
Si 14.1420006 12.01563432 16.873779297292344 
Si 13.520195009999998 10.70665137 13.629506162423965 
Si 15.35591511 11.504030579999998 14.86684353306774 
Si 15.9887979 9.87038793 18.806086502469228 
Si 13.732893540000001 10.260842939999998 18.472913439179017 
Si 12.809462309999999 8.35694919 17.401490115475433 
Si 14.610517289999999 11.32508493 23.41915914619299 
Si 14.046182819999999 9.16721379 24.01763604716994 
Si 12.767890229999999 11.950360289999999 22.05670513404037 
Si 15.66391014 8.456122709999999 25.549245827404377 
Si 14.412284279999998 11.40591591 27.444169780267153 
Si 12.632080499999999 9.883550249999999 27.546352969018724 
Si 15.903747809999999 10.16862525 32.17542730007988 
Si 13.942496969999999 11.439033479999999 31.649578747233477 
Si 12.38908257 11.99994705 33.503084539552674 
Si 12.833017649999999 12.761830349999999 1.3182355563249875 
Si 14.94271926 12.208149539999999 4.074705529447441 
Si 14.631156719999998 14.632378469999999 1.4448937396958559 
Si 13.57409862 13.57463619 5.428055133287396 
Si 12.21763032 12.216913559999998 6.787784720225237 
Si 14.93274978 14.93270091 6.7875088290642465 
Si 12.21745113 14.93257059 9.503277958661691 
Si 14.93131626 12.21686469 9.502933094710457 
Si 13.57769871 13.574114909999999 10.860869389101863 
Si 12.21930819 12.209566769999999 12.235738503499014 
Si 14.94596097 14.91087231 12.225358098566778 
Si 13.56665409 16.16064111 13.61350447508656 
Si 16.26317037 15.621979679999999 16.346827179801977 
Si 16.24197708 13.41935991 13.670131135879702 
Si 15.614013869999999 13.6174626 17.642274126229214 
Si 12.98857086 14.11355826 21.23703249473991 
Si 14.9130063 14.24602854 19.7979497126224 
Si 13.081326119999998 15.842367089999998 22.907174124186312 
Si 15.194741849999998 16.09512273 23.91348713389632 
Si 15.645258089999999 14.29471935 25.388194362176627 
Si 14.120725859999999 12.565568429999999 25.398643739899114 
Si 16.278548129999997 13.746756329999998 29.61950261188086 
Si 12.64825647 14.355872009999999 30.107967912413162 
Si 14.23351782 12.621834089999998 29.54673631816982 
Si 13.85889669 15.82755948 31.525186320022236 
Si 16.16933997 15.380920259999998 31.263055230686877 
