&CONTROL
  dt          = 30.D0,
  prefix = 'x.66_y2.00_z3.16_struc21-scf',
  pseudo_dir = './',
  outdir='./',
  wf_collect= .true.,
  verbosity= 'high',
/

&SYSTEM
ibrav= 6, celldm(1) =30.783621515, celldm(3) =2.111877778490249, nat=  432, ntyp= 1,
  ecutwfc     = 12.D0, nbnd= 1728,
  degauss     = 0.05D0,
  occupations = "smearing",
  smearing    = "methfessel-paxton",
/
&ELECTRONS
  electron_maxstep=200,
  conv_thr    = 1.D-8,
  mixing_beta = 0.3D0,
  scf_must_converge=.false.,
/
&IONS
/
ATOMIC_SPECIES
Si  28.08  Si.pbe-hgh.UPF
K_POINTS {automatic}
1 1 1 0 0 0
ATOMIC_POSITIONS (angstrom)
Si 0.018096398099999998 2.7214562699999996 2.7037156931644355 
Si 2.71485882 0.020114240399999997 2.6949120962263655 
Si 1.428996267 1.4656520249999998 1.1909763268438922 
Si 4.07295612 1.356737085 4.073357906441203 
Si -0.00096945048 0.00015580521629999998 5.430811317861158 
Si 0.000497882673 2.71502172 8.144720468519733 
Si 2.7147936599999998 0.000301907457 8.14527090834392 
Si 2.71707426 2.71756296 5.430501695460054 
Si 1.357431039 1.3577421779999999 6.7874046670558235 
Si 0.003859101 -0.0028276670699999996 10.865819739381733 
Si 2.7178561799999996 2.71415835 10.860452951095922 
Si 1.3662113489999999 1.3575352950000001 12.256024320340737 
Si 1.3574489579999998 4.07284209 9.502449099851782 
Si 1.237813569 1.0858132079999998 17.075469005976643 
Si 0.0811398384 2.92516272 13.563525317715841 
Si 2.77544133 0.00784459611 13.81645241692917 
Si 3.30533874 2.24363799 17.405629693021027 
Si 1.2157911179999998 1.029640401 22.15816153752936 
Si 0.39472461899999994 0.9164574809999999 24.353349958870936 
Si 3.10158342 2.49919551 21.617388812755923 
Si 2.855637 3.23423289 26.796236301096076 
Si 3.93563142 0.189506457 28.995140191250908 
Si 1.6184994659999998 3.32640171 29.99398205721388 
Si 0.582944166 1.564441101 28.907620259205384 
Si 2.3435282699999997 0.9623252339999999 27.43505611955259 
Si 2.9959916399999997 2.77198785 34.17801277080542 
Si 3.6500188499999995 2.11131432 30.396525581138683 
Si 4.07390094 6.78263472 4.072153819325797 
Si 1.3563168030000001 4.07025198 4.07263545417196 
Si 0.25617654 5.50426068 0.10113471707186918 
Si 2.73934269 5.42054637 2.720414661330669 
Si 1.5859129499999998 6.9213603599999995 1.3805718840357548 
Si 0.0274370841 8.13165849 2.7290187238324717 
Si 0.001408557204 5.42991312 5.430673707905112 
Si 2.71482624 5.42999457 8.144789273497755 
Si 1.3571736570000001 6.78773349 6.7875422770118705 
Si 2.7151846199999996 8.146042559999998 5.429504023278717 
Si 4.05296829 4.07204388 12.237791001164586 
Si 1.3568674049999998 6.80589684 12.231116918296335 
Si 0.953329896 4.599106829999999 15.25499249494948 
Si 2.68460829 5.46391035 13.64509361916236 
Si 2.99121867 8.03116548 15.705561893534485 
Si 1.357532037 5.03903457 19.75084736894222 
Si 0.597085515 7.27164423 19.440984150414682 
Si 2.49787602 4.59055458 17.664783642745455 
Si 3.98588607 4.118845049999999 24.85524787106126 
Si 2.3379896700000002 5.54928624 23.851314436724564 
Si 0.0760542633 4.91628942 24.225441504725787 
Si 2.48779251 7.9264044899999995 24.52326385209926 
Si 2.75797845 4.8751245899999995 21.625748617585742 
Si 2.94306543 6.59471328 28.21943286901721 
Si 3.94551945 7.796931569999999 26.44887436954589 
Si 1.531918116 4.726185119999999 28.04518426217343 
Si 2.2318766099999996 4.7558003399999995 33.15674048200688 
Si 0.489944556 4.227173549999999 31.78384035302071 
Si 1.353255912 9.50327649 4.072876271595041 
Si 2.7309859199999997 10.85441796 2.7091512864282694 
Si 1.4016583889999998 12.15940986 1.285431800674158 
Si 0.000827000946 8.14519548 8.14423883367357 
Si 2.7146633399999995 10.858913999999999 8.144514053585663 
Si 1.3566393449999998 9.50285295 9.499937718153936 
Si 2.7117963 8.14555386 10.859248863980516 
Si 0.009046130219999999 10.85106222 10.857769556953016 
Si 1.3415222249999998 12.228007049999999 12.238651063389876 
Si 0.33609528 11.01397851 16.54825086187378 
Si 0.0187950762 8.167936319999999 13.662329266157172 
Si 1.376550612 9.64004733 14.89686258433866 
Si 2.8010654999999995 10.99092816 13.6348416774369 
Si 2.4661919699999997 8.875932299999999 19.32081625629714 
Si 3.08977317 12.183014069999999 20.063738006502778 
Si 3.96510003 8.58085524 21.184811915923987 
Si 1.90366569 11.119228199999998 18.33167589223544 
Si 4.06355679 8.16827841 17.73475830539506 
Si 1.7549542799999998 11.312395019999999 22.077522103286157 
Si 3.2599222199999995 9.72151362 23.124458648887355 
Si 0.350731845 8.528710949999999 25.30248022821214 
Si 1.325487978 8.24063859 29.02799456825699 
Si 1.1046965759999998 9.762531840000001 27.191417692372394 
Si 3.1839619499999996 10.95320052 27.528493279708115 
Si 0.9988702199999999 8.80168248 33.01169958833395 
Si 2.96968329 8.245004309999999 34.195661247668376 
Si 0.0989423649 10.66520961 34.34180302098968 
Si 2.06514846 9.33395823 30.973352114396285 
Si 1.92749796 11.751622289999998 31.3243607097817 
Si 4.06376856 14.93498151 1.3171852980318706 
Si 0.00760373217 13.55200938 2.7004612177039373 
Si 1.356585588 14.93470458 4.067475080820218 
Si 0.00011850437429999999 13.57519005 8.144823675986768 
Si 2.7159828299999997 13.57409862 5.429882450657845 
Si 1.357354476 12.217092749999999 6.787645484478905 
Si 1.358468712 14.93178867 9.501933062516606 
Si 2.7079681499999997 13.58581113 10.86145062327726 
Si 0.0736316145 13.498724789999999 16.057533758612227 
Si 3.64778712 14.095671839999998 16.597790446050492 
Si 1.70108325 15.307322039999999 15.76480297961247 
Si 1.228432158 14.934118139999999 19.747579132486116 
Si 3.36219084 14.3860248 18.99134361903299 
Si 0.310006845 13.06793574 18.737934884973498 
Si 1.129457376 13.284087749999998 23.39448378513945 
Si 1.8985343399999999 15.021302219999999 21.99736430388911 
Si 2.27649492 16.162823969999998 25.37035633903204 
Si 2.10264804 13.76892702 25.532632879699783 
Si 2.54444913 12.566985659999999 29.1335414045446 
Si 4.03550541 12.33333819 25.839675094128367 
Si 0.9026663669999999 13.32776124 27.604557182912774 
Si 3.61440891 12.5209827 32.951632842519686 
Si 2.31902811 13.878004859999999 34.34734182172055 
Si 0.189066627 16.09119684 30.455938679661728 
Si 0.476676351 15.110245619999999 32.792934160709144 
Si 4.153314689999999 4.03083018 1.3658235369964793 
Si 6.78892266 4.07131083 4.069952060029054 
Si 8.177172749999999 0.0028796647499999997 2.711745234099744 
Si 7.96234023 3.28919535 0.10338670400256891 
Si 5.4499498200000005 2.6828489699999998 2.7183505119899727 
Si 6.95281635 1.3940232659999998 1.2724207793299684 
Si 8.14552128 2.7158688 5.430708110394123 
Si 5.42957103 0.00168982686 5.430604902927088 
Si 5.430141180000001 2.71454931 8.145236505854907 
Si 6.7873262400000005 1.357352847 6.787611081989893 
Si 4.07069181 1.3562467559999998 9.502517904829805 
Si 6.78602304 1.366240671 12.269200473632182 
Si 4.28304825 1.301654079 15.278523797433419 
Si 5.331651839999999 2.8218515399999995 13.80898707681365 
Si 6.384588569999999 2.9466981 19.692569552556556 
Si 4.322111669999999 1.72336797 19.669829507319886 
Si 4.692758039999999 2.38527954 23.340884707259367 
Si 4.2977907 0.180007758 24.128220070778983 
Si 6.6367414799999995 3.1516100099999997 22.063210667857323 
Si 7.589543579999999 3.49443306 25.70674387658752 
Si 5.505710489999999 1.210759137 27.57407657764849 
Si 8.12222658 3.76154019 28.06355519130562 
Si 4.497001109999999 3.23889183 28.46953896413159 
Si 7.502310629999999 1.5531830819999999 28.607492945068127 
Si 7.67604348 0.5407318889999999 30.714714202007027 
Si 4.70184786 2.23076889 32.503574825632526 
Si 5.855179859999999 0.218303919 32.203963548830444 
Si 6.041700359999999 4.8412251 0.21513080466072734 
Si 6.853219289999999 6.78517596 1.3176978951181435 
Si 5.43520737 8.14780188 2.6916232182768556 
Si 4.0728258 4.0725 6.787611081989893 
Si 5.43224259 5.43188421 5.430329683014995 
Si 6.787863809999999 6.787342529999999 6.787886301901986 
Si 6.78727737 4.0723696799999995 9.503343564566082 
Si 4.07256516 6.78704931 9.501692245093526 
Si 5.430678749999999 5.43085794 10.85997131624976 
Si 6.7800609 6.79200147 12.206656748609083 
Si 5.39656749 8.1409275 13.547596965303468 
Si 6.20086995 4.59575109 15.32950828614862 
Si 4.4282736 6.41379654 14.881553476728495 
Si 7.91185752 5.491212389999999 13.791097782527615 
Si 6.24042207 4.8192010199999995 18.01417532114733 
Si 4.56607071 6.27352335 21.129079883725183 
Si 4.42063359 6.075094859999999 18.72592841630845 
Si 6.124062599999999 5.199360749999999 24.758955304317773 
Si 6.48734589 5.49456813 22.39357776983578 
Si 6.06488103 7.420046129999999 25.526509236655716 
Si 7.56297459 7.300037699999999 27.315025835391097 
Si 4.77112923 5.46239538 29.294097820761763 
Si 7.114641209999999 5.6965315499999996 28.928915399903563 
Si 4.12604523 5.72122719 31.707363619947913 
Si 7.3489891499999995 7.938426509999999 32.21889422906148 
Si 4.7895858 7.898011019999999 32.33269766271188 
Si 5.90435937 4.25867841 32.352100666514424 
Si 4.15178343 9.59340906 1.280464081260882 
Si 6.78763575 9.49996962 4.069986462518066 
Si 4.0746177 12.21792354 4.074217968666494 
Si 4.07245113 9.502413119999998 6.787817496923964 
Si 5.430222629999999 8.14442985 8.144582858563687 
Si 5.428447019999999 10.860608159999998 5.42998565812488 
Si 8.14545612 8.1428823 10.862379490480572 
Si 6.78708189 9.50290182 9.50134822020341 
Si 4.05607968 9.51779088 12.223273150801688 
Si 5.434800119999999 10.85399442 10.86189785563441 
Si 6.16729626 11.010215520000001 16.394746955903994 
Si 6.940664009999999 9.57635343 14.66832684983456 
Si 4.28747913 12.107232989999998 15.306974655846018 
Si 5.95309905 9.594190979999999 20.42431049383342 
Si 5.42377179 11.880573929999999 20.402086485931925 
Si 6.21329922 9.23032125 17.958787313838645 
Si 4.998065219999999 11.03416182 24.08163910065727 
Si 6.85479942 9.35977788 24.240165770022752 
Si 7.6759131599999995 9.09086256 21.992926382806615 
Si 4.75666371 9.34527978 28.12362193711989 
Si 7.121841389999999 9.33239439 28.42326761641098 
Si 5.836755869999999 11.12001012 31.40420888677764 
Si 5.22478944 11.16627372 34.088635104353266 
Si 7.73923239 9.81956313 30.718704890732372 
Si 4.36633902 9.348879870000001 30.478781932365436 
Si 7.73871111 14.104044899999998 0.034386044621858604 
Si 5.43139551 13.56192999 2.699804130163816 
Si 6.82873542 12.2733747 1.215178477863557 
Si 6.7843614599999995 14.934557969999998 4.068438350512543 
Si 6.062584139999999 15.8193819 0.05904877616441091 
Si 4.07279322 14.93232624 6.787473472033847 
Si 5.430401819999999 13.5755973 8.144789273497755 
Si 6.78711447 12.21746742 6.787714289456928 
Si 8.14227957 13.579637219999999 10.85739112957389 
Si 4.07297241 12.21741855 9.504513249192478 
Si 6.788466539999999 14.93136513 9.502517904829805 
Si 4.05845802 14.93389008 12.240061565439351 
Si 6.80219901 12.219047549999999 12.219385669543376 
Si 5.4319005 16.2919548 10.86337716266191 
Si 7.34804433 13.048925309999998 16.695459112354442 
Si 5.30959518 13.43304351 13.570199400584093 
Si 6.268782959999999 14.77033848 15.241025084410769 
Si 8.04349701 16.109164709999998 13.706570867026098 
Si 4.89229425 15.753749489999999 20.169904087592595 
Si 7.18690365 15.38456922 19.712419788716254 
Si 7.134238079999999 13.08124467 19.151968840228175 
Si 5.45343588 12.816613619999998 22.558159277267304 
Si 7.7875159499999995 13.056663059999998 22.79416035188692 
Si 4.258873889999999 14.93463942 22.32122933544437 
Si 7.9566550199999995 15.870988619999999 25.26910981387088 
Si 4.33520883 14.124863519999998 28.9886037183387 
Si 5.73124554 15.88706685 25.848998168650514 
Si 5.56134084 13.75004691 26.941621219659122 
Si 7.85673216 12.93243552 26.998866961374436 
Si 8.07246063 14.513624369999999 30.463094397376143 
Si 5.907389309999999 13.489358039999999 30.613364469378837 
Si 9.500784119999999 1.353912399 4.072566649193936 
Si 10.87039845 2.7203322599999997 2.6840787524366108 
Si 8.14477194 -0.000262140309 8.144789273497755 
Si 10.861829909999999 0.0012479915609999999 5.43043289048203 
Si 10.860477839999998 2.71443528 8.144617261052698 
Si 9.5029344 1.3570123859999998 9.502621112296838 
Si 8.14600998 2.71412577 10.86595734933778 
Si 10.860282360000001 0.0007030552229999999 10.858560814200283 
Si 9.394801379999999 4.04703873 17.12638468971382 
Si 9.588326579999999 0.208378422 15.599258202488624 
Si 9.546819659999999 2.48665221 15.285851527592891 
Si 10.951685549999999 2.83781574 13.474319663708746 
Si 10.066943069999999 2.22544206 20.683739663469943 
Si 11.931431309999999 0.800658387 20.071753786442482 
Si 8.58952152 2.4313150799999996 18.795249431666832 
Si 8.84345004 0.178689897 17.973649189091656 
Si 8.83571229 2.4977457 22.66202039159334 
Si 9.07871022 0.31227278399999997 23.39087152379323 
Si 9.54714546 3.87599373 24.427384115223912 
Si 11.42552907 3.07621989 25.648569267668893 
Si 10.22878422 3.6505401299999996 29.248652132777433 
Si 11.019940649999999 0.936450198 26.615795246230203 
Si 8.921088179999998 0.20871399599999998 27.30838615501186 
Si 9.418014629999998 2.13355017 30.962549732846636 
Si 8.29615491 4.0068513 32.042719082833045 
Si 11.257253369999999 1.233307755 32.21218574370422 
Si 12.124956509999999 6.763689449999999 1.2654439545584146 
Si 9.63397116 4.304437019999999 1.3663670963228625 
Si 8.14249134 5.44103919 2.7344921598342182 
Si 9.5008167 6.7889715299999995 4.073254698974169 
Si 9.502347959999998 4.073037569999999 6.7877830944349515 
Si 8.14478823 5.43035295 8.145683738212057 
Si 10.85915835 5.43087423 5.4297792431908105 
Si 10.8580995 5.43281274 10.861209805854177 
Si 12.19932036 6.79535721 12.253031303796728 
Si 9.505052099999999 6.78867831 9.502242684917713 
Si 9.474915600000001 4.11092811 12.228777549043546 
Si 8.529183360000001 7.617578669999999 14.934464504828346 
Si 10.6293879 8.10691398 13.753943094395082 
Si 11.76225966 4.15841346 17.09642012178471 
Si 11.43572661 4.1251166999999995 20.534226446225503 
Si 9.8298747 5.947886249999999 20.206749153324022 
Si 11.59305543 7.11325656 19.12183225985401 
Si 8.27970201 5.92651377 18.41867978694579 
Si 8.38876356 7.9959465 17.357363000937745 
Si 8.48650356 6.796171709999999 22.039644962884378 
Si 12.03153336 6.63819129 23.16574163570128 
Si 9.78343191 6.21204489 23.916679165846617 
Si 9.48799647 7.33059774 25.968546817965844 
Si 11.492578709999998 6.65912394 27.023223923594657 
Si 11.73494133 4.34889243 27.557288163010828 
Si 8.414289989999999 6.186485879999999 30.854697929795254 
Si 11.445011909999998 4.91726682 30.864502639163565 
Si 10.655940600000001 7.07921046 30.6153254112525 
Si 8.52757065 7.7241152699999995 34.306402859796734 
Si 10.376078399999999 5.9721420599999995 34.23601536727899 
Si 9.51068844 9.609552449999999 1.2127875048772503 
Si 10.85267493 8.163977849999998 2.694970580457685 
Si 8.139086729999999 10.86842736 2.6919431614246636 
Si 8.14680819 8.144136629999998 5.430398487993019 
Si 9.502103609999999 9.502445699999999 6.78774869194594 
Si 10.8598914 8.145309509999999 8.14527090834392 
Si 8.145374669999999 10.85927238 8.145133298387872 
Si 10.860363809999999 10.86020091 5.43084572035017 
Si 9.51933843 9.51345774 12.215635798241111 
Si 10.865967569999999 10.85215365 10.859902511271736 
Si 11.66942295 11.995092629999998 16.680115602255267 
Si 8.39068578 11.04395211 13.565967894435664 
Si 11.959417529999998 8.49482775 15.660597840396315 
Si 10.67656374 8.711745389999999 17.606505826359797 
Si 9.2377332 12.05885169 19.657375806297683 
Si 11.02065741 10.807486469999999 18.643672065081695 
Si 11.2096377 11.15579925 22.252871589778312 
Si 11.162233800000001 10.226943449999998 24.364049132953546 
Si 8.905547519999999 11.14638363 21.771855988418032 
Si 9.04717278 9.57954627 25.301551361008826 
Si 8.59067811 10.71245061 27.289464786055472 
Si 12.09718206 11.810380319999998 27.743784055942747 
Si 10.523079359999999 10.332747 28.590498115496395 
Si 11.604963419999999 8.214818939999999 28.74630698822996 
Si 11.056951530000001 11.06003034 34.26845691441693 
Si 12.007228679999999 9.03010086 31.320025996166237 
Si 10.04724846 10.52066844 30.89976519040046 
Si 12.21639228 14.93709921 4.07263545417196 
Si 9.50303214 12.21958512 4.069745645094985 
Si 9.55853217 14.955148529999999 1.2863193848906576 
Si 10.838567789999999 13.58452422 2.727766473232449 
Si 8.14635207 13.57564617 5.429710438212787 
Si 9.50270634 14.932782360000001 6.7874046670558235 
Si 10.860298649999999 13.575857939999999 8.144410846118628 
Si 9.50037687 12.21743484 9.503894004390268 
Si 9.48206691 14.93784855 12.21281479414216 
Si 11.84141277 15.281795609999998 14.948879147724208 
Si 9.54944235 12.38991336 15.337111236220183 
Si 10.78246503 13.621763159999999 13.610312702771626 
Si 10.26079407 14.02114509 20.51272489059325 
Si 11.16733257 15.283424609999999 18.776190452754406 
Si 8.494469370000001 15.058964699999999 21.667031604399668 
Si 11.72790405 13.434933149999999 22.241759585827563 
Si 11.15285076 16.12848465 24.52419271930257 
Si 11.015672669999999 13.797662579999999 24.48579954156562 
Si 8.64909405 13.63549563 24.902723305897272 
Si 9.13122918 14.370272369999999 28.36395772535497 
Si 11.425154399999998 13.91576508 28.45990626720834 
Si 10.60685883 12.42474138 32.24913401690269 
Si 9.17019486 14.23174221 32.55658906119941 
Si 12.19689315 13.747717439999999 30.68533447639112 
Si 11.319301979999999 15.955957259999998 34.199273509014596 
Si 14.22195192 2.2241551499999996 0.056733832678819936 
Si 12.29707665 1.350313938 1.2242022507313013 
Si 14.93017596 1.3551879059999998 4.0692296077598105 
Si 13.573544759999999 0.00033861534299999994 8.144720468519733 
Si 13.575711329999999 2.7151031699999995 5.430536097949066 
Si 12.217972409999998 1.357057998 6.7880239118580326 
Si 14.93129997 1.35881406 9.503309162077072 
Si 13.573544759999999 2.71446786 10.859386473936564 
Si 12.228903 1.337335695 12.225612520054478 
Si 14.917583789999998 4.10112153 12.206966371010186 
Si 15.860155769999999 2.79098199 16.65685951968342 
Si 13.654603799999999 0.09815441759999999 13.752498189856594 
Si 14.53659327 2.1015566100000003 14.811475606611854 
Si 12.642783029999999 3.7040202 14.864558647156763 
Si 13.73607009 0.23104921499999997 21.492610985110826 
Si 15.655797719999999 1.502346879 20.749998857306295 
Si 15.72397137 3.89585124 20.42121426982238 
Si 12.62888766 2.76154596 18.89584230953677 
Si 16.09948845 0.27155104199999996 18.75152386813308 
Si 14.527796669999999 4.05313119 18.425216259857997 
Si 13.166669429999999 0.665488854 23.702179646859253 
Si 13.32940653 2.941974 24.23841124308316 
Si 15.59093094 2.8621041299999996 25.16122360833048 
Si 15.13782459 2.1044073599999997 27.405607588958656 
Si 13.94059104 3.9282357599999997 28.25799805919922 
Si 15.92482707 0.35425862999999996 34.41143365874917 
Si 13.48696341 2.3430069899999997 32.19687663609406 
Si 14.51346147 0.35816497199999997 31.554203738868242 
Si 12.22111638 4.067384939999999 4.070880927232367 
Si 15.029284319999999 4.13430426 1.3250634680155284 
Si 13.557140729999999 5.43186792 2.6933054999895236 
Si 14.934557969999998 6.78688641 4.069952060029054 
Si 14.93270091 4.0720927499999995 6.787851899412975 
Si 13.57496199 5.4299457 8.144823675986768 
Si 12.21746742 6.787440269999999 6.787232654610765 
Si 13.56878808 8.14869783 10.865716531914698 
Si 16.28830584 5.429489579999999 10.859042449046447 
Si 12.21818418 4.072304519999999 9.501864257538585 
Si 14.93571456 6.787342529999999 9.503446772033119 
Si 13.649977439999999 5.49963432 13.677982398657456 
Si 15.506858249999999 6.424922609999999 15.158768733184019 
Si 15.135201899999998 7.4634589799999995 17.42190207032352 
Si 15.306637859999999 7.60689243 21.20951290303432 
Si 12.844779029999998 7.80491367 21.04936931668529 
Si 13.188628349999998 6.0409836 17.748863325889822 
Si 15.161314769999999 5.34574269 22.193011258898114 
Si 12.93608448 4.558691339999999 22.464550104666724 
Si 13.150004759999998 6.859328039999999 25.375516712383778 
Si 15.451879499999999 6.5057373 25.6657705121747 
Si 15.48678897 7.274885939999999 29.366067827774046 
Si 15.586141679999999 5.555280959999999 27.772854159157554 
Si 13.66087545 4.20140277 30.589729959427864 
Si 15.231736439999999 5.855684849999999 31.277607727214928 
Si 15.517951739999999 7.174116 33.22915772137631 
Si 14.9299479 12.21777693 4.074974823424748 
Si 13.70780694 8.157820229999999 0.07927090323032313 
Si 12.215528909999998 9.50106105 4.073013881551087 
Si 15.011968049999998 9.50975991 1.433076962765268 
Si 13.58370972 10.86806898 2.713909150658574 
Si 14.933140739999999 9.50249457 6.787439069544836 
Si 13.574880539999999 10.85977737 8.144617261052698 
Si 16.2913032 10.861992809999998 5.430364085504007 
Si 13.576965659999999 8.147753009999999 5.430260878036973 
Si 12.21808644 9.50503581 9.50282752723091 
Si 14.93675712 9.49855239 12.232733835279879 
Si 13.22267445 10.43436402 15.737384195870222 
Si 14.00224869 11.216870459999999 13.596035669831808 
Si 12.340049669999999 10.06534665 20.540109271846486 
Si 14.534573309999999 10.72753515 20.05059625570034 
Si 14.74095132 9.845431649999998 17.49456012711603 
Si 15.989042249999999 9.92548071 21.77656912941262 
Si 12.99318093 8.819275679999999 24.231633952747874 
Si 15.119139959999998 9.83950209 23.96645956744641 
Si 14.57805132 11.838741209999998 25.089081588873142 
Si 12.23059716 11.99813886 25.45010130856094 
Si 13.7368683 8.932165379999999 29.585693317624138 
Si 15.793936919999998 11.5009029 27.136167295019757 
Si 14.108703839999999 11.12903478 28.724323797751545 
Si 12.93329889 10.027146599999998 33.27584189896506 
Si 14.532341579999999 11.86503327 33.41582562675328 
Si 12.30308766 12.39900318 1.4164502398259589 
Si 14.920597439999998 14.945439689999999 1.3549833127089224 
Si 13.56909759 16.294887 2.715529507891021 
Si 13.574733929999999 13.57483167 5.43019207305895 
Si 12.21732081 12.217874669999999 6.7877830944349515 
Si 14.93177238 14.93281494 6.787301459588789 
Si 12.21741855 14.93072982 9.500384950511085 
Si 14.934134429999999 12.21888465 9.504822871593582 
Si 13.565807009999999 13.58185266 10.85866402166732 
Si 12.224635020000001 12.218738039999998 12.244224266609756 
Si 14.928270029999998 14.9221287 12.257125199989108 
Si 12.529616399999998 14.25669849 17.002879754162155 
Si 15.757528769999999 13.06809864 13.661641216376943 
Si 14.85470439 14.66402994 17.640254668080182 
Si 14.482477889999998 13.05145026 19.731719585051767 
Si 14.85576324 15.781165559999998 24.875545339578107 
Si 15.159148199999999 13.693031909999998 23.774115251382522 
Si 13.96217529 14.14092546 21.767246054890478 
Si 15.66053811 14.65759539 28.766914079147913 
Si 14.40778824 13.05413811 30.057317039484246 
Si 14.519635379999999 16.09194618 27.23603772062045 
Si 12.37626234 16.078099679999998 28.170443724664686 
Si 13.23368649 14.021568629999999 34.3448304400227 
Si 12.40506306 16.10207856 30.646941298654166 
Si 15.966382859999998 12.846554639999999 31.85144124392852 
