&CONTROL
  dt          = 30.D0,
  prefix = 'x.66_y2.00_z3.18_struc4-scf',
  pseudo_dir = './',
  outdir='./',
  wf_collect= .true.,
  verbosity= 'high',
/

&SYSTEM
ibrav= 6, celldm(1) =30.783621515, celldm(3) =2.122134354613896, nat=  432, ntyp= 1,
  ecutwfc     = 12.D0, nbnd= 1728,
  degauss     = 0.05D0,
  occupations = "smearing",
  smearing    = "methfessel-paxton",
/
&ELECTRONS
  electron_maxstep=200,
  conv_thr    = 1.D-8,
  mixing_beta = 0.3D0,
  scf_must_converge=.false.,
/
&IONS
/
ATOMIC_SPECIES
Si  28.08  Si.pbe-hgh.UPF
K_POINTS {automatic}
1 1 1 0 0 0
ATOMIC_POSITIONS (angstrom)
Si 0.00331242489 2.71068858 2.684575905530861 
Si 2.7141746399999995 -0.010759463549999999 2.7042840166106212 
Si 1.350709785 1.2206080709999998 1.23640136403134 
Si 1.35700587 4.07091987 4.069737037319478 
Si 4.0730701499999995 1.357882272 4.069633328613568 
Si 4.0227014699999994 4.0551837299999995 1.3172976115979889 
Si 0.001627243938 0.0006529748759999999 5.42987671532888 
Si 0.00013439152259999999 2.71497285 8.145074344758095 
Si 2.71531494 0.00024870920399999995 8.14462494036582 
Si 2.71482624 2.71551042 5.430049563172063 
Si 1.357406604 1.357541811 6.7874928148278055 
Si -0.001528419024 0.000275841828 10.86452403112962 
Si 2.7173837699999996 2.7152009099999996 10.860513961167767 
Si 1.3648723109999998 1.349978364 12.247687041851037 
Si 0.0937774575 2.83734333 13.687889840822946 
Si 1.172891403 3.8670668099999994 17.70082907687239 
Si 2.89670409 1.114558542 19.508091555628354 
Si 0.6198345 1.78639398 18.863265391848728 
Si 3.4964855999999997 3.9141774899999997 22.34753221473773 
Si 1.1360238749999998 0.228242448 22.438553888958054 
Si 3.09342213 1.5969901499999999 21.889692847713796 
Si 0.717203088 3.68929404 25.10355650472684 
Si 3.2906777399999996 0.06735963869999999 29.073698614804098 
Si 0.325293381 3.10018248 29.009572064983097 
Si 2.9656759499999996 1.124461233 27.016325306961896 
Si 0.8522032049999999 2.1005955 26.93097304199798 
Si 2.73204477 2.56174911 34.49994552542613 
Si 1.99984185 3.7754029799999995 30.635033182278864 
Si 1.056717639 3.5687480399999996 32.984450205963576 
Si 3.50915922 0.740621592 33.072879162536154 
Si 2.70490563 5.4380907 2.699983562272221 
Si 1.412955504 6.81487263 1.1804055767536774 
Si -0.00650420604 8.14338729 2.6735274713945847 
Si 2.7150705900000003 5.42996199 8.144970636052184 
Si 1.3574017170000001 6.78704931 6.787665662670989 
Si 1.3563493829999997 4.07171808 9.502448457276564 
Si -0.001304190432 5.43095568 10.861032504697317 
Si 1.3563053999999999 6.786430289999999 12.236382792906848 
Si 0.8588690729999999 4.54624578 15.252162821631826 
Si 2.62555704 5.353480439999999 13.715199800045905 
Si 0.500849082 7.290556919999999 17.373697248863675 
Si 2.15661681 5.520811319999999 21.121315045626748 
Si 2.9515688099999995 5.05651374 18.897904099622664 
Si 2.9156004899999997 6.893879129999999 17.380818580002824 
Si 2.40246549 7.82415216 21.809284031064927 
Si 2.1736398599999998 8.0839125 24.23789993649623 
Si 3.0550591799999998 4.226130990000001 24.687995720145544 
Si 3.5810307 6.496891829999999 25.308588616310875 
Si 3.5400450599999997 6.47537274 27.709963701656484 
Si 1.445063094 6.6797796599999995 28.73757869894985 
Si 0.12926636279999998 5.47462917 34.249005026692615 
Si 3.6822730499999996 6.9399798299999995 32.61009634719718 
Si 1.9336067099999998 6.09200388 30.95957229263983 
Si 1.3547920589999998 9.50596434 4.069080215515382 
Si 2.71034649 10.858718519999998 2.6863009270058305 
Si -0.000348819399 8.14490226 8.145005205620821 
Si 2.71461447 8.14506516 5.4303606892897935 
Si 0.000536781564 10.86000543 5.430256980583883 
Si 2.7151683299999996 10.85995656 8.145108914326732 
Si 4.07658879 9.48724713 12.228224374708597 
Si 1.357110126 9.500295419999999 9.50165335719792 
Si 2.71823085 8.14245876 10.860306543755947 
Si 0.265362471 10.480171499999999 16.36084345737816 
Si 1.6153489799999998 9.22092192 14.924028476132644 
Si 2.6469458099999996 10.79404722 13.52375352893608 
Si 1.1929981499999998 9.55887426 20.53356323966625 
Si 2.61298116 11.48534595 20.150083014779774 
Si 1.5719328719999999 11.82667032 17.829566150475312 
Si 0.955266777 11.68038612 23.57796687122238 
Si 2.6532500399999996 10.39261275 24.49433699664297 
Si 3.4069231799999997 11.157558569999999 26.59754955249739 
Si 2.1193778699999997 11.598056459999999 30.239107912683192 
Si 2.67902082 10.0002681 28.558542902980587 
Si 0.6017623739999999 8.843857289999999 28.724926236828832 
Si 2.67841809 8.261212859999999 34.37241838672549 
Si 0.200503836 11.01498849 31.839644370991934 
Si 1.450456713 12.27425436 1.1252014325977944 
Si 1.3575157469999999 14.92942662 4.072260615829954 
Si -2.3252346e-05 13.574733929999999 8.144901496914912 
Si 2.7152334899999997 13.576802759999998 5.430118702309336 
Si 1.357681905 12.21763032 6.7874928148278055 
Si 4.06981215 14.93387379 12.240185445456882 
Si 1.357696566 14.93242398 9.502932431237477 
Si 2.7188987399999998 13.57463619 10.86193131348187 
Si 1.343060001 12.224993399999999 12.219754830392615 
Si 2.65805559 16.20020952 13.729269614481026 
Si 0.501106464 15.12252828 17.086493272630296 
Si 2.92923522 12.941883719999998 16.204900133258185 
Si 1.540445931 14.582840580000001 15.060993107071095 
Si 3.3923762099999997 15.098728589999999 19.752187279771814 
Si 1.172664972 14.714105399999998 20.85391943222218 
Si 2.16241605 12.951511109999998 22.00760964633345 
Si 0.787305474 15.593683949999999 24.614846512910372 
Si 2.76912081 15.391476179999998 25.81302776185702 
Si 1.4302375649999999 15.159490289999999 29.978003960770497 
Si 3.0271869899999997 13.43760471 27.193632624499326 
Si 1.254730734 13.15777509 28.685447789445767 
Si 0.17971779599999999 16.17626322 34.029695683261636 
Si 3.22022349 13.34618523 34.22902381602062 
Si 3.92789367 12.61404747 31.56962147037098 
Si 2.00028168 15.079294619999999 32.631080075359634 
Si 8.12649456 -0.0006229247129999999 2.7305361470333014 
Si 5.4363965400000005 2.7187521299999995 2.70257627991997 
Si 6.79534092 1.345141863 1.3399579638393198 
Si 5.4305973 -0.0013770099899999997 5.430775524113432 
Si 5.42989683 2.71495656 8.144797788209003 
Si 6.7874728499999994 1.35741312 6.787631093102353 
Si 4.05070398 4.06868814 12.227429274629953 
Si 8.145928529999999 2.71583622 10.862000452619144 
Si 4.07287467 1.357926255 9.501515078923374 
Si 5.42704608 0.00250005888 10.86203502218778 
Si 6.78379131 1.3680390869999999 12.239459484515512 
Si 6.1066974599999995 3.4879496399999996 17.172951763790586 
Si 4.12371576 1.270067769 15.020062737805288 
Si 5.36485086 2.77024482 13.669740817288696 
Si 4.384486079999999 1.6778537099999997 17.38323844980739 
Si 5.03642817 0.49036320899999997 22.82853319274822 
Si 6.989517719999999 1.72638162 23.431495608908854 
Si 7.78689693 3.3136629299999996 21.862970571157664 
Si 6.57249372 2.82641274 25.5045635009121 
Si 4.33121778 2.9266776899999996 26.304434180027144 
Si 5.8077108 4.05787158 32.37827281991974 
Si 5.3705197799999995 0.11885363189999999 34.50696314785937 
Si 7.587507329999999 2.36969001 32.38871282964801 
Si 4.25007729 1.173376845 30.887805868150124 
Si 8.198463779999999 0.332695557 31.07489637361173 
Si 4.34581362 3.47455926 30.42142781767294 
Si 6.78831993 4.07290725 4.0712235287708545 
Si 4.07204388 6.78760317 4.066625776142179 
Si 6.82542855 6.660264239999999 1.0602866966118736 
Si 5.451122699999999 8.13793014 2.678495118407673 
Si 4.0725814499999995 4.07243484 6.787423675690532 
Si 5.430711329999999 5.4297990899999995 5.430049563172063 
Si 6.787554299999999 6.787440269999999 6.787181688710076 
Si 8.145733049999999 8.14540725 5.429600158779787 
Si 6.7875054299999995 4.07142486 9.502344748570655 
Si 4.07036601 6.786984149999999 9.500892826687915 
Si 5.42904975 5.434360289999999 10.862899261403696 
Si 6.7862511 6.78919959 12.242639884830083 
Si 5.96088567 4.68300033 15.076825969506686 
Si 4.1966298 6.495099929999999 15.095873801825483 
Si 5.42971764 8.14724802 13.753814008213057 
Si 7.907312609999999 5.28814125 13.716133178399096 
Si 6.31099035 6.73257555 18.2190960498732 
Si 5.6984537699999995 4.412651489999999 21.39883954264186 
Si 5.30340498 4.778720369999999 19.066603594569568 
Si 6.11528229 6.6118014899999995 22.21689381485979 
Si 5.8125978 6.841897739999999 24.604268224907557 
Si 7.04035881 5.13117081 25.703131103161077 
Si 6.794151749999999 5.12305839 28.05998058410267 
Si 4.5932913 4.384730429999999 28.210980459907603 
Si 7.504037369999999 7.13708883 28.9573374467731 
Si 5.1683283 5.43098826 34.21104764032956 
Si 7.682217389999999 5.49388395 32.377132024154726 
Si 7.22345841 7.48562967 31.221125648944806 
Si 4.14459954 9.57522942 1.268478466769297 
Si 6.787342529999999 9.50220135 4.070808693947215 
Si 4.95792666 11.41345818 0.04491935179079011 
Si 4.07238597 9.5029344 6.787700232239626 
Si 5.4295873199999996 8.14477194 8.145281762169915 
Si 5.4297990899999995 10.859972849999998 5.43070638497616 
Si 6.78757059 9.501158789999998 9.501999052884287 
Si 5.43133035 10.85697549 10.861343630815048 
Si 6.33918834 10.155251159999999 15.116062429909295 
Si 4.27149864 11.347874639999999 15.074440669270754 
Si 6.949346579999999 10.71111483 17.51449910192079 
Si 4.67332407 8.14558644 21.10568960060298 
Si 4.969981259999999 11.33451684 19.903014307733564 
Si 4.500079919999999 8.158015709999999 18.663038450305194 
Si 4.39883757 10.33001028 17.78345034591401 
Si 5.76677403 10.154892779999999 21.730223427592883 
Si 8.09375166 10.55409552 21.69945651150626 
Si 4.63114926 11.22863184 23.451269402169018 
Si 5.56528302 10.942172189999999 25.538752804293757 
Si 6.707488949999999 8.85760605 25.56315891975124 
Si 6.546836969999999 9.00149562 27.91402786531869 
Si 7.53814863 11.202763319999999 28.189685605627417 
Si 4.41983538 8.43989787 28.81688128940235 
Si 5.32564083 10.65800943 32.37184288015332 
Si 7.79829993 10.83109068 32.07779412932988 
Si 4.97682306 8.40765996 31.179261901325805 
Si 5.42510757 13.590893609999998 2.711491771671365 
Si 4.07134341 12.217174199999999 4.0681122675935555 
Si 4.089914009999999 14.9408622 1.2721359271310557 
Si 6.77033577 12.315744989999999 1.292255416077592 
Si 6.785632079999999 14.932049309999998 4.07706578587045 
Si 4.072516289999999 14.93229366 6.787700232239626 
Si 5.42999457 13.57507602 8.145281762169915 
Si 6.786984149999999 12.21756516 6.787665662670989 
Si 4.07210904 12.217109039999999 9.502932431237477 
Si 6.78784752 14.932163339999999 9.502828722531568 
Si 6.803306729999999 12.224716469999999 12.236728488593217 
Si 5.46988878 15.94743759 16.66363830906667 
Si 5.52551913 13.62436956 13.63918131861389 
Si 7.0810675199999995 14.977254059999998 15.257382826495961 
Si 5.32055835 14.92221015 21.355696720983307 
Si 7.796622059999999 14.636304359999999 21.359775930082435 
Si 8.10616464 13.96600344 19.144938237100238 
Si 6.168143339999999 12.821077079999998 18.572120484790776 
Si 8.052391349999999 15.692678279999999 17.558506162795258 
Si 4.33950939 14.150080439999998 17.76685695296841 
Si 4.30367139 13.48662132 22.958376492547515 
Si 4.741171919999999 15.18245919 24.615641612989016 
Si 6.99157026 12.58788573 26.34228785768429 
Si 7.49932956 12.38611779 30.201219665457412 
Si 6.19029774 14.836687649999998 26.592951799868715 
Si 4.701522059999999 14.582856869999999 28.387803803484122 
Si 7.16388588 15.45849324 33.36824155696778 
Si 8.12970369 13.60816101 34.449819650902974 
Si 5.6127357899999994 13.84886205 30.409674164336472 
Si 6.03280602 15.91290279 31.33803993007399 
Si 8.498623319999998 2.32375221 0.019390831578812807 
Si 9.502657469999999 1.3570270469999999 4.069875315594024 
Si 10.30762782 0.667064097 0.1192273309666643 
Si 10.877484599999999 2.72258028 2.701470053723597 
Si 8.145244349999999 -5.49003951e-05 8.144694079503092 
Si 8.14485339 2.7157384799999997 5.4303261197211565 
Si 10.85995656 2.7146633399999995 8.145039775189458 
Si 12.22098606 1.357800822 12.239770610633242 
Si 9.502315379999999 1.3583237309999998 9.501757065903831 
Si 12.21771177 4.07118051 9.501687926766559 
Si 10.85933754 0.000366987636 10.862622704854601 
Si 11.43083961 1.039886811 16.64891167282745 
Si 8.18639289 0.0303261156 13.654841333206297 
Si 9.34013214 1.7000895599999999 14.947812339354668 
Si 10.86907896 2.7721018799999997 13.613772685665944 
Si 8.547982020000001 3.17415537 16.658210886790712 
Si 9.563223690000001 0.045855861299999995 21.410351208997866 
Si 9.3327039 2.2037763599999995 20.290677450425076 
Si 11.32842438 3.6046023299999996 20.265407095751677 
Si 9.36836271 1.352895903 17.997435975774938 
Si 11.386856609999999 3.90091743 22.546652930084893 
Si 9.001283849999998 0.504227628 23.60977087436811 
Si 10.728838349999998 2.05923519 23.928675145041304 
Si 10.23099966 3.17593098 25.910410236706493 
Si 8.33621202 2.11377411 26.987459717150283 
Si 8.279946359999999 3.51683181 28.947070284888014 
Si 9.186321959999999 3.92422842 31.30336665273142 
Si 10.5709068 0.483474168 32.39738979137581 
Si 11.253246029999998 2.7808659 31.80303519780571 
Si 10.84114161 8.15430159 2.7084842191999754 
Si 9.567915209999999 4.08212739 1.272381371068376 
Si 8.14073202 5.42108394 2.6848420912093633 
Si 9.50340681 6.789541679999999 4.072779159359504 
Si 9.50272263 4.07272806 6.787873080082809 
Si 8.14488597 5.430222629999999 8.145350901307188 
Si 10.86000543 5.42965248 5.430775524113432 
Si 8.144739359999999 8.14640094 10.861343630815048 
Si 9.502282799999998 6.78882492 9.501480509354739 
Si 9.486888749999999 4.0687044299999995 12.235691401534115 
Si 10.857920309999999 5.43204711 10.863901778894158 
Si 10.74828861 8.06543964 13.68802811909749 
Si 10.03372776 5.17358997 16.21565126910419 
Si 9.08074647 6.900134489999999 14.990056352228667 
Si 11.87643627 4.44770757 14.8764607496886 
Si 8.27592273 7.42356477 19.33755987354371 
Si 11.7472077 5.75680455 19.1532003640044 
Si 10.12980618 6.88666266 17.83371449871171 
Si 9.279451889999999 5.19856254 25.117211484338323 
Si 9.29031732 4.980243959999999 22.756421072572145 
Si 8.41898151 6.90546132 21.675223243891956 
Si 10.2411972 4.87440783 29.31623870835891 
Si 10.085660279999999 7.16241978 26.10462207330725 
Si 9.7586874 7.04578338 28.45697751032608 
Si 8.770291649999999 7.39306989 34.213986053663675 
Si 10.86415938 5.592666509999999 34.51487957907717 
Si 9.341858879999998 9.331205220000001 1.2098761340164306 
Si 8.13501423 10.85650308 2.6861695626450115 
Si 11.041687799999998 10.583010269999999 0.058567763184229994 
Si 12.21531714 9.50466114 4.075199029164071 
Si 9.50303214 9.50229909 6.787423675690532 
Si 10.86002172 8.14534209 8.145074344758095 
Si 8.145228059999999 10.859972849999998 8.14531633173855 
Si 10.86202539 10.859402699999999 5.430637245838887 
Si 9.49232961 9.49584825 12.241049684672799 
Si 10.85787144 10.86171588 10.865353700776899 
Si 11.747354309999999 9.77862636 15.024556781728053 
Si 11.56568823 8.72489142 17.15393850104042 
Si 8.19334872 10.941732359999998 13.73006471455967 
Si 10.07971443 11.79047394 15.070396029740266 
Si 8.30666196 9.815018219999999 19.45025666729922 
Si 10.276758269999998 10.43415225 18.333763309041004 
Si 9.38734056 8.819764379999999 22.622498563673727 
Si 11.71252629 9.049404509999999 22.031981192222293 
Si 9.03601413 8.944105949999999 24.959954516610154 
Si 10.18390527 10.89094014 25.648891449970158 
Si 10.247322239999999 9.114043229999998 29.50111676142777 
Si 9.86382306 10.890549179999999 27.949046838347627 
Si 9.013696829999999 8.89533369 31.58261962817836 
Si 9.45119736 12.014217089999999 33.36665135681049 
Si 12.21811902 14.93133255 4.0700481634372085 
Si 9.504270179999999 12.216913559999998 4.0674208762208215 
Si 9.495555029999998 15.0397425 1.331498790393929 
Si 10.86134121 13.59244116 2.700692238429272 
Si 8.143077779999999 13.5757602 5.430844663250706 
Si 9.502217639999998 14.932505429999999 6.787319966984623 
Si 10.85998914 13.57489683 8.145074344758095 
Si 10.860233489999999 16.2901629 5.429842145760243 
Si 9.502673759999999 12.21894981 9.502206470296107 
Si 8.14465791 13.57211124 10.85964972195185 
Si 9.5091246 14.92626636 12.237592727809133 
Si 11.98785987 15.32323737 15.240374598726724 
Si 10.96367499 13.66327008 13.714508408673174 
Si 11.95632243 14.064232139999998 17.387455937181063 
Si 11.70374598 15.2218647 21.424421023432988 
Si 9.97119045 12.69704502 17.550071188047912 
Si 8.82554733 12.76604946 24.885837361453152 
Si 11.06165934 13.053144419999999 22.221145871802097 
Si 8.699316119999999 12.73376268 22.50911037854548 
Si 9.374178239999999 15.07334877 25.23001198679974 
Si 11.661896969999999 14.994065339999999 25.50715621855985 
Si 11.404466099999999 12.64449348 28.55014249780188 
Si 11.57481063 16.20568296 29.39225718979092 
Si 9.61390188 13.41820332 29.889229308511556 
Si 9.26495379 15.665294789999999 29.216298085430324 
Si 8.24749668 16.01204373 27.081419804704726 
Si 12.035671019999999 15.115767929999999 31.608339387244037 
Si 10.91149812 13.08927564 31.90632906889205 
Si 12.308170139999998 1.48555026 1.2146778471000625 
Si 14.932668329999998 1.3588108019999998 4.067697432769915 
Si 13.574815379999999 -6.423032970000001e-05 8.145212623032641 
Si 13.57525521 2.71588509 5.430637245838887 
Si 12.217109039999999 1.3580940419999998 6.7874582452591685 
Si 14.93116965 1.357035192 9.501791635472467 
Si 13.573088639999998 2.71625976 10.861758465638685 
Si 13.63482774 0.0833471334 13.726815175107824 
Si 14.7499434 1.6857706499999998 15.107212620338307 
Si 15.351288749999998 0.666723636 17.204306362544038 
Si 12.982592429999999 2.9701557 16.247144146132186 
Si 15.53145615 2.80539864 20.54680338445409 
Si 13.44954528 2.89356012 19.490737632172753 
Si 13.263920729999999 0.855140292 18.385479383721446 
Si 15.340993469999999 1.27363365 22.26522207181384 
Si 15.08540337 2.99029014 23.82911478736772 
Si 12.490683299999999 0.62380926 24.475669429579177 
Si 13.95350901 1.9673433 25.627907721807702 
Si 15.004686419999999 1.7558502299999998 30.24339453919414 
Si 12.6302886 2.00358855 30.025364269802722 
Si 15.635141999999998 0.427962735 26.227793446359673 
Si 12.480827849999999 3.5631117 26.602354722537886 
Si 12.391965899999999 4.02830523 28.854285562667215 
Si 13.773488219999999 2.7494587799999994 34.28091273854425 
Si 15.52792122 1.80669132 32.76144191868848 
Si 12.213948779999999 4.0721742 4.072917437634051 
Si 14.985333899999999 4.14991008 1.2012613975121746 
Si 13.58750529 5.434555769999999 2.6958939823025037 
Si 12.283474499999999 6.9203503799999995 1.327471435647758 
Si 14.93296155 6.786544319999999 4.071119820064944 
Si 16.2891855 5.4297990899999995 5.43070638497616 
Si 14.93265204 4.072516289999999 6.787700232239626 
Si 13.575010859999999 5.430190049999999 8.144901496914912 
Si 12.21706017 6.78770091 6.787665662670989 
Si 14.933368799999998 6.78693528 9.502413887707927 
Si 14.92737408 4.07688201 12.240047167182334 
Si 12.217809509999999 6.7971816899999995 12.234274049220014 
Si 13.59175698 5.5350813599999995 13.691899910784796 
Si 15.433113419999998 6.49143468 15.160000351646488 
Si 15.880664879999998 5.4092899800000005 18.469172309390803 
Si 13.61262447 4.67436663 17.983988413575272 
Si 16.13504952 5.13255546 20.799230374638984 
Si 12.80262051 7.4929764599999995 20.431721290462647 
Si 16.264571309999997 7.78681548 25.1263378504584 
Si 14.46218055 6.49180935 21.855676392175326 
Si 13.523241239999999 4.74571683 23.211080039281505 
Si 13.42714653 5.3939610899999995 25.43659972897243 
Si 15.766667459999999 5.55868557 25.876013515913016 
Si 12.384912329999999 7.447429619999999 25.825196250017125 
Si 13.97124882 5.77760688 29.12800740713229 
Si 13.456191599999999 7.806037679999999 27.91592919159371 
Si 16.02220869 5.21635122 28.180835796056435 
Si 16.22550789 6.80472396 32.12947563444169 
Si 13.9945761 6.07066398 31.515105260630964 
Si 12.468251969999999 4.411511190000001 33.08148698512668 
Si 12.23926344 12.16077822 1.4012325242478 
Si 14.93318961 12.21637599 4.069149354652654 
Si 14.79338883 9.53412975 1.1893348963325268 
Si 13.58261829 10.85045949 2.7297375899977943 
Si 13.573984589999998 8.14486968 5.430464397995704 
Si 14.932114469999998 9.502869239999999 6.787250827847349 
Si 13.57486425 10.860103169999999 8.144866927346275 
Si 14.921916929999998 9.49689081 12.232165305533176 
Si 16.2921177 10.85998914 10.8622424395996 
Si 12.21903126 9.503439389999999 9.502310179002016 
Si 13.57330041 8.14674303 10.86079051771686 
Si 13.49142687 10.714942979999998 13.689065206156592 
Si 14.928954209999999 11.84242275 15.134695427404456 
Si 16.273579679999997 8.135812439999999 13.640045557829806 
Si 16.07065515 9.24565014 18.50668029136158 
Si 14.510333789999999 12.18487113 21.5648426112351 
Si 12.3180093 11.29592583 21.292952953907765 
Si 12.484411649999998 10.86482727 19.03179203895245 
Si 13.67581338 8.89148925 18.673893294857105 
Si 15.93673506 10.355373809999998 22.154945147862893 
Si 15.005028509999999 8.40008511 23.228019127913466 
Si 12.90549186 9.00193545 24.08610496061265 
Si 12.5488386 11.031946379999999 25.269421295045536 
Si 12.56815854 9.18092997 29.638392518483947 
Si 13.310314649999999 11.35009008 29.16437459333806 
Si 15.33560148 8.98878942 27.011347289078216 
Si 14.25679623 11.123202959999999 27.00889284970501 
Si 15.915215969999998 8.9075349 30.938726842751926 
Si 14.59399923 12.16255383 30.997737096414703 
Si 13.619449979999999 8.43150852 31.69338052609022 
Si 12.77541621 11.81647278 32.518521559878664 
Si 15.901011089999999 11.34951993 34.3447973013848 
Si 12.92852592 8.77091067 34.27182094199281 
Si 15.04697526 14.93579601 1.1268365731943084 
Si 13.57919739 16.287214409999997 2.672507669119803 
Si 16.309059299999998 13.5843939 2.678712906690084 
Si 13.57567875 13.57533666 5.429842145760243 
Si 12.217597739999999 12.21702759 6.7874928148278055 
Si 14.93315703 14.93227737 6.7875273843964425 
Si 12.217679189999998 14.932179629999998 9.503001570374751 
Si 14.932945259999999 12.218982389999999 9.502102761590196 
Si 13.57370766 13.57432668 10.86151647865823 
Si 12.231004409999999 12.2209209 12.242017632594626 
Si 14.93315703 14.93053434 12.248447572361043 
Si 13.657992119999998 12.308561099999999 17.273376360680086 
Si 16.21794933 13.4366436 13.68989487580387 
Si 15.247325969999999 13.86184518 19.991304986031597 
Si 13.09810482 15.100601939999999 19.53291250590948 
Si 15.84912744 13.15187811 17.88705534311808 
Si 16.21565244 13.416167069999998 24.77566414620812 
Si 14.36709582 13.74377526 23.3502571226127 
Si 12.31820478 13.12708473 24.23271450120073 
Si 13.628947049999999 15.93691425 22.699623271302116 
Si 12.3530328 14.73352308 27.713005823696513 
Si 15.48356355 15.80121855 29.75755382157451 
Si 15.72819048 12.99595023 27.059813824306815 
Si 14.70550428 15.03617499 27.654306696151462 
Si 14.0616909 13.02053184 34.552249282773396 
Si 14.43235356 14.549967359999998 31.78696034838966 
