&CONTROL
  dt          = 30.D0,
  prefix = 'x.66_y.66_z3.18_struc39-scf',
  pseudo_dir = './',
  outdir='./',
  wf_collect= .true.,
  verbosity= 'high',
/

&SYSTEM
ibrav= 6, celldm(1) =30.783621515, celldm(3) =2.1207375915848425, nat=  432, ntyp= 1,
  ecutwfc     = 12.D0, nbnd= 1728,
  degauss     = 0.05D0,
  occupations = "smearing",
  smearing    = "methfessel-paxton",
/
&ELECTRONS
  electron_maxstep=200,
  conv_thr    = 1.D-8,
  mixing_beta = 0.3D0,
  scf_must_converge=.false.,
/
ATOMIC_SPECIES
Si  28.08  Si.pbe-hgh.UPF
K_POINTS {automatic}
1 1 1 0 0 0
ATOMIC_POSITIONS (angstrom)
Si 2.6953922699999997 -0.010632906539999999 2.6956776390359294 
Si 1.394256213 1.392505038 1.2035730458864875 
Si 4.0342185 3.9639434399999995 1.3652797792559528 
Si -0.000298157499 2.7147284999999997 8.145379033580975 
Si 2.7146959199999996 0.0001555162317 8.144929924981206 
Si 2.7125293499999996 2.71448415 5.429826611664459 
Si 1.357175286 1.357419636 6.787723736476501 
Si 2.71640637 2.7161457299999996 10.864697058372487 
Si 1.353172833 1.3486360679999998 12.252062616692509 
Si 1.355694525 4.07240226 9.502481581639579 
Si 2.5189389899999997 2.80292256 16.387489150189317 
Si 0.33183544499999995 3.8354642099999996 17.303774334166057 
Si 0.7544957849999999 0.0114474717 21.33690774736143 
Si 4.06036395 3.88542564 21.501868790738456 
Si 0.732315321 2.36602476 20.882720765732568 
Si 2.24927433 1.64152701 18.960190490563633 
Si 2.0532404699999995 3.2989530599999997 22.618870971996984 
Si 2.4889491 1.9880804699999999 24.56917688672092 
Si 1.4744013839999999 2.74304052 26.69473879580123 
Si 4.054320359999999 0.950739786 28.614125310771776 
Si 2.72388348 2.8984634099999997 28.729131659128246 
Si 3.3516349199999995 2.09140794 34.506533780199256 
Si 1.69471386 2.33339589 30.829750767513637 
Si 3.63680766 2.10571056 32.170098110119284 
Si 0.283082733 0.317576808 30.578975434765187 
Si 4.07271177 6.78831993 4.069131194807695 
Si 1.3573577339999998 4.07465028 4.074520498004935 
Si 2.70373275 5.411570579999999 2.709499819864233 
Si 1.3639991669999998 6.586389089999999 1.175182473017955 
Si 0.0192590154 8.122878179999999 2.7019237032542684 
Si -0.00067704498 5.4293429699999995 5.430897562940833 
Si 2.7152497799999997 5.430369239999999 8.145275393134876 
Si 1.357680276 6.78713076 6.787551002399667 
Si 1.3688096039999997 6.78602304 12.232889134163871 
Si 4.03532622 6.86740788 15.247029681296652 
Si 0.627617862 4.44829401 14.94616146626617 
Si 2.64655485 5.43268242 13.76396944441027 
Si 0.546619095 6.57242856 21.042050678204788 
Si 2.50781292 6.60155508 19.58331139933672 
Si 0.5415219539999999 7.536258989999999 18.217123038836615 
Si 3.0979018799999998 4.8982401 17.631727252444207 
Si 1.351113777 5.54469246 22.982199829210852 
Si 3.40195473 6.491760479999999 23.753457482277277 
Si 3.28461786 5.3445861 25.838323242855356 
Si 0.923643 7.9933401 29.051729821024516 
Si 1.010994867 5.02997733 26.507771431035476 
Si 0.06186893129999999 5.320314 34.159234645315635 
Si 1.370723679 7.94652264 31.381083393954263 
Si 0.981839025 4.391832869999999 32.00503342629616 
Si 2.7374856299999997 6.194239919999999 32.11748331031547 
Si 3.2541229799999996 7.246687949999999 34.47343793107775 
Si 3.99764745 9.32433084 1.1598644150842639 
Si 1.3618684349999999 9.500979599999999 4.072274955006084 
Si -0.001138832271 10.73888928 0.2623319334249922 
Si 2.71943631 10.827181079999999 2.7084875981739827 
Si 1.305702144 12.17312604 1.4504687712692337 
Si 0.00040320682199999994 8.14488597 8.144584456827536 
Si 2.71235016 8.145114029999998 5.429377503064688 
Si 4.04202141e-05 10.85889771 5.42993025211056 
Si 2.71531494 10.859533019999999 8.144826284535105 
Si 1.3589704439999999 9.5029344 9.501272443101737 
Si 2.7133275599999997 8.14526064 10.861380564097262 
Si 0.001131371451 10.858848839999999 10.861276923651161 
Si 1.345692465 12.22844688 12.252511725292278 
Si 2.07521568 8.32493934 16.597602881250907 
Si 1.11663063 9.53711082 14.903841617441698 
Si 2.68169238 10.844448479999999 13.649446751468938 
Si 4.03190532 12.16173933 15.200426027366682 
Si 0.00394949421 11.4539877 18.425440335499125 
Si 0.19980173699999998 8.86112469 21.437231699186956 
Si 3.49124022 10.3449645 20.31076369051789 
Si 2.15397783 12.037788719999998 19.2130386322341 
Si 2.19618522 9.942748109999998 22.222860827446016 
Si 1.500497964 12.12870321 22.881634049677757 
Si 3.35697804 8.84395503 23.979393654776914 
Si 2.0598705 9.28738512 25.886861518445873 
Si 3.89761056 9.91432206 29.447739965575487 
Si 1.9493591399999999 11.55070143 26.608509944645405 
Si 2.97111681 8.35470117 27.91607235946785 
Si 3.8869731899999995 11.70037395 27.975354694637478 
Si 0.890597106 11.85965757 31.23156477704625 
Si 2.49320079 10.10812419 31.369544757621718 
Si 3.8780299799999995 14.714496359999998 1.3466866832254782 
Si 3.0284739 12.888468809999999 0.07830415717880793 
Si 1.356623055 14.93850015 4.074762325712503 
Si 5.49500796e-05 13.575369239999999 8.145482674027075 
Si 2.71388142 13.57476651 5.429653877587624 
Si 1.3575760199999998 12.217092749999999 6.787792830107234 
Si 4.0718809799999995 12.21658776 9.502239753932011 
Si 4.0560471 14.9423283 12.252546272107647 
Si 1.3579930439999999 14.93263575 9.502516128454944 
Si 2.7132949799999997 13.576770179999999 10.864247949772716 
Si 2.5740969299999996 16.268774129999997 13.878906699136001 
Si 1.285171857 14.893751519999999 15.635059511497865 
Si 3.06843327 13.489716419999999 17.017623062481885 
Si 0.281007387 16.295375699999997 17.402750960192275 
Si 2.7490841099999996 13.27185396 21.252682611496883 
Si 2.9797667999999997 15.569167499999999 21.774719538506368 
Si 3.7105362 16.23637332 23.971586074503993 
Si 2.02760001 13.17543345 24.93568405094855 
Si 0.0793375128 14.56990632 25.01351802597021 
Si 3.88189071 14.47048845 25.545849903959038 
Si 3.1866660899999997 15.227712809999998 27.798371359512764 
Si 0.923380731 15.150856589999998 28.759152841682095 
Si 0.33920667 15.163921169999998 32.513804376204746 
Si 2.01668571 13.4824185 32.54178729665195 
Si 4.07495979 1.356075711 4.069269382069163 
Si 4.93280748 0.07139222819999999 0.0578189320706871 
Si 5.43735765 2.71090035 2.7189414645040118 
Si 6.652265849999999 1.2569233679999998 1.3011297978011247 
Si 8.14359906 2.7152497799999997 5.431450311986703 
Si 5.430711329999999 -0.000984798918 5.42993025211056 
Si 5.4300760200000004 2.71502172 8.144688097273637 
Si 6.787554299999999 1.3573870559999999 6.787447361953566 
Si 8.14750866 2.71122615 10.862382421742904 
Si 4.0718483999999995 1.35534429 9.50158336444004 
Si 6.78401937 1.361541006 12.247882452033114 
Si 4.08725874 1.51549128 14.978117270480569 
Si 5.510907 2.8797299099999996 13.652417777590493 
Si 6.880505039999999 3.2128604099999998 19.303585835310788 
Si 5.25991068 0.289940823 18.14388379025875 
Si 7.55680068 1.250544204 18.097729244928548 
Si 5.58554778 2.2236990299999997 21.074351950572858 
Si 4.895079839999999 0.06634558619999999 20.563542738557622 
Si 6.84610056 2.1133342799999997 23.008939064304847 
Si 6.11985978 0.1347684732 23.976042613686325 
Si 6.14929581 3.9634058699999994 24.26785956309067 
Si 4.3257280499999995 3.1845320999999998 25.469086880213744 
Si 8.00658387 3.17343861 29.75620847998669 
Si 7.004292749999999 0.39985434 26.108962994439786 
Si 5.53796469 1.9220896799999998 27.116728145508123 
Si 6.50497167 3.79187217 28.089773747132707 
Si 4.8814125299999995 0.500422284 30.8196630974265 
Si 7.19755731 1.184154309 30.85490084910075 
Si 5.24878461 3.87918657 32.81474168486596 
Si 7.40170359 2.9006299799999997 32.70999574067346 
Si 6.79001409 4.07126196 4.073276812651725 
Si 5.06558727 5.61123711 0.04763764011390297 
Si 6.7892158799999995 6.70902021 1.2651596536410905 
Si 5.44159305 8.15084811 2.6832269667776925 
Si 8.13410199 5.422224239999999 2.708560146486253 
Si 4.07238597 4.07238597 6.787343721507465 
Si 5.429489579999999 5.42768139 5.430344813894962 
Si 6.787684619999999 6.787489139999999 6.787378268322832 
Si 8.14462533 8.145309509999999 5.430310267079595 
Si 6.785273699999999 4.07173437 9.502757956162515 
Si 4.07310273 6.78794526 9.502619768901047 
Si 4.05982638 4.08611844 12.240696714436794 
Si 5.430466979999999 5.431248899999999 10.859100474283046 
Si 6.773935859999999 6.79071456 12.231058152949423 
Si 5.77400679 5.72670063 16.52837106325561 
Si 6.9857058599999995 4.24064538 15.037745073803869 
Si 5.2809899399999995 8.11325079 13.626542212880672 
Si 7.21068705 6.27834519 21.57600625651586 
Si 6.69629772 8.0138655 20.01628663633029 
Si 7.414523819999999 6.968731679999999 17.90129605275226 
Si 4.71181734 4.194984509999999 19.103490680705605 
Si 5.28475293 5.48399592 22.715360227316786 
Si 7.325906219999999 4.86438948 26.1065447173641 
Si 6.55478649 7.04242764 26.4835195666479 
Si 4.39719228 6.550974629999999 27.450519475583274 
Si 7.81682166 8.01344196 28.185088410730035 
Si 4.43936709 4.68433611 28.935445240499472 
Si 6.92043183 6.537405059999999 31.937356214992366 
Si 4.84977735 5.5881053099999995 31.17988274125734 
Si 8.13856545 10.858588199999998 2.6665339455923984 
Si 6.787684619999999 9.503504549999999 4.068785726654026 
Si 4.07693088 12.2129388 4.069096647992328 
Si 4.07276064 9.502250219999999 6.787412815138199 
Si 5.4300760200000004 8.144674199999999 8.145068112242674 
Si 5.42992941 10.85963076 5.430517547971797 
Si 8.14016187 8.14514661 10.86307335805024 
Si 6.7877497799999995 9.503602289999998 9.501617911255407 
Si 4.060119599999999 9.513604349999998 12.219381329355405 
Si 5.43541914 10.8579366 10.860482346897722 
Si 6.798810689999999 12.202073369999999 12.224908819814113 
Si 7.878935429999999 10.91096055 16.92275750748433 
Si 6.953060699999999 9.33809589 14.804554070077177 
Si 5.50792593 10.574213669999999 16.25493301962646 
Si 4.2192240299999995 8.82628038 17.295759473000935 
Si 4.8468288600000005 12.119857739999999 21.03386308296283 
Si 7.73825499 10.04736249 20.789029802457488 
Si 4.32273069 8.262402029999999 19.62773860389857 
Si 6.3620595 11.12660757 22.5005481293653 
Si 5.45400603 9.89076672 24.316743306834862 
Si 7.28827632 8.49261231 24.67972669589506 
Si 5.63637258 11.08314585 26.43677772545646 
Si 7.594854119999999 11.74135959 29.458967680569735 
Si 7.690394969999999 10.34592561 27.50358338398686 
Si 4.88111931 11.22566706 34.471676043494035 
Si 6.06098772 10.22111163 30.42082011401544 
Si 7.32487995 8.28043506 30.457059723335334 
Si 4.66139979 11.171258459999999 32.06359027834308 
Si 5.439654539999999 13.57333299 2.691210735808987 
Si 6.740492489999999 12.283702559999998 1.0839270602262434 
Si 6.78996522 14.93227737 4.071791299590948 
Si 4.07290725 14.93252172 6.787654642845768 
Si 5.430206339999999 13.57505973 8.144860831350472 
Si 6.787831229999999 12.21746742 6.7875164555843 
Si 8.14454388 13.57747065 10.856751290838096 
Si 6.788433959999999 14.93126739 9.50203247303981 
Si 5.429277809999999 16.291629 10.863004264419507 
Si 5.359556609999999 13.440341429999998 13.60235944212383 
Si 7.03770354 14.26999113 15.203258866226768 
Si 8.012839229999999 16.06958001 13.65514697600448 
Si 5.52714813 14.358885659999999 17.322878723063965 
Si 6.94858095 15.132742109999999 20.767921698268307 
Si 6.3692271 13.19516064 19.550422831107415 
Si 7.692577829999999 14.94377811 22.988383709161532 
Si 7.51814451 12.738486779999999 23.71804699652619 
Si 6.081187319999999 13.22609535 25.581398576971594 
Si 6.85595601 13.988662829999999 29.129356515153976 
Si 4.47655716 13.73644476 29.07881452427218 
Si 7.46761293 14.5132497 26.964100315217085 
Si 7.812293039999999 15.10076484 32.501298429041924 
Si 4.098368519999999 13.46418999 31.471976065184627 
Si 5.44086 15.180976799999998 32.46789165858211 
Si 12.21888465 4.0710339 4.070858535576041 
Si 8.14001526 -0.016741070099999998 2.6787151526907733 
Si 8.451007650000001 2.3019073199999998 0.194199049626512 
Si 9.50124024 1.35726651 4.06650563683981 
Si 10.86098283 2.72122821 2.7041174260300673 
Si 8.145032579999999 -0.000258988194 8.145171752688775 
Si 10.860233489999999 -0.00040159085399999996 5.430068439372026 
Si 10.86068961 2.71492398 8.145033565427306 
Si 9.50415615 1.3582504260000001 9.502136113485909 
Si 10.86124347 0.0006118393679999999 10.861380564097262 
Si 9.559200059999998 0.203286168 17.11542509678563 
Si 8.46498447 3.31032348 16.753892673970842 
Si 10.76114142 2.37500055 16.948633072194152 
Si 10.01561328 0.460490607 14.805279553199885 
Si 10.80228996 2.5518773699999997 13.706863558608754 
Si 10.26805941 1.2887393669999998 20.973958905116596 
Si 11.35013895 2.5944757199999997 19.27971398589225 
Si 8.978705909999999 2.69426826 22.349682186657972 
Si 11.5388586 0.1368337194 22.65155225933409 
Si 10.087012349999998 2.83709898 24.38003307258705 
Si 9.198816390000001 0.996128613 25.575214697020918 
Si 10.46309958 1.05958305 27.550014303839998 
Si 10.19369556 3.00038994 28.88493779643304 
Si 11.692017179999999 1.6989166799999997 32.92124951664216 
Si 11.72304963 3.5642031299999997 30.618186070206637 
Si 10.871946 8.14882815 2.6851754071643867 
Si 9.50801688 4.122054179999999 1.295028830207327 
Si 9.504237599999998 6.78815703 4.06885482028476 
Si 9.50242941 4.07287467 6.787136440615264 
Si 8.144332109999999 5.43038553 8.144895378165838 
Si 10.860233489999999 5.42904975 5.428962941280286 
Si 9.50246199 6.7868049599999996 9.502861596608614 
Si 9.526147649999999 4.04747856 12.22394150898384 
Si 10.86264441 5.42803977 10.86117328320506 
Si 11.04618384 6.33609324 16.54236252347921 
Si 8.27940879 5.51072781 13.539449691340675 
Si 9.55043604 7.06704183 14.85012131954614 
Si 8.44395408 4.373995320000001 20.79386635660886 
Si 10.60384518 4.79369088 19.864142461454385 
Si 9.31206447 5.313765419999999 17.848093957087205 
Si 8.644158179999998 7.50568266 22.978710600858797 
Si 10.33463664 6.672172229999999 24.361826900888687 
Si 9.60616413 4.77626058 25.53037293067466 
Si 10.871897129999999 7.59022776 30.09279810210656 
Si 10.751188229999999 4.899510719999999 27.510596387506347 
Si 10.013300099999999 7.13829429 27.9870315182315 
Si 10.792988369999998 5.485624919999999 31.7030942599893 
Si 8.41876974 4.74558651 31.525247254480412 
Si 8.54640189 7.42006242 34.30381306762619 
Si 10.48838166 5.8070592 34.2954527383074 
Si 9.59500548 9.48092661 1.1617541258848345 
Si 9.502413119999998 9.50290182 6.787481908768933 
Si 10.860217200000001 8.14506516 8.144826284535105 
Si 8.14498371 10.86042897 8.144999018611939 
Si 10.859614469999999 10.85995656 5.431346671540602 
Si 9.52370415 9.51308307 12.221834153246457 
Si 10.85899545 10.85906061 10.858271350714238 
Si 12.194579969999998 12.2246676 12.228156220458605 
Si 9.50213619 12.2175 9.502723409347146 
Si 12.21575697 9.502380539999999 9.50234339437811 
Si 8.582793749999999 8.55769086 16.50781570811229 
Si 11.020804019999998 8.302426559999999 13.592755427451827 
Si 8.28972036 10.936389239999999 13.637459006536618 
Si 9.748326959999998 9.01330587 21.48411172763986 
Si 12.094787429999998 11.726079569999998 20.76571070208482 
Si 11.458483739999998 8.25192756 19.88739246819632 
Si 8.19540126 11.71524672 19.146086904053014 
Si 10.831221 8.45299503 17.576072332888103 
Si 11.080572029999999 10.58669181 22.595517324808952 
Si 9.67684644 11.75124762 24.218733991638917 
Si 9.00532377 9.93382119 25.600744793577068 
Si 10.65354597 8.31223314 26.062566621402016 
Si 9.99525078 11.487870899999999 27.923396284325637 
Si 11.23648362 10.786195439999998 34.32516299952294 
Si 9.42798411 9.084542039999999 31.214084088470592 
Si 9.83963241 11.308974119999998 30.390833478276956 
Si 9.57739599 11.4497523 32.85177587093929 
Si 12.215708099999999 14.935942619999999 4.067783869008386 
Si 9.50298327 12.21908013 4.071514925068013 
Si 9.48609054 14.770957499999998 1.1340164878267367 
Si 10.84777164 13.57009128 2.702531727204726 
Si 8.14355019 13.57370766 5.430793922494733 
Si 9.502038449999999 14.93252172 6.78717098743063 
Si 10.8597285 13.575043439999998 8.144619003642903 
Si 12.21688098 14.93325477 9.501825192147608 
Si 9.485569259999998 14.92949178 12.209224565637532 
Si 11.082184739999999 12.27700737 16.864235202252775 
Si 11.90997738 15.2780652 14.720950776889238 
Si 9.099708029999999 12.55683699 15.285653020876866 
Si 10.691794889999999 13.54075299 13.634764354937998 
Si 8.754539219999998 16.25782725 19.7736988988238 
Si 10.46003706 12.616165169999999 19.144739578253706 
Si 10.44542493 14.961110669999998 18.69162354790122 
Si 9.80736192 15.551492849999999 24.005061938594537 
Si 10.69933716 13.67508033 25.16165477026355 
Si 9.71667549 13.78142145 27.30214090358237 
Si 10.44184113 15.42544083 28.944185584787306 
Si 8.4139479 13.306551659999998 33.96511608976893 
Si 8.39653389 15.44262678 30.289093107021383 
Si 11.364523019999998 15.82115751 34.538385943967555 
Si 16.2958644 2.71870326 2.683309879134573 
Si 13.589753309999999 -0.000820633185 2.722244140053089 
Si 12.24143001 1.330858791 1.375388177432313 
Si 14.932033019999999 1.3554208529999998 4.071756752775581 
Si 14.94630306 4.01211297 1.1338264803422187 
Si 13.574847959999998 0.00031894191 8.145068112242674 
Si 13.575857939999999 2.7157547699999998 5.430759375679365 
Si 12.21785838 1.357589052 6.7872400810613644 
Si 16.288110359999997 0.00040781200499999994 10.861622391804831 
Si 14.930355149999999 1.357642809 9.50137608354784 
Si 13.574733929999999 2.7159828299999997 10.85512759051585 
Si 12.21769548 1.3629468329999999 12.220106812478111 
Si 12.43487376 3.4312930199999996 15.210099135669418 
Si 16.1544672 2.70718623 13.606228685444925 
Si 13.640545529999999 0.1543462839 13.665960129214325 
Si 14.318519039999998 2.0124665999999998 15.016775156876149 
Si 15.1443243 1.92458205 17.28321897902274 
Si 14.816748689999999 3.3405577199999996 21.13439431568056 
Si 13.71437181 2.18825199 19.40466981707439 
Si 14.113102139999999 3.1539069 23.419666152202126 
Si 12.23984988 1.8630710099999999 24.14083092298652 
Si 15.86574324 1.78966827 24.221877751837305 
Si 12.525218099999998 1.1256585479999999 26.424720886893407 
Si 13.88259864 2.98300851 29.81334891260357 
Si 15.72302655 1.72439424 26.568504732450517 
Si 13.84205283 2.7922200299999997 27.453421408074096 
Si 16.06925421 0.0824376627 34.43678375997345 
Si 13.34108646 2.72481201 34.46981051546422 
Si 14.16356856 0.7791832799999999 30.667553469365963 
Si 14.20457049 1.101254499 33.01728966336219 
Si 13.58519211 5.42072556 2.678424959441691 
Si 12.28841037 6.810669809999999 1.1688534964427357 
Si 14.936773409999999 6.78512709 4.069614850222832 
Si 14.932880099999998 4.07240226 6.787723736476501 
Si 13.575157469999999 5.429733929999999 8.145068112242674 
Si 12.21727194 6.7878801 6.787585549215033 
Si 16.29 5.4314769599999995 10.862347874927535 
Si 12.21953625 4.07277693 9.502308847562745 
Si 14.932994129999999 6.787831229999999 9.502274300747377 
Si 14.92686909 4.06671705 12.199793285042364 
Si 12.2183145 6.7863162599999995 12.232163651041164 
Si 16.20633456 8.04294315 13.60909607112038 
Si 13.29325902 5.40503829 16.389700146372803 
Si 13.45405761 5.240932829999999 13.577865750028685 
Si 15.23709585 6.19148691 14.831120571094337 
Si 14.697587339999998 5.567791679999999 20.36821504447307 
Si 12.357382229999999 6.2718129 20.851628631902344 
Si 15.151052069999999 5.668985159999999 18.03720322440571 
Si 12.401397809999999 6.77414763 23.228587716407706 
Si 13.866618149999999 5.29394049 24.474380425354102 
Si 16.13871477 6.0608574 24.72118287433536 
Si 13.041187560000001 4.89884283 26.72355083981724 
Si 13.187830139999999 7.533473399999999 29.936059200786858 
Si 14.10865497 6.577641359999999 27.946508103806107 
Si 16.28226225 5.8801687199999995 28.506235606380894 
Si 15.483319199999999 4.6858347899999995 30.427833117534924 
Si 13.92817806 6.0198554699999995 31.639942681498578 
Si 15.68161737 7.10735958 32.752004668159636 
Si 13.882126229999999 8.08560666 34.13553552997393 
Si 12.21157044 9.50171265 4.073104078574891 
Si 14.8382352 9.39276513 1.4206583242891209 
Si 13.57115013 10.865250810000001 2.7206411678200637 
Si 13.57562988 8.14675932 5.429792064849091 
Si 14.932309949999999 9.50233167 6.787792830107234 
Si 13.574880539999999 10.85998914 8.144964471796573 
Si 14.92949178 9.50345568 12.230229029380617 
Si 14.9323914 12.215219399999999 9.503241611577652 
Si 13.57644438 8.14563531 10.862969717604141 
Si 12.638449889999999 9.35884935 14.947577885696214 
Si 13.64854392 10.981870919999999 13.58702065610092 
Si 12.290462909999999 10.241034299999999 17.142026144618153 
Si 13.12299594 9.94095621 19.480258249097204 
Si 15.524386289999999 9.40789854 19.323139332808466 
Si 15.152224949999999 9.52214031 23.230038682653117 
Si 12.820637249999999 9.17456058 23.57011753312505 
Si 15.39479934 11.87552403 23.12722736012117 
Si 16.205259419999997 8.4274686 25.12075134086912 
Si 13.85353728 9.77364162 30.159369815318612 
Si 12.46369077 11.583395459999998 29.615188379658935 
Si 12.64491702 9.521537579999999 25.937299868881574 
Si 14.56124004 8.520207569999998 26.78304045587907 
Si 16.0482564 11.764572839999998 27.411032465618888 
Si 12.292140779999999 11.50222239 27.235361909478115 
Si 15.583111739999998 9.70866081 28.507721119441673 
Si 13.54130685 9.98195814 32.68063094761158 
Si 15.40043568 11.47088043 32.8162617447421 
Si 12.245779439999998 12.24745731 1.3252296562010861 
Si 14.933792339999998 12.216490019999998 4.071860393221682 
Si 14.910220709999999 14.90541516 1.3592617240190359 
Si 16.28398899 13.582064429999999 2.7249491556963186 
Si 16.28899002 16.28905518 5.431346671540602 
Si 13.57439184 13.574310389999999 5.429308409433954 
Si 12.216913559999998 12.21738597 6.787723736476501 
Si 14.932033019999999 14.933303639999998 6.787689189661134 
Si 13.571198999999998 13.576835339999999 10.868151739909177 
Si 14.941937339999999 14.944299389999998 12.252822646630582 
Si 14.58287316 12.51619344 15.18778189294239 
Si 12.839501069999999 13.81809024 16.249923731398255 
Si 16.222510529999997 13.66760322 13.929759611356104 
Si 13.9634622 12.99634119 21.492368416512555 
Si 13.900957469999998 16.20227835 19.874921067848867 
Si 16.04392326 15.27130485 19.448509725775008 
Si 14.93331993 13.17815388 19.30448405251033 
Si 12.917627909999998 14.48922195 18.489317397112554 
Si 13.554192239999999 15.301311029999999 22.033751560127513 
Si 15.58573443 15.95652741 23.20589045871164 
Si 14.992224569999998 12.689877419999998 25.339294494880242 
Si 12.85854408 15.36695973 29.489334331277252 
Si 16.18750332 13.078247309999998 29.37363704661345 
Si 12.87162495 13.4342001 26.02173228563832 
Si 15.816775499999999 15.728532569999999 26.981926471946412 
Si 13.488364349999998 15.39750348 27.20527163329353 
Si 13.18017384 14.089709699999998 34.49219685182198 
Si 13.916384099999998 13.388131979999999 30.25561724293084 
Si 14.59181637 13.68578286 32.52219925233891 
