&CONTROL
  dt          = 30.D0,
  prefix = 'x.66_y2.00_z3.17_struc40-scf',
  pseudo_dir = './',
  outdir='./',
  wf_collect= .true.,
  verbosity= 'high',
/

&SYSTEM
ibrav= 6, celldm(1) =30.783621515, celldm(3) =2.1138013110639746, nat=  432, ntyp= 1,
  ecutwfc     = 12.D0, nbnd= 1728,
  degauss     = 0.05D0,
  occupations = "smearing",
  smearing    = "methfessel-paxton",
/
&ELECTRONS
  electron_maxstep=200,
  conv_thr    = 1.D-8,  mixing_beta = 0.3D0,  scf_must_converge=.false.,
/
&IONS
/
ATOMIC_SPECIES
Si  28.08  Si.pbe-hgh.UPF
K_POINTS {automatic}
1 1 1 0 0 0
ATOMIC_POSITIONS (angstrom)
Si -0.0070165917 2.70855459 2.680142867480821 
Si 3.09993813 2.40176502 0.04212427346583637 
Si 1.297729818 1.232954262 1.2295457475283669 
Si 0.00014638894469999999 -0.0009187755479999999 5.430489414022366 
Si 1.88043615e-05 2.71498914 8.145217613683192 
Si 2.71541268 0.0007525979999999999 8.14459780486276 
Si 2.71459818 2.7151357499999995 5.429766303731864 
Si 1.3578578369999998 1.356952113 6.787182054297314 
Si 0.00031374539999999996 0.000504372609 10.860668923634519 
Si 2.7142723799999997 2.71443528 10.866522673605248 
Si 1.341652545 1.351965744 12.225591247691842 
Si 4.074471089999999 1.356267933 9.500291864260348 
Si 0.838162854 0.5303030309999999 16.393943300378226 
Si 0.07299288359999999 2.8396565099999997 13.616166770150306 
Si 1.95784623 3.55755681 15.033635108650767 
Si 3.67368822 1.6781306399999998 14.93357041797465 
Si 0.17384525099999998 0.19598661899999997 21.478889297010767 
Si 0.794163564 2.29159575 20.58364432354609 
Si 2.72495862 1.5487049609999999 19.53523770378844 
Si 3.73840839 3.29597199 18.286873871795347 
Si 1.0294579529999999 0.887510151 24.843693647832776 
Si 0.682533081 3.8899868399999997 22.290528947364084 
Si 2.97408159 0.1482881958 23.75844283708289 
Si 1.0037849129999998 3.1938825599999996 24.577106987401084 
Si 3.24514719 3.8979689399999997 25.10046666860766 
Si 3.35011995 1.5553447649999999 28.47133137234054 
Si 1.3765701599999998 2.44136601 29.463025485028826 
Si 3.49705575 0.380690784 31.82515133351159 
Si 1.59966171 1.96633332 31.800496715987816 
Si 3.04404714 3.8178384299999997 32.39475563948693 
Si 1.358167347 4.07129454 4.065911428198614 
Si 2.7147284999999997 5.43409965 2.6928523916819755 
Si 1.304962578 6.75696168 1.2401720254164086 
Si -0.0013949827469999997 5.4315095399999995 5.429766303731864 
Si 2.7146796299999996 5.43015747 8.145286481329906 
Si 1.3576085999999998 6.7875054299999995 6.787664127824314 
Si 1.3547301569999999 4.07269548 9.502564496601925 
Si 0.001582809705 5.4295873199999996 10.85557271777765 
Si 1.3537429829999998 6.76421073 12.229069063850924 
Si 3.5100388799999998 7.5137950799999995 14.89552104316491 
Si 2.77009821 5.49671841 13.734446953382399 
Si 1.040184918 5.50771416 18.24789478375496 
Si 3.10811571 5.365078919999999 19.365719991400788 
Si 0.869252319 6.867684809999999 24.813942824452127 
Si 1.67571972 7.252617509999999 22.62694740156424 
Si 2.5135795799999996 5.247090449999999 21.692757773882533 
Si 2.06350317 6.272448209999999 28.163355256233455 
Si 3.8536601399999997 6.78134781 29.622178616585952 
Si 0.617803137 4.64465367 29.163451221820903 
Si 2.80753263 6.04611495 25.924192590959365 
Si 0.5400558539999999 5.6739698999999995 31.252998924607823 
Si 2.7960807599999997 6.27568992 31.666204804894612 
Si 4.06586997 9.610480979999998 1.365466378466369 
Si 2.2340920499999997 8.698273559999999 0.2562420512187116 
Si 1.360715103 9.50365116 4.070009053178125 
Si 0.5434604639999999 10.46052576 0.007816374600621625 
Si 2.70987408 10.866097889999999 2.7443619480420587 
Si 1.346023152 12.174478109999999 1.40387042165669 
Si 0.00026176726799999995 8.14521177 8.14435676809926 
Si 2.7146633399999995 8.145048869999998 5.430868186079296 
Si 0.000708183315 10.8607059 5.430282811082224 
Si 2.71495656 10.85994027 8.14487327544962 
Si 1.357186689 9.50246199 9.501875820134781 
Si 2.7137510999999996 8.146857059999999 10.863630232443242 
Si 0.560970585 10.22762763 16.400141388582526 
Si 1.6342290899999998 9.094169429999999 14.71649959553066 
Si 2.83517676 10.921500179999999 13.640959122967514 
Si 1.244147121 11.47016367 21.483021355813634 
Si 3.17462778 10.272685769999999 21.1338623869713 
Si 2.5171308 8.83014111 19.37336430018609 
Si 2.1641916599999997 10.70033085 17.992395814444297 
Si 3.2387452199999998 9.00737631 23.069525333174745 
Si 2.77182495 10.03622013 25.15294381540408 
Si 0.7612235549999999 9.00913563 25.75340082710749 
Si 2.16207396 9.91088487 29.37924799280068 
Si 1.062559233 8.41792266 27.974106963062106 
Si 1.458334557 12.00827124 28.601146886397306 
Si 3.2418891899999998 8.430759179999999 32.631143836834326 
Si 1.2429041939999999 9.44451846 31.48222488669692 
Si 0.271687878 11.66116392 32.182643287606375 
Si 2.70176166 16.27845039 2.7051555967675145 
Si 3.9575251799999998 14.84418105 1.3062057684685726 
Si -0.0240249807 13.587260939999998 2.6983686901838038 
Si 1.359108909 14.935681979999998 4.072453854636488 
Si 0.00020325195899999999 13.57452216 8.145079878389764 
Si 2.71365336 13.57237188 5.431453561076369 
Si 1.3576770179999997 12.21745113 6.787905164587815 
Si 1.358199927 14.93527473 9.503253173069071 
Si 2.71637379 13.570189019999999 10.861633070688521 
Si 1.371590307 12.20845905 12.226073321218845 
Si 2.6438018399999996 16.264066319999998 13.636344990637644 
Si 1.312154613 14.77509516 14.945794425266469 
Si 2.70640431 13.880138849999998 16.6492701005721 
Si 3.47413572 14.42324745 20.346533015908186 
Si 1.046086785 12.311069759999999 19.28807171973023 
Si 0.394144695 14.435057699999998 18.494234356052598 
Si 2.23707312 15.9671322 18.114945791772687 
Si 1.126821654 13.138047899999998 23.059608392047863 
Si 2.01403044 15.065496989999998 22.072287374925946 
Si 2.38785336 12.365087399999998 24.968412956032672 
Si 3.2418403199999997 13.611972869999999 29.14234328810292 
Si 0.5639435099999999 12.37727232 26.43339997076611 
Si 0.716699727 16.15883292 26.97731664451695 
Si 2.89676925 15.611602949999998 27.708759920271277 
Si 0.1058973804 15.9490503 34.11114399855152 
Si 2.9947861799999997 13.14306522 34.420497467592895 
Si 2.04094152 15.11799966 30.76789522115114 
Si 1.282182642 13.92635358 32.82603927703626 
Si 6.78980232 4.0635405 4.071351972289056 
Si 8.132521859999999 0.01302191649 2.7093461930700893 
Si 4.075415909999999 1.353459537 4.068115192893477 
Si 5.4610596 2.7052314299999995 2.69177805639323 
Si 7.0581149100000005 1.473112845 1.1280348362712462 
Si 5.430646169999999 -0.0018161558099999999 5.4302483772588666 
Si 5.429147489999999 2.7146959199999996 8.144425635745975 
Si 6.787896389999999 1.35741312 6.786493377830169 
Si 4.08929499 4.08483153 12.247973232874045 
Si 6.779474459999999 1.343784906 12.220357306541544 
Si 7.283405609999999 3.5276320799999996 15.08921129954934 
Si 5.47415676 2.67203241 13.67756227719625 
Si 5.61311046 0.546127137 18.5228144294391 
Si 6.11125866 2.9605934699999996 18.040603167144422 
Si 4.468086359999999 0.322097283 20.58756977940881 
Si 7.36312887 3.7729269 20.069650642292682 
Si 4.51140147 1.606433463 22.620921482476728 
Si 4.142204909999999 3.9728703599999995 22.827799893206976 
Si 6.533739809999999 1.76503779 23.914428056891154 
Si 7.32748635 4.03003197 24.15491387921806 
Si 5.82142698 0.798540687 25.91761573069813 
Si 4.50934893 2.6259805800000002 26.70625358704882 
Si 7.45638912 0.555156684 27.590479737039185 
Si 8.136936449999999 2.7512832599999997 27.96522303663594 
Si 5.0590386899999995 3.37776408 31.166776630921312 
Si 6.64252443 3.87048771 32.724666101072565 
Si 4.90306194 1.26789957 30.191507451974427 
Si 4.31398296 0.273116511 34.10305205006257 
Si 4.17294414 4.10669271 1.3496956873687567 
Si 4.06764558 6.792620489999999 4.071696310522629 
Si 6.684568919999999 6.716953439999999 1.374474266656621 
Si 5.415968879999999 8.15389434 2.710248359242049 
Si 8.161029359999999 5.42224053 2.6913097563955715 
Si 4.07269548 4.072304519999999 6.787664127824314 
Si 5.43201453 5.43201453 5.428423384620933 
Si 6.7877497799999995 6.787489139999999 6.787664127824314 
Si 8.145114029999998 8.14394115 5.429904039025294 
Si 6.786576899999999 4.07377062 9.501772518664708 
Si 4.0734774 6.78801042 9.502013555428208 
Si 5.427078659999999 5.42849589 10.860978828044733 
Si 6.78581127 6.77981655 12.24614824023611 
Si 8.117144099999999 5.3806521599999995 13.726251703423378 
Si 6.47990136 7.5608406 19.719906298453278 
Si 4.32046638 7.34732757 18.752453597408483 
Si 6.33715209 4.6856556 22.12328386731801 
Si 6.53637879 7.02020808 21.991333456213095 
Si 4.88214558 7.20267237 25.593283548496363 
Si 5.49925965 5.09937273 29.639567697381356 
Si 6.6354871499999994 5.59507743 25.906355870460317 
Si 6.15781548 4.076148959999999 27.638893692679453 
Si 5.55044283 5.28815754 34.237722733212706 
Si 7.42033935 6.160812839999999 30.45220592861203 
Si 7.22668383 6.36259707 32.82989586525227 
Si 8.14640094 10.848032279999998 2.692284233596581 
Si 6.789574259999999 9.502022160000001 4.070456692881769 
Si 4.88056545 11.35549836 -0.0008830003058788467 
Si 4.07036601 12.21966657 4.0753118619751385 
Si 6.668686169999999 12.156607979999999 1.362942379214284 
Si 4.07204388 9.50275521 6.7875952601776 
Si 5.4295547399999995 8.14539096 8.145320915153263 
Si 5.427502199999999 10.859386409999999 5.430041774318723 
Si 8.14664529 8.14661271 10.86090996039802 
Si 6.7887271799999995 9.50319504 9.503287606892426 
Si 4.08543426 9.507691079999999 12.222836541823265 
Si 5.426117549999999 10.858913999999999 10.862941555976096 
Si 6.37992963 10.04133519 15.053400123257818 
Si 7.82468973 10.29366729 17.08940323072424 
Si 5.425400789999999 8.206804259999998 13.656729814065127 
Si 5.0155443900000005 8.244906570000001 16.585051020010862 
Si 4.1420257199999995 11.895104609999999 15.498732760736901 
Si 7.3823836499999995 9.73579995 19.385760476594694 
Si 6.02124012 11.68423056 19.41478818968484 
Si 6.55164252 10.38119346 23.97875043892246 
Si 5.3869726799999995 8.30472345 23.546640389612556 
Si 6.503521859999999 10.47937329 26.352996993226974 
Si 7.71991245 8.3913048 29.77465158641178 
Si 4.33504593 9.102281849999999 29.070135560522807 
Si 4.52326059 9.30634668 26.688003660669487 
Si 7.96910058 8.9435358 27.453880759781043 
Si 6.0862698 9.91037988 30.543868766388986 
Si 7.48077525 8.350384319999998 34.22116006417788 
Si 7.345682279999999 11.974958189999999 30.294740054399412 
Si 5.44763664 9.5143374 32.95175716611352 
Si 7.839578789999999 13.69830987 -0.008478089384077556 
Si 5.42582433 13.58763561 2.7152137165701618 
Si 6.7839705 14.937604199999999 4.074864222271494 
Si 8.14477194 13.57561359 5.4298351713785795 
Si 4.0721253299999995 14.9325543 6.787423091060814 
Si 5.42988054 13.57483167 8.145011010743048 
Si 6.78687012 12.21756516 6.7874575248841715 
Si 8.15180922 13.56518799 10.857604313355724 
Si 4.0728909600000005 12.21736968 9.502908834835498 
Si 6.78616965 14.933075579999999 9.504699393650073 
Si 4.06850895 14.951238929999999 12.219875233014541 
Si 6.80210127 12.23530497 12.231548299132644 
Si 5.421849569999999 16.298633699999996 10.854160931020001 
Si 5.30526204 14.03438886 15.619836517484288 
Si 5.9225553 14.15231217 13.404157719739827 
Si 7.591807889999999 14.28370731 16.239886374677965 
Si 4.23502533 16.192390319999998 16.634394688881773 
Si 7.85070486 15.992821529999999 13.57680891005299 
Si 7.36648461 15.29270991 18.358048584674744 
Si 4.43483847 12.2662071 21.061138152040826 
Si 7.640954819999999 13.36135122 19.726758629301365 
Si 7.517851289999999 13.2222672 22.11247164678384 
Si 5.52384126 12.417671519999999 23.141216553404504 
Si 4.5787932 13.306812299999999 25.1409264110524 
Si 4.12207047 15.523262279999999 25.604508974910818 
Si 6.4734831 15.917154479999999 29.551141638999983 
Si 5.81808753 13.55166729 29.07158178110381 
Si 6.283215899999999 12.828928859999998 26.777497167574932 
Si 7.65327006 16.270484579999998 31.7997047380506 
Si 6.6396410999999995 15.89208417 33.978780381566324 
Si 12.193716599999998 1.444295835 1.3590582439395884 
Si 9.49790079 1.358532243 4.074278847274422 
Si 10.58193513 0.26123295599999996 0.12485979819919232 
Si 10.84900968 2.7396033299999996 2.728742765767218 
Si 8.14496742 0.00036313830899999995 8.14487327544962 
Si 8.145781920000001 2.71578735 5.431625730193155 
Si 10.86020091 0.0013891264919999998 5.430730450785867 
Si 10.85982624 2.7150705900000003 8.144632238686118 
Si 12.22123041 1.336389246 12.225556813868486 
Si 9.50239683 1.356585588 9.503735246596072 
Si 8.148323159999999 2.71609686 10.864387776557098 
Si 10.302512759999999 1.41911964 16.85201645249948 
Si 11.55322638 3.4041538799999995 17.00689978996031 
Si 9.006740999999998 1.599927237 14.862567874212038 
Si 10.779972659999999 2.6192202300000003 13.52729307206529 
Si 11.043267929999999 2.49028488 21.013722777277916 
Si 8.78500152 1.82907378 20.671967080457385 
Si 9.21082212 0.420829344 18.79191475897587 
Si 12.093191009999998 1.192902039 22.6272228721511 
Si 8.35075899 0.709564707 22.86309456214814 
Si 10.25258391 1.3793997329999999 24.069380261998695 
Si 9.70045065 3.6458160299999998 24.441541024843662 
Si 10.99586403 0.264753225 26.011516766993307 
Si 9.2388735 2.72337849 30.05652686441408 
Si 11.12794335 1.345404132 29.496322992215266 
Si 10.119820409999999 3.5905277699999996 26.790134380747038 
Si 11.877723179999998 2.0344906799999998 27.341867532399966 
Si 9.07970391 2.20913577 34.40548432060914 
Si 8.2556091 2.27152647 32.1644277950504 
Si 12.215594069999998 4.07137599 4.070525560528483 
Si 9.70856307 4.17841758 1.1907560455164448 
Si 9.506811419999998 6.78708189 4.071971781109487 
Si 9.50303214 4.07176695 6.787526392530885 
Si 8.14527693 5.429733929999999 8.14473554015619 
Si 10.85883255 5.42960361 5.429249796381507 
Si 9.502282799999998 6.7872936600000005 9.501359312784421 
Si 9.498698999999998 4.091901389999999 12.229688872671355 
Si 10.856242439999999 5.431086 10.858947232466656 
Si 9.60772797 6.82332714 14.904646006354575 
Si 11.154137669999999 5.676217919999999 16.39931497682195 
Si 10.03120281 6.27482655 20.844170631066905 
Si 12.203278829999999 7.3494452699999995 20.63136960271921 
Si 8.242202429999999 5.93921997 19.285626918271863 
Si 9.98982621 6.8896437299999995 18.097969916857572 
Si 8.77537413 7.59845421 22.28822188119915 
Si 10.86259554 4.51731474 22.097217463036582 
Si 9.828424889999999 7.3277307 24.370331878140906 
Si 11.27761587 5.45462505 24.15766858508664 
Si 8.5346568 6.94454103 26.326414081595193 
Si 9.44552844 5.068128509999999 29.88694028437971 
Si 10.09269756 5.77570095 27.696776949742958 
Si 11.963424869999999 7.25253606 27.98154466890727 
Si 11.78399052 7.86547989 30.31240460578167 
Si 11.25065592 5.680371869999999 31.318526490456637 
Si 11.4523587 5.19711273 34.11338219706974 
Si 9.382991129999999 9.378657989999999 1.1987068153296296 
Si 10.84417155 8.13340152 2.6865992093603017 
Si 12.216278249999998 9.50269005 4.065498222318328 
Si 9.502608599999999 9.502168769999999 6.7875952601776 
Si 10.85964705 8.14529322 8.145011010743048 
Si 8.145733049999999 10.86011946 8.144769973979548 
Si 10.85964705 10.860152040000001 5.430110641965437 
Si 9.50285295 9.483614459999998 12.214537990394172 
Si 10.857724829999999 10.86064074 10.864800982437387 
Si 11.81619585 10.03729527 14.84724482281807 
Si 9.26223336 8.50779459 16.558778012789293 
Si 10.93197465 8.187712379999999 13.571919307136264 
Si 8.174924729999999 10.84770648 13.59905315994176 
Si 10.00816875 11.78625483 14.84562643312028 
Si 11.27603574 9.64480401 17.33897958241746 
Si 9.078954569999999 9.602971290000001 21.10139129154543 
Si 11.456757 9.64125279 20.9196151380426 
Si 11.43196362 11.281639499999999 19.19868151429485 
Si 8.4598857 11.135713679999999 22.73321018044466 
Si 12.176367749999999 10.335418559999999 23.10034360507947 
Si 10.471212 11.781009449999999 23.742121204811564 
Si 11.77332057 8.64402786 24.67431367073855 
Si 9.963925109999998 12.11707215 25.999223892054772 
Si 9.67860576 11.18018538 29.709606094089963 
Si 11.81152062 9.32231088 26.892643872881518 
Si 9.807264179999999 10.37133801 27.52522764177723 
Si 11.26806993 10.43957682 34.39870085740777 
Si 11.947151159999999 11.80153485 30.25865340752103 
Si 9.75585294 9.05318379 30.80690874301488 
Si 10.42737561 11.070732869999999 32.21673277273004 
Si 12.21218946 12.27029589 1.2452406842145933 
Si 9.502673759999999 12.218298209999999 4.068907170830693 
Si 9.43414173 14.886828269999999 1.3550742505771565 
Si 10.85469489 13.574310389999999 2.7043360717716123 
Si 9.502217639999998 14.93333622 6.786872149887098 
Si 10.8598914 13.574408129999998 8.144322334275904 
Si 12.24310788 12.22758351 12.23285678442022 
Si 9.501549749999999 12.21927561 9.499568753969847 
Si 9.516813479999998 14.92186806 12.244598718185037 
Si 10.86241635 16.2913032 10.860668923634519 
Si 8.93117169 12.42860211 16.810110489473733 
Si 11.05543656 13.63886766 13.741195982760416 
Si 11.986344899999999 16.03983447 17.36997002343897 
Si 9.87758811 13.09999446 18.85224281749774 
Si 10.92379707 15.178761359999998 19.407350483839682 
Si 10.82685528 14.087689739999998 23.34193130975381 
Si 8.565949889999999 14.71513167 23.567782757153896 
Si 11.946043439999999 15.22882053 21.61256139928354 
Si 12.194970929999998 14.6909736 25.186688962294166 
Si 10.51115508 15.31245339 29.297433228503895 
Si 8.31866769 13.81497885 25.858906061874052 
Si 12.0770802 12.879818819999999 26.716721469349416 
Si 9.28300311 15.47189991 27.243352363774928 
Si 9.70227513 14.844767489999999 31.533772320262695 
Si 11.774167649999999 15.44404401 32.73709671130453 
Si 8.663852789999998 12.800942639999999 32.20464650073165 
Si 14.93327106 1.358035398 4.069664714944553 
Si 13.57470135 1.119714327e-05 8.14511431221312 
Si 13.57439184 2.7157221899999997 5.430420546375653 
Si 12.21738597 1.3581119609999999 6.787939598411172 
Si 14.93129997 1.355139036 9.502151290721638 
Si 13.57786161 2.71295289 10.863526930973169 
Si 13.616354879999998 0.14043788189999998 13.815263136801823 
Si 14.56352064 2.08573902 14.974822138356616 
Si 12.6104148 3.47222979 14.872898021219209 
Si 15.40657701 1.85389974 17.2058584213184 
Si 12.51256077 2.6980475399999997 19.178503293807516 
Si 16.10479899 3.53424582 18.750800773887335 
Si 13.80118122 0.785958291 18.547365745492804 
Si 15.39483192 0.533256408 23.552253102819783 
Si 14.022155069999998 2.4904314899999997 23.421748912295875 
Si 15.01806051 3.57847317 25.351558108528593 
Si 14.22534024 2.65515597 27.380708885146927 
Si 15.83334243 1.251792018 28.487136497261506 
Si 15.75930438 0.969328305 32.1525136921688 
Si 13.05086382 3.32263872 34.3607547840681 
Si 13.784744609999999 2.6431665300000002 32.17758151557286 
Si 12.68264466 0.783030978 31.186644946998438 
Si 14.953829039999999 4.0747805999999995 1.1856839433359243 
Si 13.58628354 5.445209429999999 2.681699276296568 
Si 12.261808799999999 6.915642569999999 1.17466511986161 
Si 14.930550629999999 6.78770091 4.072247251696345 
Si 14.932375109999999 4.07240226 6.787526392530885 
Si 13.575010859999999 5.42992941 8.144632238686118 
Si 12.217516289999999 6.787489139999999 6.787319789590742 
Si 12.21824934 4.074373349999999 9.502771099542068 
Si 14.93478603 6.78687012 9.501979121604853 
Si 14.938141769999998 4.08703068 12.211714416878879 
Si 12.22136073 6.781543289999999 12.214882328627745 
Si 16.178755589999998 8.03012292 13.551017976358423 
Si 13.25880567 6.62094018 16.844027805480604 
Si 13.44508182 5.28426423 13.576257968879274 
Si 14.767520309999998 6.609439439999999 14.983568329489351 
Si 15.952878449999998 7.78565889 21.480266649945055 
Si 14.134099949999998 4.26108933 19.77372636436063 
Si 16.074532169999998 7.445800619999999 19.119862492630148 
Si 13.835194739999999 6.48974052 19.125647374954166 
Si 14.6468277 4.35540843 22.040849294200793 
Si 13.929644159999999 6.65757639 22.22476034475177 
Si 13.24407951 6.80812857 24.413374157337447 
Si 15.060007259999999 5.95094877 25.58426188677677 
Si 14.18458266 6.55133301 27.708518883507775 
Si 14.561288909999998 4.5246615299999995 28.762985856176297 
Si 13.60539171 8.03173563 32.060540949981636 
Si 16.27520868 5.34971745 34.15880041007793 
Si 15.832202129999999 7.7763735899999995 30.918371029222243 
Si 14.646371579999999 5.79054114 32.40866690412325 
Si 13.325480639999999 4.567211009999999 30.790862581330412 
Si 14.938663049999999 9.56804553 1.2253344909317772 
Si 13.58136396 10.87877151 2.693200173297883 
Si 16.272862919999998 8.13711564 2.6936581431485345 
Si 13.57611858 8.14267053 5.429628568438436 
Si 14.93221221 9.502608599999999 6.787629694000957 
Si 13.575304079999999 10.85985882 8.145148746036478 
Si 12.21670179 9.50143572 9.503322040715785 
Si 13.576688729999999 8.14454388 10.86152976921845 
Si 14.926689899999998 9.4996764 12.216776188912391 
Si 16.2955386 10.85775741 10.863217026562953 
Si 13.40632791 8.89183134 16.49149432194926 
Si 13.68400725 10.90638306 13.638686490625936 
Si 15.229358099999999 11.890510829999998 15.212553254814946 
Si 15.30463419 10.99643418 19.449531917452287 
Si 15.31346337 9.29434095 17.824324322637647 
Si 14.42484387 11.02836258 23.44454410335836 
Si 15.62307111 10.10706534 21.633152825651162 
Si 15.35541012 10.65548448 25.631814996833107 
Si 14.06354796 10.58151159 29.437544455744476 
Si 13.502210849999999 10.946717099999999 27.130650459926706 
Si 15.17731155 8.412775019999998 28.7646731135208 
Si 13.11709896 8.76151134 34.29691447556379 
Si 12.216685499999999 14.933857499999998 4.067529817896404 
Si 14.93226108 12.214600379999998 4.072832626693418 
Si 14.828444909999998 14.85937962 1.1204731686619982 
Si 13.582602 16.2909774 2.684722565987333 
Si 13.576297769999998 13.57414749 5.429525266968364 
Si 12.21756516 12.21748371 6.787491958707528 
Si 14.93232624 14.932668329999998 6.7875952601776 
Si 12.217092749999999 14.930843849999999 9.502116856898281 
Si 14.93245656 12.219617699999999 9.50335647453914 
Si 13.5700587 13.57605342 10.85829298982287 
Si 14.92836777 14.93626842 12.254894431368848 
Si 13.936616279999999 13.3657821 16.73101599722217 
Si 15.736286609999999 14.911784549999998 16.44945062363008 
Si 12.50492076 14.874545609999998 15.373428077539934 
Si 16.227267209999997 13.39187868 13.634003490649354 
Si 13.869485189999999 13.9755168 21.042853791838137 
Si 15.11314524 15.548348879999999 19.86370194479308 
Si 13.49074269 12.445755479999999 19.23490589646666 
Si 15.005680109999998 13.271967989999998 23.049381546510766 
Si 14.441443379999999 14.914488689999999 24.63103035477851 
Si 15.565127579999999 14.34590253 26.679050866596608 
Si 15.74553933 12.27303261 29.891347813769436 
Si 14.66378559 16.21496826 30.05132735708714 
Si 12.236347529999998 13.72469967 28.898999458437363 
Si 14.564856419999998 14.139426779999999 28.887532995259406 
Si 13.351267709999998 13.740891929999998 33.99696144029894 
