&CONTROL
  dt          = 30.D0,
  prefix = 'x.66_y2.00_z3.15_struc24-scf',
  pseudo_dir = './',
  outdir='./',
  wf_collect= .true.,
  verbosity= 'high',
/

&SYSTEM
ibrav= 6, celldm(1) =30.783621515, celldm(3) =2.1034888228945987, nat=  432, ntyp= 1,
  ecutwfc     = 12.D0, nbnd= 1728,
  degauss     = 0.05D0,
  occupations = "smearing",
  smearing    = "methfessel-paxton",
/
&ELECTRONS
  electron_maxstep=200,
  conv_thr    = 1.D-8,
  mixing_beta = 0.3D0,
  scf_must_converge=.false.,
/
&IONS
/
ATOMIC_SPECIES
Si  28.08  Si.pbe-hgh.UPF
K_POINTS {automatic}
1 1 1 0 0 0
ATOMIC_POSITIONS (angstrom)
Si -0.00862689078 2.7186706800000002 2.6873973180549218 
Si 2.52060057 2.92972392 0.06417853443511999 
Si 1.336842108 1.3040144999999999 1.3128576961033571 
Si 1.359494982 4.07131083 4.066360659037098 
Si 4.07424303 1.354845816 4.071637597307541 
Si -0.0014676850169999998 -0.000653206194 5.42952402445758 
Si 0.00031765337099999997 2.7150543000000003 8.14512554959303 
Si 2.7150868799999994 6.07700079e-05 8.144748625430855 
Si 2.71432125 2.71453302 5.429386961125879 
Si 1.357914852 1.356681699 6.787753109936866 
Si -0.0011819991419999998 0.0014801696729999998 10.859493504743183 
Si 2.7173674799999996 2.7137510999999996 10.855210275627565 
Si 1.3812193259999999 1.355846022 12.217140071062747 
Si 1.6356788999999998 2.8032483599999996 16.610670902867295 
Si 0.1144797669 2.79093312 13.528287902103148 
Si 2.77382862 0.0347454297 13.673300907041549 
Si 3.6876161699999996 1.7054978399999998 15.272041873821083 
Si 0.30859775999999994 3.58520094 20.60250337529262 
Si 3.59416044 1.82363292 19.075138138495767 
Si 2.0740753799999996 3.64881339 18.933997172677884 
Si 0.471460293 1.611058194 22.09841257746437 
Si 4.05720369 1.93505652 23.359052570773393 
Si 1.87018974 2.65768092 23.68903254184069 
Si 1.21925763 2.50139466 25.954381022342258 
Si 2.2863015 3.5444107799999998 29.889983262937736 
Si 0.6691817969999999 0.0846302967 29.955670864654873 
Si 2.89137726 2.57134392 27.712972099716698 
Si 3.8243870099999997 0.47248330499999996 28.070775927119055 
Si 2.6583813899999997 2.406033 32.047428635558624 
Si 1.7047973699999999 0.25179453 32.059010487087264 
Si 2.7208209599999997 5.4266877 2.6791049864870837 
Si 1.235725191 6.76119708 1.2640939892678564 
Si -0.00044058585599999995 5.43139551 5.429798151120979 
Si 2.71498914 5.42960361 8.14464582793208 
Si 1.357359363 6.787586879999999 6.787787375769791 
Si 4.05787158 4.0669939799999995 12.201343522084342 
Si 1.3584231 4.07162034 9.501709875091919 
Si 1.37072205 6.78458952 12.223239389323387 
Si 2.61127071 7.95318525 16.484469840204696 
Si 0.9754386839999999 4.49167428 14.935928318660217 
Si 2.70718623 5.36079465 13.594763617977556 
Si 0.039889160099999994 8.063843219999999 13.683512125253186 
Si 2.81285946 7.45449948 20.558403248318207 
Si 0.562612617 8.00384715 20.245384864548765 
Si 3.14947602 5.84262027 18.765683401350515 
Si 0.706964823 7.367478299999999 17.82220795759486 
Si 2.6738406 6.414757649999999 22.632856773594863 
Si 1.0567697669999998 4.730795189999999 22.75364383465532 
Si 0.1373049891 7.981073729999999 25.146529745303567 
Si 0.11937963599999998 4.2217164 29.38630978477385 
Si 0.27606011399999997 7.79173506 27.491272160692247 
Si 3.48319296 5.8038012 27.688437763342428 
Si 1.078819911 5.62154868 27.717358126331092 
Si 3.7480032 5.404272659999999 30.065013137518395 
Si 3.34505376 7.99604424 32.223109560964865 
Si 3.6348039899999995 5.72632596 32.45018923575852 
Si 2.34821979 8.5706577 0.07726979590409828 
Si 1.359646479 9.49720032 4.070986546481967 
Si 2.73619872 10.86209055 2.7001030889034947 
Si 1.209165975 12.00532275 1.2812885842295978 
Si -7.19721522e-05 8.1448371 8.144543030433306 
Si 2.7151357499999995 8.14480452 5.431305847769677 
Si -0.000671700231 10.86052671 5.430003746118529 
Si 2.71494027 10.85992398 8.14485142292963 
Si 4.06355679 9.51500529 12.20699738451696 
Si 1.357839918 9.502168769999999 9.50253225508212 
Si 2.71410948 8.14149765 10.859013783082233 
Si 1.342796103 12.23049942 12.235300962512971 
Si 2.70954828 10.87150617 13.563992900010948 
Si 1.282874967 9.60453513 14.992295613821765 
Si 2.2557251700000003 11.432305709999998 21.02760529855959 
Si 3.67375338 9.67132413 20.340746677578906 
Si 0.22976882099999998 11.95146801 19.904542624444254 
Si 3.50347401 12.239491499999998 17.55959461405802 
Si 1.5074440199999999 10.484618669999998 23.039592210414057 
Si 2.10976677 8.36462178 23.888117031134666 
Si 2.41926048 11.69167509 24.878022678503633 
Si 1.6927753499999998 11.285255880000001 27.08385140721456 
Si 2.1646477799999997 9.1579122 28.122517334835734 
Si 0.019430223299999997 9.3906963 31.64840301114755 
Si 0.539239725 10.08849474 34.08110581965459 
Si 3.44466711 11.018784059999998 31.136163074752425 
Si 2.13684075 9.16118649 30.542438987661765 
Si 2.72350881 16.2919548 2.7005005725654243 
Si 3.79089477 14.711547869999999 1.254287107884735 
Si -0.009733633379999999 13.558395059999999 2.693431531233006 
Si 1.358900397 14.93322219 4.069821508162519 
Si -1.80263511e-05 13.57507602 8.14498848626133 
Si 2.71601541 13.574733929999999 5.430038011951454 
Si 1.357665615 12.217548869999998 6.787616046605168 
Si 4.0890669299999995 14.92729263 12.247773725697654 
Si 1.3585664519999998 14.933727179999998 9.502669318413819 
Si 2.71047681 13.577193719999999 10.863262746364928 
Si 1.0840213079999999 15.314587379999999 14.99592779211181 
Si 4.00602051 12.32626833 15.175275161641014 
Si 3.23406999 15.34633659 16.413368236885418 
Si 1.030829571 12.557618909999999 17.65903406120623 
Si 1.472998815 15.839223119999998 21.300327062809288 
Si 2.64824901 15.92816652 19.211481887704156 
Si 1.07486307 14.955995609999999 17.549726054175633 
Si 3.7360463399999997 13.193287289999999 21.6208496639893 
Si 2.92032459 14.934623129999999 22.974555659522494 
Si 1.617738723 13.89835107 24.594575708548422 
Si 0.599489919 15.13054296 26.306907911474173 
Si 2.8194732 13.19527467 28.038908702498848 
Si 1.9303487099999999 15.386507729999998 28.178679034999732 
Si 0.561395754 15.790076189999999 34.1650228444878 
Si 1.98242784 13.85207118 34.265627329955464 
Si 0.39231695699999997 13.07212227 31.085381110357645 
Si 3.48418665 15.004767869999998 31.47073466743167 
Si 2.6264367 13.013527139999999 30.308608943781888 
Si 5.43910068 2.71402803 2.6912522242589794 
Si 6.92839764 1.4210402309999999 1.2817374666409147 
Si 5.42988054 0.000488675565 5.429763885288054 
Si 5.4297828 2.7152009099999996 8.14471435959793 
Si 6.787928969999999 1.357484796 6.787102059111293 
Si 4.07196243 1.360026036 9.501778406757769 
Si 5.43079278 -0.0008611252379999999 10.863845265524652 
Si 6.788401379999999 1.3630331699999998 12.26041781804696 
Si 5.26023648 2.76928371 13.690296760172325 
Si 6.42954897 3.69665712 17.288380546457017 
Si 5.16072087 1.594061208 17.300956107140475 
Si 6.65857008 0.544154418 20.945812755367726 
Si 4.8180118499999995 2.06532765 21.08352713789311 
Si 7.73201592 3.8173497299999997 21.95089816672245 
Si 7.389144 3.34365282 24.269701346586945 
Si 5.09473008 3.6568606499999996 24.560070014792995 
Si 8.04111867 1.048087197 24.56870500469008 
Si 7.458164729999999 0.07810045019999999 26.613518584486652 
Si 4.6597545 3.89414079 26.89312778115427 
Si 6.47633385 3.4086499199999998 28.397946099886507 
Si 7.67918745 1.361635488 28.54436400397483 
Si 5.59043478 3.99166902 30.502690621468822 
Si 4.95800811 2.04514434 31.76768237555931 
Si 4.8068694899999995 0.233147367 30.234903137160313 
Si 8.077689719999999 0.0371529288 32.29900838089363 
Si 6.0576156899999996 0.617609286 33.39674860447742 
Si 4.218849359999999 4.07867391 1.1813111635044626 
Si 6.78926475 4.07192985 4.069855773995444 
Si 4.069584089999999 6.79029102 4.0715347998087665 
Si 6.74968005 6.763477679999999 1.2818882363057846 
Si 4.07264661 4.072516289999999 6.787444717440542 
Si 5.429245229999999 5.43015747 5.429832416953904 
Si 6.78714705 6.78781494 6.787890173268567 
Si 6.786495449999999 4.07142486 9.50129868509682 
Si 4.072548869999999 6.78778236 9.501778406757769 
Si 5.4330408 5.430271499999999 10.859767631406584 
Si 6.78410082 6.79242501 12.21765405855662 
Si 6.215791589999999 4.60935324 15.003980262849174 
Si 4.329784259999999 6.50982609 14.904232423204636 
Si 8.09973009 5.51890539 13.723123428114432 
Si 5.498200799999999 5.387722019999999 18.99358545613438 
Si 5.59403487 4.33398708 21.13132797482342 
Si 6.52994424 7.56812223 19.214737141832025 
Si 4.76725221 5.4659466 23.07790141162415 
Si 5.8235446799999995 7.493530319999999 23.613956101902115 
Si 7.38168318 7.36321032 25.42583054947486 
Si 8.063908379999999 6.983474129999999 29.02898567903244 
Si 4.10693706 8.00710515 27.156460707182532 
Si 6.495849269999999 8.12014146 27.56881574060142 
Si 5.61312675 5.333443739999999 33.94877117289842 
Si 7.308231569999999 7.06427253 31.298822983647177 
Si 7.1449568999999995 4.8015589499999995 32.01857680423582 
Si 7.9097398199999995 8.45359776 0.13609360862803588 
Si 4.196108519999999 9.522009989999999 1.2915512011906214 
Si 5.4268506 8.13032271 2.714114387986508 
Si 6.78906927 9.50249457 4.071329204811217 
Si 4.073249339999999 12.217662899999999 4.074173268943988 
Si 6.823180529999999 12.12094917 1.1830964133998527 
Si 4.0725814499999995 9.50223393 6.787890173268567 
Si 5.43062988 8.14480452 8.14485142292963 
Si 5.428267829999999 10.85901174 5.430038011951454 
Si 6.788808629999999 9.501403139999999 9.501812672590695 
Si 5.43136293 10.860298649999999 10.86120679638943 
Si 4.07253258 12.21745113 9.503628761735717 
Si 6.790567949999999 12.2139162 12.248767434852477 
Si 5.42702979 8.1788832 13.556008960939435 
Si 7.130084129999999 9.01561905 15.019879609326352 
Si 5.39145243 10.34770122 16.386983545533205 
Si 6.16025898 11.001174569999998 18.626187195513033 
Si 5.8441189499999995 10.41033627 20.93621832214874 
Si 4.19693931 9.153855989999998 18.013274241984398 
Si 4.6858185 11.09145375 24.706659248045945 
Si 6.81935238 8.356802579999998 21.58535026107905 
Si 5.508642689999999 12.03915708 22.642211345983373 
Si 4.22388297 8.74564488 24.858456887903483 
Si 6.53830101 10.384435169999998 28.293092651136153 
Si 6.027414029999999 11.898606959999999 26.480635684403687 
Si 5.66183385 10.544810219999999 30.606961551059452 
Si 6.0905052 10.07121105 34.15207035964217 
Si 5.61195387 8.695602000000001 32.130009292907765 
Si 5.42074185 13.56543234 2.6788616990733165 
Si 6.787619459999999 14.933042999999998 4.0700271031600685 
Si 4.0720113 14.932863809999999 6.787444717440542 
Si 5.430141180000001 13.574913119999998 8.145057017927181 
Si 6.787554299999999 12.21694614 6.787239122442992 
Si 8.14508145 13.57535295 10.86196064471378 
Si 6.7870656 14.93178867 9.502292394251644 
Si 5.52092535 13.592620349999999 13.786857877354842 
Si 7.189412309999999 14.79226482 15.33886024802474 
Si 6.13214244 15.707893139999998 17.283446266515824 
Si 4.35591342 14.24791818 19.599336850581697 
Si 6.6272607 15.02413668 19.44956089486673 
Si 6.852030119999999 15.845608799999999 23.098872101374226 
Si 4.688946179999999 16.062249509999997 24.072330148939212 
Si 7.391554919999999 13.442214779999999 23.15743240984297 
Si 7.967878829999999 12.79177137 25.377858383379923 
Si 6.74930538 13.90050135 29.408514044509218 
Si 5.17771134 15.75651879 26.425056503399414 
Si 5.10196284 13.696713449999999 27.606371093487166 
Si 7.08157251 16.0897959 30.189877832696922 
Si 6.08297922 12.77505783 31.36324274954609 
Si 4.954636079999999 14.75887032 33.3590904540929 
Si 8.14794849 -0.016119231930000002 2.69638867261443 
Si 9.506078369999999 1.356583959 4.07245997729774 
Si 10.86831333 2.70879894 2.709262346044335 
Si 9.61426026 3.9192436799999997 1.146267496172113 
Si 8.14529322 -0.00011473144739999999 8.14498848626133 
Si 8.145179189999999 2.71529865 5.428667378634456 
Si 10.86095025 0.000881640864 5.430414936113628 
Si 10.86007059 2.7147936599999998 8.144885688762555 
Si 9.50370003 1.3577324039999998 9.503286103406467 
Si 8.14096008 2.71818198 10.863605404694178 
Si 12.185034029999999 3.5859014099999995 17.08285408057315 
Si 8.29659474 0.06314329799999999 13.824036306078417 
Si 10.26146196 0.7980080039999999 15.124664526410859 
Si 10.75087872 2.63326221 13.619229422685972 
Si 10.515032099999999 1.8381310199999998 17.295713434702954 
Si 10.579084380000001 1.195518213 20.71520369978279 
Si 8.380602269999999 2.04571449 20.47071698186325 
Si 11.58473124 0.283164183 18.789224028569958 
Si 8.576799029999998 3.25337364 18.349113670481863 
Si 11.08549161 3.31335342 21.654532977754528 
Si 11.22157827 2.8146839399999997 23.96990957432653 
Si 10.35892503 0.693574443 24.43959134622886 
Si 10.485579779999998 3.9231532799999997 27.781400968067825 
Si 11.177269469999999 0.274637997 29.723554112421237 
Si 9.770970059999998 2.1445947899999998 29.23279885327006 
Si 8.84533968 2.21553774 33.92612145733503 
Si 12.055593689999998 0.430033194 31.89778974317536 
Si 10.68679386 0.584014419 34.004350353902694 
Si 9.13346091 3.2685885 31.463504576684503 
Si 10.875969629999998 8.12739051 2.6954532153755784 
Si 8.15366628 5.41699515 2.6778508570020305 
Si 9.50428647 6.78486645 4.066977444029748 
Si 9.50288553 4.07210904 6.787239122442992 
Si 8.14444614 5.430336659999999 8.145296878757655 
Si 10.86124347 5.42950587 5.430826126108728 
Si 12.21596874 6.80039082 12.260657678877436 
Si 9.501191369999999 6.788564279999999 9.50143574842852 
Si 9.4820832 4.0801563000000005 12.23721984915677 
Si 10.862611829999999 5.42891943 10.866963456320823 
Si 8.871175619999999 7.213472639999999 15.241202624188624 
Si 8.76885813 7.709291369999999 18.34191784556762 
Si 9.553384529999999 5.065929359999999 21.257871695815272 
Si 9.51054183 5.4745477199999995 18.94530489754312 
Si 11.830612499999999 5.34434175 18.65863693929296 
Si 10.558982519999999 6.92719218 22.22173531016128 
Si 11.62863279 6.226103159999999 24.263567762493377 
Si 10.47057669 4.49967267 25.388309462422033 
Si 8.226482579999999 5.12603946 25.62398986127986 
Si 10.419849629999998 7.633135619999999 29.292592731724106 
Si 11.404075139999998 7.97946102 25.71928314264416 
Si 8.28740718 4.87660698 27.993780600536684 
Si 10.90918494 7.03462473 31.5561936547465 
Si 11.106847799999999 4.6650161699999995 31.805134930946284 
Si 11.54970774 4.690900979999999 34.18434877425747 
Si 9.53106723 9.51746508 1.3937661808057562 
Si 8.1406017 10.86459921 2.71441935389954 
Si 10.656787679999999 11.12652612 0.1681499806459879 
Si 9.49962753 12.218493689999999 4.070301229823468 
Si 12.21764661 9.50104476 4.066771849032198 
Si 8.14421808 8.14568418 5.430380670280703 
Si 9.50205474 9.50259231 6.788061502433191 
Si 10.85994027 8.1453258 8.145433942089355 
Si 8.14506516 10.8597285 8.144748625430855 
Si 10.859549309999998 10.86112944 5.430038011951454 
Si 8.14651497 8.14382712 10.858705390585909 
Si 9.50901057 9.49457763 12.228105137598732 
Si 10.858148369999999 10.85945157 10.860110289735832 
Si 11.69625258 9.992416319999998 15.331698688943424 
Si 10.72466811 8.19263196 13.848296515789283 
Si 8.203399649999998 10.8085779 13.672649856215976 
Si 9.998150399999998 11.837910419999998 14.915505882236946 
Si 8.38557072 11.63993805 18.301244301885703 
Si 9.77307147 9.84476376 19.159089429161902 
Si 11.853271889999998 10.45114272 18.007243455389606 
Si 12.11844051 9.91138986 22.49144168111358 
Si 8.99041842 8.65016919 22.58670069664495 
Si 9.96806277 10.47238488 21.511507391125775 
Si 9.217761659999999 8.768874420000001 24.984143963072214 
Si 10.39567527 9.96109065 29.44586380239742 
Si 9.30807342 10.95150636 25.909115857048395 
Si 11.57973021 11.52150975 26.047001568738406 
Si 8.78620698 11.034194399999999 28.206571423000646 
Si 12.10581576 11.24353719 28.396815327399985 
Si 9.007001639999999 8.22128607 32.336666531278155 
Si 9.71081109 10.41791112 31.633771500488592 
Si 11.891113559999999 10.41001047 32.58601899747304 
Si 12.21461667 14.932016729999999 4.071055078147817 
Si 8.89434 12.864506219999999 0.10474928061826436 
Si 9.59541273 14.973246719999999 1.2621408367911342 
Si 10.87528545 13.58584371 2.7062914983297413 
Si 8.14534209 13.574277809999998 5.429935214452678 
Si 9.50269005 14.933238479999998 6.787239122442992 
Si 10.860608159999998 13.57455474 8.144817157096705 
Si 9.502738919999999 12.216978719999998 9.501401482595595 
Si 9.49570164 14.93540505 12.241366014940688 
Si 10.863312299999999 16.2870678 10.862234771377178 
Si 12.07616796 15.16616919 15.020256533488526 
Si 10.935900539999999 13.590404909999998 13.594695086311706 
Si 8.81784216 13.215474269999998 16.47960409192935 
Si 10.4247855 14.39614089 18.179908987498443 
Si 8.61011208 13.63282407 19.52415761314435 
Si 12.141784079999999 12.792699899999999 18.63170399461395 
Si 11.85983676 13.471650809999998 24.74164466346232 
Si 11.128985909999999 13.68596205 22.445388401662445 
Si 11.17692738 16.042750379999998 22.48784376865646 
Si 9.13034952 12.75029703 21.688284823185608 
Si 8.91341559 13.36078107 28.723882702668657 
Si 11.08829349 15.35835861 26.013181191641475 
Si 8.9531469 14.532064649999999 26.69555098850899 
Si 8.24031279 12.285087209999999 32.116851213064585 
Si 9.41167782 14.31504927 32.443918588333254 
Si 10.424215349999999 14.355513629999999 30.290824976493834 
Si 12.32801136 1.473155199 1.2962079278851224 
Si 14.93069724 1.358864559 4.0700271031600685 
Si 12.21551262 4.07373804 4.074584458939087 
Si 13.57499457 -0.000521988615 8.145159815425956 
Si 13.5736425 2.71409319 5.430551999445329 
Si 12.21679953 1.357549956 6.787958704934416 
Si 14.93232624 1.358540388 9.501401482595595 
Si 13.572078659999999 2.71549413 10.858122871426186 
Si 12.224928239999999 1.3644943829999998 12.229852695077902 
Si 14.929850159999999 4.061129579999999 12.212754044448353 
Si 15.77315088 1.7188393499999999 16.69972780263925 
Si 15.708284099999998 0.7874146169999999 14.62400644154437 
Si 14.456055509999999 2.7522280799999996 19.79989477069145 
Si 13.93848963 0.413590068 19.385141128967817 
Si 14.45458941 3.4562167199999996 17.50929237132419 
Si 13.49028657 3.23203374 24.317022461856304 
Si 14.91126327 1.478045457 23.592163032161846 
Si 15.872519879999999 0.8408653649999999 25.67538861066729 
Si 15.648336899999999 1.9210308299999999 29.217207899289207 
Si 13.94981118 3.6131057099999997 26.61300459699278 
Si 14.286558059999999 1.4039976330000001 27.342729774962578 
Si 13.361025419999999 2.96686512 34.12243041416208 
Si 13.7117817 2.2385880899999995 31.81846433995409 
Si 14.900870249999999 4.1528097 1.2248184915692755 
Si 13.574799089999999 5.42786058 2.717304537031821 
Si 12.293134469999998 6.695157419999999 1.222457575680746 
Si 14.93226108 6.788743469999999 4.074276066442763 
Si 14.93229366 4.0729887 6.787718844103941 
Si 13.57525521 5.43002715 8.144440232934532 
Si 12.217679189999998 6.787342529999999 6.787547514939317 
Si 16.28982081 5.4295547399999995 10.860418682232156 
Si 12.218868359999998 4.07144115 9.502018267588245 
Si 14.93229366 6.78778236 9.502840647578443 
Si 15.550727219999999 6.168778649999999 15.005556491163723 
Si 12.289501799999998 4.05446697 14.817128675909405 
Si 13.733675459999999 5.47153407 13.649280558161157 
Si 13.70407653 6.70942746 18.383002579244643 
Si 12.40783236 7.99234641 21.125708378223727 
Si 12.83718789 4.29353901 20.529208758666147 
Si 15.76591812 5.93329041 20.21259246243958 
Si 15.37924239 5.6011698899999995 17.30458828543052 
Si 13.83962562 6.16832253 21.477618482362995 
Si 13.747815179999998 5.44569813 23.65867301386918 
Si 15.915085649999998 5.81189733 24.33021480753241 
Si 16.15109517 4.39590537 26.171318010590138 
Si 12.25954449 7.16786064 27.819093384285278 
Si 12.62764962 4.819103279999999 28.19403012815011 
Si 15.83748009 5.8415288400000005 34.05050643085261 
Si 14.73476112 7.73147835 30.71349402562313 
Si 15.188209559999999 5.42510757 31.224294797035405 
Si 13.22537859 4.270912200000001 30.504815103110168 
Si 14.0408397 7.647943229999999 34.24434824770906 
Si 16.28587863 8.14447872 2.716420478542357 
Si 15.009654869999999 9.439012439999999 1.2241023356611438 
Si 13.589476379999999 10.85684517 2.6856497605757497 
Si 14.932880099999998 9.50194071 6.787478983273467 
Si 13.57452216 10.86059187 8.145091283760106 
Si 13.576232609999998 8.14400631 5.4305862652782535 
Si 12.21875433 9.50327649 9.50150428009437 
Si 13.57162254 8.147687849999999 10.863194214699078 
Si 14.92010874 9.496581299999999 12.25805347557514 
Si 16.289038889999997 10.86254667 10.863434075529552 
Si 13.37345469 10.887454079999998 13.758314438528359 
Si 16.02932742 10.997232389999999 16.278909108487902 
Si 15.454062359999998 9.19503711 17.747028720157513 
Si 15.31975131 9.8627805 20.332659941008618 
Si 13.47235128 8.967824189999998 19.05512689206759 
Si 12.592674989999999 9.776248019999999 24.856366672095064 
Si 15.57488529 11.12001012 23.30052652813757 
Si 13.89629853 11.152427219999998 21.705691866311483 
Si 14.94503244 9.86950827 25.105273682461924 
Si 14.36988141 8.24498802 28.433788161126007 
Si 15.612352289999999 11.42691372 26.79358553650728 
Si 14.355448469999999 10.5844275 28.56351860457988 
Si 12.91023225 8.211316590000001 32.21964871183944 
Si 13.453177949999999 12.15291015 31.830868571472923 
Si 15.28813242 11.20844853 30.646744183085325 
Si 12.29978079 12.298102919999998 1.2856300652611894 
Si 14.935258439999998 12.21930819 4.0730424964574645 
Si 14.96728458 14.87966067 1.1729091812712642 
Si 13.586397569999999 16.28464059 2.682545276112749 
Si 13.575499559999999 13.57496199 5.42945549279173 
Si 12.21722307 12.21811902 6.787753109936866 
Si 14.93235882 14.93261946 6.788095768266116 
Si 12.21673437 14.931283679999998 9.50129868509682 
Si 14.9315769 12.218037569999998 9.501470014261445 
Si 13.576933079999998 13.57313751 10.858191403092036 
Si 12.2209209 12.2202693 12.212993905278827 
Si 14.941285739999998 14.91245244 12.218647767711445 
Si 13.53376458 13.98589353 16.740469877987017 
Si 14.4989145 12.4168896 15.117777093992943 
Si 13.68070038 16.28812665 13.60613987450864 
Si 16.17872301 13.56080598 13.76434522512315 
Si 14.22213111 15.069716099999999 21.019415764490525 
Si 16.247580839999998 13.985176769999999 21.20989952972034 
Si 12.875062139999999 13.146160319999998 20.8933174993267 
Si 15.152941709999999 15.797146049999998 17.623260531632585 
Si 13.49804061 16.0024815 23.03900969125433 
Si 15.92635833 13.388995349999998 23.46510532367612 
Si 14.033411459999998 14.23830708 24.560755331451496 
Si 15.013694789999999 13.74543684 26.6892460752508 
Si 12.34040805 13.04411976 29.878298613910324 
Si 12.53790801 16.140604409999998 27.828687817504264 
Si 13.856143679999999 14.378221889999999 28.655967821811405 
Si 13.572844289999999 13.602019679999998 33.94424808295233 
Si 15.304699349999998 14.85136494 30.45406740454831 
Si 13.61865177 14.953829039999999 32.05373354881682 
