&CONTROL
  dt          = 30.D0,
  prefix = 'x.66_y2.00_z3.18_struc44-scf',
  pseudo_dir = './',
  outdir='./',
  wf_collect= .true.,
  verbosity= 'high',
/

&SYSTEM
ibrav= 6, celldm(1) =30.783621515, celldm(3) =2.1217994675793617, nat=  432, ntyp= 1,
  ecutwfc     = 12.D0, nbnd= 1728,
  degauss     = 0.05D0,
  occupations = "smearing",
  smearing    = "methfessel-paxton",
/
&ELECTRONS
  electron_maxstep=200,
  conv_thr    = 1.D-8,  mixing_beta = 0.3D0,  scf_must_converge=.false.,
/
&IONS
/
ATOMIC_SPECIES
Si  28.08  Si.pbe-hgh.UPF
K_POINTS {automatic}
1 1 1 0 0 0
ATOMIC_POSITIONS (angstrom)
Si 2.7250563599999995 0.0013690865339999999 2.6874600470926193 
Si 1.375825707 1.411266231 1.263981973072894 
Si 1.099405584e-05 2.7146633399999995 8.144929613136416 
Si 2.71490769 0.00023539375799999998 8.144860484909762 
Si 2.71482624 2.7147122099999996 5.43157758875064 
Si 1.3576314059999999 1.3578659819999999 6.787631446903644 
Si 0.00312098481 -0.000221366439 10.860044407301862 
Si 2.71656927 2.7134253 10.863224305727934 
Si 1.3654717829999998 1.3339164239999999 12.230753449505457 
Si 2.12406939 2.3846116499999996 16.490642160588607 
Si 1.4230324979999998 4.03697151 14.973312149652436 
Si 4.00528746 1.2479508359999998 15.09038080149054 
Si 3.62819025 3.4916148899999997 17.90860034571003 
Si 0.9534260069999999 1.566167841 20.90752107440239 
Si 2.8073860199999996 0.474004791 19.88089778036776 
Si 0.17648097299999999 3.4724578499999996 19.78833508487841 
Si 1.9527963299999997 2.67599088 22.76503108870159 
Si 3.6583430399999997 1.321488783 23.673929012744907 
Si 2.79523368 0.7693164269999999 25.77940197605106 
Si 0.330243912 0.23418178199999998 29.255203776314215 
Si 1.9378583999999999 1.9269766799999999 29.364841143787036 
Si 2.1996875699999996 2.7788459399999996 27.160895021612635 
Si 0.012229440569999998 3.9043872 27.41304022833214 
Si 2.31573753 3.1392133199999996 34.50037710189306 
Si 3.6098151299999994 0.5959224089999999 30.27176891337072 
Si 1.7744371199999998 3.35275893 31.32186124035429 
Si 3.3119198999999995 1.4332218929999998 32.92961097175355 
Si 4.07246742 6.78480129 4.070650190618547 
Si 1.3591822139999998 4.07031714 4.070581062391893 
Si 2.7250889399999996 5.43201453 2.6981092504086273 
Si 1.26164421 6.647997869999999 1.271738160103443 
Si 0.00045046248299999997 5.42981538 5.429123536704432 
Si 2.71448415 5.43005973 8.145240690156358 
Si 1.357737291 6.78716334 6.787700575130298 
Si 4.07715894 4.071017609999999 12.223806062726759 
Si 1.355663574 4.07280951 9.502296907595841 
Si -0.0011007153 5.4289683 10.856795380649137 
Si 1.3579295129999998 6.78067992 12.212227084762256 
Si 2.7145656000000002 8.14372938 10.86139240772161 
Si 0.625777092 6.950226239999999 17.165679293862336 
Si 2.72236851 5.41881963 13.573742072820906 
Si 2.3977413899999998 8.02813554 16.104215373594226 
Si 0.258051519 7.6902320699999995 20.98000202004883 
Si 2.26979973 4.54738608 19.68063330775189 
Si 1.453463847 6.64649919 19.26150886955029 
Si 3.3480836999999997 8.006209199999999 19.04098982652487 
Si 3.0072806099999996 4.66361523 21.940123960042566 
Si 2.55340863 6.7093623 23.22991841294796 
Si 1.238742099 6.823033919999999 25.2693739197998 
Si 1.486827396 6.65619174 29.302418355118714 
Si 3.7675512 4.61754711 27.01928584931246 
Si 2.58975162 6.6853997099999996 27.219446629588354 
Si 0.40501175399999995 4.85852508 34.31908832749363 
Si 3.0379709699999995 5.22592974 30.466641384307604 
Si 1.8764451 7.006394159999999 32.30804452179648 
Si 2.6140562999999997 7.9441117199999995 34.42786159213328 
Si 3.95907273 9.339952949999999 1.3337150717098496 
Si -0.00613300581 8.1394614 2.684760589841791 
Si 1.3582227329999998 9.50585031 4.072447524511545 
Si 2.7070070399999997 10.84972644 2.6950468699678667 
Si 1.30644171 12.21028353 1.3208952420769144 
Si 0.000167172867 8.14454388 8.145240690156358 
Si 2.7161294399999996 8.14527693 5.429711126630989 
Si -0.001496146905 10.86039639 5.430333280670872 
Si 2.71546155 10.8598914 8.14520612604303 
Si 1.357432668 9.50295069 9.502400599935823 
Si 0.001074722976 10.85927238 10.862256510554781 
Si 1.361505168 12.22370649 12.245823402915974 
Si 2.86914141 10.95191361 13.607200134521314 
Si 1.3431805469999998 9.57208545 14.772736600016623 
Si 3.9843548099999997 9.25685766 20.941290213122738 
Si 2.61397485 10.10193399 17.838296939203182 
Si 2.81543328 11.092822109999998 24.90959606418043 
Si 1.96657767 8.746557119999999 22.171081365292697 
Si 0.9764323739999999 10.16201151 23.767977965107313 
Si 0.106518681 8.95974435 25.612249924002324 
Si 4.00882239 10.29014865 28.543701503480637 
Si 2.3887493099999997 11.41730262 27.250899972715803 
Si 0.492052482 10.08961875 27.712953039669372 
Si 1.216807614 8.59693347 30.666214574656934 
Si 3.2192297999999995 9.901469249999998 30.714327820407938 
Si 3.72571848 12.135707909999999 33.5583667572826 
Si -9.266761979999999e-05 13.580972999999998 2.715138989044775 
Si 2.5583444999999996 13.78375092 0.13396739248474018 
Si 1.356214176 14.931088199999998 4.071721678131681 
Si 0.00031022676 13.57486425 8.145136997816378 
Si 2.71404432 13.57553214 5.4304369730108535 
Si 1.3569700319999998 12.21790725 6.787251241657049 
Si 4.08263238 14.92550073 12.253254687281249 
Si 1.358799399 14.93454168 9.502020394689225 
Si 2.7146959199999996 13.57287687 10.860908510135033 
Si 2.6228529 16.15321287 13.706502832109406 
Si 1.131902505 14.95679382 15.219616021219696 
Si 3.53110185 14.496992279999999 16.383839050408586 
Si 0.36011325599999994 14.39175888 17.935041892405085 
Si 2.5663917599999997 12.97884573 20.141718579532306 
Si 0.589051287 12.24432963 19.000446121592457 
Si 2.55700872 14.80252752 18.57112526995943 
Si 2.40556059 13.97129769 22.364156502336577 
Si 0.388764108 14.787442979999998 23.232061387974227 
Si 3.90751488 12.86230707 23.822416443597128 
Si 3.62362905 15.920249579999998 21.929547341364543 
Si 0.7830342359999999 15.936995699999999 25.359586255582926 
Si 0.526473252 14.97503862 27.476569068626922 
Si 2.1047168700000003 13.49820351 28.354497547129363 
Si 3.9484679399999996 14.929719839999999 28.862520884807665 
Si 3.2402439 12.206471669999999 31.3104205188431 
Si 1.132699086 15.3873711 31.204446947382923 
Si 1.192268358 13.07482641 30.48717246762376 
Si 6.7884828299999995 4.07515527 4.071894498698314 
Si 8.14407147 -0.020517417899999998 2.7033871905136397 
Si 4.0669939799999995 1.360190565 4.06940588253878 
Si 5.4214749 2.72411154 2.7038399803982216 
Si 6.655198049999999 1.221385104 1.3738301816370124 
Si 5.42992941 -0.00019777688999999998 5.428639639117857 
Si 5.429701349999999 2.71454931 8.145067869589724 
Si 6.78773349 1.35751086 6.78745862633701 
Si 4.07269548 1.35622395 9.501294548309362 
Si 5.42911491 0.0033817388399999997 10.861046766588341 
Si 6.78375873 1.3348579859999998 12.246722069862471 
Si 7.1534114099999995 3.6297866699999997 14.941029267805142 
Si 5.41002303 2.69215056 13.636130297375903 
Si 5.8368861899999995 0.29623364999999996 16.913741471822796 
Si 6.226103159999999 2.6719183799999997 20.357329518465306 
Si 4.62232008 1.65073086 18.923160764193582 
Si 7.55991207 3.5397844199999997 18.606657178459454 
Si 7.979542469999999 1.494651483 21.46421068364492 
Si 6.86990025 0.08352127349999999 22.916076263940003 
Si 5.93187318 1.82987199 24.313157724612 
Si 6.40964259 0.841955166 26.47175573010155 
Si 5.30975808 2.23686135 30.073993056914382 
Si 6.860321729999999 1.09204902 28.76791890663203 
Si 7.172144909999999 2.78630676 31.587555579497923 
Si 7.28141823 0.8047813859999999 32.85097761393492 
Si 5.29654689 0.260931591 34.17440294910736 
Si 4.136764049999999 4.13813241 1.2229681961992325 
Si 6.94706598 6.85650987 1.134836620038385 
Si 5.45148108 8.12996433 2.6939339055187417 
Si 8.137848689999998 5.41818432 2.685507174689651 
Si 4.0721253299999995 4.07240226 6.787700575130298 
Si 5.42797461 5.428544759999999 5.430713485917469 
Si 6.78773349 6.78730995 6.787389498110356 
Si 6.787440269999999 4.07378691 9.502988189862378 
Si 4.073428529999999 6.78809187 9.502296907595841 
Si 5.42869137 5.43082536 10.862913228707992 
Si 6.79095891 6.78931362 12.236525656431045 
Si 5.99849928 4.16178549 17.001015857973137 
Si 5.91076134 6.3487668600000005 16.298742203397836 
Si 4.08233916 6.8833557899999995 14.873767503271058 
Si 7.84762605 7.72214418 16.18084401283989 
Si 6.40957743 6.16227894 20.586489589822442 
Si 5.31368397 6.730441559999999 18.564834601333942 
Si 5.4033929999999994 4.3944392699999995 21.762464417542464 
Si 5.827389119999999 8.031849659999999 21.932588983337308 
Si 4.699111139999999 7.28645184 23.910554932580645 
Si 6.528184919999999 4.1200505099999996 23.853800658497924 
Si 5.35401801 5.49611568 25.406455193254153 
Si 4.8803211 4.37189391 29.113560039900708 
Si 6.30313857 6.952962959999999 27.049771397266756 
Si 7.01535366 5.53368042 28.83148231104014 
Si 5.6604166199999995 5.53117176 34.178654335046566 
Si 7.570582019999999 4.955613479999999 32.709990595674626 
Si 4.2173181 6.96909006 32.897915679832806 
Si 6.79134987 9.50099589 4.072343832171564 
Si 4.07137599 12.22139331 4.068472651478954 
Si 6.6223737 11.99359395 1.275557494626062 
Si 4.0721742 9.50283666 6.787596882790317 
Si 5.42996199 8.145179189999999 8.145275254269684 
Si 5.43116745 10.859679629999999 5.429987639537604 
Si 6.7886945999999995 9.503862929999999 9.502780805182418 
Si 4.09325346 9.49871529 12.21647847070146 
Si 5.42748591 10.857855149999999 10.863327998067914 
Si 6.89971095 9.67344183 15.2279805366448 
Si 5.5454580899999995 8.3017098 13.623479831898269 
Si 5.11939314 10.51102476 16.713788076226866 
Si 7.9112385 9.8512146 19.450505441221605 
Si 4.47500961 11.52118395 20.25159789579842 
Si 6.407492309999999 11.653589069999999 18.8198831935729 
Si 5.780408759999999 9.10747836 18.65394088549061 
Si 7.21034496 11.299037219999999 23.024158246313117 
Si 7.753290659999999 9.39960693 21.777223293933037 
Si 6.433311959999999 10.290800249999998 25.05590595589306 
Si 4.33504593 9.26845614 25.136129262924722 
Si 7.70332923 8.452848419999999 25.924986021383827 
Si 7.67558736 10.209806369999999 29.668452315250242 
Si 6.597987569999999 12.10368177 26.566703349410453 
Si 4.33952568 8.30742759 27.2929644986346 
Si 5.9503786199999995 11.59875693 28.798058813453057 
Si 5.24327859 10.54821483 34.351785978700846 
Si 7.194853169999999 8.42236983 31.145687954727244 
Si 5.10505794 9.090829979999999 32.15686109010476 
Si 4.1996271599999995 15.02793225 1.248310604090492 
Si 5.43429513 13.569016139999999 2.691289750849236 
Si 6.79385853 14.92802568 4.073104242664755 
Si 4.07235339 14.93242398 6.787354933997029 
Si 5.4298316699999996 13.575043439999998 8.145171561929704 
Si 6.78763575 12.21738597 6.787907959810259 
Si 4.07316789 12.218607719999998 9.502504292275802 
Si 6.786479159999999 14.93258688 9.503161010429013 
Si 6.8000813099999995 12.22802334 12.259441663566758 
Si 5.63563953 13.707187919999999 13.824228202100718 
Si 7.187929919999999 14.94195363 15.570338079147426 
Si 8.09391456 16.18994682 13.785205318154684 
Si 4.172178509999999 12.372906599999999 15.230676537484294 
Si 8.08751259 13.256313299999999 19.197461567555607 
Si 5.69995245 14.92100469 21.44157118941582 
Si 6.77429424 15.19641972 19.328597813517742 
Si 5.46628869 12.57938235 22.090063083654517 
Si 7.466896169999999 14.62864806 24.3233195739301 
Si 5.44353156 13.874193 25.36314635925559 
Si 5.55075234 13.624092629999998 29.969194665307317 
Si 7.4099789099999995 15.20422263 29.558538434870805 
Si 4.5634806 15.686390339999999 26.69607682559292 
Si 8.6468949 1.8010224 0.08023920652379052 
Si 9.50125653 1.361917305 4.069025677292184 
Si 10.86285618 2.7128225699999997 2.7011681744380547 
Si 12.21593616 4.07162034 4.0701662930319715 
Si 9.41759109 3.9172074299999995 1.2360645387387827 
Si 8.14465791 0.000289725795 8.144964177249742 
Si 8.14464162 2.71461447 5.430195024217565 
Si 10.85902803 -0.0010771746209999999 5.4283631262112415 
Si 10.8597285 2.7152009099999996 8.144791356683108 
Si 9.50327649 1.356715908 9.50174388178261 
Si 8.1492354 2.71050939 10.863500818634549 
Si 10.858083209999998 0.0048925386 10.86039004843513 
Si 9.51751395 4.08101967 12.20192697899085 
Si 12.06057843 0.22690992599999998 16.789448920299378 
Si 10.67574924 2.16085221 17.086631166683787 
Si 8.976751109999999 1.90547388 15.046622634018725 
Si 10.90560114 2.86058916 13.64058906799507 
Si 11.64516714 0.9268765649999999 21.127141450481307 
Si 8.65370412 0.23517873 19.65325852999701 
Si 8.368124129999998 1.5766439399999999 17.573604959346028 
Si 9.675054539999998 1.321469235 24.88941062199754 
Si 10.00468269 1.96107165 22.583534929622207 
Si 9.00612198 3.39350022 25.891424267343435 
Si 11.25246411 0.1202438205 28.064712020996904 
Si 10.772544420000001 1.40001147 30.016927705811725 
Si 8.6203422 2.30847219 29.76447142207228 
Si 11.71272177 1.086782463 25.95253361970534 
Si 8.61859917 3.94872858 28.09312372215159 
Si 10.618701660000001 0.231927246 34.36730526558461 
Si 12.037788719999998 3.28412916 30.83091257465946 
Si 10.861422659999999 8.13134898 2.723624478866521 
Si 12.079067579999998 6.7383585 1.2717208780467797 
Si 9.50583402 6.78726108 4.072412960398218 
Si 9.50264118 4.07276064 6.787389498110356 
Si 8.14527693 5.43058101 8.144825920796436 
Si 10.86000543 5.430646169999999 5.431197383504045 
Si 10.8567963 5.4305973 10.857486662915674 
Si 8.14488597 8.14364793 10.863397126294569 
Si 9.505215 6.78809187 9.501674753555957 
Si 8.190954089999998 5.36841837 13.600391004195922 
Si 9.612484649999999 6.76196271 14.998129183021128 
Si 11.328033419999999 6.591618179999999 16.714202845586787 
Si 11.997715320000001 4.39165368 17.107646147586525 
Si 11.15638569 7.4000582999999995 20.941324777236066 
Si 10.65590802 5.15915703 20.680262029278232 
Si 8.50416192 5.49189657 19.55039572873625 
Si 10.928553749999999 7.95528666 18.647857601545077 
Si 8.56471185 7.542840149999999 18.38409885274775 
Si 10.591692839999999 4.206582989999999 22.851130294998818 
Si 8.76954231 4.97582937 24.178668759657157 
Si 9.33001605 7.27097634 24.65323403563505 
Si 10.969229879999999 6.92756685 26.387004524224068 
Si 10.55393262 6.9450460199999995 30.16814570161677 
Si 11.943762839999998 5.20186941 29.362732732874097 
Si 10.86795495 4.70816838 27.29825280797361 
Si 8.27828478 6.368901299999999 30.705721356189546 
Si 8.853093719999999 7.56937656 34.28507723997999 
Si 12.0687723 4.30678278 33.05552803660333 
Si 10.509656399999999 5.54922108 34.484581302102676 
Si 9.52288965 9.32991831 1.25692743754288 
Si 8.14620546 10.8392031 2.685866641468251 
Si 11.33788887 10.2242556 0.02299391464715211 
Si 12.21725565 12.12919191 1.2225845345413042 
Si 8.14262166 8.14284972 5.4304715371241805 
Si 9.50252715 9.50200587 6.78690560052378 
Si 10.85984253 8.14498371 8.144549407889821 
Si 8.14514661 10.86020091 8.144618536116473 
Si 10.85984253 10.85749677 5.430160460104238 
Si 9.49583196 9.51725331 12.236974989904294 
Si 10.85824611 10.860477839999998 10.859940714961882 
Si 11.26324809 11.105723789999999 16.588873370663567 
Si 10.8646155 8.20695087 13.61407839307336 
Si 8.27703045 10.97221095 13.782889522561783 
Si 9.75598326 12.210625619999998 15.161582874943887 
Si 11.064640409999999 11.4106563 20.874235833268617 
Si 10.29096315 10.1898837 18.975974729357038 
Si 9.791756099999999 8.46532656 22.604031448825044 
Si 11.165459219999999 10.34454096 23.011922550195408 
Si 10.28302992 11.843611919999999 24.58714745095408 
Si 8.941809059999999 11.62871424 26.55979052674508 
Si 11.16431892 12.109676489999998 29.64145774274196 
Si 8.75266587 9.57226464 27.68094667072869 
Si 10.63662066 8.38138419 28.25764890158748 
Si 12.20505444 10.09044954 28.776871011983687 
Si 9.30900195 11.41788906 30.944766763958164 
Si 11.87962911 8.1818154 31.795355028819053 
Si 10.22252886 9.74397753 32.51881648486373 
Si 8.28229212 13.15406097 0.13333970818672425 
Si 9.50291811 12.21732081 4.064670599012999 
Si 9.52375302 14.86477161 1.2767637821811695 
Si 10.87316775 13.56297255 2.6953372085198124 
Si 8.14340358 13.575988259999999 5.430851742370776 
Si 9.50251086 14.932016729999999 6.787666011016971 
Si 10.859907689999998 13.574457 8.144791356683108 
Si 9.50319504 12.21763032 9.501951266462571 
Si 8.14480452 13.572665099999998 10.861461535948264 
Si 9.49591341 14.940520109999998 12.23977468308377 
Si 10.90881027 13.627432079999998 13.609170288980946 
Si 8.936417070000001 13.686939449999999 16.87973038430916 
Si 9.6291819 13.2986673 21.041733526450617 
Si 10.592442179999999 15.32012598 20.229995324969124 
Si 11.01919131 14.75253351 18.001819759352593 
Si 8.80578756 13.024718369999999 23.24661287968484 
Si 8.371268099999998 15.951982499999998 25.962868289590073 
Si 11.968605089999999 12.73664601 25.92502058549715 
Si 10.386520289999998 13.089829499999999 27.66739753830456 
Si 9.26136999 15.09309225 27.965478451635466 
Si 8.35157349 15.309358289999999 31.718415312553443 
Si 8.2249839 13.049935289999999 32.396113882553344 
Si 10.78000524 15.855838919999998 31.754465682753366 
Si 16.2847872 2.70637173 2.7043169651621324 
Si 13.581087029999999 -0.0099647559 2.705426473199925 
Si 12.233301299999999 1.3410042029999998 1.3130941216990404 
Si 14.934688289999999 1.3574961989999998 4.071652549905027 
Si 16.290325799999998 3.41549172e-05 5.430091331877584 
Si 13.57514118 0.000328963518 8.144687664343127 
Si 13.574603609999999 2.71461447 5.431301075844025 
Si 12.21802128 1.357572762 6.787804267470278 
Si 14.93165835 1.356798987 9.502677112842436 
Si 13.576770179999999 2.71435383 10.859975279075208 
Si 12.20037921 1.360343691 12.23493570721801 
Si 14.94270297 4.06652157 12.201857850764195 
Si 16.28265321 2.6939424599999997 13.55735868310397 
Si 13.612526729999999 0.01594044918 13.608479006714408 
Si 14.53766841 1.78339662 14.841761134330378 
Si 12.863708009999998 3.56482215 15.0198354461904 
Si 15.860660759999998 2.85329124 17.547301669104282 
Si 12.36054249 2.14123905 19.173508637020085 
Si 14.09664924 0.9776296889999999 17.96856908233215 
Si 14.230406429999999 2.93408964 22.63759320286543 
Si 16.213469579999998 3.00710142 23.959601409391468 
Si 13.43477025 0.10258969589999999 24.673834247177865 
Si 13.60136808 0.6174594179999999 22.37670327547423 
Si 15.380789939999998 1.261828287 25.378008927986144 
Si 14.405230709999998 0.9617827769999999 29.190776269072927 
Si 12.507999569999999 3.2495780699999997 26.258667971441408 
Si 14.53351446 2.3928869699999997 27.277652596430794 
Si 16.18571142 0.19315053 34.37297378017022 
Si 13.418431379999998 2.85187401 34.46491432161969 
Si 14.15750868 2.23783875 31.150699751159642 
Si 14.3104392 0.9945745469999999 33.185903872072274 
Si 15.74366598 4.05935397 31.335272116325115 
Si 14.96598138 4.07763135 1.2851594053082656 
Si 13.574049749999999 5.43815586 2.6878990113318704 
Si 14.92957323 6.791496479999999 4.0700971648053175 
Si 14.93257059 4.07220678 6.787804267470278 
Si 13.575108599999998 5.43004344 8.144791356683108 
Si 12.21699501 6.78778236 6.787804267470278 
Si 13.577715 8.14459275 10.858696406882116 
Si 12.217809509999999 4.0733144999999995 9.502919061635724 
Si 14.932668329999998 6.78688641 9.501916702349247 
Si 12.207155849999998 6.78923217 12.2287487309325 
Si 16.26502743 8.11808892 13.51930359433109 
Si 16.029669509999998 4.98382776 16.325563955339486 
Si 13.399828199999998 7.66214811 16.18945047705828 
Si 13.52816082 5.32578744 13.54069878048042 
Si 14.994407429999999 6.56843751 14.88268504450939 
Si 13.34675538 8.05074606 21.52822342152628 
Si 14.55780285 4.47082308 20.874443217948574 
Si 12.606097949999999 4.45880106 19.453166877947773 
Si 14.8838472 6.427545299999999 22.214459327517915 
Si 12.69970029 4.07829924 24.025065840032557 
Si 14.164366769999999 5.8457968199999994 24.472325466482225 
Si 16.12064916 4.92818112 25.32284460311646 
Si 15.794344169999999 5.39632314 29.20643381241 
Si 13.2998076 7.11095967 26.27868059305766 
Si 13.787856 6.627016349999999 28.677568314395597 
Si 13.580011889999998 10.85788773 2.699491814941702 
Si 15.59591568 11.4608295 0.3011018168356761 
Si 12.217679189999998 9.50334165 4.0728622938714665 
Si 14.852049119999998 9.452223629999999 1.2171717943943168 
Si 13.573903139999999 8.14482081 5.431439332297333 
Si 14.93175609 9.503309069999998 6.787424062223683 
Si 13.57489683 10.86007059 8.145033305476396 
Si 12.216718079999998 9.501973289999999 9.502504292275802 
Si 14.91981552 9.50181039 12.20666226251663 
Si 12.21378588 12.224586149999999 12.21585631666158 
Si 16.06788585 10.37146833 16.34042652407004 
Si 12.24550251 9.461867309999999 15.062936895509004 
Si 13.516057349999999 10.80044919 13.553522066524689 
Si 14.77659384 11.965395959999999 15.141501125100977 
Si 15.177865409999999 11.19976596 20.367422239556753 
Si 14.83447221 8.92553535 19.902811428216996 
Si 15.09441174 8.51694957 17.580690602578034 
Si 13.445863739999998 9.6879888 23.24063328807929 
Si 15.33885948 11.10709215 22.733888822594082 
Si 14.03124489 9.15941088 25.467218904482788 
Si 13.54858848 8.66051334 30.1229012772719 
Si 13.205097539999999 10.90605726 26.833814817200487 
Si 15.08066298 11.77793064 27.923206541036706 
Si 15.34900815 11.97091827 30.299627588712173 
Si 15.45987789 9.73801539 31.056305157663967 
Si 12.995608139999998 8.47593135 34.42195112875439 
Si 12.21903126 14.929833869999998 4.0700971648053175 
Si 14.929899029999998 12.22000866 4.075247217691021 
Si 14.98590405 14.96573703 1.2870915392432378 
Si 13.57590681 13.57486425 5.430713485917469 
Si 12.217532579999999 12.2173371 6.787424062223683 
Si 14.93276607 14.9323914 6.787527754563664 
Si 12.216343409999999 14.93133255 9.502435164049148 
Si 14.93276607 12.218167889999998 9.502400599935823 
Si 13.57541811 13.574945699999999 10.861461535948264 
Si 14.941481219999998 14.92862841 12.237769964510813 
Si 12.98143584 12.86892081 16.402918440965017 
Si 12.419202779999999 14.84177013 15.046449813452089 
Si 16.20568296 13.513548689999999 13.775492802309833 
Si 13.33877328 13.751350109999999 18.565491319487155 
Si 15.677137619999998 16.1388288 21.50717387651022 
Si 13.143081509999998 12.430882709999999 20.470388733157492 
Si 14.971845779999999 15.44415804 19.258951125164103 
Si 13.16012085 14.18984433 22.06960112856501 
Si 14.876647019999998 13.309060319999999 23.410377648627538 
Si 13.715446949999999 14.12419563 25.25364724823607 
Si 14.70649797 14.03647398 27.383522475550993 
Si 13.18155849 15.246706949999998 28.784993578615502 
Si 14.02323021 13.17898467 34.52477936590182 
Si 14.127877169999998 13.306812299999999 31.995930578454868 
Si 15.461181089999998 15.24576213 32.410734502490605 
Si 12.23711316 14.04663894 30.61582009742636 
