&CONTROL
  dt          = 30.D0,
  prefix = 'x.66_y2.00_z3.15_struc17-scf',
  pseudo_dir = './',
  outdir='./',
  wf_collect= .true.,
  verbosity= 'high',
/

&SYSTEM
ibrav= 6, celldm(1) =30.783621515, celldm(3) =2.1024929778250487, nat=  432, ntyp= 1,
  ecutwfc     = 12.D0, nbnd= 1728,
  degauss     = 0.05D0,
  occupations = "smearing",
  smearing    = "methfessel-paxton",
/
&ELECTRONS
  electron_maxstep=200,
  conv_thr    = 1.D-8,
  mixing_beta = 0.3D0,
  scf_must_converge=.false.,
/
&IONS
/
ATOMIC_SPECIES
Si  28.08  Si.pbe-hgh.UPF
K_POINTS {automatic}
1 1 1 0 0 0
ATOMIC_POSITIONS (angstrom)
Si 0.00264244977 2.7043517699999997 2.7044109029675782 
Si 1.3799584799999998 1.2915379889999998 1.3052321105338611 
Si 4.07277693 1.356730569 4.069504482923447 
Si -0.001468411551 0.000362335212 5.430892255011448 
Si 0.000312297219 2.71495656 8.144831399650386 
Si 2.71539639 -0.000516368565 8.144660151597341 
Si 2.71590138 2.71547784 5.4310977526751 
Si 1.357312122 1.3574896829999998 6.7874850816142205 
Si 2.71166598 2.7159828299999997 10.862948996783594 
Si 1.363380147 1.365872517 12.241290326122936 
Si 4.0723696799999995 1.3566181679999998 9.502554463403246 
Si 1.76125851 2.0867164199999997 16.48553632237233 
Si 2.96556192 0.13876750529999998 13.589081002799254 
Si 0.282918204 0.1533633453 16.216060386102527 
Si 1.124602956 0.6316854749999999 20.47698594271839 
Si 3.26280555 3.2510930399999998 18.908456525668544 
Si 1.085866965 2.28850065 18.77721201781574 
Si 0.668357523 2.06873226 22.30930586067698 
Si 2.55392991 2.2548455099999996 23.78977952885167 
Si 2.66447385 0.28401614999999997 24.99978402204891 
Si 2.20130028 3.9396061799999997 25.409854609867708 
Si 1.071663714 3.35741787 29.951695472696706 
Si 3.8144826899999997 3.27003831 26.99739256080542 
Si 3.8572928099999997 0.8871126749999999 26.920193938493252 
Si 2.38182606 2.9222631 34.10059055301128 
Si 1.427868999 1.071673488 30.184353077562083 
Si 3.2244751799999998 1.95263343 31.946872289099996 
Si 3.98513673 4.08901806 1.1481085969050675 
Si 4.07473173 6.78155958 4.072758195931281 
Si 1.357696566 4.07025198 4.071045715400842 
Si 2.72429073 5.43545172 2.69180362130249 
Si 1.4034910139999999 6.79020957 1.2445041259634508 
Si 2.7142886699999997 5.430466979999999 8.144865649260995 
Si 1.358023995 6.78716334 6.787587830446046 
Si 2.7164389499999997 8.145537569999998 5.43027576202049 
Si 4.06704285 4.08067758 12.250914466704 
Si 1.358136396 4.073184179999999 9.501424226253159 
Si 0.0007749120419999999 5.43191679 10.861270765863765 
Si 1.359413532 6.76504152 12.228343973312821 
Si 2.7161294399999996 8.14459275 10.860791271315243 
Si 3.54517641 7.4216425500000005 15.054656090359131 
Si 0.06012997379999999 6.2429633099999995 16.223903546931933 
Si 1.1384299079999998 4.11382773 15.129422990318078 
Si 2.68732872 5.425026119999999 13.773617904759307 
Si 3.45134601 4.16235564 21.13519495939773 
Si 3.4557280199999996 7.8010366499999995 21.194172788866034 
Si 3.0198564899999996 7.202933009999999 18.87386441895369 
Si 0.806413644 7.88820444 18.84738946995311 
Si 3.6265286699999995 5.153390369999999 17.65382478984808 
Si 1.075320819 4.215721680000001 21.506940232945322 
Si 1.82993715 7.27369677 22.891240994530587 
Si 2.57714316 6.254056799999999 24.882684603377523 
Si 3.17620791 4.155318359999999 29.12597161052987 
Si 2.30135346 7.5319584299999995 26.84450229904787 
Si 0.03749713649999999 7.677949409999999 27.36581562212396 
Si 3.28961889 6.4554500699999995 28.686514856808742 
Si 0.695558565 4.80787947 34.18039214572971 
Si 2.41487847 7.316490599999999 30.691213064961268 
Si 0.39798099 6.51432213 31.76925380848291 
Si 1.358084268 9.50044203 4.068134498499097 
Si 2.70588303 10.87776153 2.702273727265591 
Si 0.00027931648499999995 8.14486968 8.144899898871603 
Si -0.000513108936 10.861357499999999 5.430755256569014 
Si 2.71494027 10.85995656 8.145071146924648 
Si 4.07183211 9.51039522 12.22947421046291 
Si 1.3568608889999998 9.50239683 9.502348965739596 
Si 1.34641737 12.206716019999998 12.239612095203105 
Si 0.25858094400000003 8.86856922 16.760218199454663 
Si 2.6266321799999997 10.76853708 13.64932606786008 
Si 1.6982650799999999 8.9829576 14.881969553669714 
Si 3.99305367 12.030116129999998 15.108393729404293 
Si 0.309628917 11.12533695 19.499639054386527 
Si 2.5120971899999995 11.75276259 18.588222666476547 
Si 0.669986523 9.242229239999999 22.85020996102128 
Si 2.0037514499999998 11.06120322 23.243361241199352 
Si 3.7410473699999995 10.18845018 21.84721011434345 
Si 2.46192399 11.396484 25.51756963523229 
Si 3.14809137 10.73509371 29.023120029871734 
Si 3.36373839 9.69377175 26.88176587539021 
Si 2.74473468 8.349520949999999 34.05938827144893 
Si 0.1099205217 10.99682514 33.9245475544822 
Si 1.6757522999999999 9.44875386 30.219321929993637 
Si 1.8490779 10.133422559999998 32.59542291558767 
Si 0.439704567 15.820685099999999 0.0691780484998059 
Si 2.73066012 16.28732844 2.712332837901387 
Si 4.003251209999999 14.89197591 1.2883025280099458 
Si -0.001002704886 13.56017067 2.714322740277756 
Si 1.3092305579999999 12.24033858 1.2478845625305366 
Si 1.3572648809999999 14.93312445 4.068613993047619 
Si 0.000287764479 13.57505973 8.144728650818559 
Si 2.71531494 13.57356105 5.429762017861359 
Si 1.357284429 12.217532579999999 6.78775907849909 
Si 4.0912334999999995 14.915107710000001 12.227110987330905 
Si 1.3557596849999998 14.93318961 9.501218728589507 
Si 2.71663443 13.57769871 10.864147733154901 
Si 2.2296123 13.28897475 15.96805895568442 
Si 1.481466357 15.075596789999999 14.780282459772275 
Si 0.1386265968 14.71281849 17.92203349052536 
Si 3.83609952 12.241690649999999 20.585146213020884 
Si 3.28994469 15.962375519999998 20.55740402842778 
Si 2.40924213 14.11119621 18.106330645211152 
Si 2.88305307 14.00198805 21.871869833981766 
Si 0.8745091019999999 13.10848155 22.663549583203487 
Si 3.62377566 14.663915909999998 24.019697164868344 
Si 0.38502718199999997 16.27196697 25.402251196312566 
Si 1.78818588 12.6429948 29.550940778963486 
Si 3.55853421 14.194486979999999 29.40301671074421 
Si 0.24897636 12.29745132 26.01049003111371 
Si 0.37604324699999997 15.881756309999998 27.670534407710186 
Si 2.55103029 16.134821459999998 28.562086021467078 
Si 2.2279833 14.03810298 34.07771181312462 
Si 1.057328514 12.865337010000001 31.980539656328418 
Si 6.783498089999999 4.07300499 4.067381007065704 
Si 5.41108188 2.7319633199999998 2.692159817252821 
Si 6.85468539 1.484403444 1.3413928494146004 
Si 5.4288542699999995 0.000394960824 5.4309950038432735 
Si 5.43035295 2.71450044 8.14500264770343 
Si 6.78730995 1.357668873 6.787656329667264 
Si 8.147329469999999 2.71021617 10.86133926508498 
Si 5.4329430599999995 -0.0027366059699999996 10.858873293121151 
Si 6.789623129999999 1.3599299249999999 12.231015442940304 
Si 7.08499341 3.8844319499999997 15.149013767586293 
Si 8.05367826 0.06562442789999999 13.784920276260202 
Si 4.67513226 1.032766452 15.11709313049892 
Si 5.50994589 2.76817599 13.674876277374223 
Si 4.761713609999999 1.82449629 17.565186797592588 
Si 7.07951997 0.668730564 20.430200974626807 
Si 7.09533756 2.19528927 18.66463354774471 
Si 4.60034487 2.7557955899999995 22.70766308166758 
Si 6.61709574 3.3161552999999997 24.105423940222096 
Si 5.104178279999999 0.732336498 21.68541495382762 
Si 6.81383007 3.6370031399999996 29.34900507481418 
Si 7.032278969999999 1.2421418219999998 28.89554023035406 
Si 4.82682474 3.78623583 30.772932635873794 
Si 6.87467322 0.599318874 31.255646647793796 
Si 4.78495944 0.20996506799999998 32.32012454551437 
Si 8.027581679999999 3.0390786899999997 34.15312945568514 
Si 6.98572215 7.0110531 1.2420861034544717 
Si 4.073037569999999 4.0720927499999995 6.786800089402045 
Si 5.430206339999999 5.4322263 5.4308580054008395 
Si 6.787684619999999 6.78753801 6.78724533433996 
Si 6.78753801 4.07196243 9.502554463403246 
Si 4.07225565 6.787342529999999 9.502417464960814 
Si 5.430711329999999 5.4307602 10.864181982765508 
Si 6.768055169999999 6.79817538 12.243790547697376 
Si 6.03158427 5.14858482 17.199948950060662 
Si 6.87043782 5.5477224 21.101664590611747 
Si 7.3010639699999995 7.62253083 20.17483587792782 
Si 7.47137592 4.47590556 19.06573073758402 
Si 6.518720429999999 7.416625229999999 17.814421213992606 
Si 6.06927933 8.07492042 24.616599378557986 
Si 4.73196807 5.96632653 21.93725234063391 
Si 8.047569509999999 4.96009323 23.054200641807117 
Si 4.8182236199999995 6.10189191 24.352671879206806 
Si 5.53786695 7.25911722 28.421594118749905 
Si 5.63513454 4.45272489 25.933565405686412 
Si 6.86919978 5.40510345 27.729580736399708 
Si 6.9459908399999994 5.375178719999999 33.72750954464995 
Si 4.80983427 5.23215252 32.829347756045564 
Si 4.12254288 7.47585567 32.28847790531187 
Si 4.1072302800000005 9.53124642 1.373258687125 
Si 5.43594042 8.12900322 2.702903920100792 
Si 6.78815703 9.502038449999999 4.0700867263037965 
Si 4.0728909600000005 9.50220135 6.787896076941526 
Si 5.4297990899999995 8.145228059999999 8.144968398092821 
Si 5.42916378 10.86018462 5.4309265046220565 
Si 6.787554299999999 9.50303214 9.502862709898727 
Si 5.42683431 10.8590769 10.862024257297158 
Si 6.9985098 9.58239702 15.144527068596545 
Si 5.3610552899999995 8.19950634 13.72782617537538 
Si 7.13751237 9.72182313 21.235375070428383 
Si 7.32163824 11.35155618 19.515873369815083 
Si 6.62541993 11.0368008 17.246768167762852 
Si 4.30292205 10.83239388 17.193955268204128 
Si 4.31816949 8.40917493 17.183440637747236 
Si 5.723996489999999 9.94338342 23.091464218149458 
Si 6.113897639999999 12.057124949999999 24.092374838580156 
Si 7.9627311899999995 11.90051289 25.49585538210633 
Si 6.3969038099999995 12.157992629999999 28.761864000148034 
Si 5.66326737 8.99149356 26.761960737480734 
Si 7.3838171699999995 10.576592009999999 27.359856189878034 
Si 4.24905102 11.609573489999999 32.21703321758197 
Si 7.6328749799999995 8.96526666 33.928828755808304 
Si 8.073291419999999 8.26927641 31.64708544744143 
Si 5.67724419 10.607901389999999 34.044455441223505 
Si 5.2015598999999995 10.72991349 30.226856844327568 
Si 5.966065889999999 8.450828459999999 30.450164305496745 
Si 4.073461109999999 12.218607719999998 4.073169191258586 
Si 5.418852209999999 13.56162048 2.689152701441371 
Si 6.749028449999999 12.26557179 1.1420190161388282 
Si 6.78766833 14.931479159999999 4.0649492847124815 
Si 5.74556445 16.03452393 0.14866180483179073 
Si 4.072516289999999 14.932603169999998 6.7874850816142205 
Si 5.43012489 13.57558101 8.145379393420127 
Si 6.78716334 12.21736968 6.787313833561176 
Si 4.07326563 12.21728823 9.50193797041229 
Si 6.78822219 14.93437878 9.501869471191073 
Si 6.79364676 12.22139331 12.241256076512325 
Si 7.341837839999999 12.850056989999999 15.96168852811119 
Si 7.7233822199999995 14.897319029999998 16.970134062875815 
Si 5.49057708 13.529561759999998 13.829958514210734 
Si 6.30501192 15.41664423 15.048491160449554 
Si 6.017004719999999 13.1033502 20.278543698851173 
Si 6.52238568 15.02542359 18.99699176909222 
Si 4.39499313 15.90910722 18.444271553087887 
Si 5.658673589999999 15.491789999999998 23.367584578877363 
Si 6.784377749999999 13.68703719 22.41965810605843 
Si 7.057430729999999 15.888093119999999 25.206343423630397 
Si 4.27508244 12.950875799999999 25.47390138170611 
Si 7.98294708 13.55173245 29.716674644699328 
Si 5.90404986 16.081162199999998 27.263751782509825 
Si 5.074335 13.78436994 27.61926274062886 
Si 7.565580989999999 14.213090159999998 34.0955901098624 
Si 6.954282449999999 14.49378315 31.650544658112917 
Si 4.5173799 14.074983539999998 31.645133219636733 
Si 9.500784119999999 1.355661945 4.070018227082579 
Si 10.868899769999999 2.7099066599999997 2.6753877829377064 
Si 8.14475565 -8.12348091e-05 8.145139646145864 
Si 8.147052539999999 2.7151031699999995 5.4300702643568375 
Si 10.860738479999998 0.00215140401 5.430618258126578 
Si 10.85969592 2.71546155 8.145242394977691 
Si 12.207090690000001 1.369208709 12.248071749023472 
Si 9.502250219999999 1.358662563 9.501561224695593 
Si 10.85575374 0.001581110658 10.86586021368534 
Si 8.979471539999999 1.92021633 15.157096675689964 
Si 10.86687981 2.78746335 13.885168886512071 
Si 9.17055324 1.522746846 17.557857380922307 
Si 10.70565768 2.17131039 21.269521932205325 
Si 10.7510742 2.6875567799999995 18.851978917774684 
Si 8.82782793 0.8597764259999999 22.117028546719343 
Si 8.16244659 1.504541142 24.415382916231465 
Si 11.78917074 0.533199393 25.90219276236878 
Si 9.740784689999998 1.7282061 26.290857343557104 
Si 10.22521671 3.9639271499999995 27.013113132074846 
Si 9.293005169999999 0.684458559 28.40279108252569 
Si 8.706516299999999 3.94700184 30.760774024107683 
Si 8.78348655 1.90946493 32.05496406018128 
Si 10.675390859999998 0.9775140299999999 30.424751094425037 
Si 12.21916158 4.06832976 4.068065999277879 
Si 12.16511136 6.85688454 1.299854921668284 
Si 9.670542209999999 4.22850933 1.1874476996503007 
Si 8.16300045 5.44760406 2.690577485242696 
Si 9.501126209999999 6.7875054299999995 4.074813172567807 
Si 9.502087320000001 4.073021279999999 6.787622080056655 
Si 8.14535838 5.42968506 8.144899898871603 
Si 10.85984253 5.43281274 5.430378510852316 
Si 9.50400954 6.78714705 9.502040719244116 
Si 9.516552840000001 4.06979586 12.24200956794572 
Si 10.86077106 5.42852847 10.859215789227237 
Si 10.92870036 8.11126341 13.625693836540028 
Si 8.32153473 8.10626238 16.39080189942847 
Si 12.18570192 4.1713803 15.524321000637197 
Si 11.08503549 5.93529408 16.984176403225412 
Si 8.16197418 5.4409414499999995 13.629358544875169 
Si 9.62859546 6.7125062699999996 15.083665510544762 
Si 10.807144379999999 5.84806113 20.701560639480093 
Si 9.68161941 7.81698456 20.130619630631898 
Si 9.83912742 4.81569867 18.83341562882473 
Si 11.96257779 5.07469338 23.892083115740064 
Si 11.84732604 7.4794231799999995 24.055008513405983 
Si 8.168213249999999 6.87669318 24.54977838826028 
Si 10.27356543 4.30917741 22.410410711194064 
Si 8.91411606 5.96810214 26.655512947708676 
Si 10.62142209 4.24328436 29.384864417121562 
Si 11.47878108 6.4348757999999995 29.2553666394098 
Si 10.35076374 7.640743049999999 27.565319603920045 
Si 8.765062559999999 5.892646859999999 32.28330621410994 
Si 10.73027187 5.69146536 33.78011694654502 
Si 9.54988218 9.45771336 1.1317098833455885 
Si 10.835456399999998 8.146303199999998 2.710216211965765 
Si 8.157820229999999 10.871685359999999 2.669787971603173 
Si 8.14682448 8.14472307 5.430378510852316 
Si 9.50233167 9.50220135 6.787348083171785 
Si 10.859972849999998 8.14488597 8.144899898871603 
Si 8.14462533 10.86020091 8.144934148482212 
Si 10.859907689999998 10.86117831 5.430584008515969 
Si 8.14395744 8.146172879999998 10.864079233933683 
Si 9.51754653 9.496190339999998 12.227864478764298 
Si 10.861487819999999 10.858718519999998 10.85942128689089 
Si 9.50283666 12.215854709999999 9.502691461845682 
Si 8.24519979 10.890858689999998 13.61702868505601 
Si 11.76227595 9.790778699999999 17.109187481947423 
Si 10.73019042 11.12110155 21.39425901404247 
Si 9.5477319 12.14248455 19.651193581330336 
Si 10.18952532 8.25859017 17.815380203089653 
Si 10.6495875 11.85652989 17.362463352399278 
Si 9.36354087 9.36702693 21.859402975720172 
Si 11.066334569999999 12.093028109999999 23.499274331668083 
Si 9.750737879999999 8.5144572 23.984454315551922 
Si 9.91078713 10.719748529999999 24.958615990097165 
Si 10.993453109999999 11.201916240000001 27.00886618035936 
Si 9.516243329999998 9.77038362 28.179038376418596 
Si 11.584389149999998 10.208209949999999 34.15049223566826 
Si 9.493225559999999 12.192511139999999 30.83872613785324 
Si 11.818671929999999 9.82133874 31.630851132012875 
Si 9.7138899 9.81413856 30.52904115872874 
Si 12.21883578 14.93289639 4.068408495383967 
Si 9.50110992 12.2175 4.07025797435684 
Si 9.655881209999999 14.94081333 1.0810889588658263 
Si 10.858913999999999 13.555544309999998 2.6740417732407815 
Si 8.17218801 16.2955386 2.6851078224284755 
Si 8.14521177 13.57400088 5.4309265046220565 
Si 9.502413119999998 14.93274978 6.78693708784448 
Si 10.85982624 13.57507602 8.144762900429168 
Si 8.14340358 13.577454359999999 10.864627227703423 
Si 9.4936491 14.94381069 12.250674719429739 
Si 12.038977889999998 15.28899579 16.827552933911505 
Si 9.44704341 12.23512578 15.146856042117943 
Si 10.864012769999999 13.566426029999999 13.638263443633448 
Si 10.00961856 14.41381554 20.051571529346855 
Si 9.85501017 15.56349858 17.86445989509202 
Si 12.191061329999998 15.92039619 23.7352198991519 
Si 10.37063754 14.31407187 23.928045206879272 
Si 8.949514229999998 14.786025749999999 22.14631196378984 
Si 8.662288949999999 14.20375599 25.67022014971558 
Si 11.21608854 13.42237356 27.894766608365806 
Si 9.20345904 14.64371631 27.94107208190886 
Si 11.737417409999999 15.36806745 31.360587454699072 
Si 11.52970362 13.116235589999999 30.22747333731852 
Si 11.61045315 15.545270069999999 33.87015917283548 
Si 13.57603713 0.0075297104099999995 2.6947490878148446 
Si 12.264529229999999 1.2551330969999999 1.0981555398321765 
Si 14.93309187 1.358801028 4.074093930745023 
Si 13.57532037 -0.000219056517 8.144899898871603 
Si 13.57678647 2.71531494 5.431063503064491 
Si 12.21784209 1.357209495 6.787211084729351 
Si 16.2927693 -0.00494109909 10.8594555365015 
Si 14.93377605 1.357838289 9.502896959509336 
Si 13.571801729999999 2.7210490199999997 10.8621955053502 
Si 16.14213567 2.6777013299999997 13.62788581161899 
Si 13.68389322 0.0660976524 13.536439351293575 
Si 14.783158709999999 1.245036555 15.243953688193804 
Si 13.51525914 0.617498514 17.640946936259187 
Si 13.746316499999999 3.4283934 20.0525305184439 
Si 16.00270956 3.9773663999999997 19.63156855445151 
Si 12.841309260000001 2.86544358 17.768526735776852 
Si 14.62806162 2.3344873199999996 22.925182358643877 
Si 12.82181013 1.14965046 21.881082979235522 
Si 15.17030685 1.77310134 25.14363238660574 
Si 15.419837069999998 0.5715932939999999 29.512101720533142 
Si 13.93847334 2.2656457800000003 28.793099645023233 
Si 16.27590915 3.6342012599999998 26.03066305176228 
Si 13.319746559999999 2.13993585 26.52317245231639 
Si 15.7465656 3.71051991 28.335764594564328 
Si 13.94713962 2.4635529899999997 34.144943798749644 
Si 12.245746859999999 2.8018799999999997 30.358546597118288 
Si 13.70427201 3.7365676199999998 32.06510194492147 
Si 16.28765424 8.14493484 2.6842481572021955 
Si 15.02943093 4.10183829 1.2956730442129532 
Si 13.57131303 5.44045275 2.692368739877535 
Si 14.9315769 6.78828735 4.06998397747197 
Si 16.28973936 5.429424419999999 5.429145524870401 
Si 14.93283123 4.072060169999999 6.787690579277873 
Si 13.574668769999999 5.43001086 8.145071146924648 
Si 12.21732081 6.787391399999999 6.787827577720308 
Si 13.57540182 8.14410405 5.429522270587097 
Si 12.21696243 4.073086439999999 9.501492725474376 
Si 14.932847519999997 6.78669093 9.501835221580462 
Si 14.90836365 4.088969189999999 12.237111873628665 
Si 12.22334811 6.76681713 12.226768491224815 
Si 13.464694979999999 5.444769599999999 13.834068467483785 
Si 14.61704958 7.23248307 14.921493604312234 
Si 13.3615467 6.82204023 18.18630348598263 
Si 14.66433945 7.12956285 21.26691896179906 
Si 13.08805389 5.69780217 20.163328008763273 
Si 15.77127753 6.002294849999999 18.450504982218686 
Si 16.229987639999997 5.92315803 22.599502811365085 
Si 15.26188923 5.347974419999999 24.76024224545117 
Si 14.02264377 4.6098582299999995 22.866923770998362 
Si 14.889907079999999 7.47927657 25.568224809322665 
Si 15.220431179999999 5.936662439999999 28.487935614499094 
Si 12.493517759999998 7.982067419999999 26.294796048777112 
Si 12.360167820000001 4.29432093 26.102552984430083 
Si 13.09007385 6.02972721 27.55007852719914 
Si 16.11269964 4.2877234799999995 31.851898118881877 
Si 12.630125699999999 7.54544655 31.10546210527434 
Si 12.790631069999998 5.8784908499999995 32.73875753598537 
Si 14.927080859999998 7.246964879999999 30.410845752517876 
Si 12.334902029999999 12.15328482 1.1664698131524291 
Si 13.29332418 8.52182028 0.10919940348836588 
Si 12.21561036 9.50417244 4.067792002393009 
Si 15.02170947 9.62797644 1.2531213279926174 
Si 13.59024201 10.866097889999999 2.7024757999681825 
Si 13.575157469999999 10.85977737 8.144831399650386 
Si 14.9320656 9.5030973 6.787793328109699 
Si 12.21580584 9.50332536 9.502999708341163 
Si 13.57605342 8.14242618 10.863531240163942 
Si 14.927194889999999 9.533559599999998 12.221425551969848 
Si 16.288273259999997 10.86101541 10.859010291563585 
Si 12.70597194 9.09156303 15.031674601640649 
Si 13.55627736 10.86313311 13.6978235164821 
Si 16.270566029999998 8.15747814 13.506265444347248 
Si 15.14605104 10.53806616 17.762190557814233 
Si 12.806676719999999 10.1564892 20.83297639538594 
Si 16.1658702 9.07375806 20.642137565073877 
Si 13.36820931 9.23030496 18.67449743560004 
Si 13.28967522 8.54755848 22.517680491620734 
Si 14.98409586 9.14005836 23.97770714226199 
Si 14.63182461 11.04580917 25.195623295509858 
Si 15.874539839999999 9.06545016 29.225261231684694 
Si 14.443479629999999 10.8374112 28.743506208861735 
Si 13.136288579999999 10.24955397 26.85624991548668 
Si 13.22961399 11.51662275 30.652374006530927 
Si 14.931120779999999 12.21833079 4.075395415948156 
Si 14.947003529999998 14.89930641 1.3435402999997703 
Si 13.576265189999999 13.574408129999998 5.4316457464448415 
Si 12.217793219999999 12.2178258 6.787587830446046 
Si 14.93221221 14.93252172 6.787793328109699 
Si 12.217614029999998 14.932179629999998 9.50248596418203 
Si 14.93338509 12.2173371 9.502348965739596 
Si 13.575222629999999 13.574782799999998 10.86359973938516 
Si 12.20834502 12.20050953 12.231083942161522 
Si 14.95472499 14.92928001 12.203718503285115 
Si 12.67824636 14.621089499999998 14.68887024905747 
Si 14.41414134 12.91528215 14.888442730074772 
Si 16.288370999999998 13.59224568 13.616549190507486 
Si 13.643624339999999 12.332882069999998 21.350282514020805 
Si 15.82272135 12.94444125 20.796843056193694 
Si 13.57615116 16.04472147 20.081026194470397 
Si 12.35919042 14.0181966 20.199187351070652 
Si 15.78756753 15.22520415 20.095548029368516 
Si 12.513701069999998 13.272782489999999 17.896928525949132 
Si 14.83978275 12.83199138 17.205257639705025 
Si 13.755276 14.37307425 24.63910137272795 
Si 13.355926649999999 12.31424631 23.698093321251992 
Si 16.120926089999998 14.155228079999999 24.57594509076538 
Si 14.76320346 14.62340268 28.383577050974168 
Si 12.870061109999998 14.804612639999998 26.868853772190707 
Si 16.00780833 12.59963082 28.293363576630668 
Si 13.459433309999998 13.87129338 34.05863478001554 
Si 14.802722999999999 13.25463543 31.985060604928773 
Si 14.07255633 15.18768828 30.690322575085442 
