&CONTROL
  dt          = 30.D0,
  prefix = 'x.66_y.66_z3.19_struc5-scf',
  pseudo_dir = './',
  outdir='./',
  wf_collect= .true.,
  verbosity= 'high',
/

&SYSTEM
ibrav= 6, celldm(1) =30.783621515, celldm(3) =2.126766214129715, nat=  432, ntyp= 1,
  ecutwfc     = 12.D0, nbnd= 1728,
  degauss     = 0.05D0,
  occupations = "smearing",
  smearing    = "methfessel-paxton",
/
&ELECTRONS
  electron_maxstep=200,
  conv_thr    = 1.D-8,
  mixing_beta = 0.3D0,
  scf_must_converge=.false.,
/
ATOMIC_SPECIES
Si  28.08  Si.pbe-hgh.UPF
K_POINTS {automatic}
1 1 1 0 0 0
ATOMIC_POSITIONS (angstrom)
Si 0.000813520971 2.7338366699999996 2.7252189752980462 
Si 2.7182471399999995 -0.006495262829999999 2.710851684828843 
Si 2.4814231199999996 2.93423625 0.06806742044308789 
Si 1.3538097719999997 1.396975014 1.4189873313445491 
Si 1.3548441869999999 4.070985029999999 4.071205781569872 
Si 4.075138979999999 1.3577584679999999 4.072314422261973 
Si 0.0011087886239999998 0.0027953965799999998 5.429879594761935 
Si -7.455167369999999e-05 2.71461447 8.14497529474023 
Si 2.7147773699999997 0.000232290513 8.145391034999767 
Si 2.71549413 2.71581993 5.430052819870076 
Si 1.357642809 1.3574457 6.7878951525430615 
Si -0.00400986495 -0.001220067243 10.859100934112934 
Si 2.71384884 2.71181259 10.861803245799932 
Si 1.369899405 1.3473540450000001 12.225743102279475 
Si 1.357659099 4.07362401 9.503926268105316 
Si 0.21354561 2.88378612 13.58819322282901 
Si 2.86272315 0.10311651449999999 13.664585495519132 
Si 2.4734573099999997 2.05589574 15.128025854114789 
Si 0.8905726709999999 1.77963363 17.50283815166117 
Si 0.6031242179999999 3.8229534899999997 21.005241968139696 
Si 3.7832221799999997 1.80665874 20.026242946970783 
Si 1.8263859299999998 2.90237301 19.25106058804041 
Si 1.413437688 3.6202244399999994 24.86137145544187 
Si 3.3570757799999997 1.6340010299999999 22.357402517265662 
Si 1.138208364 2.4361369199999996 22.830064547338825 
Si 3.34334331 2.0506014899999996 27.849088830612256 
Si 3.01591431 3.96690822 29.380710591772157 
Si 3.57629031 0.246892869 29.393875699990865 
Si 1.565423388 1.75277142 26.340817814029744 
Si 1.470213225 0.671936436 30.57218753058666 
Si 3.40759107 3.3173607599999997 31.712147322240064 
Si 3.3774219899999998 1.371083688 33.222566330163524 
Si 4.07051262 6.78851541 4.066944443909606 
Si 2.71764441 5.450063849999999 2.684393281811407 
Si 1.3949078129999999 6.94273284 1.1628844024647682 
Si 0.001324059345 5.4307764899999995 5.43091894541078 
Si 2.7146796299999996 5.42991312 8.145217809891626 
Si 1.356999354 6.787619459999999 6.787583347348408 
Si 2.7147122099999996 8.14631949 5.430433915107986 
Si 4.07126196 4.07847843 12.251345773262697 
Si 0.00028460910599999997 5.4296199 10.862877241470406 
Si 1.377161487 6.791952599999999 12.24351599837473 
Si 2.90608713 5.56349112 13.841136525736301 
Si 0.824138793 5.10950511 14.952271659395068 
Si 1.6652289599999999 4.82746005 17.194012428867634 
Si 1.7301609 6.88408884 19.22538862701393 
Si 1.619700039 5.92218063 21.370608366230407 
Si 3.74894802 5.53008033 18.073892043158345 
Si 3.82982787 5.69024361 22.10532533989907 
Si 0.215330994 7.28868357 22.741026841754422 
Si 3.54902085 4.62965058 24.25944884967399 
Si 3.8197443599999996 8.031849659999999 26.53119220787655 
Si 0.60698169 4.45313214 29.670793357864852 
Si 0.19648672199999997 5.54167881 31.97302433510021 
Si 3.1370141699999996 7.5733513199999996 32.34306781111073 
Si 2.3308057799999995 5.15475873 32.79057755548184 
Si 4.05842544 9.64524384 1.2338720517808948 
Si 1.355951907 9.50158233 4.073215192824306 
Si 2.7044658 10.87329807 2.7119707190274327 
Si -0.000258944211 8.14488597 8.14417845924278 
Si 0.0031919766299999997 10.86064074 5.431022880475665 
Si 2.71485882 10.86018462 8.14476742461046 
Si 1.359242487 9.50431905 9.502609757283446 
Si 2.7123664499999998 8.14135104 10.861318215497135 
Si 4.07390094 12.217662899999999 9.501847566807626 
Si -0.00186655707 10.86251409 10.860417444934805 
Si 3.07809324 9.239085269999999 16.70118699620687 
Si 3.7561481999999997 11.55527892 17.12205471894592 
Si 0.1309435812 8.322121169999999 13.607490499875901 
Si 1.38890169 9.7862175 15.089084849804722 
Si 2.7733725000000002 11.00224971 13.64244732669873 
Si 2.15106192 10.38930588 20.862435188988364 
Si 2.93309595 8.89121232 19.171654198468637 
Si 3.1218481799999998 9.54439245 22.87094567286007 
Si 1.154532573 9.080453249999998 24.038171096534846 
Si 1.64522484 8.85092715 26.349513714458414 
Si 2.5446609 8.7943194 30.27029081211876 
Si 0.1138029174 8.89583868 29.80753725823125 
Si 1.92896406 11.164139729999999 27.054609194634992 
Si 0.09814724999999999 12.073463819999999 28.161413700590238 
Si 3.56219946 12.07844856 28.55013084325834 
Si 2.3901828299999996 8.69928354 34.46112585337071 
Si 0.693735714 10.56419532 34.33023696165947 
Si 3.11148774 11.09124198 30.665105478593418 
Si 1.087966746 11.886226559999999 31.889806993149335 
Si 3.21435909 13.26444201 0.09686540177107417 
Si 1.420714431 12.245844599999998 1.2342323600058278 
Si 1.3594184189999998 14.929996769999999 4.069404240445206 
Si -0.0001093770873 13.57483167 8.144906004696972 
Si 2.7164389499999997 13.576167449999998 5.429879594761935 
Si 1.358225991 12.216620339999999 6.787652637391665 
Si 4.09957398 14.937262109999999 12.236552349027466 
Si 1.358478486 14.934297329999998 9.502679047326703 
Si 2.71088406 13.57435926 10.86332762675157 
Si 1.357569504 12.21930819 12.226505292755297 
Si 3.74147091 12.69487845 15.01005955547086 
Si 0.18332928899999998 13.669688339999999 13.706609906754105 
Si 2.1397403699999997 14.620926599999999 15.099755516466201 
Si 2.5307492399999996 15.22717524 17.648243307434612 
Si 0.1505274192 15.63466959 20.888453600231124 
Si 2.88978084 12.58506756 20.423274894829646 
Si 0.43409592 15.98153256 18.473418432574437 
Si 2.22627285 13.01077413 18.235822874248424 
Si 1.85293863 14.218596179999999 21.772975647420008 
Si 3.14515917 15.726317129999998 23.0685955212488 
Si 0.872922456 13.09057884 23.609612178994347 
Si -0.0012145351590000001 15.115474709999999 24.437732130972567 
Si 2.50359381 12.54942504 25.220224589466483 
Si 2.00730267 16.04090961 25.160843022395795 
Si 3.34767645 14.50792287 26.246721935287624 
Si 2.9100618899999997 14.405833439999999 28.48274627619154 
Si 0.569974068 14.297179139999999 28.821574587715073 
Si 1.347463188 16.27581141 32.88973160738167 
Si 0.8654567489999999 14.484106889999998 31.258782569213793 
Si 5.431688729999999 2.70500337 2.698781359293587 
Si 6.8297454 1.43687574 1.1660301704286065 
Si 8.145847080000001 2.7166670099999997 5.430122109913332 
Si 5.43015747 2.71448415 8.14497529474023 
Si 6.78704931 1.357636293 6.78775657245655 
Si 8.144055179999999 2.71497285 10.866237808568338 
Si 4.07549736 1.357411491 9.501708986721113 
Si 5.431248899999999 3.66213861e-06 10.859308804242703 
Si 6.77963736 1.348313526 12.23800743993585 
Si 7.2272539799999995 3.69499554 14.894483763319275 
Si 5.73637689 0.909169335 17.034714619421294 
Si 5.44219578 2.71606428 13.645322863493869 
Si 5.9440906799999995 2.73693177 19.898333527119565 
Si 7.4639476799999995 1.65508029 21.473469435444454 
Si 6.35823135 3.22647885 17.516315065074526 
Si 7.19923518 3.08195397 23.336782633672485 
Si 4.85270955 2.69314425 23.96153630869333 
Si 5.0062916699999995 1.65068199 26.137174376899342 
Si 6.959218319999999 2.76819228 26.775612835463313 
Si 8.12488185 2.69547372 28.783846159161993 
Si 6.86498067 2.35092393 30.82034982050926 
Si 5.62296591 3.7975247999999997 32.38218204052893 
Si 5.86402533 0.23823799199999998 30.365876426790887 
Si 8.00037738 3.1817627999999996 34.57341036846762 
Si 5.21908794 0.225575775 34.407079619630764 
Si 4.09665807 4.07109906 1.316510821870576 
Si 6.78634884 4.07460141 4.0729380326512805 
Si 6.0290756100000005 4.64665734 -0.0007992433264511383 
Si 6.94489941 6.659351999999999 0.9826887159723147 
Si 5.438677139999999 8.14384341 2.661472135502208 
Si 8.157803939999999 5.43289419 2.6902829354881965 
Si 4.07295612 4.0718483999999995 6.787617992370037 
Si 5.43085794 5.43035295 5.430087464891704 
Si 6.787896389999999 6.7870656 6.787029027002357 
Si 6.78794526 4.07373804 9.50309478758624 
Si 4.07399868 6.788906369999999 9.502609757283446 
Si 5.429277809999999 5.432389199999999 10.860729250129458 
Si 6.769912229999999 6.79216437 12.239774336038888 
Si 4.31541648 7.33072806 15.512273788992857 
Si 5.79257739 7.14865473 17.45880432917176 
Si 5.55389631 4.9441779 20.58413173024925 
Si 7.35104169 6.48381096 20.464641050653682 
Si 4.737685859999999 7.819623539999999 22.594582335332134 
Si 8.01764478 5.44110435 23.44646877214728 
Si 6.2988542999999995 6.98024871 24.15970583240648 
Si 4.77911133 6.03816543 25.65727153730589 
Si 4.862597579999999 5.56152003 29.17387981265197 
Si 6.17996988 5.0036363999999995 27.24106870103782 
Si 4.2506963099999995 7.867499849999999 28.826286310656506 
Si 6.19321365 5.6897549099999996 31.163959145017483 
Si 5.55088266 7.60027869 32.60242044301923 
Si 6.786446579999999 9.5027715 4.066667283736582 
Si 4.07197872 12.21365556 4.070374301050796 
Si 4.07178324 9.502804079999999 6.78737547721864 
Si 5.430173759999999 8.14429953 8.145009939761858 
Si 5.43004344 10.860738479999998 5.430780365324267 
Si 6.78770091 9.50400954 9.502367242132049 
Si 4.07320047 9.52163532 12.237730279762824 
Si 5.4288216899999995 10.860542999999998 10.8606599600862 
Si 6.77994687 12.20959935 12.240224721320054 
Si 5.58289251 8.34991191 13.669782248763358 
Si 7.6163895 9.22424508 15.022704988365144 
Si 7.27729686 12.21442119 17.33439405650499 
Si 5.59761867 11.25505422 18.66549043248103 
Si 6.338992859999999 8.50303791 21.058318141274057 
Si 5.30184114 8.94257469 19.02254202538098 
Si 5.062606199999999 9.92069145 25.84833883158526 
Si 4.09147785 11.211234119999999 24.162650659244875 
Si 7.059320369999999 8.842342319999998 25.350870966026328 
Si 7.903956869999999 8.363725829999998 27.546776371884818 
Si 5.627168729999999 11.25585243 27.709815843667002 
Si 6.21129555 9.282937949999999 29.02074881705544 
Si 6.667676189999999 9.5071698 31.52586104094538 
Si 4.9365704699999995 11.54975661 34.54503609575414 
Si 5.1807738599999995 11.30684013 32.104294322049356 
Si 4.130606429999999 15.025505039999999 1.2932674768602346 
Si 5.452262999999999 13.59288099 2.689288623367468 
Si 6.9680637899999995 12.387665339999998 1.1802484873048085 
Si 6.785387729999999 14.92711344 4.072210487197089 
Si 4.0728258 14.932016729999999 6.787617992370037 
Si 5.42997828 13.574880539999999 8.144698134567204 
Si 6.787521719999999 12.217581449999999 6.787306187175383 
Si 5.43120003 16.2911403 5.431126815540549 
Si 6.78638142 14.935649399999999 9.502471177196934 
Si 7.828078049999999 15.890129369999999 17.28776185739347 
Si 5.52825585 13.611288689999999 13.722650551767948 
Si 7.40214342 14.58119529 15.13103997099644 
Si 5.20906959 12.55985064 20.68578022370631 
Si 6.04767879 14.66520282 20.121620691513144 
Si 4.52521539 16.12234332 18.869133869611428 
Si 7.8729569999999995 13.97175381 18.800744596917415 
Si 6.924031919999999 15.675638939999999 22.070784253335788 
Si 5.58818676 12.60034758 23.075801685747457 
Si 5.2853556600000005 14.95055475 23.57482857727966 
Si 7.631034209999999 12.36222036 24.22698646440839 
Si 5.37941412 15.59842434 25.85696544197068 
Si 7.764823979999999 15.51547566 29.26142778230636 
Si 7.310218949999999 12.61362393 26.633360376658036 
Si 7.34951043 14.948323019999998 26.95413863191329 
Si 6.0525495 13.402467179999999 31.231101196932883 
Si 6.28722324 15.452009819999999 32.50572618765499 
Si 8.14998474 0.011701139579999999 2.6784551251043385 
Si 9.498878190000001 1.355920956 4.069196370315438 
Si 10.88395173 2.7130180499999996 2.6887135160084403 
Si 8.14491855 -0.000236209887 8.144628844523947 
Si 10.859614469999999 2.7150380100000002 8.1449406497186 
Si 12.20915952 1.3751773649999999 12.237279894481658 
Si 9.50477517 1.357909965 9.501882211829255 
Si 9.51264324 4.0902560999999995 12.238249955087246 
Si 8.2072278 0.06965994959999999 13.689911006329327 
Si 9.09188883 2.0274533999999997 15.048411594413249 
Si 10.978156799999999 2.93066874 13.70823822277063 
Si 11.728132109999999 0.45148223699999995 17.042301879157865 
Si 8.79778917 3.10018248 17.316309355215086 
Si 11.29489956 3.1619215799999996 21.022910929170063 
Si 9.727068509999999 1.4192336700000001 20.72887863061176 
Si 9.65609298 1.139552289 18.327389666411683 
Si 12.15686862 3.23925021 23.25287239128905 
Si 8.54140086 2.06803179 25.073191117676522 
Si 10.592442179999999 3.3507715499999997 25.13631434708305 
Si 9.54043398 0.847342269 29.092810462042042 
Si 12.065986709999999 2.63896371 26.910797709856443 
Si 11.45851632 0.411131907 27.696581445405037 
Si 10.5145434 1.7774018999999999 31.11455534417571 
Si 8.71339068 3.04759836 32.15310915752345 
Si 9.66298365 4.187018699999999 1.2609609941919635 
Si 9.49749354 6.78618594 4.070131785899399 
Si 8.14687335 8.14633578 5.4302606899998445 
Si 9.50192442 4.07290725 6.787825862499806 
Si 8.145228059999999 5.43012489 8.145009939761858 
Si 10.86121089 5.43079278 5.431057525497293 
Si 10.85389668 5.43082536 10.860556025021317 
Si 9.505589669999999 6.789509099999999 9.501501116591346 
Si 9.123035309999999 7.31593674 14.837561992784186 
Si 12.12990867 4.704421679999999 15.013004382309255 
Si 10.763747819999999 6.3308152799999995 16.205624606837485 
Si 8.16866937 5.50663902 13.648925945743198 
Si 9.59437017 5.2552843199999995 17.92561135058976 
Si 10.68360102 5.319108539999999 20.08413477811146 
Si 8.16492267 7.09861185 18.35098292614047 
Si 11.481240869999999 8.01780768 17.735687342024118 
Si 11.789854919999998 6.87043782 22.787970846060595 
Si 9.44354106 6.61313727 21.829065937436024 
Si 11.09813265 7.24795857 25.013463100389547 
Si 9.504758879999999 5.516755109999999 25.32045263703679 
Si 8.32159989 6.03524952 27.32965602134106 
Si 9.42990633 4.6885878000000005 28.904826574687576 
Si 11.83455468 4.18609017 28.70482086482813 
Si 10.00927647 7.05990681 31.363098729336222 
Si 8.57173284 5.28573033 31.014673746821686 
Si 8.86917195 7.7631624 34.43424131658725 
Si 11.84225985 5.4641384099999994 32.14496757744083 
Si 10.76651712 5.928517439999999 34.41113308716126 
Si 9.59062347 9.57044016 1.226111566936184 
Si 10.873884509999998 8.164303649999999 2.6962903822385216 
Si 8.14133475 10.8567963 2.679695416878627 
Si 12.21490989 9.501484589999999 4.069300305380323 
Si 9.502413119999998 9.50251086 6.787340832197011 
Si 10.85994027 8.14486968 8.145183164869998 
Si 8.145228059999999 10.86020091 8.14497529474023 
Si 10.861992809999998 10.86174846 5.431161460562176 
Si 12.220057529999998 9.505231290000001 9.502263307067164 
Si 8.145928529999999 8.14211667 10.864332332378787 
Si 9.52235208 9.518132969999998 12.235374418292109 
Si 10.854776339999999 10.86215571 10.859135579134563 
Si 12.09112218 10.17079182 15.131975386580402 
Si 8.83566342 10.578840029999999 16.754159234276347 
Si 11.00376468 8.39369943 13.756810543093328 
Si 8.24677992 10.98040482 13.623739015019515 
Si 10.78191117 11.90561166 16.376285983377866 
Si 12.04241508 10.53086598 20.973749643479685 
Si 9.75295332 10.43613963 20.38426460047632 
Si 9.52777665 9.12161808 18.4129975148549 
Si 8.51129694 9.06320214 21.84205782054659 
Si 8.43839919 10.11900591 23.933369906109625 
Si 11.968474769999998 11.18837925 24.635035529145014 
Si 10.3858524 9.5047263 25.027979364451756 
Si 11.513185559999998 8.421278399999998 30.24260943983785 
Si 9.75378411 9.763883909999999 27.264661960766606 
Si 9.407507579999999 12.049941059999998 27.500698493119348 
Si 11.85662763 9.398645819999999 28.149322588042004 
Si 10.580859989999999 11.42945496 34.539354312207124 
Si 10.675065059999998 10.501625429999999 31.000885028213673 
Si 9.011676869999999 9.122611769999999 32.3313577938004 
Si 12.215431169999999 14.93068095 4.07200261706732 
Si 9.503862929999999 12.2175 4.0671176690177475 
Si 9.73492029 15.107166809999999 1.2931219677693966 
Si 10.86912783 13.587374969999999 2.707508440241724 
Si 11.5600356 16.05500046 0.10187126094612889 
Si 8.14633578 13.576688729999999 5.4303299800431 
Si 9.50272263 14.93183754 6.787548702326781 
Si 10.85984253 13.57509231 8.145113874826741 
Si 10.862432639999998 16.28993484 5.43015675493496 
Si 12.220057529999998 14.934623129999999 9.502505822218563 
Si 9.5048892 12.21777693 9.502020791915768 
Si 8.146563839999999 13.572648809999999 10.8647134276167 
Si 9.517188149999999 14.9527539 12.233295716994418 
Si 10.85379894 16.2906516 10.860625315064574 
Si 9.19075284 12.857941349999999 14.899438001412104 
Si 10.99625499 13.814636759999999 13.72053720544863 
Si 9.613119959999999 12.85015473 20.012766033557423 
Si 11.559286259999999 13.10963814 18.620902289645567 
Si 10.30935456 13.83394041 22.010640495789275 
Si 12.02726538 12.309619949999998 22.620462166488377 
Si 8.52709824 14.439423419999999 23.402123144463218 
Si 11.134019519999999 16.00992603 21.7021265781904 
Si 8.854918199999998 15.871363289999998 25.310821321024157 
Si 11.10200967 15.264805139999998 25.81480245064919 
Si 10.06666614 12.486724829999998 29.75584688596202 
Si 11.23386093 12.820849019999999 26.229295489408653 
Si 8.8762581 13.309320959999999 34.54822343774394 
Si 8.379771479999999 13.80201201 30.811411404929192 
Si 11.09948472 16.19972082 32.454105105429015 
Si 8.825628779999999 14.962690799999999 32.78125804466386 
Si 12.4968735 1.52016651 1.291594122315594 
Si 14.928709859999998 1.358659305 4.0750860239922275 
Si 12.216652919999998 4.07256516 4.070270365985912 
Si 13.574913119999998 9.4424985e-06 8.144663489545575 
Si 13.57590681 2.7152334899999997 5.431403975713574 
Si 12.21771177 1.357330041 6.787687282413294 
Si 14.93514441 1.359838701 9.502228662045537 
Si 13.573854269999998 2.71454931 10.862322921124353 
Si 15.14010519 2.4656706899999996 16.644923481082717 
Si 13.59392355 0.044169031799999994 13.606659019356826 
Si 15.240533039999999 1.311683832 14.672409174682686 
Si 13.287166559999998 2.30570289 20.01332035390347 
Si 13.11954246 2.2929315299999997 17.696295952432887 
Si 13.75255557 1.503255861 23.83037025680907 
Si 15.842432249999998 0.647253828 22.872192893638683 
Si 14.26200903 2.60130123 25.92694838565959 
Si 16.09455258 2.18061198 29.62208245745564 
Si 15.716445389999999 1.421786313 27.365929358985756 
Si 16.02797535 0.47501639999999995 34.62804556757525 
Si 14.367763709999998 2.3195005199999996 34.54638725159764 
Si 12.35262555 3.2859047699999997 30.836251885436596 
Si 14.34821571 1.9991739599999998 31.262454941506377 
Si 15.05534832 4.15939086 1.2860335963442724 
Si 13.57359363 5.41653903 2.701837050201192 
Si 12.339707579999999 6.881238089999999 1.3125197153790107 
Si 14.934997799999998 6.788466539999999 4.0678105694503115 
Si 14.932309949999999 4.07264661 6.7878951525430615 
Si 13.575157469999999 5.42996199 8.14497529474023 
Si 12.217092749999999 6.78778236 6.787583347348408 
Si 13.57128045 8.14429953 10.86218434103784 
Si 12.21885207 4.074096419999999 9.501812921785998 
Si 14.9335317 6.79042134 9.503406592780895 
Si 14.938891109999998 4.071571469999999 12.222313245138288 
Si 12.22512372 6.80672763 12.24407031872078 
Si 13.91239305 4.4931078 16.706210524342957 
Si 13.736607659999999 5.58792612 13.599071759620257 
Si 15.17863104 6.91301988 15.075504001326479 
Si 14.338539449999999 5.68519371 18.717042224663746 
Si 14.586212609999999 4.24527174 20.644240842774135 
Si 12.40898895 6.8598818999999995 19.497629206968117 
Si 15.786019979999999 7.553656709999999 18.77129632853347 
Si 13.439640959999998 5.164956269999999 22.697478049567806 
Si 14.948762849999998 6.30918216 24.221339325883 
Si 15.66856908 4.588974449999999 25.693995260231752 
Si 12.606114239999998 7.5738726 26.835271562707028 
Si 16.1414352 7.9247592 27.57272549308432 
Si 15.695203229999999 5.57877114 27.88577790851649 
Si 13.37016411 5.9847831 28.457282185294837 
Si 15.876641249999999 5.887792439999999 34.52553094857748 
Si 15.41970675 7.64219286 31.569790928369905 
Si 13.31738451 6.952523129999999 30.685961781613578 
Si 14.0882436 7.668061379999999 34.50453606547081 
Si 16.2945612 8.1518418 2.689562319038331 
Si 15.097132169999998 9.483793649999999 1.051102240181468 
Si 13.586495309999998 10.86422454 2.657824014724761 
Si 14.932782360000001 9.502168769999999 6.787444767261896 
Si 13.57502715 10.85994027 8.14497529474023 
Si 13.576004549999999 8.14653126 5.4316464908649715 
Si 14.93387379 9.50848929 12.224599816565748 
Si 14.932244789999999 12.217793219999999 9.502505822218563 
Si 12.206406509999999 12.237862499999999 12.231528820891382 
Si 15.06285801 8.676673019999999 16.840875723411664 
Si 13.016426759999998 9.67086801 17.256927788144395 
Si 13.656330539999999 11.000506679999999 13.569346331063285 
Si 15.889103099999998 10.85068755 16.241066463963104 
Si 16.07699196 10.528960049999998 21.20465871263146 
Si 12.8930463 8.34105015 21.319749474480247 
Si 15.243123149999999 8.35934382 20.97537795949621 
Si 13.0582269 11.338670789999998 19.032104051350355 
Si 14.26073841 10.45689309 24.935615736791043 
Si 16.056759779999997 10.96966971 23.48267281974872 
Si 14.54516181 8.20669023 25.752476056740107 
Si 12.65579874 11.73850884 27.817457925865735 
Si 15.75629073 11.17878444 30.222965712574677 
Si 14.65507044 12.016530269999999 26.639873640724133 
Si 12.263454089999998 11.20867659 32.59136868111984 
Si 12.28929003 12.415733009999999 1.2024767331814445 
Si 14.930485469999999 12.21448635 4.066528703650069 
Si 15.028583849999999 15.089345549999999 1.333033032685052 
Si 13.583221019999998 16.2989595 2.725326374865094 
Si 16.2958644 13.57602084 2.6856993991267895 
Si 13.57567875 13.57835031 5.43053785017287 
Si 12.21686469 12.218037569999998 6.787791217478177 
Si 14.93227737 14.93268462 6.788172312716087 
Si 13.57505973 13.573691369999999 10.861179635410625 
Si 14.95039185 14.932407689999998 12.242442002704257 
Si 12.427184879999999 15.122463119999999 15.289852750139987 
Si 14.81881752 12.575651939999998 15.038052732946424 
Si 15.002927099999999 14.459411249999999 17.2018422037556 
Si 14.56523109 14.290207019999999 21.225203210456964 
Si 13.17243609 16.137411569999998 20.49332712856181 
Si 15.03065268 12.22821882 19.955255297654652 
Si 12.89941569 15.097637159999998 18.401183562479698 
Si 16.21369764 12.545727209999999 17.92114214279973 
Si 13.57287687 14.011664309999999 23.38916590637428 
Si 12.257410499999999 15.93673506 23.817135858547104 
Si 14.55338826 14.19735402 25.702414000487398 
Si 12.340684979999999 13.25347884 29.56793228865081 
Si 15.029219159999998 15.470287199999998 27.712968540635163 
Si 13.029556499999998 15.47364294 29.00145154000855 
Si 13.367117879999999 14.22314109 34.528510420437506 
Si 13.90551867 12.46142646 31.191259422060483 
Si 13.44895884 16.0979409 31.24381591987042 
Si 14.78250711 14.374654379999999 32.30921962498 
