&CONTROL
  dt          = 30.D0,
  prefix = 'x.66_y.66_z3.17_struc42-scf',
  pseudo_dir = './',
  outdir='./',
  wf_collect= .true.,
  verbosity= 'high',
/

&SYSTEM
ibrav= 6, celldm(1) =30.783621515, celldm(3) =2.118804555752091, nat=  432, ntyp= 1,
  ecutwfc     = 12.D0, nbnd= 1728,
  degauss     = 0.05D0,
  occupations = "smearing",
  smearing    = "methfessel-paxton",
/
&ELECTRONS
  electron_maxstep=200,
  conv_thr    = 1.D-8,
  mixing_beta = 0.3D0,
  scf_must_converge=.false.,
/
ATOMIC_SPECIES
Si  28.08  Si.pbe-hgh.UPF
K_POINTS {automatic}
1 1 1 0 0 0
ATOMIC_POSITIONS (angstrom)
Si -0.0021871605599999996 2.6956366199999997 2.713677783664818 
Si 1.321299819 1.314948348 1.3286191611204956 
Si 3.92259942 3.99926016 1.2570999536741208 
Si -0.0005712055919999999 0.000288947133 5.4301927271443615 
Si 0.00013336280909999999 2.71480995 8.145030225769943 
Si 2.71454931 0.0008013914369999999 8.145271833053437 
Si 2.71443528 2.713914 5.429467905293885 
Si 1.357530408 1.3572534779999998 6.787749537762006 
Si 2.71366965 2.71347417 10.860074816352805 
Si 1.363334535 1.3503709529999999 12.224983391453861 
Si 4.055851619999999 4.09638114 12.23123066549845 
Si 0.20955618899999998 2.82299184 13.620472545579814 
Si 3.79594467 1.387855872 15.09610628717282 
Si 1.468496259 1.9932281099999998 15.5206447995952 
Si 1.8999841499999999 3.9032631899999997 16.785424413351755 
Si 1.4537472929999997 3.25695744 20.036768142635342 
Si 0.6020963189999999 0.072342261 21.39284079422582 
Si 2.74049928 1.9059951599999998 18.572455428040268 
Si 3.13784496 3.0835341 21.70472128188831 
Si 2.7215051399999997 0.791068464 22.309947527036798 
Si 2.98248723 0.5433887879999999 24.702377363504866 
Si 3.91885272 4.01931315 25.329037626231752 
Si 2.04271713 3.9295552499999995 29.93572918525534 
Si 1.2321462779999999 0.389028006 29.0291841422656 
Si 2.21008059 2.47792077 25.973404251306015 
Si 2.4945202799999997 2.21177475 28.348093210100494 
Si 1.99225071 3.26023173 34.34816848835102 
Si 3.1694475599999996 3.6628065 32.24521869283308 
Si 0.49777027199999996 1.3761596520000001 33.08349242057311 
Si 4.070985029999999 6.787456559999999 4.070737573584992 
Si 1.358713062 4.0755136499999995 4.070081782386941 
Si 0.392745384 5.04781488 0.04099074656406031 
Si 2.7250563599999995 5.432258879999999 2.706464080486259 
Si 1.3433418179999999 6.78361212 1.3446929485379837 
Si -0.0007815860549999999 5.4304995599999994 5.430330788449215 
Si 2.7151846199999996 5.429424419999999 8.145582470989355 
Si 1.357670502 6.78714705 6.78757696113094 
Si 1.357406604 4.07067552 9.502414459756523 
Si 1.361180997 6.79037247 12.247694476102147 
Si 4.0360104 7.018725689999999 15.621498582790174 
Si 2.83849992 5.5915425 13.818659548696017 
Si 0.01218340503 8.115189299999999 13.754771679875379 
Si 4.039789679999999 4.38153759 15.532380010507689 
Si 1.0610393759999999 5.6006486099999995 19.80803507582046 
Si 3.1433021099999996 6.71605749 19.912478452941606 
Si 3.9728866499999995 6.75259596 22.200257820331245 
Si 2.9646496799999995 4.86103374 23.33370661784657 
Si 0.665531208 5.13291384 23.638960162876124 
Si 0.367548012 6.56930088 21.905496934470502 
Si 1.146030822 7.972668089999999 26.695913574926962 
Si 3.18792042 5.82890409 29.160135289918486 
Si 1.3282230689999999 7.27188858 28.88442686412743 
Si 1.51521435 7.44899346 32.60942441503478 
Si 3.29963724 5.9552004599999995 32.79411592560162 
Si 2.0986407 8.66199573 0.07454309517591355 
Si 1.359231084 9.502217639999998 4.069598567819956 
Si 2.72536587 10.857089519999999 2.691960740411472 
Si 1.438231068 12.158367299999998 1.137100519028683 
Si -0.000372918825 8.1453258 8.144408949898107 
Si 2.71433754 8.14438098 5.431538824866677 
Si -0.0012714149519999999 10.85866965 5.429882089208443 
Si 2.7152009099999996 10.859972849999998 8.144512495876747 
Si 1.3582602 9.503667449999998 9.502794128344867 
Si 2.71451673 8.14234473 10.86283604244986 
Si -0.00471026979 10.866700619999998 10.862767011797434 
Si 3.84070959 11.48107797 16.83740449462884 
Si 1.180977759 9.69163776 15.281902288178484 
Si 2.63060694 10.76311251 13.55844850437469 
Si 2.75665896 9.277448219999998 17.11028266367041 
Si 0.469463139 9.65275353 20.8685875043735 
Si 0.48420884699999994 11.95285266 20.55794956845469 
Si 3.9824488799999997 10.26845037 20.489712768531188 
Si 2.3277106799999996 8.90413029 19.545960203883617 
Si 0.821766969 8.752910219999999 22.99345453203683 
Si 2.73836529 9.513490319999999 24.072265568156656 
Si 2.5719466499999997 11.649418829999998 24.977360967445442 
Si 3.3806636999999995 8.674604189999998 26.20224086409954 
Si 1.452181824 11.394692099999999 27.031333515066855 
Si 3.3093949499999997 10.342130039999999 27.920620894949995 
Si 0.436192443 10.45712115 34.219288260270936 
Si 1.507730724 8.79889689 30.706214812312638 
Si 0.043838507699999994 10.5907806 31.473455998705894 
Si 3.33941742 12.165746669999999 31.529405342497494 
Si 3.48790077 9.94641336 30.225692440772445 
Si 2.7277930799999996 16.27432902 2.6859757828461026 
Si 4.02708348 14.656438799999998 1.1308290842557442 
Si 0.00685848096 13.563151739999999 2.681495693503629 
Si 1.357211124 14.93550279 4.068942776621906 
Si -0.000309083202 13.57525521 8.145168287074798 
Si 2.71536381 13.574978279999998 5.430089181165722 
Si 1.3577519519999999 12.21777693 6.787266323195021 
Si -0.00365642082 16.290325799999998 10.859004841240196 
Si 4.063817429999999 14.932033019999999 12.235579596601314 
Si 1.357558101 14.932994129999999 9.50251800573516 
Si 2.7145656000000002 13.574717639999998 10.86390601756247 
Si 1.347430608 12.22771383 12.238202761393518 
Si 2.5407675899999997 16.1513721 13.70355093577499 
Si 3.5196988499999997 12.49677576 14.758788004091201 
Si 0.759493557 15.34806333 15.159476426100257 
Si 0.9098046449999999 14.260151969999999 17.476283182835196 
Si 2.8052194499999996 12.3167061 20.427170997432867 
Si 0.41738400899999994 15.997138379999999 19.025986814481737 
Si 3.0104408699999996 13.27462326 18.296574425618147 
Si 2.0029206599999996 13.49269749 23.727008760046 
Si 3.7599926399999997 13.619759489999998 22.12808627321944 
Si 1.551501954 15.15087288 25.37684135303704 
Si 2.10347883 14.886306989999998 27.719879757694013 
Si 0.783322569 13.146534990000001 28.39475793114074 
Si 0.472323663 15.779341079999998 34.50103686814929 
Si 1.5181840169999998 16.2973305 31.41560831197257 
Si 3.27630996 12.84419259 34.16886136867345 
Si 3.83621355 16.13594547 32.094145109997896 
Si 0.280346013 14.41321281 32.17052752690771 
Si 1.120009176 12.64187079 30.70300488697481 
Si 6.78581127 4.076425889999999 4.06963308314617 
Si 8.127292769999999 -0.020736844199999997 2.6830109163243887 
Si 4.07539962 1.3560431309999998 4.068183439445215 
Si 5.4194223599999995 2.7162108899999997 2.6858722368674632 
Si 6.64122123 1.2466736999999999 1.226043063147482 
Si 5.43069504 -0.000504636507 5.431159156278332 
Si 5.43005973 2.71490769 8.145030225769943 
Si 6.78763575 1.357178544 6.787680507109579 
Si 4.07368917 1.35850455 9.502138337146816 
Si 6.78721221 1.329018021 12.238064700088666 
Si 7.03030788 3.42997353 15.013442080892203 
Si 5.27362686 2.59473636 13.582367625440439 
Si 5.54149962 0.1472777271 16.669694524558892 
Si 5.42167038 2.99832111 21.093178732042805 
Si 6.241692689999999 0.8320573619999999 21.663095798475187 
Si 6.70159197 4.04190738 22.719920571797203 
Si 6.71159403 0.870219945 24.016937500236892 
Si 6.0493403699999995 2.9932549199999996 24.720774032376504 
Si 7.56015642 3.0830942699999997 26.51239558545137 
Si 5.98067802 3.7011042899999995 28.0992031927771 
Si 4.7846173499999995 1.7294278499999998 28.623939697196402 
Si 7.487258669999999 1.032865821 31.556154720312726 
Si 5.57261352 3.2033633399999997 32.40278115699635 
Si 5.27040144 1.298269017 30.895911045180394 
Si 4.73390658 0.224989335 34.461137151046835 
Si 6.656484959999999 6.77841561 1.1612370866495747 
Si 5.42874024 8.135242289999999 2.695053313640175 
Si 8.13314088 5.42557998 2.681485338905765 
Si 4.072027589999999 4.07276064 6.787680507109579 
Si 5.429326679999999 5.429489579999999 5.430296273123002 
Si 6.78763575 6.7872936600000005 6.787197292542595 
Si 6.787423979999999 4.0718483999999995 9.501620607253619 
Si 4.07192985 6.7865606099999995 9.504140226067182 
Si 5.43180276 5.429522159999999 10.863215711038206 
Si 6.773398289999999 6.79218066 12.258842926469013 
Si 8.03546604 5.324207309999999 13.719600562464128 
Si 7.409913749999999 7.3339209 20.90686500114394 
Si 6.40439721 7.74912042 18.751624486412997 
Si 8.05691997 4.69784052 18.428146849142873 
Si 4.74496749 6.24074787 18.016344492093165 
Si 6.2139834 6.31879326 22.689823207339295 
Si 6.90249654 6.78131523 24.955305673995205 
Si 7.60472586 4.46339484 29.593923909766005 
Si 5.36799483 7.418694059999999 26.674306980717496 
Si 4.504722569999999 5.324174729999999 27.2604807657963 
Si 5.10714306 5.495822459999999 34.38402991228654 
Si 4.59949779 6.42257685 30.99666128239673 
Si 6.57734814 5.26015503 31.625910194589608 
Si 4.13150238 9.51327855 1.2291632486371553 
Si 6.78678867 9.50567112 4.070150813039367 
Si 4.070040209999999 12.216652919999998 4.070564996953926 
Si 6.89958063 12.17512971 1.2260292570169966 
Si 4.072548869999999 9.50255973 6.7875079304785135 
Si 5.43005973 8.145 8.14520280240101 
Si 5.4289683 10.859174639999999 5.431159156278332 
Si 6.78628368 9.500784119999999 9.502552521061375 
Si 4.0864442400000005 9.485699579999999 12.235959265189658 
Si 5.4324543599999995 10.860038009999998 10.863767956257616 
Si 6.78682125 12.21411168 12.248419297952625 
Si 8.16448284 10.856030669999999 13.72826390934364 
Si 6.15708243 11.02657068 16.904847442049434 
Si 5.37540678 8.17239978 13.871916697042986 
Si 6.938725499999999 9.46144377 15.182670725315528 
Si 8.01026541 10.7906589 19.887869025351595 
Si 5.92089372 10.015189739999999 19.10271438465368 
Si 5.92538976 10.52667945 23.648141239648837 
Si 4.383443519999999 9.14295798 22.532985565026507 
Si 4.87532007 11.77258752 25.422470614290887 
Si 4.93474599 12.002081039999998 27.735584231121017 
Si 6.7745223 10.81918269 28.580588447472618 
Si 6.39558432 8.47265706 28.619763342724603 
Si 7.79435775 8.31306393 34.254321316377336 
Si 5.2272655199999996 11.1320973 34.355692829465504 
Si 7.59301335 11.353559849999998 30.745665830174325 
Si 6.51507147 9.903033090000001 32.629581365543295 
Si 5.31734922 8.58067605 30.718812906380457 
Si 5.45218155 13.56960258 2.688443628670347 
Si 6.787407689999999 14.93476974 4.073982014249033 
Si 4.07238597 14.932603169999998 6.787645991783366 
Si 5.430206339999999 13.574587320000001 8.144857649138878 
Si 6.787652039999999 12.21720678 6.787611476457153 
Si 4.07134341 12.21746742 9.50272509769244 
Si 6.784687259999999 14.93200044 9.502483490408949 
Si 5.4307764899999995 16.2939096 10.859280963849901 
Si 7.377024239999999 13.22524827 16.91385594219108 
Si 5.34180051 13.535360999999998 13.664617647806498 
Si 6.777275309999999 14.80576923 15.193439507094046 
Si 8.12809098 16.17637725 13.793290783929313 
Si 4.35004902 15.72983577 21.230204577109212 
Si 7.47305379 12.886220789999998 20.783403679279317 
Si 4.516777169999999 15.065496989999998 18.91218978395681 
Si 6.75876987 14.25246309 18.93224318848668 
Si 5.858617049999999 12.64677408 22.520145863675197 
Si 5.93635293 13.67908767 24.627755228231923 
Si 5.18616585 15.8847048 25.21161648645444 
Si 7.92879912 12.900051 25.639433954867073 
Si 5.56520157 16.05799782 27.55510359035219 
Si 7.8206660999999995 15.91148556 28.21955813528253 
Si 4.31917947 14.25187665 28.443493571753784 
Si 6.8826879 13.527378899999999 31.338466557886065 
Si 4.59192294 14.04610137 30.84551866890912 
Si 9.50435163 1.3573316699999998 4.068286985423855 
Si 10.321181099999999 0.595524933 0.18393769584234523 
Si 10.87131069 2.71894761 2.725758147839439 
Si 12.2139162 4.0744548 4.072083671307307 
Si 9.43290369 3.9100398299999997 1.3119310008964127 
Si 8.1448371 0.00027045798299999996 8.145064741096157 
Si 8.14423437 2.7147773699999997 5.429640481924951 
Si 10.85909319 -0.00048296754900000003 5.430158211818148 
Si 10.85963076 2.71529865 8.145340863705863 
Si 9.50070267 1.3572143819999998 9.502241883125457 
Si 8.148453479999999 2.71578735 10.86390601756247 
Si 10.85839272 0.0025001240399999997 10.863595379626553 
Si 12.21606648 4.07310273 9.501896729863324 
Si 8.92159317 1.7860030199999999 14.95197028490649 
Si 10.83364821 2.7919919699999998 13.762226990337433 
Si 12.195084959999999 3.57383052 17.377396773234377 
Si 8.43688422 0.5513904359999999 20.83873174719908 
Si 12.15098793 2.03730885 21.346314134490424 
Si 9.903195989999999 2.3875275599999997 20.57696751319816 
Si 9.84865707 3.1162932899999998 18.31179568447817 
Si 8.436362939999999 1.497438702 17.290038482588763 
Si 11.97016893 3.67271082 24.779001387698173 
Si 8.96572278 3.98756394 22.06361164385318 
Si 11.692962 0.05274702 22.453289676800225 
Si 8.93794833 0.00963318924 24.66627433228586 
Si 11.36217726 1.567990692 28.06510205047845 
Si 8.67054798 2.48803686 30.146859435701494 
Si 12.19845699 3.2558008499999995 29.519854019712472 
Si 8.95961403 1.6754916599999998 27.932597713145974 
Si 8.47400913 2.09893392 34.44225726760821 
Si 10.642322159999999 2.95722144 31.35820932448001 
Si 11.01948453 0.7775607959999999 32.50232335779522 
Si 9.50428647 6.78638142 4.067147979658819 
Si 10.551179609999998 5.61726441 0.03632634537960825 
Si 9.5027715 4.0725814499999995 6.787542445804727 
Si 8.1453258 5.43002715 8.144926679791304 
Si 10.86112944 5.42922894 5.430779487689986 
Si 10.85749677 5.43015747 10.860281908310085 
Si 12.219552539999999 6.79351644 12.240860441511934 
Si 9.50270634 6.78696786 9.501551576601193 
Si 9.497379509999998 4.0746177 12.23758148552168 
Si 8.32397823 8.024519159999999 16.703485028921616 
Si 10.82045331 8.0803287 13.71928992452821 
Si 11.698305119999999 4.57874433 15.139181414286895 
Si 9.69670395 6.39524223 15.15398848923236 
Si 11.80984275 7.314503219999999 18.212115422374445 
Si 8.915924249999998 5.6311272 20.41018945693597 
Si 11.087283509999999 6.44492673 20.21990646352259 
Si 9.99839475 4.791898979999999 24.056837217339357 
Si 10.58436234 7.10053407 23.75741676243983 
Si 8.42689845 5.11867638 25.840106061470628 
Si 11.99862756 7.36172793 28.966262702578934 
Si 9.1339659 5.58215946 28.075111495080282 
Si 11.53379241 5.17787424 28.26850086785285 
Si 8.634986909999999 7.78298733 28.726277639418544 
Si 10.25629803 7.73493183 30.49377297947038 
Si 10.322500589999999 5.685535799999999 31.852054611938502 
Si 8.31153267 6.33210219 33.025989887101915 
Si 12.21608277 9.502543439999998 4.069391475862678 
Si 9.391022099999999 9.41221539 1.3292093731987413 
Si 10.866391109999999 8.14488597 2.70293661414727 
Si 8.14265424 10.848423239999999 2.7143370263954907 
Si 12.07844856 12.090112199999998 1.2637234447744339 
Si 8.144250659999999 8.145781920000001 5.430158211818148 
Si 9.50291811 9.50275521 6.78757696113094 
Si 10.86000543 8.14488597 8.144961195117517 
Si 8.14513032 10.860217200000001 8.14499571044373 
Si 10.86127605 10.86124347 5.429744027903591 
Si 8.14877928 8.145439829999999 10.863284741690634 
Si 9.49340475 9.49749354 12.244967765331305 
Si 10.86125976 10.86215571 10.861179306791627 
Si 11.81916063 9.64082925 15.261193092450563 
Si 10.130017950000001 11.68568037 14.83316853208065 
Si 10.4151744 9.00626859 17.341880502560993 
Si 8.72713944 9.208134269999999 21.450136235739734 
Si 11.949610949999999 11.47392666 19.685333091132524 
Si 9.942862139999999 11.06108919 18.511950061188525 
Si 8.75286135 8.18003979 24.80119474245326 
Si 10.89004419 8.26118028 21.667272152946985 
Si 8.19758412 10.025159219999999 23.543835923832543 
Si 9.29370564 12.032527049999999 23.998368254734192 
Si 11.444637239999999 11.856464729999999 24.93142106825567 
Si 10.49545152 11.95922205 28.317616177054237 
Si 12.13481196 10.871750519999999 27.025086241022265 
Si 9.337818959999998 9.00563328 26.87259752981234 
Si 11.62640106 8.63488917 27.03582050747457 
Si 8.56899612 11.21628402 27.17964587180498 
Si 10.380965400000001 11.03160429 34.40674099693483 
Si 10.719601919999999 9.77997843 31.92902378939394 
Si 9.958891499999998 11.491438409999999 30.582788005774226 
Si 9.50117508 12.22126299 4.0717385180451755 
Si 9.47949309 14.836133789999998 1.1913827725641848 
Si 10.861732169999998 13.57400088 2.6937244735809664 
Si 8.142312149999999 13.573723949999998 5.430917548994839 
Si 9.50242941 14.93229366 6.787197292542595 
Si 10.86000543 13.574408129999998 8.145064741096157 
Si 9.50319504 12.215528909999998 9.502656067040013 
Si 8.14384341 13.574668769999999 10.865528237894491 
Si 9.49617405 14.94211653 12.240032073682817 
Si 9.80082963 12.834972449999999 16.91061150152704 
Si 10.891608029999999 13.53335733 13.57418749312791 
Si 11.815593119999999 14.315863769999998 17.04076879667702 
Si 11.724629760000001 12.884787269999999 21.553613183726913 
Si 8.430009839999999 15.890911289999998 18.731433020578276 
Si 11.398715730000001 16.26690078 24.74845532399949 
Si 9.45579114 13.30495524 22.026507668173988 
Si 9.47157615 15.558839639999999 22.46737192989521 
Si 12.06994518 14.087396519999999 25.51973480355969 
Si 10.89159174 14.15842092 27.54478350781444 
Si 11.748119939999999 15.717145859999999 29.05161910430418 
Si 8.87485716 14.79314448 26.510428211857217 
Si 8.8255962 12.928379309999999 34.236787530661026 
Si 8.236859309999998 15.26599431 30.488630195864616 
Si 10.53500364 15.328857419999999 31.03980544016323 
Si 10.691648279999999 13.17132837 32.124173443803386 
Si 12.263356349999999 1.454740983 1.3446308209507998 
Si 14.93234253 1.358296038 4.074672320773297 
Si 15.01672473 4.05163251 1.3015556938367243 
Si 13.57545069 -6.89047452e-05 8.144857649138878 
Si 13.574978279999998 2.71484253 5.430468849754067 
Si 12.21728823 1.35749457 6.787059231237742 
Si 14.93302671 1.355847651 9.50186221453711 
Si 13.57621632 2.71264338 10.864906962022653 
Si 12.21448635 1.355748282 12.25773843603019 
Si 14.92341561 4.07776167 12.247142230882735 
Si 13.46306598 1.458466506 16.68132618949274 
Si 15.26081409 1.043534142 14.94334145335319 
Si 16.021166129999997 2.2182907499999995 21.299718444102602 
Si 14.086337669999999 2.0443787099999997 19.95006564318778 
Si 14.39151453 0.185756499 18.539458776180446 
Si 13.13475732 3.67997616 22.765618863703487 
Si 15.471932489999999 3.30753789 23.35106782693181 
Si 16.06723425 2.9204060399999996 25.68703058971508 
Si 14.506440479999998 2.70037701 30.072824060974174 
Si 12.438669329999998 1.6446221099999998 25.97575129348851 
Si 14.760140939999998 1.093146966 26.364946111868573 
Si 15.189529049999999 0.765657693 28.716716894057488 
Si 13.49945784 3.08122092 34.28686926899638 
Si 14.56037667 1.88167419 32.42490548109901 
Si 16.27050087 8.14234473 2.692726980653405 
Si 13.58160831 5.43818844 2.6796663812143295 
Si 12.292906409999999 6.9665976899999995 1.1866196575467631 
Si 14.929719839999999 6.788531699999999 4.072601401200505 
Si 13.57457103 8.14333842 5.4308140030162 
Si 14.93229366 4.07287467 6.7875079304785135 
Si 13.57519005 5.43001086 8.145064741096157 
Si 12.217516289999999 6.787521719999999 6.787266323195021 
Si 13.5752715 8.14539096 10.862456373861516 
Si 16.289299529999997 5.42937555 10.865562753220704 
Si 14.93364573 6.7888575 9.501793183884683 
Si 13.49370747 5.4264107699999995 13.74527996516675 
Si 14.81365359 6.8557279499999995 15.185777104674717 
Si 15.47686836 5.855196149999999 17.93416350037953 
Si 12.99577104 5.31961353 21.043683754253074 
Si 13.954046579999998 4.24942569 19.079727177395693 
Si 14.0556636 7.78443714 18.563481443224834 
Si 14.381528759999998 6.97853826 21.969212226660073 
Si 14.33886525 7.70440437 24.2182653980385 
Si 12.33998451 7.280359379999999 25.297904801987446 
Si 16.12415151 6.53070987 25.32220359164154 
Si 14.14235898 7.651869119999999 29.77726932261053 
Si 12.80092635 5.206495769999999 26.291911681601437 
Si 15.139095209999999 4.95962082 26.74917072327393 
Si 15.625644929999998 6.05702925 28.848013194972502 
Si 16.07459733 4.47580782 30.470958348843457 
Si 13.87893339 6.82476066 32.276317001751174 
Si 16.0091604 5.83427979 32.477368776943074 
Si 12.369746339999999 5.12289549 33.13526540989291 
Si 14.996508839999999 9.55048491 1.0686290148869335 
Si 13.57962093 10.85397813 2.6772503083794055 
Si 14.934965219999999 12.216604049999999 4.068079893466575 
Si 14.93221221 9.502478279999998 6.787162777216381 
Si 13.574815379999999 10.860168329999999 8.144857649138878 
Si 12.21720678 9.50255973 9.50217285247303 
Si 14.937571619999998 9.49060287 12.24255169249638 
Si 12.22209378 12.20425623 12.212937542605454 
Si 15.63320349 10.81947591 16.513098489529597 
Si 13.968446939999998 8.861580809999998 16.422668334851007 
Si 13.47705909 10.76317767 13.64190656315821 
Si 12.61500858 9.846816299999999 21.299062652904553 
Si 14.57666667 8.8207092 20.59691737174939 
Si 12.72680685 11.4117966 23.05554760389438 
Si 14.788762469999998 11.94807969 23.9764165072626 
Si 15.44500512 9.744124139999998 24.399125707395676 
Si 16.02064485 9.89586549 26.65870605326913 
Si 14.383157759999998 9.99280728 30.07827748251586 
Si 14.286118229999998 11.037045149999999 27.938085650013875 
Si 13.04312607 10.229403239999998 32.116994255951035 
Si 13.57553214 8.52742404 33.92335385331894 
Si 13.245757379999999 13.734994949999999 0.05759158301282386 
Si 12.21622938 14.929964189999998 4.070288874344221 
Si 14.959579409999998 14.8576203 1.1824674638033148 
Si 13.59081216 16.27998165 2.6950291529118258 
Si 13.574815379999999 13.575434399999999 5.4301927271443615 
Si 12.21727194 12.217516289999999 6.787853083740646 
Si 14.93252172 14.932798649999999 6.787645991783366 
Si 12.218347080000001 14.930583209999998 9.502414459756523 
Si 14.931185939999999 12.217109039999999 9.501068362034207 
Si 13.57747065 13.57237188 10.860143847005231 
Si 14.93556795 14.92931259 12.216423590552987 
Si 12.78577665 14.268345839999999 14.873447917771456 
Si 14.58225414 12.414478679999998 14.907514544743886 
Si 13.581201059999998 16.18209504 13.653676289396914 
Si 16.227267209999997 13.63793913 13.71131688417296 
Si 15.773655869999999 12.3481458 18.395736957828678 
Si 13.110876179999998 14.785683659999998 21.57480559402182 
Si 12.83218686 14.88150144 19.23276813382503 
Si 13.42287855 12.81814488 18.355077903549525 
Si 16.282636919999998 13.04859951 22.570779847229964 
Si 15.281551259999999 15.1453017 22.589383608058878 
Si 15.52397904 15.57697041 24.965763817837804 
Si 14.39728119 13.66098948 25.665216903548338 
Si 14.00641893 15.09315741 29.401397420148765 
Si 14.80036095 13.33383741 27.96707852403296 
Si 14.25050829 14.5132497 31.692731866138363 
Si 13.009959629999999 12.654332639999998 32.519926174163956 
Si 13.18929624 16.23907746 32.94615593757078 
