&CONTROL
  dt          = 30.D0,
  prefix = 'x0.33_y1.66_z3.19_struc38-scf',
  pseudo_dir = './',
  outdir='./',
  wf_collect= .true.,
  verbosity= 'high',
/

&SYSTEM
ibrav= 6, celldm(1) =30.783621515, celldm(3) =2.1298470991719882, nat=  432, ntyp= 1,
  ecutwfc     = 12.D0, nbnd= 1728,
  degauss     = 0.05D0,
  occupations = "smearing",
  smearing    = "methfessel-paxton",
/
&ELECTRONS
  electron_maxstep=200,
  conv_thr    = 1.D-8,
  mixing_beta = 0.3D0,
  scf_must_converge=.false.,
/
&IONS
/
ATOMIC_SPECIES
Si  28.08  Si.pbe-hgh.UPF
K_POINTS {automatic}
1 1 1 0 0 0
ATOMIC_POSITIONS (angstrom)
Si 2.04349905 3.13991379 0.177862214580376 
Si 1.24973622 1.2002129910000001 1.2079588136545085 
Si -0.0026101141199999997 -0.0009499008509999999 5.429800246922579 
Si -0.000557401446 2.71534752 8.145116712894813 
Si 2.7146307599999995 0.000198407313 8.145220798522551 
Si 2.7132624 2.71432125 5.430841103199944 
Si 1.3574929409999998 1.357672131 6.787527870327187 
Si 0.00220318992 0.000753565626 10.860745435750259 
Si 2.71816569 2.7147122099999996 10.863694528536127 
Si 1.367247393 1.3256182979999998 12.22263648426433 
Si 0.11368856159999999 3.59347626 17.014634699626665 
Si 1.524989979 3.51951966 14.977401403148711 
Si 3.6189049499999997 1.90654902 14.976152375615873 
Si 2.20459086 3.2906451599999995 20.50917087004385 
Si 2.80461672 1.159204545 19.660595442317124 
Si 0.6789883769999999 0.0841878603 19.494995208588296 
Si 0.7895355749999999 2.2114326600000003 22.193102850774757 
Si 1.96957503 0.492927255 23.309213036993622 
Si 3.7379359799999996 0.5135666849999999 21.778113452989192 
Si 2.6080452899999997 1.496361933 25.354773183690504 
Si 0.600916923 2.75087601 25.707554071298865 
Si 2.2670630099999998 0.304813593 27.39613521006867 
Si 3.5760459599999996 3.70188621 28.71160406861225 
Si 1.87304049 2.08212264 28.973518203206616 
Si 2.27602251 3.0370587299999996 32.54473078605638 
Si 2.6703382499999995 1.230342975 31.031568625231877 
Si 3.9291968699999997 4.124188169999999 1.2742821756482285 
Si 1.360806327 4.07336337 4.069817434917011 
Si 2.69330715 5.43844908 2.7224810266814337 
Si 1.1816537939999998 6.56627094 1.263249099108156 
Si -6.96891087e-05 5.42953845 5.430355370270506 
Si 2.7164389499999997 5.430271499999999 8.14490854163934 
Si 1.358077752 6.787407689999999 6.787493175117942 
Si 1.358610435 4.07179953 9.504370925506224 
Si -0.00415673559 5.433317729999999 10.866990573414451 
Si 1.3646898629999997 6.79420062 12.24605575050505 
Si 2.725317 8.13625227 10.854534993295314 
Si 2.60724708 5.36744097 13.819552880207494 
Si 0.367792362 7.51845402 15.893112060765501 
Si 1.131329097 4.66962624 18.8839084881471 
Si 3.30300927 7.92648594 21.301158411491144 
Si 2.0027414699999997 6.63195222 17.775396552752998 
Si 3.49580142 6.0660376199999995 22.725743703111853 
Si 1.472889672 6.11529858 24.002006975208 
Si 1.364829957 4.93821576 26.099262983680692 
Si 3.1788306 5.350124699999999 30.335617422976156 
Si 1.294887213 6.63832161 29.67467368684916 
Si 3.5153657099999998 5.275304729999999 26.93774210551697 
Si 3.5679987 7.618914449999999 27.58321177832047 
Si 0.1442507193 5.25963375 28.115575068983606 
Si 0.24062773499999998 4.71745368 34.68778447073314 
Si 2.91700143 7.69829562 34.640772462205476 
Si -0.000961803954 6.398239589999999 31.59612907007484 
Si 0.1358092413 4.13932158 32.362338071052726 
Si 3.8937172499999995 9.28523484 1.4190444667042015 
Si -0.015573956759999999 8.14042251 2.6831921717318163 
Si 4.07341224 12.22160508 4.073807383980245 
Si 1.3592376 9.504758879999999 4.070303167846449 
Si 2.70418887 10.852821539999999 2.704529725417806 
Si 1.308795615 12.08524149 1.2087221082579098 
Si -0.00037677141 8.1454887 8.145220798522551 
Si 2.7146633399999995 8.14464162 5.430355370270506 
Si -0.0024443144999999997 10.859418989999998 5.430979884036926 
Si 2.7146796299999996 10.860168329999999 8.144873846430094 
Si 4.07468286 9.47488302 12.221630323196209 
Si 1.3562891099999999 9.50067009 9.504648487180189 
Si -0.0076724433899999995 10.86907896 10.859912750728366 
Si 1.3510421009999998 12.203767529999999 12.235751273359131 
Si 0.49828177799999995 8.57588679 13.60548343916269 
Si 3.87739467 11.45996613 14.934760990985978 
Si 2.3318972099999997 10.37832642 13.503861171282585 
Si 3.55218111 11.626417349999999 17.370711632113355 
Si 2.9645519399999998 11.373580259999999 21.30657086413344 
Si 0.1075294755 12.04476084 19.22086836033951 
Si 2.15573715 10.81012545 19.152761664590567 
Si 1.3607281349999998 8.64492381 18.739160075174826 
Si 2.73759966 9.60389982 22.85394250127402 
Si 0.9427527989999999 8.45097507 23.912389249726843 
Si 0.1178931735 9.40574826 25.95586768386899 
Si 0.545644953 9.72617256 29.733343285683322 
Si 3.34357137 11.403700469999999 27.723970242229512 
Si 1.82747736 9.46380582 27.716302600986253 
Si 1.0911042 8.448384959999999 33.28547350344805 
Si 0.0785169855 10.57278015 34.37767869049676 
Si 2.0668751999999997 9.776329469999999 31.632142697271686 
Si 3.23043732 11.5706241 33.062522088836396 
Si 2.71974582 16.28726328 2.6815961921065226 
Si 4.0551511499999995 14.88956499 1.1887931800672877 
Si -0.0125403678 13.560138089999999 2.677613182085138 
Si 1.35697329 14.932880099999998 4.0639192493452745 
Si -0.000693724311 13.575222629999999 8.144388113500659 
Si 2.71314837 13.57100352 5.430598236735225 
Si 1.357431039 12.21740226 6.787527870327187 
Si 1.353208671 14.92981758 9.501491223138848 
Si 2.71292031 13.57986528 10.86119647347045 
Si 2.7375182099999997 16.284037859999998 13.762860908300329 
Si 1.17884214 14.83070922 15.351693320489291 
Si 2.7969441299999995 13.927738230000001 17.474762564640642 
Si 2.28773502 13.63508838 21.650504473384203 
Si 1.410919254 14.102122679999999 19.45918975264693 
Si 0.8503428869999999 14.639513489999999 23.286765236611778 
Si 1.0860705899999998 13.29923745 25.296866879459742 
Si 3.39538986 12.37134276 25.497335798480307 
Si 1.10815983 13.976184689999998 29.35658800848631 
Si 3.2886089099999998 13.35949416 29.087700136833593 
Si 0.6425704529999999 14.84190045 27.219710071055243 
Si 2.5523823599999997 13.497258689999999 34.443113855133795 
Si 1.187855397 15.67387962 31.036287173689267 
Si 0.856829565 14.474919329999999 33.0532237727586 
Si 4.07241855 1.359806121 4.0675622463160535 
Si 5.42777913 2.71120986 2.6730542315902777 
Si 6.78703302 1.1876924969999998 1.1779613357408392 
Si 5.4283329899999995 -0.00291343392 5.4301125038057885 
Si 5.42971764 2.7152660699999998 8.145324884150288 
Si 6.78791268 1.356991209 6.787631955954924 
Si 4.06906281 4.087014389999999 12.24883136724469 
Si 8.14240989 2.7210815999999998 10.864145566256319 
Si 4.06906281 1.3540932179999998 9.502358603369984 
Si 5.429277809999999 0.00442325628 10.860294398030067 
Si 6.77823642 1.337218407 12.224440635145095 
Si 7.13083347 3.1094677799999997 15.600770227662819 
Si 5.50619919 2.7462659400000002 13.643266522031052 
Si 4.1790366 1.3220524169999999 17.373626029689976 
Si 6.140662109999999 2.58662394 17.896656309066064 
Si 7.1109108 1.8284058899999998 21.41992011273853 
Si 8.05160943 3.96641952 20.968708916500653 
Si 7.23306951 0.925586397 19.20414526948317 
Si 4.79945754 2.56240071 24.866229942304454 
Si 5.0628831299999995 2.2740025499999996 22.524025756558448 
Si 6.5324366099999995 1.340670258 25.971688699284943 
Si 4.7896835399999995 0.534536802 30.20266538114736 
Si 5.621027399999999 2.6822788199999996 29.41921286117446 
Si 7.32434238 2.82356199 27.68934442340249 
Si 6.132289049999999 3.95698761 31.40856676889361 
Si 6.79237614 4.07064294 4.068776578639646 
Si 4.07232081 6.78778236 4.073113479795335 
Si 6.62056551 6.680203199999999 1.2344347278297583 
Si 5.441853689999999 8.135942759999999 2.7165203897330548 
Si 8.13037158 5.421149099999999 2.6875811157013736 
Si 4.071995009999999 4.07279322 6.787805432001152 
Si 5.428381859999999 5.4288216899999995 5.429696161294842 
Si 6.7874728499999994 6.78776607 6.787458479908696 
Si 6.786006749999999 4.07126196 9.502670860253195 
Si 4.072548869999999 6.79025844 9.500415671652236 
Si 5.42802348 5.427828 10.866886487786713 
Si 6.7943961 6.796774439999999 12.238110547587826 
Si 4.21653618 7.01310564 17.167744658027107 
Si 4.54934088 6.214586129999999 15.011680269883277 
Si 5.35172112 7.9951482899999995 13.730178021191058 
Si 4.215004919999999 4.15807137 21.39223333576061 
Si 5.539577399999999 7.95869127 20.55174189178809 
Si 5.995273859999999 4.26859902 19.71628125315617 
Si 5.9287455 6.4075248899999995 18.820555036064796 
Si 6.89863581 7.40937618 22.537522192954953 
Si 5.234921819999999 6.828344459999999 24.14741459715594 
Si 5.311598849999999 4.86401481 25.45327288273851 
Si 4.76736624 6.89031162 29.58287016318554 
Si 7.44311277 4.9360329 26.469009828610112 
Si 8.01707463 7.012551779999999 27.496057412695745 
Si 4.60928808 5.97023613 34.4825276128367 
Si 6.84100179 6.077163689999999 30.579212487088896 
Si 7.221112649999999 7.85792133 32.403902931728844 
Si 4.08766599 4.5742971599999995 32.44630047742687 
Si 6.79022586 9.5029344 4.07075420556664 
Si 6.51845979 12.001217669999999 1.3068783247343867 
Si 4.0725814499999995 9.502347959999998 6.787874822419643 
Si 5.43045069 8.14485339 8.143659514106503 
Si 5.428137509999999 10.858783679999998 5.430702322362962 
Si 8.137783529999998 8.15079924 10.854292126830593 
Si 6.7873262400000005 9.49987188 9.499027863282416 
Si 5.43615219 10.85888142 10.86057195970403 
Si 8.03398365 10.68417117 13.628035325172272 
Si 5.93718372 10.888545509999998 17.209760556423426 
Si 6.01091226 9.9378774 14.897949373976491 
Si 5.3545229999999995 11.55047337 21.035080851787313 
Si 6.203248289999999 9.986389019999999 19.46970240104832 
Si 7.9041523499999995 9.45020367 23.19329634290437 
Si 6.14437623 11.002754699999999 23.219699397140204 
Si 4.24049877 10.35495027 24.47348017364526 
Si 4.95276273 8.560557900000001 25.866180567969344 
Si 4.719066389999999 10.497895019999998 29.562504075358422 
Si 7.00699689 10.35341901 29.089296116458886 
Si 7.019067779999999 9.12481092 26.988848148735613 
Si 5.12113617 8.650120320000001 33.163103500439135 
Si 4.95947421 10.60995393 34.5223230178413 
Si 4.11760701 8.693044469999998 30.940042663242217 
Si 7.46774325 13.77456336 0.03803497008748464 
Si 5.41085382 13.57141077 2.698530923739257 
Si 6.7894276499999995 14.935372469999999 4.0741543360727 
Si 4.07241855 14.932538009999998 6.787493175117942 
Si 5.4300760200000004 13.57489683 8.144561589546885 
Si 6.787423979999999 12.2175 6.7877013463734155 
Si 4.07145744 12.21738597 9.503364764438105 
Si 6.78685383 14.93221221 9.502393298579232 
Si 4.06448532 14.921656289999998 12.238075852378582 
Si 6.79666041 12.202773839999999 12.229055097974747 
Si 7.35635223 12.6387594 16.27854114027389 
Si 4.7831838300000005 15.318659879999998 17.05231369686729 
Si 5.06796561 13.176313109999999 13.53574606857921 
Si 6.18831036 14.467751729999998 15.198305800414884 
Si 7.763699969999999 15.946427609999999 13.590113461466926 
Si 5.9116735799999995 13.82511123 20.777017885419202 
Si 6.3695529 15.0254073 18.778886089760935 
Si 7.80701508 14.07918636 22.112887526999135 
Si 4.33025667 14.643765179999999 22.32473647465223 
Si 6.87675834 13.078442789999999 24.02272001512757 
Si 4.88739096 14.134002209999998 24.69757653016202 
Si 5.71953303 15.46597035 26.588396043623913 
Si 7.3656863999999995 12.68520219 29.410053325933642 
Si 7.510325309999999 14.253163559999999 27.594001988395824 
Si 4.14015237 15.478415909999999 28.328777129797274 
Si 4.16966985 12.310369289999999 31.00960655777947 
Si 6.315844769999999 13.34615265 31.552829448936446 
Si 6.119810909999999 15.79121649 31.975659964011495 
Si 5.807384999999999 15.74910684 34.43954024858151 
Si 12.02667894 1.225237689 1.3009280963487815 
Si 9.50236425 1.3601498399999998 4.073668603143264 
Si 10.32728985 0.1392400782 0.04386237743236078 
Si 10.85436909 2.71046052 2.713494967486846 
Si 9.50734899 3.9950247599999997 1.2682833739696795 
Si 8.1445113 9.68165199e-05 8.144977932057833 
Si 8.14379454 2.71272483 5.43132683612938 
Si 10.85888142 -0.000203123268 5.431535007384854 
Si 10.86062445 2.7157547699999998 8.144769760802358 
Si 9.502185059999999 1.3560268409999998 9.501942260859039 
Si 10.86075477 0.004689858419999999 10.86150873035366 
Si 9.5000022 4.08318624 12.221075199848283 
Si 8.85578157 1.3610066939999999 14.89260631175268 
Si 10.561165379999998 2.43830349 13.542476939172838 
Si 11.635148789999999 4.01196636 14.880497683725997 
Si 10.48351095 2.83779945 17.621072262028964 
Si 10.4298354 0.239000364 21.574834222019742 
Si 11.4096789 2.32622829 21.151344497969024 
Si 10.105224569999999 3.7769994 19.765305583820076 
Si 9.482343839999999 0.807166242 18.307690452997644 
Si 8.26132689 0.12774259619999997 22.43884901786072 
Si 11.74826655 3.3278026499999998 23.19877818596516 
Si 8.45281584 0.948011211 24.614724370483735 
Si 10.032734069999998 2.7387399599999998 24.76172797205697 
Si 11.04743817 1.75356963 26.745391865459855 
Si 9.544310999999999 0.6119990099999999 30.070407243503467 
Si 9.518589089999999 2.38096269 28.45659428065774 
Si 8.2999179 0.6238581299999999 32.07294533073591 
Si 8.36843364 3.04960203 32.38766557380195 
Si 8.65728792 2.12239152 34.63987038676509 
Si 11.79115812 0.107593821 30.87068693996044 
Si 12.21689727 4.07178324 4.071482804960796 
Si 12.200867909999998 6.741616499999999 1.2967993664485655 
Si 9.504693719999999 6.78779865 4.0708929864036225 
Si 11.26341099 5.004548639999999 0.007264344130988254 
Si 9.50311359 4.07207646 6.787250308653223 
Si 8.145114029999998 5.4297990899999995 8.14553305540576 
Si 10.857855149999999 5.42877282 5.430702322362962 
Si 10.86736851 5.42466774 10.855575849572677 
Si 9.500767830000001 6.784540649999999 9.502670860253195 
Si 9.776687849999998 6.560634599999999 16.931227416600457 
Si 10.34159247 7.73170641 13.589107300398807 
Si 8.97363972 4.77402885 15.619123993353695 
Si 8.67908394 5.96427399 13.503375438353148 
Si 10.40688279 6.1059807 19.518483865247507 
Si 8.28945972 7.0501491 18.718447035255252 
Si 9.23465439 4.9673422799999996 24.817309697268282 
Si 8.65925901 5.775098219999999 22.554731016740728 
Si 10.6831449 6.8980982399999995 21.718472388296156 
Si 11.215339199999999 6.25066848 25.609609495598786 
Si 10.477239299999999 4.48584246 28.965850561963357 
Si 8.94896037 6.25772205 29.482566313256765 
Si 9.97946577 7.95676905 26.577536443130068 
Si 11.0058498 4.054320359999999 31.204003815182073 
Si 10.693994039999998 5.809437539999999 32.59576743885653 
Si 8.3352672 7.61946831 34.52856815550549 
Si 12.11387931 7.1677629 31.34479697430036 
Si 9.36715725 9.353164139999999 1.2040104988423692 
Si 10.84159773 8.13452553 2.694547913717872 
Si 8.13504681 10.84645215 2.6855306288349636 
Si 11.105658629999999 10.4935293 0.10763113116933389 
Si 8.14351761 8.142784559999999 5.429973722968806 
Si 9.50246199 9.50229909 6.787527870327187 
Si 10.860445259999999 8.14444614 8.145012627267077 
Si 8.1440226 10.8600543 8.14421463745443 
Si 10.858620779999999 10.858620779999999 5.430459455898243 
Si 9.498014819999998 9.47973744 12.220971114220545 
Si 10.86503904 10.862172 10.86459660397651 
Si 9.88576569 10.166018849999999 17.196090643980693 
Si 9.31595778 11.7007812 15.322757515978536 
Si 10.813709249999999 8.366299649999998 15.849292011488421 
Si 11.43398358 9.24503112 21.669725619306213 
Si 9.32055156 10.2490164 21.43980046763621 
Si 8.48884932 9.40644873 19.304796071504402 
Si 11.54226321 11.53644768 18.325697266596062 
Si 11.87936847 11.88508626 24.44572400624885 
Si 8.78425218 9.618153569999999 25.407856853836133 
Si 9.95105601 11.632249169999998 25.81039067150256 
Si 10.15402941 8.13382506 30.27424159782085 
Si 10.704435929999999 11.510872379999999 28.045317270261442 
Si 11.00816298 9.16105617 28.35042694036647 
Si 12.17032416 9.03780603 32.70786765992877 
Si 8.3395026 9.474573509999999 30.984105578984018 
Si 10.259327970000001 10.70606493 32.54826969739942 
Si 8.13367845 16.28649765 2.717734722056648 
Si 9.50593176 12.21735339 4.068984749895119 
Si 9.255863969999998 14.74860762 1.3595248352435263 
Si 10.848586139999998 13.573088639999998 2.704057870572067 
Si 8.14351761 13.57546698 5.430841103199944 
Si 9.50252715 14.932928969999999 6.7877013463734155 
Si 10.86039639 13.57496199 8.145428969778024 
Si 9.4977216 12.21429087 9.502774945880931 
Si 8.14622175 13.57807338 10.860467874076296 
Si 9.492411059999998 14.909112989999999 12.250531432497722 
Si 11.69338554 15.12329391 15.251736422652971 
Si 9.58018158 15.88442787 16.30095424544649 
Si 10.71600183 13.3972218 13.852999061920169 
Si 9.97915626 13.2634809 19.113347906887668 
Si 9.59490774 12.65483763 21.36194441808928 
Si 10.6965027 15.501254489999999 19.510157015028586 
Si 8.311386059999998 14.167934279999999 17.678666309376517 
Si 11.64795273 13.26519135 22.474411607337366 
Si 11.326420709999999 15.395646419999998 23.378707541112384 
Si 9.74119194 15.337637729999999 25.12026826440009 
Si 8.490445739999998 13.41470097 25.642222992289568 
Si 9.703806389999999 12.970912499999999 29.605213877939647 
Si 11.143027889999999 15.686211149999998 26.922025175728756 
Si 9.531653669999999 15.095438009999999 28.58003983515327 
Si 10.9131597 12.82972707 31.65590891560486 
Si 11.43181701 15.01076259 32.91038359629483 
Si 16.26792705 2.6984222099999995 2.683369117298968 
Si 14.93395524 1.3617218249999998 4.07207262351797 
Si 14.69685429 3.90810132 1.1793456745897348 
Si 13.57514118 -0.00026814969 8.145012627267077 
Si 13.574473289999998 2.71352304 5.429834942131824 
Si 12.2170113 1.358317215 6.7877013463734155 
Si 14.93087643 1.3549533299999998 9.502289212951494 
Si 13.575711329999999 2.7188009999999996 10.860745435750259 
Si 12.19317903 1.3585517909999998 12.209764561634243 
Si 14.92949178 4.06590255 12.226834604583036 
Si 16.16181399 2.52864783 13.542303463126611 
Si 12.73573377 2.81499345 16.69040796922736 
Si 14.558047199999999 1.4492268179999999 14.935836542472588 
Si 15.458037119999998 0.90976392 21.166540999618558 
Si 13.652648999999998 2.4214596299999998 20.42739426185218 
Si 13.7337732 1.318336668 18.435889251159807 
Si 15.964118549999998 1.2845007089999998 17.71225127192617 
Si 15.662639519999999 3.1599667799999995 23.761256918253398 
Si 13.5371529 2.3047743599999997 24.27897883061492 
Si 13.10844897 2.84796441 26.558488773254286 
Si 16.02331641 3.11010309 29.089296116458886 
Si 15.17553594 1.95686883 27.273557035804277 
Si 12.709767509999999 3.01291695 34.51566153766616 
Si 14.835677669999999 2.6039402099999998 31.11265132923864 
Si 15.291341549999999 0.265325004 31.24907289199199 
Si 12.58172811 2.47080204 32.01337365646137 
Si 13.58696772 5.43058101 2.692563347749029 
Si 14.93457426 6.78638142 4.072384880401179 
Si 14.9325543 4.07220678 6.787319699071714 
Si 13.57492941 5.42874024 8.144318723082167 
Si 12.21692985 6.78753801 6.787146223025486 
Si 12.19840812 6.78499677 12.240226955351805 
Si 13.579311419999998 8.14247505 10.864457823139528 
Si 12.215284559999999 4.072304519999999 9.499791157885818 
Si 14.930827559999999 6.78584385 9.502497384206967 
Si 14.33765979 6.400031489999999 15.41716318033557 
Si 14.133171419999998 4.70556198 17.13426378110519 
Si 13.351805279999999 5.21402175 13.598475006895095 
Si 15.820603649999999 5.55296778 20.4241329121831 
Si 13.587814799999999 4.8215142 20.23081120626711 
Si 15.886219769999999 7.91200413 20.147854960961087 
Si 12.65921964 6.371133029999999 18.45177965699425 
Si 15.916339979999998 5.27721066 22.831494700892172 
Si 12.97228086 7.76161485 24.875389477545266 
Si 14.1566616 6.77890431 23.149233427162567 
Si 12.452955659999999 5.45082948 22.239663821582237 
Si 14.28841512 6.16913703 27.928116853430105 
Si 14.26676571 6.532583219999999 30.283713389944875 
Si 12.300578999999999 4.9752918 27.330144922083708 
Si 12.88727964 8.681771789999999 0.20383088479645659 
Si 12.21618051 9.501777809999998 4.06804797924549 
Si 14.84809065 9.549947340000001 1.2666526991351406 
Si 13.575043439999998 10.88494542 2.707839648379828 
Si 13.575988259999999 10.860803639999999 8.145082017685569 
Si 13.57505973 8.14368051 5.430251284642771 
Si 14.932733489999999 9.50306472 6.787215613443977 
Si 12.21539859 9.501680069999999 9.504197449459998 
Si 14.95000089 9.49622292 12.228118327325118 
Si 14.93213076 12.21487731 9.499756462676572 
Si 12.20663457 12.19961358 12.261009385689864 
Si 14.921428229999998 9.20855781 16.887407367323377 
Si 15.27237999 11.4813549 17.16472617482275 
Si 13.155429329999999 8.63404209 15.318073662730392 
Si 13.424035139999999 10.433386619999999 13.70634241243939 
Si 14.813164889999998 11.90724066 14.852325173818642 
Si 14.5334493 11.73687984 20.76449291488157 
Si 12.821060789999999 10.20322521 19.896210608303395 
Si 13.961165309999998 8.395491329999999 18.81018116850039 
Si 15.470515259999999 8.589945059999998 22.360333759338126 
Si 14.741244539999999 10.73823768 22.93835594536835 
Si 12.619358010000001 9.810978299999999 23.643987111003565 
Si 15.660358919999998 11.588477939999999 25.054798404553807 
Si 16.1621235 12.103453709999998 30.105310624004453 
Si 14.6341215 8.85465756 30.043379675501214 
Si 14.41809981 8.20383948 26.668507281771802 
Si 13.03947711 11.89360593 28.016520246587667 
Si 13.34393721 9.558760229999999 28.22729364275415 
Si 14.134067369999999 10.061160119999998 32.06080200749998 
Si 12.23229132 12.280460849999999 1.2861097724800234 
Si 12.21551262 14.93716437 4.068707188221155 
Si 14.933629439999999 12.21828192 4.074744154629874 
Si 14.74220565 14.82386742 1.1570401245657955 
Si 13.571589959999999 16.28240886 2.6855930802116053 
Si 13.574799089999999 13.57269768 5.429834942131824 
Si 12.21764661 12.21792354 6.787423784699451 
Si 14.93274978 14.932538009999998 6.787423784699451 
Si 12.21490989 14.930485469999999 9.502289212951494 
Si 13.57953948 13.573121219999999 10.86522111774293 
Si 14.918772959999998 14.931853829999998 12.245327151110892 
Si 13.178365649999998 12.41658009 16.79622835742617 
Si 15.36303384 15.906337919999999 16.148572886440203 
Si 13.37741316 14.74126083 16.907704064732 
Si 13.273906499999999 16.193286269999998 13.63275387362966 
Si 16.25175108 13.5058761 13.714357005775105 
Si 13.58067978 13.90167423 21.095346430246767 
Si 12.98821248 15.40693539 19.15765368909419 
Si 14.93193528 15.320549519999998 22.5224644721424 
Si 13.41030267 16.190044559999997 24.12777710872298 
Si 13.6203948 12.64868001 25.867221424246708 
Si 13.94010234 12.957017129999999 29.945816747102835 
Si 13.80624741 15.3903033 29.807764509514943 
Si 13.30803405 15.00190083 26.155677393913894 
Si 14.832289349999998 15.903047339999999 27.651908292626587 
Si 16.17898365 16.10059617 34.45366119874443 
Si 13.43494944 12.32858151 32.186953788316664 
Si 13.122719009999999 13.69943388 34.29475714039999 
Si 16.08433875 12.33079695 32.56665815829954 
