&CONTROL
  dt          = 30.D0,
  prefix = 'x0.33_y1.33_z3.16_struc35-scf',
  pseudo_dir = './',
  outdir='./',
  wf_collect= .true.,
  verbosity= 'high',
/

&SYSTEM
ibrav= 6, celldm(1) =30.783621515, celldm(3) =2.110272343468375, nat=  432, ntyp= 1,
  ecutwfc     = 12.D0, nbnd= 1728,
  degauss     = 0.05D0,
  occupations = "smearing",
  smearing    = "methfessel-paxton",
/
&ELECTRONS
  electron_maxstep=200,
  conv_thr    = 1.D-8,
  mixing_beta = 0.3D0,
  scf_must_converge=.false.,
/
ATOMIC_SPECIES
Si  28.08  Si.pbe-hgh.UPF
K_POINTS {automatic}
1 1 1 0 0 0
ATOMIC_POSITIONS (angstrom)
Si -0.01024052931 2.71658556 2.7069680533653835 
Si 2.7236879999999997 0.00907871022 2.6928737554105924 
Si 1.364507415 1.409712165 1.3075967739389047 
Si 4.07694717 4.001850269999999 1.17853425627679 
Si -0.000198219978 0.000527716179 5.430257991289144 
Si 0.000162109935 2.7150705900000003 8.144888530054827 
Si 2.71502172 -0.00044790495299999993 8.144957282727777 
Si 2.7161620199999996 2.71480995 5.429845475251443 
Si 1.357558101 1.357815483 6.787607637008461 
Si 2.7159828299999997 2.71609686 10.863850487216373 
Si 1.3513271759999999 1.334610378 12.234606904160978 
Si 4.069160549999999 4.084815239999999 12.24553857916006 
Si 4.07067552 1.3558867469999998 9.50155064904464 
Si 1.67661567 3.3354752399999996 15.030537478690272 
Si 3.62330325 1.6088280929999998 14.946762346700455 
Si 0.5541059789999999 1.88506251 17.702300725871506 
Si 1.9326618899999999 2.5768336499999998 19.56120112076253 
Si 2.10018825 0.5533615259999999 22.826024924812188 
Si 0.8967530969999999 3.84211053 23.72372857552294 
Si 0.74375253 2.31189309 21.750905001553438 
Si 1.0811347199999999 1.482394887 26.646748466000677 
Si 3.3236161199999996 2.22045732 26.944035023837344 
Si 0.27761418 0.641042451 28.69949702227479 
Si 4.04782065 0.7433322479999999 28.672477221805366 
Si 0.257377113 0.032931375299999996 34.18324459311919 
Si 2.3490017099999996 2.98857969 34.228518228256895 
Si 2.33888562 2.74572837 31.73523692005438 
Si 0.398085246 2.5120809 30.243407046044474 
Si 1.35568638 4.0738032 4.068817561529291 
Si 0.673563807 4.848099479999999 0.1564532388021096 
Si 2.72886822 5.43616848 2.6857716042948367 
Si 1.387723923 6.8567379299999995 1.272776982723276 
Si -0.000878578344 5.43051585 5.430601754653895 
Si 2.7147284999999997 5.4301086000000005 8.144888530054827 
Si 1.357453845 6.787489139999999 6.787435755326086 
Si 1.356520428 4.07214162 9.501756907063491 
Si 1.335094191 6.7826510099999995 12.228900432306112 
Si 2.47588452 5.27279607 13.67408161771931 
Si 2.3932779299999996 6.268017329999999 15.87148579788064 
Si 0.700554708 6.02172882 20.253471784698093 
Si 2.65779495 4.81151214 19.768318548025007 
Si 4.0536036 5.89960269 17.802473370359948 
Si 3.20852727 4.33633284 23.862437093199972 
Si 0.788471838 7.461227249999999 22.107043847435474 
Si 3.4372062899999998 5.937509519999999 25.57327860689274 
Si 0.6606034829999999 4.7744361 29.390186374732497 
Si 2.8362681899999997 5.6948210999999995 29.165227628839443 
Si 1.626429438 7.52182605 25.96795332596336 
Si 3.9447863999999995 4.47256611 27.482196571355033 
Si 2.52263682 7.872859259999999 28.158826002194424 
Si 3.5026920899999996 6.24853449 31.378135536751046 
Si 1.6176442409999998 5.12644671 32.21739941545413 
Si 3.97640529 9.49925286 1.341766852395154 
Si 1.358310699 9.50451453 4.070123862315344 
Si 2.70247842 10.884261239999999 2.705259549442571 
Si 0.000448620084 8.14464162 8.144613519363027 
Si 2.71583622 8.14594482 5.430223614952669 
Si 2.7147610799999997 10.85994027 8.144957282727777 
Si 1.35462753 9.50073525 9.50268506814832 
Si 2.71637379 8.14747608 10.865431798694226 
Si 0.479167092 10.573122239999998 16.403631486515184 
Si 1.568925738 9.096759539999999 14.918436245444973 
Si 2.7856062899999996 10.73524032 13.690169743189655 
Si 3.1796939699999998 9.425491739999998 19.756424335604624 
Si 3.6609983099999996 11.74631175 19.27690881811345 
Si 1.111183254 9.49663017 18.49584407706271 
Si 1.571734134 10.782236969999998 23.085944404900413 
Si 2.6713970999999996 9.012361049999999 22.04272572189056 
Si 1.74550608 9.894057299999998 25.256638171620594 
Si 1.617328215 9.223495739999999 29.888127608574315 
Si 1.016041509 11.41132419 28.925624563607997 
Si 3.75336261 10.95782688 25.87744043202442 
Si 0.1275788817 10.84565394 26.67565896497624 
Si 2.16277443 8.693402849999998 34.27358560537575 
Si 0.371097603 10.411232219999999 34.206758007268164 
Si 3.1791726899999997 8.55169614 32.03324538095702 
Si 1.352333898 12.300937379999999 1.1853270203642696 
Si 1.356882066 14.93038773 4.067339379060861 
Si 0.000444148479 13.574978279999998 8.145197917083104 
Si 2.7166832999999997 13.574473289999998 5.431289281383397 
Si 1.357611858 12.21743484 6.787504507999036 
Si 4.06277487 14.93333622 12.230206733092166 
Si 1.355489271 14.93169093 9.501894412409392 
Si 2.71386513 13.57685163 10.863506723851621 
Si 1.362119301 12.200428079999998 12.237082000387186 
Si 2.6039239199999997 16.11831969 13.71447381307755 
Si 3.68882163 12.276225449999998 15.188393615783932 
Si 1.65097521 12.663862289999999 16.418860203573654 
Si 1.048981518 14.559171209999999 15.122631684107066 
Si 1.5473023919999997 14.978084849999998 19.505545832009343 
Si 1.561448628 12.76300323 18.783230249994546 
Si 3.76204518 15.77139156 18.6993519889953 
Si 1.068959574 16.22887992 24.849141079044763 
Si 2.12493276 13.10727609 23.171610235396365 
Si 1.215929583 14.85318942 21.871256555552762 
Si 1.5202381859999998 13.954372379999999 25.327590930105202 
Si 3.3328525499999997 13.18752063 26.64829540114206 
Si 2.17551321 15.569933129999999 29.347903480868126 
Si 2.6484444899999997 13.213405439999999 28.868044200012204 
Si 2.69889462 13.763339549999998 34.26990733737292 
Si 2.17792413 15.485469479999999 32.834007762808 
Si 0.544828824 14.820658289999999 30.968644616659656 
Si 3.68872389 12.293672039999999 32.77006777696431 
Si 6.788385089999999 4.07267919 4.066170583620708 
Si 4.07357514 1.3564911059999998 4.070467625680095 
Si 5.43310596 2.7000023399999997 2.675654648470215 
Si 6.81718581 1.231020639 1.1712189718748884 
Si 5.4295873199999996 -0.000411285033 5.431083023364546 
Si 5.43041811 2.7147773699999997 8.144751024708928 
Si 6.78781494 1.357421265 6.78740137898961 
Si 8.146368359999999 2.7130832099999997 10.862166046729092 
Si 5.433448049999999 0.0018082388699999998 10.864159874244649 
Si 6.79035618 1.3420891169999998 12.247841793703893 
Si 6.936493769999999 3.6415643399999995 15.097777592835568 
Si 5.007497129999999 0.321734016 16.54426507903482 
Si 5.344325459999999 2.63520072 13.644896108051947 
Si 7.367087339999999 1.99741464 21.33845771652519 
Si 5.055454889999999 2.34747045 21.334435685157604 
Si 4.09998123 1.71909999 19.278387000581883 
Si 5.87045988 2.1690134999999997 17.754380875631284 
Si 6.7507389 2.9511452699999996 25.017413246090374 
Si 4.40431101 2.5292831399999995 24.84150953234729 
Si 4.3554898799999995 0.944313381 23.132421211814748 
Si 7.9644416399999995 1.473464709 23.61719630878661 
Si 8.04235671 0.427990428 28.147069295119937 
Si 7.704420659999999 2.61687447 27.180166079084803 
Si 4.70873853 1.8319734 30.67403941306805 
Si 6.373869749999999 3.5339363099999996 30.49115730302052 
Si 4.07287467 6.7836284099999995 4.0714301631013985 
Si 6.84199548 6.8968764899999995 1.0997196296403284 
Si 4.07253258 4.07246742 6.78774514235436 
Si 5.429456999999999 5.43139551 5.429295453867841 
Si 6.78778236 6.787440269999999 6.787298249980185 
Si 6.78587643 4.07197872 9.502169423101194 
Si 4.07310273 6.785485469999999 9.501447520035217 
Si 5.4305973 5.432877899999999 10.861169132971314 
Si 6.764455079999999 6.792050339999999 12.23151303387822 
Si 5.27354541 8.0106075 13.706292244996476 
Si 7.99412202 5.28133203 13.549879914034772 
Si 6.11287137 4.51096164 17.225535315298345 
Si 5.44447638 6.602141519999999 21.480535115176778 
Si 4.818060719999999 7.70547951 19.299356565831694 
Si 8.02521963 5.035678829999999 18.561846643094903 
Si 7.617904469999999 5.90859477 22.18940954962981 
Si 7.753160339999999 5.0769414 24.415311712729 
Si 4.1253284699999995 4.58874639 21.65918893583787 
Si 5.01420861 7.6544266499999996 25.272691920754465 
Si 7.2428598 7.061356619999999 25.691430075357655 
Si 7.31838024 6.31721313 27.869961646794156 
Si 6.2501472 4.237599149999999 28.2194658597365 
Si 5.63322861 5.289672509999999 34.2134613928808 
Si 5.662827539999999 5.436966689999999 31.82750300715355 
Si 7.56877383 7.021771919999999 31.32241149532491 
Si 5.43106971 8.14205151 2.685503468870331 
Si 6.785697239999999 9.50400954 4.067408131733811 
Si 4.07093616 12.21828192 4.0733552379440034 
Si 4.07225565 9.50290182 6.787504507999036 
Si 5.43001086 8.145097739999999 8.145644809457279 
Si 5.42953845 10.8610317 5.430704883663321 
Si 6.786576899999999 9.50106105 9.502066294091769 
Si 4.09010949 9.49327443 12.227078486472932 
Si 5.432568389999999 10.859744789999999 10.861478519999592 
Si 6.7768843500000004 12.21696243 12.254029534269408 
Si 8.053368749999999 10.73465388 13.71602074821893 
Si 6.79975551 9.239134139999999 15.209603815389068 
Si 7.36200486 10.15484391 19.10337707158715 
Si 4.95597186 11.837535749999999 17.194699741480182 
Si 6.778008359999999 11.48169699 20.928657409405524 
Si 5.9208285599999995 9.636821909999998 17.381844517250627 
Si 6.2990172 10.1004516 22.7785168278036 
Si 4.752526049999999 8.30921949 22.974324440365766 
Si 5.35248675 11.62983825 24.246730158655108 
Si 4.3403076 9.044012519999999 27.142283356289244 
Si 7.504509779999999 8.19887103 29.273650594081907 
Si 7.334328149999999 10.99441422 27.21034850250994 
Si 5.929364519999999 9.7829595 28.658107913158773 
Si 5.63374989 10.87743573 30.70470310520384 
Si 7.431677189999999 8.33134131 33.32218611709089 
Si 5.03505981 11.000539259999998 34.29531145002802 
Si 7.825830029999999 11.70009702 31.119625486458297 
Si 5.33966652 9.45191412 32.608808382559616 
Si 4.15781073 14.985741149999999 1.2923680568804354 
Si 5.43035295 13.5654975 2.699546202320409 
Si 6.6966561 12.21714162 1.1428378684810463 
Si 6.78791268 14.932098179999999 4.072770840223927 
Si 4.07246742 14.932309949999999 6.787573260671986 
Si 5.43012489 13.57505973 8.144751024708928 
Si 6.78709818 12.217939829999999 6.787710766017885 
Si 4.07090358 12.21624567 9.502375681120045 
Si 6.78498048 14.9301108 9.501138133006942 
Si 5.24746512 13.558248449999999 13.720420919287742 
Si 6.478304939999999 14.93771823 15.274265704298731 
Si 6.76940724 13.47153678 17.236742000989228 
Si 5.08044375 13.03007778 20.66753475754067 
Si 7.68062097 16.2144144 20.04532306734136 
Si 5.878637459999999 14.727903029999998 19.205543543591148 
Si 4.43882952 13.3574742 22.928569536517408 
Si 7.7243922 15.405681060000001 23.698083828512516 
Si 5.382818729999999 15.24910158 23.961097178883506 
Si 6.73985718 12.71740752 25.799578029908318 
Si 5.27273091 14.47868232 26.274865258013048 
Si 5.931221579999999 15.66179244 28.2559047764001 
Si 4.777531199999999 16.13364858 32.00488490336507 
Si 7.51830741 14.0945967 34.28279846355108 
Si 4.36065381 12.858739559999998 30.498616968035616 
Si 7.7894707499999996 13.90454127 31.934757176955863 
Si 5.95044378 14.60015685 30.42632353242848 
Si 5.7811581 15.88162599 34.19702950404571 
Si 12.079882079999999 1.2673391939999998 1.2933855964400984 
Si 9.501191369999999 1.3618049039999998 4.073423990616954 
Si 10.85365233 2.71003698 2.7052423612743333 
Si 9.5327451 4.00662324 1.2258292199992322 
Si 8.14488597 3.66091686e-05 8.145438551438428 
Si 8.1454887 2.71265967 5.43063613099037 
Si 10.858278689999999 9.67917591e-05 5.429570464559642 
Si 10.86007059 2.7146633399999995 8.145129164410154 
Si 9.50027913 1.356227208 9.502513186465945 
Si 9.85926186 -0.00292978908 16.000397059662262 
Si 8.99836794 2.09606688 15.209844449744393 
Si 10.76738049 2.6767076399999996 13.571055737303434 
Si 10.52825958 3.53719431 21.089023019061866 
Si 10.53888066 2.40886746 18.98893824746154 
Si 9.71024094 0.0250111773 18.453354925179486 
Si 9.457371270000001 3.57853833 17.210856619623478 
Si 11.35517256 1.73607417 22.408386812976197 
Si 10.16310294 1.8751419 24.374885141034284 
Si 11.16107721 0.08213450580000001 25.75320435200341 
Si 11.39065218 1.519329204 29.926010331369877 
Si 9.838769039999999 3.66982749 27.205604568076378 
Si 11.901131909999998 2.81746953 28.043390264311036 
Si 8.50311936 2.17109862 34.193660623071146 
Si 10.24926075 0.316855161 34.05921477111703 
Si 9.152341019999998 0.7756727849999999 30.252104259172675 
Si 8.29180548 2.5699104 31.71818625716273 
Si 11.53574721 2.17886895 32.09570718433228 
Si 10.117898189999998 4.071538889999999 32.12503019934554 
Si 10.85844159 8.126250209999998 2.7038879336172146 
Si 12.21792354 4.06945377 4.0701926149882945 
Si 8.150440859999998 5.439670829999999 2.6724851502472107 
Si 9.505752569999999 6.7855506299999995 4.071223905082547 
Si 9.50278779 4.0721742 6.787538884335511 
Si 8.14506516 5.42975022 8.145197917083104 
Si 10.8592398 5.4312326099999995 5.429398582877266 
Si 10.858620779999999 5.43181905 10.85972532683936 
Si 8.14690593 8.14822542 10.859415939811086 
Si 9.502087320000001 6.7869027 9.500897498651614 
Si 9.49767273 4.07507382 12.210268457936609 
Si 9.51842619 6.583179959999999 14.702518476044869 
Si 10.813481190000001 5.19823674 16.105416767593695 
Si 12.068984069999999 5.357357459999999 21.46479075307118 
Si 8.27590644 4.14634257 20.781698570974473 
Si 9.22382154 7.144060949999999 18.255690990447665 
Si 11.507663249999998 6.8119567199999995 17.620003776350117 
Si 11.45405286 5.94501921 24.859385227314338 
Si 9.113407919999998 7.788916889999999 22.111822158205513 
Si 11.286396179999999 7.10594235 22.804642843524675 
Si 9.92181546 4.1914169999999995 24.930716125500172 
Si 9.520983719999998 5.729372189999999 28.208465432064468 
Si 11.05177131 7.041010409999999 26.914436998132285 
Si 9.589955579999998 5.90900202 30.59236123760321 
Si 11.561387669999998 7.1761848299999995 30.59308314066919 
Si 11.41215498 4.92736662 34.27949833524947 
Si 9.440788049999998 9.45427617 1.3346784518139883 
Si 8.13617082 10.8753669 2.691034621409175 
Si 11.47037544 10.05146757 0.17881126428214975 
Si 12.20114484 12.1339323 1.298459543703823 
Si 12.217597739999999 9.50278779 4.067270626387911 
Si 8.14600998 8.143973729999999 5.429673593569068 
Si 9.502869239999999 9.502250219999999 6.787091991961335 
Si 10.86033123 8.14540725 8.145026035400727 
Si 8.14491855 10.86013575 8.144922906391303 
Si 10.85976108 10.85912577 5.429467335550217 
Si 9.47144583 9.510916499999999 12.208343383094002 
Si 10.861357499999999 10.86059187 10.861822283364344 
Si 11.617685909999999 9.87428124 14.835933037904733 
Si 10.79681652 8.13550293 13.493330840533233 
Si 8.62342101 8.150831819999999 16.195379640149028 
Si 9.761847659999999 11.67326739 15.139304207297489 
Si 8.653362029999998 12.00063123 17.379403797360894 
Si 9.0994311 8.733492539999999 19.900358056425866 
Si 10.94694516 10.13334111 19.494992296711487 
Si 9.90792009 11.407219109999998 22.815952658224983 
Si 8.47586619 9.62061336 23.46542478324904 
Si 11.746099979999999 10.62427284 21.612746505260013 
Si 8.31469293 9.23353038 25.761489049093907 
Si 9.50422131 9.515298510000001 28.890079431692744 
Si 8.84897235 11.75883876 28.879216509366614 
Si 11.71573542 11.16383022 25.929898721485426 
Si 10.42441083 9.27915867 26.74802115325632 
Si 11.278560689999999 9.47243952 30.361214751144644 
Si 8.73813519 10.421999909999998 33.04844734973967 
Si 10.983369599999998 10.810630439999999 32.38690913061285 
Si 9.50269005 12.22217523 4.070811389044846 
Si 9.380254410000001 14.94381069 1.2940421844667729 
Si 10.85085045 13.56803874 2.6902061517001243 
Si 8.13411828 16.2952128 2.7156858922954688 
Si 8.14410405 13.57532037 5.4306705073268455 
Si 9.502282799999998 14.932863809999999 6.787504507999036 
Si 10.860038009999998 13.57533666 8.144647895699501 
Si 9.50242941 12.21692985 9.502788197157745 
Si 8.142100379999999 13.57911594 10.863575476524572 
Si 9.4876218 14.93081127 12.24863244944282 
Si 10.86270957 16.290488699999997 10.863747358206949 
Si 11.809728719999999 15.03904203 14.968385062343293 
Si 10.67200254 13.41916443 13.665281275581682 
Si 8.192957759999999 16.19214597 13.972124454958424 
Si 8.868031649999999 12.645422009999999 21.124911914341872 
Si 10.15189542 12.35345634 19.114068112230903 
Si 11.42805402 14.263230779999999 18.418359814647836 
Si 8.8615971 14.94780174 21.68507431720362 
Si 11.15026065 15.645502439999998 22.116153576601373 
Si 11.93336982 14.67512343 24.21235382218001 
Si 10.557304649999999 12.75568902 24.60115018771339 
Si 8.662288949999999 13.95559413 25.351104344254168 
Si 9.611784179999999 15.193520099999999 27.140014518081887 
Si 10.57624992 13.421526479999999 28.56333235349692 
Si 9.6783777 15.32833614 31.72880854513354 
Si 11.42321589 14.17112712 30.659910738776784 
Si 13.16533365 3.1123674 0.18400656001363158 
Si 14.932928969999999 1.3586006609999999 4.0710863997366475 
Si 13.574587320000001 0.000283475322 8.145026035400727 
Si 13.57554843 2.71528236 5.430704883663321 
Si 12.217174199999999 1.357802451 6.78726387364371 
Si 16.2930951 0.00165954375 10.860206595550013 
Si 14.9320656 1.355477868 9.502581939138896 
Si 13.572094949999999 2.7173511899999996 10.86281919712212 
Si 12.2080518 1.352713455 12.222712691740593 
Si 14.94099252 4.07662137 12.237528892761361 
Si 16.20095886 2.55777435 13.652080762375244 
Si 15.441290999999998 3.67383483 17.02986520808208 
Si 13.445537939999998 -0.0197772003 13.651083848617466 
Si 14.803684109999999 1.141609716 15.101593366184305 
Si 13.42128213 2.50616763 16.410300495791354 
Si 12.279369419999998 3.9208400999999995 14.89712291683041 
Si 14.1154479 0.165944601 19.894410950215672 
Si 12.842221499999999 1.91330937 18.777626907149102 
Si 14.113444229999999 3.93722784 18.94321771994966 
Si 13.545493379999998 2.38767417 22.994984618587303 
Si 15.04246293 1.013640363 21.896213775833683 
Si 13.92337251 2.62734894 25.265988535141823 
Si 16.12371168 3.2250616199999995 25.79593413824196 
Si 12.99653667 1.131156423 26.815020633046295 
Si 15.689192219999999 1.547413164 32.36844903792572 
Si 13.733040149999999 2.8069624799999997 32.31427193164097 
Si 16.28555283 8.13270105 2.7123754510929166 
Si 14.97176433 4.12534476 1.3046954111404063 
Si 13.58727723 5.44345011 2.7036713626974214 
Si 12.254331689999999 6.757401509999999 1.2576754581097647 
Si 14.93144658 6.788499119999999 4.074730291403008 
Si 14.93261946 4.0726629 6.78726387364371 
Si 13.57476651 5.430271499999999 8.144751024708928 
Si 12.217874669999999 6.78708189 6.787917024036736 
Si 16.2934209 5.4286099199999995 10.85831589704388 
Si 12.216538889999999 4.07227194 9.502341304783569 
Si 14.9320656 6.786576899999999 9.502513186465945 
Si 12.22761609 6.78520854 12.222609562731169 
Si 16.23951729 5.87697588 16.546258906550374 
Si 16.18328421 8.108575559999998 13.626401639028344 
Si 13.623636509999999 5.47840845 13.655243385330955 
Si 14.61667491 7.12615824 15.140576131747068 
Si 16.20664407 7.32786102 18.449917291531975 
Si 15.56278182 4.186644029999999 20.810471564604132 
Si 14.23715049 7.85871954 19.600974542064222 
Si 12.887735759999998 5.93630406 19.35233050033982 
Si 16.077708719999997 5.93403975 23.58777016476392 
Si 14.0636457 4.719897179999999 22.61980128229806 
Si 13.60154727 5.019861239999999 25.082350145691837 
Si 15.591158999999998 6.72123771 25.79074331143422 
Si 15.59397717 4.904821259999999 27.435479130085373 
Si 12.687564239999999 6.783367769999999 28.549409937224507 
Si 13.48162029 4.57574697 28.630641220315166 
Si 14.00967693 4.843065869999999 31.19415338393631 
Si 12.63048408 6.3371032199999995 32.47824705662719 
Si 16.012076309999998 6.074019719999999 31.12271935674105 
Si 14.97469653 9.50578515 1.3451426086370089 
Si 13.584051809999998 10.86516936 2.7111447782471076 
Si 16.289006309999998 10.86007059 5.430395496635044 
Si 13.576428089999999 8.144266949999999 5.429639217232593 
Si 14.932375109999999 9.502673759999999 6.787676389681411 
Si 13.574473289999998 10.85994027 8.144819777381876 
Si 12.216685499999999 9.501614909999999 9.502341304783569 
Si 13.57525521 8.143371 10.860412853568864 
Si 14.928840179999998 9.50311359 12.223228336787722 
Si 16.292280599999998 10.86153669 10.861787907027868 
Si 12.786623729999999 8.490983309999999 16.37265840735112 
Si 13.50902007 10.77474357 13.642971033209342 
Si 14.794561709999998 12.01535739 15.185437250847071 
Si 16.25346153 11.25554292 19.607677927676864 
Si 14.050825469999998 11.708160569999999 18.92675145477809 
Si 13.04200206 9.58508487 18.552840042938428 
Si 15.00641316 8.60330286 21.714706719245157 
Si 12.878629649999999 8.86972581 22.76755077646804 
Si 14.2464195 11.9674485 23.04386776905489 
Si 13.42778184 10.204007129999999 24.609228626785036 
Si 15.886480409999999 10.801491749999999 21.878956854923185 
Si 14.865260309999998 9.03809925 26.22034438836354 
Si 13.042034639999999 10.49737374 29.2094699738829 
Si 14.185071359999998 8.59546737 28.426514534326024 
Si 15.73364763 8.3038275 30.28414300476747 
Si 14.197370309999998 11.49609735 30.983460817680424 
Si 15.11496972 9.755445689999998 32.26157300782464 
Si 13.37812992 8.32441806 34.183760238166315 
Si 12.21938964 14.93200044 4.068026905790363 
Si 14.932668329999998 12.216620339999999 4.072736463887452 
Si 14.914863359999998 14.97691197 1.1509163075526947 
Si 13.57092207 16.28639991 2.688576713351205 
Si 16.277521859999997 13.580191079999999 2.6827980511897405 
Si 13.57499457 13.57357734 5.429914227924393 
Si 12.21777693 12.217043879999999 6.787813895027311 
Si 14.9325543 14.932505429999999 6.7872294973072345 
Si 12.217092749999999 14.93063208 9.501172509343416 
Si 14.93136513 12.21689727 9.502031917755293 
Si 13.572355589999999 13.578431759999999 10.86099725128894 
Si 12.218868359999998 12.21802128 12.241104031754771 
Si 14.91598737 14.93490006 12.23474440950688 
Si 15.363147869999999 15.34703706 16.265782377250034 
Si 13.27674096 13.78658538 16.49600070262378 
Si 16.096670279999998 13.384043189999998 13.587006357427882 
Si 13.113401129999998 12.47752098 21.012501294068294 
Si 12.5242407 14.74088616 20.43865710928945 
Si 15.98731551 16.11338382 18.43376041338868 
Si 15.67404252 15.548414039999999 23.271851632557755 
Si 14.28123123 13.941405539999998 24.262440144424232 
Si 15.709408109999998 13.07373498 26.025155549857924 
Si 15.73703595 12.905475569999998 29.933882512422677 
Si 12.56081175 12.33850212 27.79550250198909 
Si 14.576748119999998 13.70725308 27.981719116674707 
Si 14.324106509999998 16.04493324 28.293615617513286 
Si 13.474550429999999 13.51591074 34.272588691617976 
Si 12.89423547 15.997708529999999 30.17805763040531 
Si 12.57511437 12.773217059999999 32.18075424077168 
Si 14.75781147 15.72315687 31.653421239243645 
