&CONTROL
  dt          = 30.D0,
  prefix = 'x0.33_y1.33_z3.15_struc24-scf',
  pseudo_dir = './',
  outdir='./',
  wf_collect= .true.,
  verbosity= 'high',
/

&SYSTEM
ibrav= 6, celldm(1) =30.783621515, celldm(3) =2.1034888228945987, nat=  432, ntyp= 1,
  ecutwfc     = 12.D0, nbnd= 1728,
  degauss     = 0.05D0,
  occupations = "smearing",
  smearing    = "methfessel-paxton",
/
&ELECTRONS
  electron_maxstep=200,
  conv_thr    = 1.D-8,
  mixing_beta = 0.3D0,
  scf_must_converge=.false.,
/
ATOMIC_SPECIES
Si  28.08  Si.pbe-hgh.UPF
K_POINTS {automatic}
1 1 1 0 0 0
ATOMIC_POSITIONS (angstrom)
Si -0.008984374829999999 2.7188335799999996 2.686252839235229 
Si 2.52027477 2.9299031099999997 0.06424946470927465 
Si 1.336988718 1.3039916939999998 1.312484198524475 
Si 1.359578061 4.07126196 4.066120798206624 
Si 4.07430819 1.354736673 4.071603331474616 
Si -0.001528259382 -0.0006801645149999999 5.42952402445758 
Si 0.00033076356299999995 2.7150543000000003 8.14512554959303 
Si 2.7151357499999995 -2.2720314599999998e-05 8.144748625430855 
Si 2.7142886699999997 2.71451673 5.4293526952929545 
Si 1.357932771 1.3566474899999998 6.787753109936866 
Si -0.00213227955 0.0018494362799999998 10.859733365573657 
Si 2.71687878 2.7142397999999996 10.855176009794638 
Si 1.384687467 1.355160213 12.21806524855172 
Si 1.6377314399999998 2.80453527 16.61063663703437 
Si 0.112005153 2.7897439499999996 13.527362724614173 
Si 2.77589745 0.034459703099999996 13.688857595189479 
Si 3.6936923399999997 1.71263286 15.262378908936245 
Si 0.30872970899999996 3.5831484 20.60366841361207 
Si 3.59463285 1.82070072 19.073390581016593 
Si 2.072088 3.6469726199999997 18.93444262850591 
Si 0.47096833499999996 1.611296028 22.098686704127772 
Si 4.05715482 1.9348936199999998 23.35864138077829 
Si 1.8702548999999997 2.65779495 23.68896401017484 
Si 1.219107762 2.50142724 25.953867034848383 
Si 2.28677391 3.5442804599999995 29.890497250431608 
Si 0.668566035 0.0851691699 29.955636598821947 
Si 2.89150758 2.57114844 27.71293783388377 
Si 3.8243544299999996 0.472558239 28.070912990450754 
Si 2.6586257399999997 2.40606558 32.04722304056108 
Si 1.70447157 0.25109731799999996 32.05907901875311 
Si 2.7210490199999997 5.42654109 2.6776212759214335 
Si 1.236784041 6.761327399999999 1.264083709517979 
Si -0.000458819253 5.431444379999999 5.429798151120979 
Si 2.71490769 5.42968506 8.14485142292963 
Si 1.357352847 6.787586879999999 6.787821641602716 
Si 4.05852318 4.06652157 12.200247015430744 
Si 1.358498034 4.07165292 9.501744140924846 
Si 1.370627568 6.783188579999999 12.220326793524766 
Si 0.0368096985 8.06560254 13.680873656117964 
Si 0.976538259 4.49027334 14.93623671115654 
Si 2.7084079799999996 5.36095755 13.592981794665459 
Si 1.86470001 7.44527934 15.792368546786493 
Si 2.8147002299999997 7.4547927 20.55994521079983 
Si 0.55949634 8.01150345 20.25984504604309 
Si 3.0661363799999997 5.85353457 18.782953381144694 
Si 0.911964699 7.387661609999999 17.94333767698457 
Si 2.6750460599999997 6.41568618 22.632993836926563 
Si 1.0575288809999999 4.73157711 22.752855720498047 
Si 0.1373564655 7.981008569999999 25.146461213637714 
Si 0.1189644039 4.22165124 29.3877489497567 
Si 0.276216498 7.791686189999999 27.491135097360548 
Si 3.48299748 5.80398039 27.688197902511956 
Si 1.07878896 5.62166271 27.71742665799694 
Si 3.7481823899999998 5.403230099999999 30.06559565667812 
Si 3.3448745699999995 7.99664697 32.22328089012949 
Si 3.6348691499999997 5.72590242 32.450394830756075 
Si 2.34932751 8.56987578 0.0772554042542698 
Si 1.359734445 9.49697226 4.070918014816118 
Si 2.73707838 10.862172 2.699489730494138 
Si 1.2090226229999999 12.00576258 1.2807266245696287 
Si 1.63854594e-05 8.14477194 8.14471435959793 
Si 2.7151357499999995 8.14480452 5.431340113602602 
Si -0.000699422553 10.86055929 5.430003746118529 
Si 2.71492398 10.859907689999998 8.14491995459548 
Si 4.06078749 9.51362064 12.204256117882963 
Si 1.358069607 9.50182668 9.502977710910143 
Si 2.71658556 8.14143249 10.857985808094485 
Si 1.339290495 12.232633409999998 12.235952013338546 
Si 3.17272185 11.88340839 17.012129401416047 
Si 1.2652947989999999 9.61742052 14.983489294760052 
Si 2.69509905 10.84386204 13.528596294599474 
Si 2.25719127 11.431768139999999 21.032642375999558 
Si 3.66692787 9.67735143 20.329233357716124 
Si 0.23392765799999998 11.948128559999999 19.905673396930776 
Si 3.68163774 9.67086801 17.817273677653667 
Si 1.506606714 10.485139949999999 23.040585919568876 
Si 2.10966903 8.364735809999999 23.888322626132215 
Si 2.41917903 11.69170767 24.87750869100976 
Si 1.6927753499999998 11.285321039999998 27.083748609715784 
Si 2.1647781 9.157537529999999 28.122448803169885 
Si 0.0197644941 9.39015873 31.6486086061451 
Si 0.53833563 10.08935811 34.08100302215581 
Si 3.44513952 11.017790369999998 31.135991745587802 
Si 2.13677559 9.16188696 30.543364165150738 
Si 2.7238509 16.2919548 2.6999009204892372 
Si 3.79193733 14.711352389999998 1.2543659193004622 
Si -0.01013785344 13.55771088 2.692547472743543 
Si 1.3589590409999999 14.93325477 4.069718710663744 
Si 7.84762605e-06 13.57507602 8.145022752094254 
Si 2.71606428 13.574717639999998 5.430038011951454 
Si 1.357670502 12.217548869999998 6.787581780772243 
Si 4.08952305 14.92866099 12.248150649859829 
Si 1.358326989 14.93351541 9.502566520915043 
Si 2.7119754899999995 13.576981949999999 10.864667645514851 
Si 1.083765555 15.31966986 15.015082392716858 
Si 1.013070213 12.565226339999999 17.65543614874911 
Si 1.474264548 15.837007679999997 21.296180897025373 
Si 2.64215655 15.924273209999999 19.20589655693739 
Si 1.0800204839999998 14.96705652 17.52406094531484 
Si 3.7327557599999994 13.191006689999998 21.622254563139222 
Si 2.92125312 14.9348349 22.974315798692018 
Si 1.6178934779999998 13.89776463 24.593856126057 
Si 0.599367744 15.13057554 26.306907911474173 
Si 2.81948949 13.19537241 28.03931989249395 
Si 1.9303649999999999 15.3865566 28.17850770583511 
Si 0.561651507 15.79077666 34.1650228444878 
Si 1.9823952599999999 13.851598769999999 34.26583292495301 
Si 0.392387004 13.071438090000001 31.085106983694246 
Si 3.4841377799999997 15.004425779999998 31.471317186591392 
Si 2.6257199399999998 13.01455341 30.309773982101333 
Si 5.43947535 2.71397916 2.690272221437326 
Si 6.928071839999999 1.4212813229999999 1.2804490713229366 
Si 5.42988054 0.000508844214 5.429729619455129 
Si 5.429766509999999 2.7152009099999996 8.144680093765006 
Si 6.78794526 1.3574831669999998 6.787102059111293 
Si 4.0720113 1.360301337 9.502155330919946 
Si 5.43009231 -0.0018770967 10.864736177180701 
Si 6.78812445 1.36352187 12.26192551469566 
Si 5.25720654 2.76861582 13.693106558472174 
Si 6.42816432 3.69771597 17.288688938953342 
Si 5.154416639999999 1.582518114 17.293760282226234 
Si 6.6619258199999996 0.543802554 20.94543583120555 
Si 4.818060719999999 2.06506701 21.085103366207658 
Si 7.73245575 3.8173171499999996 21.951138027552922 
Si 7.38917658 3.3435224999999997 24.26966708075402 
Si 5.09471379 3.6568769399999996 24.56003574896007 
Si 8.04120012 1.048048101 24.568739270523007 
Si 7.4581484399999995 0.0780888843 26.613518584486652 
Si 4.6595916 3.8941896599999994 26.89319631282012 
Si 6.47646417 3.40848702 28.39791183405358 
Si 7.6793340599999995 1.361842371 28.544261206476055 
Si 5.59035333 3.9911640299999998 30.502793418967595 
Si 4.957372799999999 2.04533982 31.766962793067886 
Si 4.80660885 0.23351715 30.23480033966154 
Si 8.07811326 0.0367919424 32.299316773389954 
Si 6.05802294 0.6173421299999999 33.398119237794425 
Si 4.2184584 4.07860875 1.1821609561610014 
Si 6.7893462 4.07191356 4.069718710663744 
Si 4.06947006 6.79040505 4.071466268142917 
Si 6.74977779 6.763021559999999 1.2819430616384644 
Si 4.07264661 4.072516289999999 6.787444717440542 
Si 5.429212649999999 5.43015747 5.429832416953904 
Si 6.78713076 6.787831229999999 6.787890173268567 
Si 6.786462869999999 4.07137599 9.501264419263896 
Si 4.07186469 6.787407689999999 9.501607077593146 
Si 5.43240549 5.43056472 10.860418682232156 
Si 6.78550176 6.792050339999999 12.21813378021757 
Si 6.215938199999999 4.60923921 15.002335502868776 
Si 4.33077795 6.50681244 14.899983459921943 
Si 8.09977896 5.5187262 13.724151403102178 
Si 5.4864231299999995 5.39238096 18.98957635368216 
Si 5.59501227 4.33545318 21.131019582327095 
Si 6.55108866 7.55339607 19.202367176146115 
Si 4.76656803 5.46597918 23.07762728496075 
Si 5.82281163 7.492748399999999 23.613853304403342 
Si 7.3818623699999995 7.36327548 25.425796283641933 
Si 8.06374548 6.9835067099999995 29.028848615700742 
Si 4.10705109 8.0070237 27.15642644134961 
Si 6.4958981399999995 8.120239199999999 27.568850006434342 
Si 5.61311046 5.333508899999999 33.9481886537387 
Si 7.307531099999999 7.064386559999999 31.298583122816705 
Si 7.145103509999999 4.80172185 32.01888519673214 
Si 7.909919009999999 8.45393985 0.1358198246229655 
Si 4.19514741 9.522156599999999 1.2913798720259966 
Si 5.42672028 8.12970369 2.7140801221535833 
Si 6.78913443 9.50249457 4.071260673145367 
Si 4.0732819199999994 12.217679189999998 4.074241800609838 
Si 6.82357149 12.12085143 1.1832883020642322 
Si 4.0726140299999996 9.50220135 6.787890173268567 
Si 5.4305973 8.14493484 8.145057017927181 
Si 5.428202669999999 10.858979159999999 5.430038011951454 
Si 6.78864573 9.501403139999999 9.50157281176022 
Si 5.431281479999999 10.860803639999999 10.86161798638453 
Si 4.07225565 12.21699501 9.503114774241842 
Si 6.79094262 12.216685499999999 12.249795409840226 
Si 5.4254659499999995 8.17847595 13.556180290104061 
Si 7.1374797899999995 8.98738848 15.038588754103376 
Si 4.084750079999999 12.08203236 14.888538671725009 
Si 5.9225715899999996 9.03409191 17.28724977397049 
Si 5.84525925 10.409277419999999 20.940775677927757 
Si 6.1807517999999995 11.00879829 18.631464133783474 
Si 4.685460119999999 11.09122569 24.705905399721594 
Si 6.820378649999999 8.36387244 21.587371945221623 
Si 5.50929429 12.03995529 22.641731624322425 
Si 4.22372007 8.745433109999999 24.859005141230284 
Si 6.53830101 10.384435169999998 28.293195448634926 
Si 6.02759322 11.89859067 26.48066995023661 
Si 5.6616709499999995 10.54507086 30.606584626897277 
Si 6.0902445599999995 10.07117847 34.15224168880679 
Si 5.61237741 8.69610699 32.12932397624926 
Si 5.4203671799999995 13.565041379999998 2.677371135341081 
Si 6.78763575 14.93305929 4.069924305661294 
Si 4.07197872 14.932880099999998 6.787444717440542 
Si 5.43009231 13.57507602 8.14512554959303 
Si 6.787554299999999 12.21688098 6.787273388275917 
Si 8.14496742 13.57395201 10.862783024703978 
Si 6.7875054299999995 14.931886409999999 9.50191547008947 
Si 5.51893797 13.59081216 13.78123828075515 
Si 7.1847045 14.797184399999999 15.341670046324586 
Si 6.1422911099999995 15.69258054 17.28793509062899 
Si 4.369955399999999 14.26619556 19.626886580253363 
Si 6.63415137 15.035376779999998 19.45816161893089 
Si 5.042276279999999 12.928297859999999 17.82919818751155 
Si 6.85188351 15.845690249999999 23.099043430538845 
Si 4.6892231099999995 16.06260789 24.07298119976479 
Si 7.39170153 13.44229623 23.15681562485032 
Si 7.967813669999999 12.79170621 25.377858383379923 
Si 6.748816679999999 13.90084344 29.40823991784582 
Si 5.17767876 15.756469919999999 26.425056503399414 
Si 5.1021420299999996 13.69682748 27.606302561821316 
Si 7.08088833 16.08973074 30.18867852854455 
Si 6.08297922 12.774618 31.363962332037516 
Si 4.95437544 14.759082089999998 33.3588163274295 
Si 8.14807881 -0.016784564399999997 2.695621117956911 
Si 9.50622498 1.3565464919999999 4.07245997729774 
Si 10.86865542 2.7085383 2.7090259117971525 
Si 9.614309129999999 3.9204654299999997 1.147076169829142 
Si 8.145309509999999 -0.0001194690681 8.14498848626133 
Si 8.14519548 2.71529865 5.4285988469686055 
Si 10.860999119999999 0.000918027837 5.430449201946553 
Si 10.86007059 2.7147936599999998 8.144885688762555 
Si 9.5037489 1.3577421779999999 9.503320369239393 
Si 8.14079718 2.7183122999999996 10.863776733858801 
Si 12.184349849999998 3.58617834 17.08216876391465 
Si 8.2963341 0.0623274948 13.823248191921143 
Si 10.261217610000001 0.797843475 15.12391067808651 
Si 10.752931259999999 2.6334251099999997 13.619743410179849 
Si 10.514836619999999 1.83901068 17.295987561366356 
Si 10.578644549999998 1.194772131 20.715237965615717 
Si 8.38110726 2.0463498 20.471470830187602 
Si 11.58310224 0.283343373 18.78894990190656 
Si 8.578590929999999 3.2544324899999997 18.34883954381846 
Si 11.085459029999999 3.3132068099999996 21.655012699415476 
Si 11.22172488 2.81483055 23.969943840159452 
Si 10.35885987 0.693651006 24.439488548730083 
Si 10.485449459999998 3.92307183 27.781606563065377 
Si 11.17674819 0.27472596299999996 29.723040124927365 
Si 9.77061168 2.1445296299999996 29.233449904095636 
Si 8.8453071 2.2147721099999997 33.925436140676524 
Si 12.05618013 0.430622892 31.89837226233508 
Si 10.686696119999999 0.5835713309999999 34.005206999725814 
Si 9.133477199999998 3.26888172 31.4643269566747 
Si 10.87663752 8.12667375 2.69464454171855 
Si 8.154024660000001 5.41645758 2.6763191742702848 
Si 9.50435163 6.784752419999999 4.066737583199273 
Si 9.50290182 4.0720927499999995 6.787239122442992 
Si 8.14442985 5.430336659999999 8.145296878757655 
Si 10.861292339999999 5.42947329 5.4308603919416525 
Si 12.21536601 6.80112387 12.262816426351709 
Si 9.5011425 6.788596859999999 9.501401482595595 
Si 9.48104064 4.0807916099999995 12.238624748306693 
Si 10.86272586 5.42887056 10.867237582984222 
Si 8.870768369999999 7.21373328 15.234931976763358 
Si 8.77613976 7.708444289999999 18.346680796344188 
Si 9.55224423 5.066743859999999 21.256432530832424 
Si 9.51122601 5.47466175 18.944756644216323 
Si 11.83136184 5.3426313 18.657985888467387 
Si 10.558591559999998 6.927306209999999 22.221324120166177 
Si 11.62835586 6.225989129999999 24.263430699161677 
Si 10.47049524 4.49981928 25.38813813325741 
Si 8.226417419999999 5.12603946 25.62398986127986 
Si 10.4202243 7.633314809999999 29.292661263389956 
Si 11.40404256 7.97937957 25.719317408477078 
Si 8.28745605 4.87665585 27.99381486636961 
Si 10.90910349 7.034250059999999 31.556364983911124 
Si 11.107271339999999 4.665895829999999 31.805134930946284 
Si 11.54959371 4.69127565 34.18448583758917 
Si 9.531083520000001 9.517269599999999 1.3944617772141328 
Si 8.14042251 10.86479469 2.7143919412332003 
Si 10.656592199999999 11.127079979999998 0.16843335908427726 
Si 9.499513499999999 12.218542559999998 4.070198432324693 
Si 12.21764661 9.50099589 4.0665319882017235 
Si 8.144185499999999 8.145716760000001 5.430414936113628 
Si 9.502038449999999 9.50259231 6.788095768266116 
Si 10.85994027 8.14534209 8.14546820792228 
Si 8.14496742 10.859744789999999 8.144817157096705 
Si 10.859533019999999 10.86117831 5.430038011951454 
Si 8.14666158 8.14410405 10.859253643912709 
Si 9.50806575 9.492948629999999 12.229544302581578 
Si 10.8579366 10.859321249999999 10.86024735306753 
Si 11.69566614 9.992285999999998 15.3304308531252 
Si 10.725075359999998 8.19268083 13.848227984123433 
Si 8.20219419 10.81317168 13.677652667823018 
Si 9.996879779999999 11.838415409999998 14.916602388890544 
Si 8.385929099999998 11.64238155 18.30967369678524 
Si 9.77419548 9.84618099 19.15645096002668 
Si 11.8535814 10.45047483 18.00590708790553 
Si 12.118554539999998 9.911226959999999 22.49089342778678 
Si 8.990027459999999 8.64981081 22.58522726582918 
Si 9.9676881 10.472906159999999 21.510890606133128 
Si 9.21758247 8.768906999999999 24.98410969723929 
Si 10.39569156 9.96131871 29.44545261240232 
Si 9.30805713 10.95179958 25.90921865454717 
Si 11.57976279 11.52137943 26.046967302905482 
Si 8.78632101 11.034194399999999 28.20653715716772 
Si 12.10594608 11.24340687 28.396849593232908 
Si 9.00714825 8.22182364 32.33714625293911 
Si 9.710501579999999 10.4177808 31.63366870298982 
Si 11.892123539999998 10.410173369999999 32.585059554151144 
Si 12.21450264 14.93200044 4.070986546481967 
Si 8.89406307 12.864652829999999 0.10499428132367777 
Si 9.595575629999999 14.97357252 1.2617193670461573 
Si 10.87590447 13.58628354 2.7059317070840296 
Si 8.14535838 13.57426152 5.429935214452678 
Si 9.50269005 14.93327106 6.787239122442992 
Si 10.86064074 13.574538449999999 8.144817157096705 
Si 9.50311359 12.217516289999999 9.501024558433421 
Si 9.49630437 14.93556795 12.241126154110214 
Si 10.863442619999999 16.286953769999997 10.862337568875954 
Si 12.075858449999998 15.166560149999999 15.020050938490977 
Si 10.93521636 13.59029088 13.594660820478783 
Si 8.81860779 13.21360092 16.482071231899948 
Si 10.42447599 14.39537526 18.179737658333817 
Si 8.609607089999999 13.634681129999999 19.5238149548151 
Si 12.142549709999999 12.793579559999998 18.62992217130185 
Si 11.8599345 13.471895159999999 24.74164466346232 
Si 11.12870898 13.68622269 22.444840148335643 
Si 11.17707399 16.04286441 22.488152161152787 
Si 9.12964905 12.74928705 21.687462443195408 
Si 8.91333414 13.36086252 28.723745639336958 
Si 11.08824462 15.358146839999998 26.01331825497318 
Si 8.95309803 14.53211352 26.695653786007764 
Si 8.24049198 12.284598509999999 32.116851213064585 
Si 9.41130315 14.316059249999999 32.44371299333571 
Si 10.42379181 14.355122669999998 30.290242457334113 
Si 12.326936219999999 1.4720588819999998 1.2969686293760565 
Si 14.93063208 1.3589199449999998 4.069924305661294 
Si 12.215431169999999 4.07378691 4.074652990604937 
Si 13.575010859999999 -0.00054353214 8.145159815425956 
Si 13.57357734 2.7140606099999998 5.4305862652782535 
Si 12.216783239999998 1.3575515849999997 6.787992970767341 
Si 14.932309949999999 1.3585827419999998 9.501332950929745 
Si 13.572225269999999 2.71529865 10.858465529755433 
Si 12.22561242 1.3645367369999999 12.230572277569328 
Si 14.93025741 4.05990783 12.21237712028618 
Si 15.773721029999999 1.7174384099999997 16.6991110176466 
Si 15.70670397 0.785218725 14.622841403224921 
Si 14.45602293 2.75198373 19.799449314863423 
Si 13.937593679999999 0.413720388 19.38483273647149 
Si 14.454182159999998 3.4574710499999997 17.50929237132419 
Si 13.49009109 3.23206632 24.31722805685385 
Si 14.911409879999999 1.4780242799999999 23.592334361326472 
Si 15.872682779999998 0.8409679919999999 25.67559420566484 
Si 15.64792965 1.9211448599999998 29.21813307677818 
Si 13.94992521 3.6129428099999994 26.612970331159854 
Si 14.28654177 1.404000891 27.342866838294277 
Si 13.361465249999998 2.96808687 34.12239614832916 
Si 13.71171654 2.23845777 31.817984618293142 
Si 14.90150556 4.1521906799999995 1.2246540155712355 
Si 13.574799089999999 5.42776284 2.7173936281974256 
Si 12.292205939999999 6.694766459999999 1.2226905833446358 
Si 14.932244789999999 6.78879234 4.0743103322756875 
Si 14.93229366 4.07300499 6.787718844103941 
Si 13.5752715 5.43004344 8.144440232934532 
Si 12.217679189999998 6.7873262400000005 6.787581780772243 
Si 16.2898371 5.429489579999999 10.86072707472848 
Si 12.218933519999998 4.0713922799999995 9.50198400175532 
Si 14.932440269999999 6.78778236 9.50301197674307 
Si 15.556200659999998 6.16956057 15.006995656146572 
Si 12.28904568 4.05267507 14.81777972673498 
Si 13.73093874 5.472039059999999 13.64804698817586 
Si 13.70759517 6.71187096 18.380946629269143 
Si 12.407978969999998 7.99226496 21.126496492381 
Si 12.836568869999999 4.293001439999999 20.529654214494172 
Si 15.76454976 5.9318406 20.210502246631158 
Si 15.383901329999999 5.60191923 17.313189009494682 
Si 13.83941385 6.1679315699999995 21.478166735689797 
Si 13.74773373 5.44564926 23.658570216370407 
Si 15.91518339 5.81183217 24.33021480753241 
Si 16.15094856 4.39574247 26.17128374475721 
Si 12.25965852 7.167746609999999 27.819024852619425 
Si 12.62737269 4.819070699999999 28.194132925648887 
Si 15.836470109999999 5.841887219999999 34.05023230418921 
Si 14.73503805 7.73173899 30.714693329775503 
Si 15.18881229 5.42525418 31.224123467870783 
Si 13.224303449999999 4.27048866 30.50608293892839 
Si 14.041279529999999 7.64761743 34.24403985521274 
Si 16.28571573 8.14444614 2.7164787304583298 
Si 15.00947568 9.439012439999999 1.2242907977422313 
Si 13.59007911 10.85671485 2.6844401766734984 
Si 14.93289639 9.50192442 6.787478983273467 
Si 13.57448958 10.860608159999998 8.145091283760106 
Si 13.57628148 8.143973729999999 5.4306205311111775 
Si 12.218803199999998 9.503309069999998 9.501470014261445 
Si 13.57193205 8.1472806 10.863708202192951 
Si 14.9172417 9.498014819999998 12.25562060143747 
Si 16.290325799999998 10.86187878 10.863365543863702 
Si 13.37257503 10.885955399999999 13.758725628523457 
Si 16.02367479 10.99952928 16.281239185126797 
Si 15.463005569999998 9.18498618 17.752579785091356 
Si 15.319148579999998 9.863676449999998 20.329884408541698 
Si 13.472204669999998 8.96816628 19.055743677060242 
Si 12.59272386 9.77616657 24.856366672095064 
Si 15.57509706 11.119993829999999 23.3002866673071 
Si 13.89597273 11.1527856 21.70624011963828 
Si 14.9449347 9.86985036 25.104999555798525 
Si 14.370076889999998 8.245004309999999 28.43389095862478 
Si 15.61231971 11.42691372 26.793756865671906 
Si 14.355301859999999 10.58423202 28.56358713624573 
Si 12.9099879 8.211398039999999 32.21968297767236 
Si 13.45216797 12.15286128 31.831451090632648 
Si 15.2884908 11.20967028 30.647155373080423 
Si 12.29969934 12.29852646 1.2861543325049414 
Si 14.935372469999999 12.21938964 4.073076762290389 
Si 14.96717055 14.87966067 1.1729263141877266 
Si 13.58686998 16.28442882 2.6812054820453834 
Si 13.57551585 13.57496199 5.429421226958804 
Si 12.21720678 12.2181516 6.787753109936866 
Si 14.93234253 14.93261946 6.788130034099042 
Si 12.21670179 14.93123481 9.50123015343097 
Si 14.931528029999999 12.21833079 9.501675609258996 
Si 13.577047109999999 13.57318638 10.858054339760336 
Si 12.221246699999998 12.22056252 12.212685512782503 
Si 14.94024318 14.90994378 12.217037273563971 
Si 13.53251025 13.986708029999999 16.739818827161443 
Si 14.498604989999999 12.417948449999999 15.115926739014997 
Si 13.67879445 16.28923437 13.605557355348918 
Si 16.179847019999997 13.56381963 13.765441731776749 
Si 14.221805309999999 15.06991158 21.019484296156374 
Si 16.24776003 13.986154169999999 21.210310719715437 
Si 12.87507843 13.14620919 20.8934545626584 
Si 15.153919109999999 15.795826559999998 17.627646558246976 
Si 13.498056899999998 16.00233489 23.038838362089706 
Si 15.92704251 13.38930486 23.46496826034442 
Si 14.03336259 14.238160469999999 24.560823863117342 
Si 15.01359705 13.74530652 26.6892460752508 
Si 12.340684979999999 13.04442927 29.878572740573723 
Si 12.53820123 16.14066957 27.82889341250181 
Si 13.856013359999999 14.3783685 28.65545383431753 
Si 13.573479599999999 13.601449529999998 33.94469353878035 
Si 15.304878539999999 14.851283489999998 30.453724746219063 
Si 13.61817936 14.953894199999999 32.054179004644844 
