&CONTROL
  dt          = 30.D0,
  prefix = 'x0.33_y1.33_z3.18_struc10-scf',
  pseudo_dir = './',
  outdir='./',
  wf_collect= .true.,
  verbosity= 'high',
/

&SYSTEM
ibrav= 6, celldm(1) =30.783621515, celldm(3) =2.120051451958549, nat=  432, ntyp= 1,
  ecutwfc     = 12.D0, nbnd= 1728,
  degauss     = 0.05D0,
  occupations = "smearing",
  smearing    = "methfessel-paxton",
/
&ELECTRONS
  electron_maxstep=200,
  conv_thr    = 1.D-8,
  mixing_beta = 0.3D0,
  scf_must_converge=.false.,
/
ATOMIC_SPECIES
Si  28.08  Si.pbe-hgh.UPF
K_POINTS {automatic}
1 1 1 0 0 0
ATOMIC_POSITIONS (angstrom)
Si -0.005390556479999999 2.7141909299999996 2.6949643482761987 
Si 2.71756296 -0.010430307810000001 2.7423368831298522 
Si 2.98981773 2.12278248 0.09716670865455383 
Si 1.2595949279999998 1.146009645 1.4056695440791784 
Si 4.06226988 4.02657849 1.1605355844734095 
Si 0.001472347215 0.000906225732 5.430280136169666 
Si 0.0007542498059999999 2.71443528 8.144746759310529 
Si 2.71542897 0.000358295292 8.144988508777596 
Si 2.7137673899999997 2.71347417 5.430383743084124 
Si 1.357745436 1.3572616229999999 6.787945143217002 
Si 2.71536381 2.71036278 10.86221798297065 
Si 1.3698163259999998 1.3693471739999998 12.238566770258435 
Si 2.12696901 2.5053531299999996 17.081395701455698 
Si 0.0946833444 2.8164269699999998 13.672831822727806 
Si 2.70187569 -0.00299278251 13.757167851095979 
Si 1.50931737 3.98906262 15.24503221397788 
Si 0.964799685 2.45369754 20.353474738205286 
Si 1.515580875 0.242172027 19.60101225414069 
Si 3.89718702 0.16000054290000001 19.266569134272803 
Si 2.41354269 3.8432019599999996 19.07534530582294 
Si 0.8052635699999999 0.40533592499999993 17.392941693228543 
Si 3.9213776699999996 0.420405804 23.231433072359632 
Si 2.9302452 2.51869464 23.578688913982063 
Si 0.731637657 2.83556772 22.73646830635937 
Si 3.80948166 3.17951478 25.647062818567736 
Si 0.035176300199999996 3.9368043 29.550280642552522 
Si 3.7105362 2.55181221 29.350561047117164 
Si 0.265890267 3.00498372 27.380199283608018 
Si 2.4859843199999996 2.19981789 27.352294487980874 
Si 3.25123965 0.821382525 30.970489690293864 
Si 1.581794838 1.202640201 32.70842660903733 
Si 1.3616794709999998 4.07360772 4.0696105286030715 
Si 2.70860346 5.416881119999999 2.682939039071531 
Si 1.1870099459999999 6.617812499999999 1.2285569773783858 
Si 2.7147610799999997 5.43004344 8.144988508777596 
Si 1.3573398149999998 6.787863809999999 6.787530715559173 
Si 1.356554637 4.071473729999999 9.502964336568304 
Si 1.3483233 6.7703194799999995 12.247062537243929 
Si 2.69055414 5.354490419999999 13.739174783618576 
Si 3.6111997799999997 7.203340259999999 15.102365492770296 
Si 0.5588219339999999 6.97979259 20.423374869825754 
Si 2.13221439 6.89348817 18.61709192317868 
Si 0.10041579540000001 6.62985081 17.5150942453736 
Si 3.1156416899999995 7.719163109999999 22.95176347460146 
Si 0.99616608 6.899939009999999 22.701380097996527 
Si 3.7775858399999995 6.9576544799999995 26.524060813809903 
Si 3.47403798 4.79663937 30.175790120768877 
Si 1.457518428 5.87176308 29.400465044247387 
Si 1.570044861 6.300287819999999 27.047690159476666 
Si 2.62492173 7.94525202 34.35563840635442 
Si 3.9739454999999997 9.38993067 1.1791364791822947 
Si 1.3578366599999998 9.501484589999999 4.0700940275372055 
Si 2.7237042899999997 10.84868388 2.694242553438813 
Si 1.384332345 12.22225668 1.3055265541286503 
Si 0.00011448107009999999 8.14493484 8.144539545481614 
Si 2.7146796299999996 8.145 5.430521885636733 
Si 0.000692559576 10.859467859999999 5.430798170741953 
Si 2.7150543000000003 10.859972849999998 8.145299329520967 
Si 4.06411065 9.51226857 12.225961262332808 
Si 1.3561522739999998 9.50269005 9.502342695081559 
Si 2.71410948 8.147117699999999 10.864255585621642 
Si 0.00176381604 10.85831127 10.86252880371402 
Si 2.7417698999999995 10.836401219999999 13.751538542077135 
Si 1.29283956 8.72241534 17.051522374453867 
Si 0.958418892 9.85737222 15.069591172163664 
Si 2.51353071 10.79710974 17.916778252724217 
Si 1.106117064 11.15811243 19.88676012421369 
Si 3.92269716 9.450838979999999 19.271714944357512 
Si 2.6825883299999997 11.59329978 21.724850393599127 
Si 3.8358714599999995 9.505329029999999 21.6095704334464 
Si 3.1329253799999996 8.71194087 25.075808827888807 
Si 2.74032009 9.30290949 29.63285535337492 
Si 0.692382015 8.15799942 29.44287480789854 
Si 2.2043627999999997 11.59787727 29.4444289116154 
Si 0.981768978 8.414909009999999 26.150696029744253 
Si 1.056118167 12.094982909999999 27.460563713588662 
Si 0.828268308 11.571145379999999 31.3135321840617 
Si 3.59662023 9.64656333 31.8125376197258 
Si 1.4116979159999998 9.67101462 33.06832249422354 
Si 4.07173437 12.219063839999999 4.0698522780701385 
Si 4.06052685 15.05560896 1.2907625688184974 
Si 0.00629349489 13.5848826 2.693721065302712 
Si 1.357887159 14.93032257 4.074790874325933 
Si -0.00032374420199999995 13.575173759999998 8.145575614626186 
Si 2.7130180499999996 13.57545069 5.430867242018258 
Si 1.3577275169999998 12.21776064 6.787530715559173 
Si 1.35817875 14.932782360000001 9.50161744668036 
Si 2.71324611 13.57691679 10.861907162227277 
Si 1.355419224 12.217679189999998 12.253624308492885 
Si 1.1682634140000001 14.141837699999998 17.022201617662475 
Si 0.830697147 15.34907331 14.960872983259893 
Si 3.38146191 13.092826859999999 17.23697875133228 
Si 0.0972947943 14.814044549999998 20.48578076796715 
Si 0.5698160549999999 14.40259173 22.79162172048876 
Si 1.3315999859999998 12.30517278 23.61139416331239 
Si 2.79490788 14.97634182 22.308019179440635 
Si 2.58690087 12.558384539999999 25.645957678146857 
Si 3.49070265 13.507993799999998 30.014059727301166 
Si 2.15409186 15.42052125 29.633546066137967 
Si 3.7418944499999998 14.51136006 26.430883662074713 
Si 0.0242830143 15.701067629999999 26.556248028567943 
Si 2.21675949 16.10118261 27.327187079044073 
Si 0.8547591059999999 15.33609018 33.66641067574688 
Si 2.63909403 13.835031840000001 34.39635592373611 
Si 6.78924846 4.06995876 4.074790874325933 
Si 4.07377062 1.3605945569999998 4.072787807313093 
Si 5.4302877899999995 2.7210815999999998 2.6939282791316264 
Si 6.705078029999999 1.217745918 1.325298206970902 
Si 5.4295547399999995 -5.32430505e-05 5.429865708511838 
Si 5.430190049999999 2.71437012 8.144643152396071 
Si 6.78766833 1.357730775 6.787599786835479 
Si 8.14485339 2.71402803 10.858522669688343 
Si 4.073249339999999 1.3583628269999999 9.50192826742373 
Si 5.43004344 0.00296833122 10.86066387925379 
Si 6.792897419999999 1.3523632199999998 12.223923659681818 
Si 7.37950032 3.64171095 14.866418012913067 
Si 8.13564954 0.0401139621 13.727778023028282 
Si 4.59575109 0.7966038059999999 15.054291884462149 
Si 5.49702792 2.7101510099999997 13.642405925515536 
Si 7.98613992 2.1925199699999998 19.573314672342462 
Si 6.06652632 2.88261324 18.329686342474368 
Si 4.26999996 1.469338452 17.29810683086204 
Si 5.04390528 0.953137674 21.220284720192495 
Si 7.3819764 0.572386617 21.222322322843485 
Si 4.64869359 3.92251797 19.86296506952668 
Si 4.55939181 3.4932438899999996 22.160931896549542 
Si 6.829468469999999 3.73208787 22.940090428905943 
Si 8.137767239999999 0.465444396 23.488689040956896 
Si 7.451974529999999 2.34312102 24.704654324664915 
Si 5.58924561 1.69047846 25.995492871887347 
Si 7.63074099 1.1093962409999998 29.09054222746771 
Si 5.88194433 2.31762717 28.213716910416306 
Si 7.2788607 2.039508 31.327968080809406 
Si 5.48655345 0.5754654269999999 32.17692313787182 
Si 4.90837248 0.60719346 34.5061447174226 
Si 4.07582316 6.78810816 4.0685744594585 
Si 6.764846039999999 6.658961039999999 1.198801071546274 
Si 4.07253258 4.07253258 6.787599786835479 
Si 5.42901717 5.42764881 5.43017652925521 
Si 6.787358819999999 6.7877171999999995 6.787254430453955 
Si 6.788466539999999 4.07122938 9.502100945614494 
Si 4.073119019999999 6.78716334 9.503447835502437 
Si 4.0759209 4.07253258 12.238601305896589 
Si 5.4320634 5.42911491 10.862321589885106 
Si 6.768869669999999 6.798908429999999 12.23732348728495 
Si 5.52380868 6.95583 16.648353334662694 
Si 6.68958624 4.81765347 16.89010280172953 
Si 5.40565731 6.128428319999999 20.28989462836671 
Si 7.768472939999999 6.02767467 20.129476589148787 
Si 4.56253578 7.394861789999999 18.647345142200187 
Si 6.27810084 5.75695116 23.970772013926315 
Si 7.038908999999999 7.94539863 23.989041366508935 
Si 4.538817539999999 5.9479351199999995 22.451342077773113 
Si 5.16524949 5.155736129999999 25.96264948000441 
Si 5.751151919999999 5.29617222 29.795345530881985 
Si 6.1665306300000005 7.56289314 29.602256777971892 
Si 6.62893857 4.51700523 27.73726324646573 
Si 8.04388797 7.898678909999999 28.06604252167662 
Si 5.65188066 5.21455932 34.13329796792924 
Si 6.8949054 4.4583938100000005 31.803109390510187 
Si 4.13741565 6.60142476 32.967616573371124 
Si 8.15247711 10.85607954 2.7020545147888875 
Si 5.42272923 8.13835368 2.682030751788123 
Si 6.78818961 9.503357939999999 4.07016309881351 
Si 6.7476438 12.18034251 1.3075261675776746 
Si 4.072548869999999 9.502673759999999 6.787081752263193 
Si 5.42997828 8.14535838 8.145230258244663 
Si 5.42950587 10.85969592 5.429589423406618 
Si 6.787342529999999 9.50255973 9.503689584969504 
Si 5.428512179999999 10.86215571 10.86411744306903 
Si 6.80162886 12.21113061 12.249307353723834 
Si 6.231283379999999 10.76576778 16.67225199626416 
Si 5.29638399 8.15829264 13.655218647270079 
Si 6.92518851 9.03273984 15.123881195339244 
Si 4.434659279999999 12.15334998 15.258535648495469 
Si 7.641932219999999 9.595510469999999 20.522699365152068 
Si 6.1500451499999995 9.51228486 18.734582164173162 
Si 8.07032664 12.16261899 17.316687004188033 
Si 6.11230122 9.50901057 22.396085056729266 
Si 6.163500689999999 11.294720369999999 23.941071365115246 
Si 4.2122356199999995 10.8310581 25.30588524926013 
Si 8.13133269 10.858685939999999 25.2437211005858 
Si 7.15360689 8.93136717 26.139230197877655 
Si 5.38325856 10.070168489999999 27.15799698773544 
Si 6.43165038 11.84183631 28.248874190055453 
Si 4.39383654 8.33635863 28.316046006261878 
Si 5.45620518 8.14602627 31.833431680808 
Si 5.74507575 10.53185967 34.36807123608929 
Si 5.1911343 11.384771489999999 32.19025389419865 
Si 7.293000419999999 9.20176488 32.88466197052905 
Si 7.18165827 11.69025786 30.478805809918075 
Si 5.420090249999999 13.58121735 2.696231806196392 
Si 6.79345128 14.92641297 4.070439383918729 
Si 4.07253258 14.932033019999999 6.787876071940698 
Si 5.4297828 13.57532037 8.144850366224986 
Si 6.787928969999999 12.21736968 6.787599786835479 
Si 4.071538889999999 12.217304519999999 9.501824660509273 
Si 6.786414 14.93178867 9.502273623805255 
Si 4.04998722 14.93494893 12.231279750608278 
Si 5.47459659 13.66670727 13.627037566537718 
Si 6.40879551 15.2987535 15.076774584899363 
Si 4.30492572 13.435861679999999 21.348273795185307 
Si 4.738793579999999 14.24301489 18.998883402953513 
Si 6.89146821 14.324562629999999 17.5151633166499 
Si 6.368738399999999 13.3099074 22.786752195509266 
Si 7.078249349999999 14.89710726 24.463526499084825 
Si 5.07783735 15.873676469999998 25.09753174428667 
Si 5.100122069999999 13.845050189999998 28.29345969891021 
Si 7.0723686599999995 15.12713835 28.602070161440096 
Si 7.79957055 13.8256488 34.464425666534495 
Si 4.1742310499999995 13.544157599999998 32.44184601813892 
Si 6.32859984 14.65766055 32.60854954350057 
Si 7.64447346 14.030169749999999 30.6457510847468 
Si 8.15892795 -0.0113510349 2.693873022110582 
Si 8.51129694 2.1559000499999996 0.12008455813248964 
Si 9.50213619 1.35948195 4.071371846148844 
Si 10.87823394 2.6823439799999997 2.719836914873561 
Si 9.455807429999998 3.92398407 1.4317681258309507 
Si 8.14442985 0.00039492661499999996 8.144643152396071 
Si 8.14459275 2.7156407399999996 5.4310053845708675 
Si 10.858653359999998 0.0001079069148 5.429554887768466 
Si 10.86000543 2.7150380100000002 8.144435938567158 
Si 9.50067009 1.35817875 9.50175558923297 
Si 10.858979159999999 0.001599617727 10.864255585621642 
Si 9.126619109999998 1.83765861 15.156897265412944 
Si 10.90864737 2.8064737799999997 13.679186380147849 
Si 9.47045214 1.4861073779999998 17.793865916539808 
Si 8.33759667 3.9622167 21.116919555202347 
Si 11.676085559999999 1.9448468099999998 20.83980559466745 
Si 11.58292305 2.35506159 18.55147421068911 
Si 10.55578968 3.7140385499999997 21.91631597151606 
Si 10.4871762 0.297483093 23.53313640725904 
Si 10.97742375 2.53167777 23.8958987504119 
Si 9.495555029999998 2.87700948 25.718966017201044 
Si 12.16952595 4.03052067 29.42501988297375 
Si 9.583732799999998 1.465640622 27.684527327007004 
Si 11.71156518 1.9582697699999998 28.487342771497808 
Si 10.63543149 3.7360952099999998 32.49668861152494 
Si 9.40133367 1.7285319 32.43866873942889 
Si 10.87062651 8.13866319 2.7115932580465816 
Si 12.190002479999999 6.64267104 1.4037562697255352 
Si 8.13623598 5.42585691 2.7032183657946236 
Si 9.502413119999998 6.78823848 4.0696105286030715 
Si 11.13400323 4.85199279 0.16192103019031276 
Si 9.502380539999999 4.07248371 6.788014214493308 
Si 8.14534209 5.4300760200000004 8.144815830586833 
Si 10.860412679999998 5.42916378 5.430072922340753 
Si 10.857855149999999 5.4305973 10.856036103741369 
Si 12.223380689999999 6.77546712 12.187833917812553 
Si 9.50365116 6.785729819999999 9.501686517956664 
Si 9.50682771 4.0770612 12.218639707044499 
Si 8.20493091 5.488980659999999 13.600479660798518 
Si 10.10643003 6.3992821499999994 14.842484815673451 
Si 10.91651544 8.109324899999999 13.501500521853727 
Si 11.61405324 4.53829626 15.180381499356578 
Si 10.07528355 7.56325152 16.97426615190694 
Si 10.88838261 4.4210571299999994 17.677584422880663 
Si 9.10819512 7.78305249 20.902038814618084 
Si 11.31995358 7.30176444 20.227972229159448 
Si 11.836314 6.45385365 18.13038117469684 
Si 8.673349859999998 5.487824069999999 17.954698383415558 
Si 11.75053086 5.7403353599999996 22.097662607454335 
Si 10.771176059999998 6.59697759 24.128116381348672 
Si 10.30464675 5.07874959 25.93909617478447 
Si 10.32686631 5.51924748 29.412172625581057 
Si 11.46361509 7.579199429999999 29.116513027358316 
Si 8.769591179999999 5.66815437 27.66114669997783 
Si 9.178144379999999 5.30068455 31.541812752249093 
Si 10.18182015 6.5749860899999995 33.32885934844528 
Si 8.43181803 7.85223612 34.50514318391618 
Si 9.52961742 9.44821629 1.314426388080525 
Si 12.170144969999999 12.193569989999999 1.3438680196054502 
Si 9.500979599999999 12.220741709999999 4.071648131254064 
Si 12.21921045 9.50308101 4.0741001615628845 
Si 8.14394115 8.14416921 5.430314671807819 
Si 9.501957 9.50285295 6.787461644282868 
Si 10.85971221 8.14477194 8.144505009843462 
Si 8.145097739999999 10.860103169999999 8.145195722606509 
Si 10.85963076 10.85928867 5.430280136169666 
Si 12.215089079999998 9.500067360000001 9.50161744668036 
Si 8.145863369999999 8.145667889999999 10.861250985102382 
Si 9.50848929 9.49439844 12.222680376708329 
Si 10.864501469999999 10.8592398 10.859973166490743 
Si 12.20226885 12.21215688 12.231901392095022 
Si 8.18779383 10.6657146 13.760759557463828 
Si 11.131185059999998 9.84950415 16.459374322692735 
Si 9.637554960000001 11.73314943 15.435807079131763 
Si 10.95554628 11.299102379999999 20.408731759249136 
Si 8.68610493 11.57609754 19.817101742060288 
Si 12.132189269999998 10.32437394 24.821695602363416 
Si 9.964821059999998 10.39577301 23.883224171209967 
Si 9.25390917 8.166600540000001 23.22856661439298 
Si 9.79118595 9.23794497 28.944732763188256 
Si 10.415272139999999 11.41410978 28.167715440397302 
Si 10.71614844 10.931241599999998 34.45257994264823 
Si 10.984184099999998 10.352050649999999 32.15602907678961 
Si 8.91675504 10.11268539 30.99563163486881 
Si 12.138281730000001 8.46905697 31.15988312992165 
Si 9.59959926 15.03264006 1.0717513659112072 
Si 10.843259309999999 13.58234136 2.6948054843406974 
Si 8.14407147 13.57352847 5.431281669676086 
Si 9.50257602 14.93183754 6.78704721662504 
Si 10.86007059 13.574750219999999 8.144712223672375 
Si 9.50306472 12.217581449999999 9.50206640997634 
Si 8.14526064 13.57318638 10.86353033722044 
Si 9.50158233 14.92921485 12.25141402765113 
Si 10.754397359999999 13.41458694 13.743595345302083 
Si 11.60480052 14.66714133 17.411072903258557 
Si 10.94745015 16.03861272 21.339778028199813 
Si 8.88806835 15.190343549999998 20.590561894121546 
Si 12.151916459999999 13.037440859999998 19.3354331967487 
Si 9.21495978 15.40108728 18.19831277494262 
Si 8.42539977 13.135783589999999 21.592717042028024 
Si 10.457284049999998 12.25613988 22.540996594416757 
Si 11.80397835 16.0873524 25.38283065106369 
Si 11.1909042 12.938870069999998 29.853365402978028 
Si 8.25140628 14.48117469 26.59523876404201 
Si 10.279152899999998 15.566202719999998 27.052766898285068 
Si 8.457621389999998 12.218070149999999 27.070276466828336 
Si 11.99517408 14.64295068 28.451391172181154 
Si 9.854000189999999 14.14415088 31.470427588188073 
Si 10.95997716 16.239468419999998 31.91072243899308 
Si 9.511877609999999 12.7263996 33.35593528875676 
Si 11.51505891 15.758994869999999 34.25040831690405 
Si 13.59434709 0.013175661509999999 2.686551466822273 
Si 13.133014289999998 3.1371282 0.03293104333256773 
Si 12.226035959999999 1.315867104 1.1834119911855625 
Si 14.92739037 1.359177327 4.071958951997435 
Si 13.57562988 -0.0006595560359999999 8.144677688034223 
Si 13.57546698 2.7150868799999994 5.431212598399782 
Si 12.21736968 1.3582276199999999 6.787772465026241 
Si 14.932440269999999 1.357074288 9.50175558923297 
Si 13.57714485 2.71272483 10.863184980838916 
Si 12.21461667 1.358799399 12.237979664409846 
Si 15.30010557 0.914890383 14.688075977494048 
Si 14.85222831 1.164906045 16.956238548791383 
Si 12.962132189999998 0.285078258 18.22048465463646 
Si 13.99521141 1.7054326799999997 21.28617871778728 
Si 15.085582559999999 3.16263834 19.779699645941236 
Si 14.007119399999999 3.21901803 17.6759612478875 
Si 15.0276879 1.6419342599999998 23.442204072003758 
Si 13.238003339999999 3.0151323899999998 24.46863777353138 
Si 12.97185732 1.6510403699999998 26.492598847453063 
Si 14.90370471 0.5708260350000001 29.87398317895501 
Si 12.51404316 0.225976509 29.855506612543476 
Si 15.081982469999998 1.170232875 27.524489179808764 
Si 16.03307412 2.30630562 31.33318296217042 
Si 14.5401282 3.67065828 32.754324472141874 
Si 12.22224039 4.0713597 4.074169232839189 
Si 14.820739739999999 4.07971647 1.3428803003542913 
Si 13.579441739999998 5.4206441100000005 2.747862585234237 
Si 14.932847519999997 6.78827106 4.073478520076141 
Si 16.28848503 5.42991312 5.430280136169666 
Si 14.931951569999999 4.0728258 6.788290499598527 
Si 13.57486425 5.4305321399999995 8.144712223672375 
Si 12.21769548 6.787358819999999 6.787841536302546 
Si 16.2908145 5.43468609 10.860318522872268 
Si 12.217239359999999 4.075106399999999 9.502895265291999 
Si 14.93183754 6.78753801 9.501962803061884 
Si 14.92328529 4.07785941 12.23746162983756 
Si 16.04872881 7.98794811 13.642854888811518 
Si 14.80967883 5.380554419999999 16.438998296182817 
Si 13.34960613 5.32578744 13.609286248527381 
Si 14.104012319999999 7.20811323 14.850980582658941 
Si 14.093684459999999 6.5464785899999995 18.367571937527554 
Si 15.00918246 5.49131013 20.229388190323697 
Si 16.205634089999997 4.9321233 23.526298350904863 
Si 14.076710279999999 7.748126729999999 23.406701435983088 
Si 14.11880364 5.60762073 22.418222400784956 
Si 12.416857019999998 8.014891769999998 25.06016418380577 
Si 14.289148169999999 5.03836668 29.335676187073478 
Si 16.27050087 4.91993838 25.96506697467508 
Si 12.651579629999999 4.406640479999999 26.27129447817245 
Si 14.361736409999999 5.78220066 27.13427100432474 
Si 13.091458499999998 7.74185508 27.306880123810462 
Si 15.578012969999998 5.697948779999999 34.34206590056053 
Si 12.49796493 6.73715304 32.600260990344 
Si 12.65617341 4.5251502299999995 31.649667550199055 
Si 13.918599539999999 7.482681179999999 34.50072262223268 
Si 16.291629 8.141742 2.6942598212578894 
Si 14.834700269999999 9.390908069999998 1.2569659933225539 
Si 13.57118271 10.846272959999999 2.6995265060761313 
Si 14.93221221 9.502413119999998 6.787668858111783 
Si 13.57505973 10.859744789999999 8.145092115692053 
Si 13.57401717 8.14359906 5.430521885636733 
Si 13.57352847 8.14721544 10.860111309043353 
Si 14.93214705 9.51290388 12.235838454844396 
Si 12.545873819999999 9.13411251 14.763329133028138 
Si 13.565578949999999 10.929417119999998 13.682709015239395 
Si 15.12850671 8.7684183 18.01689706772804 
Si 12.36979521 9.432170639999999 20.14629544492901 
Si 15.97778586 9.200852639999999 20.18079654744326 
Si 13.05379602 10.08561141 17.92530855534786 
Si 13.77936891 11.16216864 23.294944110921904 
Si 16.181981009999998 8.45710011 24.05300136836719 
Si 15.86952252 10.825503209999999 24.359746906436847 
Si 14.10546213 9.439712909999999 21.704059939431378 
Si 16.022844 10.310560019999999 26.759697472923758 
Si 12.46419576 11.32185951 26.954236722636253 
Si 14.004952829999999 9.81785268 27.983778631597595 
Si 16.05599415 9.359435790000001 31.30393127665533 
Si 12.913718309999998 11.90569311 31.21717775361649 
Si 13.818008789999999 9.887134049999998 30.39761252462177 
Si 16.052051969999997 11.046151259999998 34.453546940516496 
Si 13.268563379999998 13.96553103 0.17527043576174328 
Si 12.21484473 14.93045289 4.068090960524366 
Si 14.930713529999998 12.22061139 4.067158498294251 
Si 15.21432243 15.115132619999999 1.1279546634404307 
Si 13.57406604 13.574815379999999 5.430072922340753 
Si 12.21756516 12.21771177 6.787219894815802 
Si 14.932782360000001 14.931967859999999 6.787081752263193 
Si 16.2906516 16.28872938 10.86380662232566 
Si 12.21824934 14.931609479999999 9.502239088167103 
Si 14.93081127 12.21613164 9.502446301996017 
Si 13.577454359999999 13.57496199 10.858177313306818 
Si 14.934395069999999 14.919701489999998 12.20689759007268 
Si 12.4703208 14.38393968 15.06337475729623 
Si 14.24402487 12.730162589999999 15.091037803456308 
Si 13.499620740000001 16.14244518 13.566634735409162 
Si 16.10887149 13.54845816 13.714205517234387 
Si 12.721691789999998 14.523724169999998 21.059624931507503 
Si 14.3452998 15.9410682 20.188290780922333 
Si 16.12532439 12.980637629999999 18.94452430850163 
Si 13.920456599999998 12.328956179999999 17.709080924875657 
Si 13.44703662 14.497057439999999 24.87059806598722 
Si 12.643744139999999 13.2247107 23.021801748774536 
Si 15.48584415 15.680737709999999 24.31654282310819 
Si 15.751925009999999 13.81835088 27.86269668423526 
Si 16.15972887 14.830774379999998 30.027114198522774 
Si 13.524674759999998 13.47275853 27.03791657387953 
Si 16.227641879999997 13.66085916 32.089582508984385 
Si 14.34398031 12.60984465 33.07336469739379 
