&CONTROL
  dt          = 30.D0,
  prefix = 'x0.66_y1.33_z3.15_struc24-scf',
  pseudo_dir = './',
  outdir='./',
  wf_collect= .true.,
  verbosity= 'high',
/

&SYSTEM
ibrav= 6, celldm(1) =30.783621515, celldm(3) =2.1034888228945987, nat=  432, ntyp= 1,
  ecutwfc     = 12.D0, nbnd= 1728,
  degauss     = 0.05D0,
  occupations = "smearing",
  smearing    = "methfessel-paxton",
/
&ELECTRONS
  electron_maxstep=200,
  conv_thr    = 1.D-8,
  mixing_beta = 0.3D0,
  scf_must_converge=.false.,
/
ATOMIC_SPECIES
Si  28.08  Si.pbe-hgh.UPF
K_POINTS {automatic}
1 1 1 0 0 0
ATOMIC_POSITIONS (angstrom)
Si -0.00880334406 2.7187521299999995 2.6868319318116605 
Si 2.5204376699999997 2.92980537 0.06421348558470344 
Si 1.336913784 1.304003097 1.3126760871888548 
Si 1.3595357069999998 4.07127825 4.066257861538324 
Si 4.07427561 1.3547920589999998 4.071603331474616 
Si -0.001497586941 -0.000666513495 5.42952402445758 
Si 0.000324125388 2.7150543000000003 8.14512554959303 
Si 2.7151357499999995 -2.22643575e-05 8.144748625430855 
Si 2.7143049599999998 2.71453302 5.4293526952929545 
Si 1.357922997 1.3566637799999999 6.787753109936866 
Si -0.0020894205599999997 0.0018124254 10.859733365573657 
Si 2.7168462 2.71445157 10.855244541460488 
Si 1.3843730699999999 1.355725476 12.218887628541918 
Si 1.6357114799999999 2.8004790600000002 16.609026142886897 
Si 0.11173213259999999 2.7869583600000003 13.524381597149702 
Si 2.77545762 0.0349265745 13.688138012698055 
Si 3.6948326399999996 1.7131541399999999 15.261762123943596 
Si 0.307633392 3.5806723199999997 20.605621566088793 
Si 3.59551251 1.8226066499999998 19.072294074362997 
Si 2.06547426 3.6406846799999997 18.935402071827806 
Si 0.47131368299999993 1.611853146 22.09813845080097 
Si 4.05713853 1.93484475 23.358607114945364 
Si 1.87038522 2.6577135 23.68920387100531 
Si 1.21917618 2.50142724 25.95414116151178 
Si 2.2865295599999995 3.5443456199999996 29.89022312376821 
Si 0.668877174 0.08489631239999999 29.955636598821947 
Si 2.8914424199999997 2.57124618 27.71293783388377 
Si 3.8243707199999997 0.472520772 28.070844458784908 
Si 2.65849542 2.40604929 32.04732583805985 
Si 1.70463447 0.251450811 32.05904475292019 
Si 2.72093499 5.426622539999999 2.6783716976624894 
Si 1.2362480999999998 6.76126224 1.2640871361012715 
Si -0.000449586081 5.431411799999999 5.429798151120979 
Si 2.71498914 5.42957103 8.144748625430855 
Si 1.3573626209999998 6.787586879999999 6.787821641602716 
Si 4.0589793 4.06603287 12.199424635440545 
Si 1.35879777 4.071506309999999 9.501778406757769 
Si 1.373124825 6.78626739 12.221903021839315 
Si 0.040624653600000005 8.06605866 13.690570886835726 
Si 0.9766148219999999 4.49460648 14.942850016911057 
Si 2.69195508 5.34678525 13.572285231578787 
Si 2.5791956999999996 6.571793249999999 16.364813551630757 
Si 2.80875438 7.468916129999999 20.54181858518253 
Si 0.543491415 8.020805039999999 20.24798906785106 
Si 2.95096608 5.87591703 18.686837719790198 
Si 2.6739057600000002 6.414464429999999 22.63186306444004 
Si 1.057405077 4.73232645 22.753129847161446 
Si 0.13732698059999998 7.981024859999999 25.146324150306015 
Si 0.11917470779999999 4.22168382 29.387029367265274 
Si 0.27613830599999994 7.79170248 27.4912036290264 
Si 3.48311151 5.80388265 27.688334965843655 
Si 1.078803621 5.62159755 27.717392392164015 
Si 3.74810094 5.40375138 30.06532153001472 
Si 3.3449723099999997 7.9963374599999995 32.22317809263071 
Si 3.6348365699999996 5.72611419 32.4502920332573 
Si 2.34875736 8.57026674 0.07726260007918405 
Si 1.359688833 9.497086289999999 4.070952280649042 
Si 2.73662226 10.86213942 2.699801549573755 
Si 1.209095928 12.00553452 1.281011030982906 
Si -8.25282351e-05 8.1448371 8.144680093765006 
Si 2.7151357499999995 8.14480452 5.431305847769677 
Si -0.00068538546 10.860542999999998 5.430003746118529 
Si 2.71484253 10.85998914 8.14478289126378 
Si 4.06013589 9.51192648 12.202679889568415 
Si 1.358372601 9.50242941 9.50308050840892 
Si 2.71611315 8.140976369999999 10.858739656418834 
Si 1.339468056 12.230922960000001 12.234101658360597 
Si 3.1740902099999997 11.89787391 17.015041997214666 
Si 1.271004444 9.619831439999999 14.992364145487615 
Si 2.68688889 10.8468594 13.52732845878125 
Si 2.2595533199999998 11.42539875 21.02774236189129 
Si 3.6697786199999998 9.67792158 20.355206859073235 
Si 0.23439681 11.946027149999999 19.905125143603975 
Si 1.507528728 10.48360869 23.037159336276382 
Si 2.10979935 8.36551773 23.887740106972494 
Si 2.4194070899999995 11.691626219999998 24.877577222675612 
Si 1.6927753499999998 11.28528846 27.083817141381633 
Si 2.16471294 9.15773301 28.122483069002808 
Si 0.019595241 9.39043566 31.648505808646323 
Si 0.538793379 10.08891828 34.081071553821666 
Si 3.4449114599999997 11.01829536 31.13609454308658 
Si 2.13680817 9.16154487 30.54288444348979 
Si 2.7236879999999997 16.2919548 2.7002058864022698 
Si 3.79139976 14.71145013 1.2543248003009524 
Si -0.0099331533 13.558052969999999 2.6929963551548597 
Si 1.3589297189999998 14.933238479999998 4.0697872423295935 
Si 7.69752999e-06 13.57507602 8.145022752094254 
Si 2.7160317 13.574733929999999 5.430038011951454 
Si 1.357667244 12.217548869999998 6.787581780772243 
Si 4.088838869999999 14.92761843 12.248938764017103 
Si 1.358310699 14.933482829999999 9.502566520915043 
Si 2.7111446999999997 13.576933079999998 10.863742468025878 
Si 1.085145318 15.319832759999999 15.015493582711958 
Si 1.011459132 12.566399220000001 17.65341446460654 
Si 1.474381836 15.836763329999998 21.296180897025373 
Si 2.64155382 15.924875939999998 19.20558816444106 
Si 1.081524051 14.968571489999999 17.524540666975792 
Si 3.7328534999999996 13.19274972 21.623076943129423 
Si 2.9213834399999996 14.934965219999999 22.974247267026172 
Si 1.617960267 13.89782979 24.59389039188992 
Si 0.599429646 15.13055925 26.306907911474173 
Si 2.8194732 13.19532354 28.039114297496397 
Si 1.9303649999999999 15.386540309999999 28.178610503333882 
Si 0.561521187 15.790434569999999 34.1650228444878 
Si 1.98241155 13.85182683 34.26579865912009 
Si 0.392351166 13.07178018 31.085244047025945 
Si 3.4841540699999998 15.00460497 31.471008794095066 
Si 2.6260783199999995 13.01404842 30.30919146294161 
Si 5.43927987 2.71399545 2.6907656494314454 
Si 6.92823474 1.421159148 1.2811001221485105 
Si 5.42988054 0.000498632013 5.429729619455129 
Si 5.429733929999999 2.7151031699999995 8.144611562099156 
Si 6.78794526 1.3574831669999998 6.787102059111293 
Si 4.07191356 1.360346949 9.502086799254096 
Si 5.430336659999999 -0.00164359584 10.864873240512402 
Si 6.7874728499999994 1.364028489 12.261994046361508 
Si 5.254551269999999 2.7632727 13.688960392688251 
Si 6.42552534 3.6909882 17.292869370570187 
Si 5.15506824 1.5822134909999999 17.294377067218885 
Si 6.661860659999999 0.543742281 20.94529876787385 
Si 4.817848949999999 2.0654579699999998 21.08469217621256 
Si 7.73279784 3.81746376 21.95117229338585 
Si 7.3891602899999995 3.34362024 24.269632814921092 
Si 5.0946975 3.65679549 24.56003574896007 
Si 8.041151249999999 1.0480676489999998 24.56870500469008 
Si 7.458164729999999 0.07809474870000001 26.613518584486652 
Si 4.65962418 3.8941245 26.89312778115427 
Si 6.47639901 3.40856847 28.39791183405358 
Si 7.679268899999999 1.3617381149999999 28.54429547230898 
Si 5.5904022 3.99142467 30.502724887301746 
Si 4.9576986 2.04524208 31.767339717230062 
Si 4.806739169999999 0.23332981499999997 30.234834605494463 
Si 8.077885199999999 0.036974716199999993 32.29917971005826 
Si 6.0578274599999995 0.617477337 33.39743392113593 
Si 4.21865388 4.07864133 1.181729206666147 
Si 6.78929733 4.07192985 4.0697872423295935 
Si 4.06953522 6.79035618 4.071500533975842 
Si 6.74972892 6.76324962 1.2819156489721244 
Si 4.07263032 4.072516289999999 6.787444717440542 
Si 5.42922894 5.43015747 5.429832416953904 
Si 6.78714705 6.78784752 6.787890173268567 
Si 6.786951569999999 4.071538889999999 9.50164134342607 
Si 4.07248371 6.78763575 9.501538545927295 
Si 5.43069504 5.432324039999999 10.861172530556507 
Si 6.78398679 6.79249017 12.2148785260897 
Si 6.2351604 4.59886248 15.00367187035285 
Si 8.10650673 5.51533788 13.719902439819485 
Si 6.3765413099999995 7.12855287 16.330239326209483 
Si 4.477111020000001 6.283395089999999 14.83542663069133 
Si 5.47594866 5.39645346 18.991906430321055 
Si 5.59144476 4.333596119999999 21.131841962317296 
Si 6.54346494 7.55251641 19.211687482701706 
Si 4.76697528 5.46628869 23.077113297466877 
Si 5.823170009999999 7.493888699999999 23.615463798550817 
Si 7.3816505999999995 7.3632429 25.425522156978534 
Si 8.06382693 6.98349042 29.02891714736659 
Si 4.10698593 8.00708886 27.156460707182532 
Si 6.4958655599999995 8.12019033 27.568850006434342 
Si 5.61312675 5.333476319999999 33.94849704623502 
Si 7.30788948 7.0643214 31.298685920315478 
Si 7.145038349999999 4.8016404 32.01874813340044 
Si 7.90983756 8.45376066 0.13595860124631154 
Si 4.19563611 9.52207515 1.2914655366083088 
Si 5.42678544 8.1300132 2.7140972550700457 
Si 6.78910185 9.50249457 4.071294938978292 
Si 4.07326563 12.217679189999998 4.074207534776913 
Si 6.82337601 12.120900299999999 1.1831923577320425 
Si 4.0726140299999996 9.50220135 6.787890173268567 
Si 5.430613589999999 8.14495113 8.145022752094254 
Si 5.428235249999999 10.85899545 5.430038011951454 
Si 6.78854799 9.500979599999999 9.50191547008947 
Si 5.43170502 10.85927238 10.861446657219904 
Si 4.0720927499999995 12.21707646 9.502874913411368 
Si 6.7908937499999995 12.215414879999999 12.249452751510976 
Si 5.4273393 8.17784064 13.550115237676343 
Si 7.136404649999999 9.01724805 15.011244619429265 
Si 4.08101967 12.076184249999999 14.897516319951345 
Si 5.176033469999999 10.336884659999999 16.229394979911344 
Si 4.24162278 8.243407889999999 16.781074890003087 
Si 6.16244184 11.000995379999999 18.61522212897705 
Si 5.83960662 10.40479767 20.936321119647516 
Si 4.68539496 11.0912094 24.70563127305819 
Si 6.82026462 8.359783649999999 21.588776844371544 
Si 5.5096038 12.04111188 22.64190295348705 
Si 4.224534569999999 8.74569375 24.85903940706321 
Si 6.53830101 10.384435169999998 28.293126916969072 
Si 6.027511769999999 11.89859067 26.480635684403687 
Si 5.661752399999999 10.544940539999999 30.606790221894826 
Si 6.09037488 10.07119476 34.15213889130801 
Si 5.61216564 8.69584635 32.12970090041144 
Si 5.42056266 13.565236859999999 2.67812498366543 
Si 6.78763575 14.933042999999998 4.069992837327144 
Si 4.07197872 14.932880099999998 6.787444717440542 
Si 5.43009231 13.57507602 8.14512554959303 
Si 6.787554299999999 12.21688098 6.787273388275917 
Si 8.145374669999999 13.57437555 10.862269037210105 
Si 6.787521719999999 14.931886409999999 9.501949735922395 
Si 5.524232219999999 13.59020943 13.776132671649332 
Si 7.184411279999999 14.796809729999998 15.342184033818462 
Si 6.14235627 15.693297299999998 17.288586141454566 
Si 4.36847301 14.26782456 19.628188681904508 
Si 6.63338574 15.035213879999999 19.45634552978587 
Si 5.03937666 12.93671979 17.841533887364534 
Si 6.85194867 15.845706539999998 23.099043430538845 
Si 4.689190529999999 16.06260789 24.07298119976479 
Si 7.39179927 13.44281751 23.156781359017394 
Si 7.967846249999999 12.79173879 25.377858383379923 
Si 6.749061029999999 13.900664249999998 29.40837698117752 
Si 5.17769505 15.75648621 26.425056503399414 
Si 5.10204429 13.69676232 27.606336827654243 
Si 7.081230419999999 16.08976332 30.1892953135372 
Si 6.08297922 12.774846059999998 31.363585407875338 
Si 4.95450576 14.758984349999999 33.3589533907612 
Si 8.14801365 -0.016447687199999998 2.696011748452255 
Si 9.50615982 1.356564411 4.07245997729774 
Si 10.86849252 2.70866862 2.7091458422123895 
Si 9.614292840000001 3.91984641 1.1466649798340427 
Si 8.145309509999999 -0.00011707003979999998 8.14498848626133 
Si 8.145179189999999 2.71529865 5.428633112801531 
Si 10.86098283 0.0008996022179999999 5.430449201946553 
Si 10.86007059 2.7147936599999998 8.144885688762555 
Si 9.503732609999998 1.357737291 9.503286103406467 
Si 8.141106689999999 2.7183611699999997 10.863742468025878 
Si 12.184186949999999 3.5851032 17.082477156410974 
Si 8.29644813 0.06266763 13.82287126775897 
Si 10.26120132 0.798001488 15.12404774141821 
Si 10.75166064 2.6339300999999997 13.6185783718604 
Si 10.515194999999999 1.8386034299999998 17.295850498034653 
Si 10.578644549999998 1.194886161 20.715169433949868 
Si 8.3813679 2.04623577 20.471265235190053 
Si 11.583818999999998 0.28338083999999997 18.789258294402885 
Si 8.578118519999999 3.2549537699999997 18.34914793631479 
Si 11.085638219999998 3.31312536 21.654670041086227 
Si 11.22164343 2.81476539 23.969943840159452 
Si 10.35889245 0.69361191 24.439557080395936 
Si 10.485514619999998 3.9231206999999997 27.781503765566605 
Si 11.17700883 0.274680351 29.723314251590764 
Si 9.770790869999999 2.1445622099999997 29.23314151159931 
Si 8.845323389999999 2.2151630699999996 33.925778799005776 
Si 12.05588691 0.430323156 31.898063869838754 
Si 10.68674499 0.583796133 34.00476154389779 
Si 9.13346091 3.2687351099999997 31.4639157666796 
Si 10.876295429999999 8.12703213 2.6950523051303565 
Si 8.153845469999998 5.4167345099999995 2.6770935820943884 
Si 9.50431905 6.78480129 4.066874646530973 
Si 9.50288553 4.0720927499999995 6.787239122442992 
Si 8.1445113 5.430336659999999 8.14533114459058 
Si 10.86127605 5.429489579999999 5.4308603919416525 
Si 12.21658776 6.79970664 12.26076047637621 
Si 9.500784119999999 6.78833622 9.502018267588245 
Si 9.48099177 4.080514679999999 12.237356912488469 
Si 10.86251409 5.42865879 10.867271848817147 
Si 8.86905792 7.20338913 15.235754356753556 
Si 8.768141369999999 7.711588259999999 18.348736746319688 
Si 9.551429729999999 5.066874179999999 21.2565353283312 
Si 9.50760963 5.47259292 18.942495099243274 
Si 11.83066137 5.34287565 18.65853414179419 
Si 10.558770749999999 6.92738766 22.221324120166177 
Si 11.628502469999999 6.226037999999999 24.263499230827524 
Si 10.470527820000001 4.49973783 25.38820666492326 
Si 8.22640113 5.126055749999999 25.623955595446937 
Si 10.420028819999999 7.633233359999999 29.29262699755703 
Si 11.40405885 7.9794284399999995 25.719317408477078 
Si 8.287423469999998 4.87662327 27.99381486636961 
Si 10.909152359999998 7.034445539999999 31.55626218641235 
Si 11.10705957 4.665456 31.805134930946284 
Si 11.54965887 4.69109646 34.18441730592332 
Si 9.53106723 9.51736734 1.3941088391350058 
Si 8.14052025 10.864696949999999 2.71440564756637 
Si 10.65668994 11.12680305 0.16828978524432173 
Si 9.49956237 12.21852627 4.070232698157619 
Si 12.21764661 9.50102847 4.066634785700498 
Si 8.144201789999999 8.14570047 5.430380670280703 
Si 9.502038449999999 9.50259231 6.788095768266116 
Si 10.85994027 8.14534209 8.145433942089355 
Si 8.14495113 10.85976108 8.14485142292963 
Si 10.859533019999999 10.86116202 5.430038011951454 
Si 8.14612401 8.144739359999999 10.860555745563857 
Si 9.507511889999998 9.49320927 12.22974989757913 
Si 10.85806692 10.85958189 10.860144555568757 
Si 11.69449326 9.99168327 15.331664423110501 
Si 10.72913157 8.19527094 13.844287413337065 
Si 8.21006226 10.815631469999998 13.665042841306636 
Si 9.99621189 11.836265130000001 14.916807983888093 
Si 8.38459332 11.637461969999999 18.30593872099642 
Si 9.77224068 9.84992769 19.159123694994825 
Si 11.85299496 10.451224169999998 18.007277721222533 
Si 12.11835906 9.91161792 22.491304617781882 
Si 8.99066277 8.65008774 22.5871804183059 
Si 9.9685026 10.4725152 21.5108563403002 
Si 9.21759876 8.768890709999999 24.983801304742965 
Si 10.39569156 9.96120468 29.44565820739987 
Si 9.30807342 10.95165297 25.909150122881318 
Si 11.579746499999999 11.52144459 26.047001568738406 
Si 8.78627214 11.034194399999999 28.206571423000646 
Si 12.10588092 11.24347203 28.396849593232908 
Si 9.00708309 8.22154671 32.33690639210863 
Si 9.710664479999998 10.41784596 31.633702968822746 
Si 11.891602259999999 10.41009192 32.58553927581209 
Si 12.21455151 14.932016729999999 4.071020812314892 
Si 8.89420968 12.86457138 0.10487023900848944 
Si 9.59549418 14.97340962 1.2619318152102919 
Si 10.875594959999999 13.586055479999999 2.7061133159985316 
Si 8.14534209 13.574277809999998 5.429935214452678 
Si 9.50269005 14.93325477 6.787239122442992 
Si 10.86062445 13.57455474 8.144817157096705 
Si 9.50299956 12.21735339 9.501264419263896 
Si 9.49628808 14.93550279 12.240612166616339 
Si 10.863377459999999 16.28700264 10.862303303043028 
Si 12.075825870000001 15.166266929999999 15.019982406825127 
Si 10.93536297 13.590258299999999 13.594729352144633 
Si 8.81691363 13.21296561 16.48285934605722 
Si 10.42459002 14.39522865 18.179737658333817 
Si 8.60802696 13.6342413 19.523780688982175 
Si 12.14237052 12.793644719999998 18.630436158795728 
Si 11.859885629999999 13.471764839999999 24.74164466346232 
Si 11.128660109999998 13.686124949999998 22.444908680001497 
Si 11.177025119999998 16.04284812 22.488049363654014 
Si 9.12990969 12.74946624 21.68801069652221 
Si 8.913366719999999 13.36081365 28.72381417100281 
Si 11.08826091 15.35824458 26.013249723307325 
Si 8.95311432 14.53208094 26.695585254341918 
Si 8.240394239999999 12.28484286 32.116851213064585 
Si 9.41149863 14.31553797 32.443815790834485 
Si 10.424003579999999 14.355318149999999 30.290516583997512 
Si 12.327473789999999 1.472614371 1.296584852047297 
Si 14.93066466 1.358892252 4.069958571494219 
Si 12.21548004 4.07375433 4.074618724772012 
Si 13.57499457 -0.000532622727 8.145159815425956 
Si 13.573609919999999 2.7140769 5.4305862652782535 
Si 12.216783239999998 1.3575515849999997 6.787958704934416 
Si 14.932309949999999 1.358561565 9.50136721676267 
Si 13.57227414 2.71529865 10.85849979558836 
Si 12.22546581 1.3643950139999999 12.230332416738852 
Si 14.92970355 4.06031508 12.212822576114203 
Si 15.77416086 1.71686826 16.699213815145377 
Si 15.707779109999999 0.785609685 14.622772871559071 
Si 14.455974059999999 2.75141358 19.799689175693896 
Si 13.93785432 0.41378391899999994 19.384592875641015 
Si 14.454947789999999 3.4624720799999995 17.50607138302924 
Si 13.49015625 3.23205003 24.317159525188003 
Si 14.91144246 1.478131794 23.59199170299722 
Si 15.87260133 0.8409158639999998 25.675491408166067 
Si 15.648141419999998 1.9210796999999997 29.217653355117232 
Si 13.94986005 3.6130242599999995 26.61300459699278 
Si 14.28654177 1.403999262 27.34279830662843 
Si 13.36125348 2.96746785 34.12239614832916 
Si 13.71174912 2.2385229300000002 31.818224479123618 
Si 14.90117976 4.15250019 1.2247362535702555 
Si 13.574799089999999 5.42781171 2.717345656031331 
Si 12.29267835 6.69496194 1.222574079512691 
Si 14.93226108 6.788776049999999 4.074276066442763 
Si 14.93229366 4.0729887 6.787718844103941 
Si 13.57525521 5.43004344 8.144440232934532 
Si 12.217679189999998 6.787342529999999 6.787547514939317 
Si 16.2901629 5.42745333 10.86148092305283 
Si 12.21890094 4.07142486 9.502018267588245 
Si 14.932505429999999 6.7879941299999995 9.503046242575993 
Si 15.55146027 6.16815963 15.007235516977044 
Si 12.29007195 4.05256104 14.81784825840083 
Si 13.73455512 5.471973899999999 13.651542103134204 
Si 13.71502341 6.714819449999999 18.377006058482774 
Si 12.40952652 7.992444149999999 21.126496492381 
Si 12.83614533 4.29311547 20.5295514169954 
Si 15.768524519999998 5.9392688399999995 20.196487520964855 
Si 15.37073901 5.59131444 17.31455964281168 
Si 13.84099398 6.16855059 21.476487709876473 
Si 13.74763599 5.44586103 23.658364621372858 
Si 15.915281129999999 5.81201136 24.32939242754221 
Si 16.15103001 4.39580763 26.17128374475721 
Si 12.25959336 7.167811769999999 27.81905911845235 
Si 12.6275193 4.81908699 28.194064393983037 
Si 15.836975099999998 5.8417080299999995 34.05036936752091 
Si 14.73490773 7.73160867 30.714076544782856 
Si 15.18850278 5.42517273 31.22419199953663 
Si 13.224841019999998 4.27070043 30.505431888102816 
Si 14.04106776 7.647780329999999 34.24421118437736 
Si 16.28579718 8.144462429999999 2.7164478912086976 
Si 15.00957342 9.439012439999999 1.224194853410041 
Si 13.589769599999999 10.85678001 2.6850535350828553 
Si 14.932880099999998 9.50192442 6.787478983273467 
Si 13.57450587 10.860608159999998 8.145091283760106 
Si 13.5762489 8.143990019999999 5.4305862652782535 
Si 12.218770619999999 9.503292779999999 9.501470014261445 
Si 13.57211124 8.14770414 10.863639670527101 
Si 14.92019019 9.49703742 12.25805347557514 
Si 16.290325799999998 10.86196023 10.864907506345325 
Si 13.37345469 10.886916509999999 13.758280172695432 
Si 16.01826651 11.003878709999999 16.27301538522481 
Si 15.46238655 9.17508186 17.77509243732305 
Si 15.323318819999999 9.8637579 20.333071131003717 
Si 13.46796927 8.96733549 19.054852765404195 
Si 12.592707569999998 9.77621544 24.856366672095064 
Si 15.575390279999999 11.119553999999999 23.299155894820576 
Si 13.896819809999998 11.15299737 21.70586319547611 
Si 14.94496728 9.86968746 25.10506808746437 
Si 14.369979149999999 8.24498802 28.433822426958933 
Si 15.612335999999999 11.42691372 26.793688334006056 
Si 14.35536702 10.58432976 28.563552870412803 
Si 12.91011822 8.21136546 32.21964871183944 
Si 13.45267296 12.152893859999999 31.83117696396925 
Si 15.28831161 11.209051259999999 30.64694977808287 
Si 12.299731920000001 12.29831469 1.2858904855914193 
Si 14.935307309999999 12.21934077 4.0730424964574645 
Si 14.967235709999999 14.87966067 1.172916034437849 
Si 13.586625629999999 16.28452656 2.6818839455372974 
Si 13.57551585 13.57496199 5.429421226958804 
Si 12.21720678 12.21813531 6.787753109936866 
Si 14.93235882 14.93261946 6.788095768266116 
Si 12.216718079999998 14.93126739 9.501264419263896 
Si 14.931544319999999 12.2183145 9.501709875091919 
Si 13.57701453 13.573218959999998 10.85808860559326 
Si 12.220872029999999 12.22030188 12.212959639445902 
Si 14.94009657 14.910399899999998 12.217071539396898 
Si 13.533341039999998 13.98599127 16.740709738817493 
Si 14.49821403 12.41822538 15.114967295693097 
Si 13.67921799 16.28908776 13.605420292017216 
Si 16.180075079999998 13.56219063 13.765750124273072 
Si 14.221805309999999 15.06991158 21.019484296156374 
Si 16.24741794 13.98543741 21.209865263887412 
Si 12.87543681 13.14614403 20.893351765159625 
Si 15.154587 15.79541931 17.628331874905474 
Si 13.498056899999998 16.00240005 23.038906893755556 
Si 15.927140249999999 13.38902793 23.465002526177347 
Si 14.03339517 14.23824192 24.56078959728442 
Si 15.01364592 13.74537168 26.6892460752508 
Si 12.340554659999999 13.04426637 29.878435677242024 
Si 12.538054619999999 16.14063699 27.828790615003037 
Si 13.856078519999999 14.37830334 28.65572796098093 
Si 13.573153799999998 13.60174275 33.94445367794987 
Si 15.30479709 14.85131607 30.45389607538369 
Si 13.61842371 14.953861619999998 32.05393914381437 
