&CONTROL
  dt          = 30.D0,
  prefix = 'x0.66_y1.66_z3.17_struc42-scf',
  pseudo_dir = './',
  outdir='./',
  wf_collect= .true.,
  verbosity= 'high',
/

&SYSTEM
ibrav= 6, celldm(1) =30.783621515, celldm(3) =2.118804555752091, nat=  432, ntyp= 1,
  ecutwfc     = 12.D0, nbnd= 1728,
  degauss     = 0.05D0,
  occupations = "smearing",
  smearing    = "methfessel-paxton",
/
&ELECTRONS
  electron_maxstep=200,
  conv_thr    = 1.D-8,
  mixing_beta = 0.3D0,
  scf_must_converge=.false.,
/
&IONS
/
ATOMIC_SPECIES
Si  28.08  Si.pbe-hgh.UPF
K_POINTS {automatic}
1 1 1 0 0 0
ATOMIC_POSITIONS (angstrom)
Si -0.0021219354 2.69620677 2.713715750523653 
Si 1.3209675029999999 1.314617661 1.3286502249140875 
Si 3.9224691 3.9991135499999997 1.2568100249339296 
Si -0.000554075028 0.00028069461899999997 5.430158211818148 
Si 9.2383848e-05 2.71485882 8.144823133812665 
Si 2.71484253 0.000578177712 8.144857649138878 
Si 2.71445157 2.71394658 5.429502420620098 
Si 1.357603713 1.35729909 6.787853083740646 
Si 2.7140606099999998 2.71314837 10.862249281904237 
Si 1.3620248189999997 1.347961662 12.224085992972316 
Si 4.0687533 4.09506165 12.229573929840218 
Si 0.196788087 2.8277810999999997 13.62602951310014 
Si 2.28814227 3.4879659299999997 14.639917220612935 
Si 3.76929423 1.405927998 15.072566834695417 
Si 2.9615871599999997 3.17617533 16.911577930661007 
Si 3.97894653 0.893715012 17.504792842287305 
Si 0.599929749 0.0730455003 21.395809112280155 
Si 1.459147428 3.2427688499999996 20.028622525649027 
Si 1.79598879 1.6281447749999998 18.298403737907446 
Si 3.1348964699999997 3.0804715799999998 21.70213263242232 
Si 2.7230038199999997 0.7905634739999999 22.315746101840617 
Si 2.98168902 0.5433219989999999 24.70310218535534 
Si 3.91764726 4.01928057 25.32986599406087 
Si 2.04230988 3.92999508 29.93490081742622 
Si 1.2320273609999999 0.389132262 29.028804473677255 
Si 2.20981995 2.477709 25.974198103808916 
Si 2.4945039899999997 2.21179104 28.34816224075292 
Si 1.9919574899999999 3.26102994 34.34816848835102 
Si 3.16967562 3.66303456 32.24563287674764 
Si 0.49764646799999995 1.3759983809999998 33.08383757383524 
Si 4.0710339 6.787456559999999 4.070772088911205 
Si 1.3586772239999998 4.0754322 4.070150813039367 
Si 0.392595516 5.04791262 0.04053963125045376 
Si 2.72476314 5.43217743 2.7067160423676153 
Si 1.343397204 6.7834166399999996 1.344406471330414 
Si -0.0007587393299999999 5.43048327 5.430330788449215 
Si 2.71495656 5.429522159999999 8.145237317727224 
Si 1.357704711 6.78721221 6.787715022435792 
Si 1.3571198999999998 4.07113164 9.501620607253619 
Si 1.3569097589999999 6.7826673 12.247211261535162 
Si 0.00550621548 8.1215424 13.743070984289105 
Si 2.8317721499999995 5.596918199999999 13.800021272540887 
Si 3.30289524 7.642746719999999 14.903510766903155 
Si 1.0574148509999999 5.59916622 19.804721604503992 
Si 3.15822375 6.6839336099999995 19.916792868718257 
Si 3.97322874 6.753524489999999 22.20578027252536 
Si 2.9632976099999997 4.86106632 23.332291489471828 
Si 0.665216811 5.13219708 23.637993733742157 
Si 0.367303662 6.5679976799999995 21.904185352074403 
Si 1.146011274 7.97261922 26.695982605579385 
Si 3.18785526 5.82895296 29.160135289918486 
Si 1.3283403569999999 7.27195374 28.88449589477986 
Si 1.514961855 7.4490912 32.60956247633963 
Si 3.2994743399999997 5.95564029 32.79266628190067 
Si 2.09868957 8.661865409999999 0.07477572847459052 
Si 1.3591789559999998 9.502217639999998 4.069667598472383 
Si 2.7250726499999995 10.85717097 2.6926337892726298 
Si 1.438257132 12.158562779999999 1.1371902588768372 
Si -0.000193523571 8.145097739999999 8.144961195117517 
Si 2.71435383 8.144397269999999 5.431469794214251 
Si -0.0012342411719999998 10.858718519999998 5.429882089208443 
Si 2.71533123 10.85998914 8.144754103160238 
Si 1.357294203 9.503374229999999 9.503967649436117 
Si 2.7156407399999996 8.1425565 10.861006730160561 
Si -0.00394644798 10.86534855 10.86421665549839 
Si 2.62700685 10.761744149999998 13.552891536854364 
Si 1.2051651509999999 9.687793319999999 15.261986944953467 
Si 3.5801184599999996 11.19826728 16.707695898719628 
Si 0.431559567 9.666909539999999 20.884222947148082 
Si 0.484619355 11.953650869999999 20.554498035833365 
Si 3.9969795599999998 10.281563819999999 20.494337822243757 
Si 2.3631414299999998 8.77892535 20.149219075437955 
Si 0.8220308669999999 8.75056446 22.992211980293153 
Si 2.7368177399999998 9.51313194 24.074819702296434 
Si 2.5715394 11.65068945 24.977464513424078 
Si 3.3810383699999997 8.67449016 26.20224086409954 
Si 1.452193227 11.39493645 27.03150609169792 
Si 3.30928092 10.34201601 27.92048283364514 
Si 0.43600184999999997 10.45697454 34.21942632157578 
Si 1.5080125409999998 8.79844077 30.705766113071864 
Si 0.043620873299999995 10.59095979 31.473801151968026 
Si 3.34019934 12.1658607 31.529405342497494 
Si 3.4879496399999996 9.94592466 30.225036649574395 
Si 2.72741841 16.27478514 2.6868214083383264 
Si 4.02744186 14.65638993 1.1304321580042922 
Si 0.006660150209999999 13.563493829999999 2.6824759287680844 
Si 1.35721764 14.93540505 4.0690463226005456 
Si -0.00030005691299999997 13.57525521 8.145168287074798 
Si 2.71536381 13.574978279999998 5.430089181165722 
Si 1.3577438069999999 12.21777693 6.787266323195021 
Si -0.001487174373 16.2908145 10.858763233956704 
Si 4.06310067 14.930860139999998 12.236787633018777 
Si 1.356818535 14.93289639 9.50251800573516 
Si 2.7146959199999996 13.575988259999999 10.864389232129454 
Si 1.348792452 12.22888671 12.239790466399326 
Si 2.5401159899999994 16.160478209999997 13.715079054730198 
Si 3.5172716399999997 12.49757397 14.766588467815385 
Si 0.7545902669999999 15.34928508 15.160442855234228 
Si 0.9099984959999999 14.25598173 17.473073257497372 
Si 2.80346013 12.314344049999999 20.422718520351363 
Si 0.41258171699999996 15.99586776 19.025986814481737 
Si 3.0097404 13.257926009999998 18.280973498169782 
Si 2.0027740499999998 13.49168751 23.726491030152804 
Si 3.75862428 13.61816307 22.12960494757282 
Si 1.551500325 15.15061224 25.377255536951594 
Si 2.1034462499999997 14.88632328 27.719845242367796 
Si 0.7834007609999999 13.146551279999999 28.394792446466955 
Si 0.47236438799999997 15.77952027 34.501312990759004 
Si 1.518229629 16.2970047 31.41571185795121 
Si 3.275919 12.844599839999999 34.168930399325866 
Si 3.8353013099999997 16.13623869 32.0944212326076 
Si 0.28013913 14.413180229999998 32.170562042233925 
Si 1.119987999 12.64226175 30.70162427392628 
Si 6.78586014 4.076295569999999 4.069736629124809 
Si 8.12781405 -0.0201292272 2.683949733197388 
Si 4.075318169999999 1.356085485 4.068286985423855 
Si 5.419731870000001 2.7161783099999997 2.686724765424929 
Si 6.64105833 1.2467746979999998 1.2261776729197134 
Si 5.430678749999999 -0.0004898468159999999 5.4311246409521186 
Si 5.430434399999999 2.7147122099999996 8.14454701120296 
Si 6.78763575 1.357188318 6.787680507109579 
Si 4.07401497 1.357965351 9.500964816055568 
Si 6.783465509999999 1.332665352 12.239790466399326 
Si 7.022619 3.4132436999999998 15.018274226562049 
Si 5.28377553 2.5896050099999997 13.5804347671725 
Si 6.13601946 2.2607750699999998 17.33787672472026 
Si 5.42282697 3.00752496 21.094939013679678 
Si 5.84376057 4.03516332 18.95360817541265 
Si 6.244087319999999 0.8251927559999999 21.659782327158723 
Si 6.704035469999999 4.04288478 22.722440190610772 
Si 6.71024196 0.8739324359999999 24.01376209022528 
Si 6.04837926 2.99239155 24.71849602084643 
Si 7.560221579999999 3.0835829699999997 26.51253364675622 
Si 5.98072689 3.7011857399999997 28.099168677450884 
Si 4.78468251 1.72931382 28.623870666543972 
Si 7.48709577 1.0330450109999998 31.555913113029234 
Si 5.573069639999999 3.20328189 32.40281567232256 
Si 5.27067837 1.2979725389999999 30.895151708003702 
Si 4.73392287 0.224793855 34.46151681963518 
Si 6.656419799999999 6.778220129999999 1.160550231657932 
Si 5.42877282 8.135519219999999 2.695636622653178 
Si 8.13348297 5.4257102999999995 2.6824655741702204 
Si 4.072027589999999 4.07269548 6.787715022435792 
Si 5.4293429699999995 5.42950587 5.430261757796789 
Si 6.78763575 6.7872936600000005 6.7872318078688085 
Si 6.786984149999999 4.07210904 9.50206930649439 
Si 4.07178324 6.78612078 9.50324282758564 
Si 5.43100455 5.43103713 10.86142091407512 
Si 6.77238831 6.790975199999999 12.255218817216626 
Si 8.039261609999999 5.330430089999999 13.719462501159274 
Si 7.41242241 7.33413267 20.908728828759454 
Si 6.40496736 7.75342098 18.756801785344976 
Si 8.07091308 4.696211519999999 18.445300966270835 
Si 4.74584715 6.20973171 18.047097647749126 
Si 6.214749029999999 6.3208946699999995 22.690271906580065 
Si 6.90275718 6.7814618399999995 24.955305673995205 
Si 7.6045140899999994 4.46305275 29.59344069519902 
Si 5.36817402 7.418759219999999 26.67475567995827 
Si 4.504755149999999 5.32409328 27.26051528112251 
Si 5.10777837 5.49614826 34.38420248891761 
Si 4.598438939999999 6.42221847 30.997938349466615 
Si 6.57734814 5.26044825 31.62608277122067 
Si 4.132398329999999 9.5131971 1.228987220473468 
Si 6.78682125 9.50557338 4.0702198436917945 
Si 4.07012166 12.21666921 4.070634027606353 
Si 6.899955299999999 12.174771329999999 1.2262225428437905 
Si 4.0725 9.50252715 6.78757696113094 
Si 5.43005973 8.14508145 8.145271833053437 
Si 5.42900088 10.85920722 5.4311246409521186 
Si 6.78626739 9.50120766 9.502414459756523 
Si 4.091901389999999 9.489527729999999 12.23047132832176 
Si 5.43054843 10.860152040000001 10.861282852770268 
Si 6.78716334 12.21526827 12.246555470337112 
Si 8.1632448 10.8551673 13.728401970648495 
Si 6.13217502 11.01710619 16.896322156474774 
Si 5.37952815 8.186751269999998 13.849516250330618 
Si 6.93892098 9.45999396 15.186122257936848 
Si 8.00989074 10.791473400000001 19.887454841437034 
Si 5.922164339999999 10.01263221 19.099573489968282 
Si 5.92677441 10.52778717 23.65031570520027 
Si 4.385512349999999 9.1412964 22.532329773828454 
Si 4.8753363599999995 11.772310589999998 25.422021915050117 
Si 4.934664539999999 12.002064749999999 27.735549715794804 
Si 6.77458746 10.819231559999999 28.58048490149398 
Si 6.39542142 8.47244529 28.619659796745964 
Si 7.79408082 8.31275442 34.25487356159674 
Si 5.227379549999999 11.13178779 34.35579637544414 
Si 7.59345318 11.35365759 30.744595855061718 
Si 6.51512034 9.903261149999999 32.62999554945785 
Si 5.31717003 8.58021993 30.718260661161047 
Si 5.451529949999999 13.56976548 2.689220223510144 
Si 6.787407689999999 14.93470458 4.07394749892282 
Si 4.07238597 14.932603169999998 6.787611476457153 
Si 5.430206339999999 13.574603609999999 8.144857649138878 
Si 6.787652039999999 12.21720678 6.787611476457153 
Si 4.07207646 12.21777693 9.502103821820604 
Si 6.78470355 14.931951569999999 9.502690582366228 
Si 5.430369239999999 16.2930951 10.859211933197475 
Si 7.37427123 13.235722739999998 16.90964507239307 
Si 5.34525399 13.537804499999998 13.665998260855027 
Si 6.798207959999999 14.78438046 15.178183732907812 
Si 8.12584296 16.17256539 13.80015933384574 
Si 4.348029059999999 15.72529086 21.236313789848953 
Si 7.472125259999999 12.886937549999999 20.783403679279317 
Si 4.497522389999999 15.06670245 18.927825226731393 
Si 6.758867609999999 14.26705893 18.92209568258 
Si 5.85941526 12.647474549999998 22.520560047589754 
Si 5.93615745 13.678843319999999 24.628134896820267 
Si 5.18626359 15.88395546 25.21158197112823 
Si 7.92879912 12.899888099999998 25.6395029855195 
Si 5.56516899 16.05806298 27.5551381056784 
Si 7.820600939999999 15.91138782 28.219661681261172 
Si 4.3192283399999996 14.251860359999998 28.443390025775145 
Si 6.8826227399999995 13.52716713 31.338604619190917 
Si 4.59143424 14.0457267 30.845139000320774 
Si 9.504302759999998 1.357338186 4.068390531402494 
Si 10.321409159999998 0.5960494709999999 0.18353559229196142 
Si 10.870984889999999 2.7188335799999996 2.7254440583708988 
Si 12.21401394 4.074405929999999 4.072083671307307 
Si 9.4332132 3.90969774 1.3124073123981548 
Si 8.1448371 0.00024693522299999997 8.145064741096157 
Si 8.144266949999999 2.7147936599999998 5.429640481924951 
Si 10.859109479999999 -0.000468490626 5.430158211818148 
Si 10.85963076 2.71529865 8.145340863705863 
Si 9.50075154 1.357243704 9.502207367799242 
Si 8.148192839999998 2.7147447899999997 10.863629894952766 
Si 10.858083209999998 0.0027187684199999995 10.86356086430034 
Si 12.21644115 4.07339595 9.502345429104095 
Si 8.923173299999998 1.7900918099999998 14.94237502421922 
Si 10.83324096 2.7916498799999996 13.764815639803423 
Si 12.194579969999998 3.5750033999999995 17.37636131344798 
Si 8.43734034 0.549746775 20.836281159037945 
Si 12.15110196 2.03696676 21.345589312639948 
Si 9.904450319999999 2.38624065 20.57455144036324 
Si 9.841359149999999 3.11425704 18.315972038949965 
Si 8.443107 1.4874284969999998 17.302015300784745 
Si 11.970071189999999 3.6726293699999997 24.778897841719534 
Si 8.964859409999999 3.9871404 22.065579017447334 
Si 11.693141189999999 0.0523848933 22.453151615495372 
Si 8.938062359999998 0.0095855247 24.666170786307216 
Si 11.361998069999999 1.567966257 28.065136565804664 
Si 8.67058056 2.48806944 30.14692846635392 
Si 12.19891311 3.25612665 29.519439835797915 
Si 8.95959774 1.67557311 27.93256319781976 
Si 8.47420461 2.0984940899999995 34.442050175650934 
Si 10.64178459 2.9570096699999997 31.35814029382759 
Si 11.019109859999999 0.7774011539999999 32.50297914899327 
Si 9.504237599999998 6.786414 4.067320556289885 
Si 10.551114449999998 5.6168897399999995 0.03624765043584215 
Si 9.50275521 4.07256516 6.787542445804727 
Si 8.1453258 5.43001086 8.144926679791304 
Si 10.86109686 5.429245229999999 5.430744972363773 
Si 10.857643379999999 5.42989683 10.860281908310085 
Si 12.220024949999999 6.79343499 12.239859497051752 
Si 9.50291811 6.78696786 9.501344484643912 
Si 9.496027439999999 4.07491092 12.238478884003221 
Si 8.324304029999999 8.02973196 16.701552170653677 
Si 10.820795399999998 8.08080111 13.719842169747622 
Si 11.697213689999998 4.577522579999999 15.138594653741272 
Si 9.699342929999998 6.396806069999999 15.1517449930285 
Si 11.808979379999998 7.314568379999999 18.212287999005508 
Si 8.912584800000001 5.6374640099999995 20.40760080746998 
Si 11.08684368 6.44346063 20.218767457757554 
Si 9.99873684 4.79240397 24.05787267712575 
Si 10.584769589999999 7.10077842 23.757865461680606 
Si 8.426931029999999 5.11869267 25.839795423534706 
Si 11.99859498 7.36166277 28.966228187252717 
Si 9.13411251 5.58211059 28.07507697975407 
Si 11.533776119999999 5.17772763 28.268431837200424 
Si 8.6350032 7.78328055 28.72645021604961 
Si 10.25616771 7.73444313 30.492772035010198 
Si 10.32282639 5.68576386 31.85202009661229 
Si 8.31110913 6.33250944 33.02616246373298 
Si 12.21613164 9.502543439999998 4.069495021841317 
Si 9.39121758 9.41213394 1.3297719730160165 
Si 10.866195629999998 8.14488597 2.7032921220072663 
Si 8.1427194 10.84876533 2.7143508325259758 
Si 12.078367109999999 12.090047039999998 1.2631056204352178 
Si 8.14428324 8.14576563 5.430158211818148 
Si 9.50290182 9.502738919999999 6.78757696113094 
Si 10.86000543 8.14488597 8.144961195117517 
Si 8.145114029999998 10.860217200000001 8.14499571044373 
Si 10.86124347 10.86121089 5.429744027903591 
Si 8.14850235 8.1458145 10.863491833647913 
Si 9.49389345 9.49765644 12.243897790218695 
Si 10.861227179999998 10.862106840000001 10.861144791465415 
Si 11.81932353 9.6409107 15.2618143683224 
Si 10.12902426 11.685859559999999 14.833306593385503 
Si 10.414685699999998 9.0056007 17.341776956582354 
Si 8.72766072 9.2077596 21.450619450306718 
Si 11.94915483 11.473763759999999 19.68567824439466 
Si 9.9430902 11.061805949999998 18.512226183798234 
Si 8.75263329 8.17987689 24.80119474245326 
Si 10.89080982 8.26118028 21.66741021425184 
Si 8.19790992 10.02548502 23.544112046442248 
Si 9.29368935 12.03249447 23.99823019342934 
Si 11.44473498 11.85643215 24.931559129560522 
Si 10.495500389999998 11.95894512 28.317581661728024 
Si 12.13486083 10.871946 27.02512075634848 
Si 9.33777009 9.005682149999998 26.87259752981234 
Si 11.62640106 8.634791429999998 27.035751476822146 
Si 8.56904499 11.216446920000001 27.179438779847704 
Si 10.381177169999999 11.031750899999999 34.40698260421832 
Si 10.719341279999998 9.78056487 31.928609605479384 
Si 9.959086979999999 11.490689069999998 30.582649944469374 
Si 9.501223949999998 12.221148959999999 4.071773033371389 
Si 9.47946051 14.835889439999999 1.1911963898026334 
Si 10.8616833 13.57401717 2.694342297920183 
Si 8.1423936 13.573756529999999 5.430883033668626 
Si 9.50242941 14.93229366 6.787197292542595 
Si 10.86000543 13.57442442 8.145064741096157 
Si 9.50317875 12.215594069999998 9.502656067040013 
Si 8.143289549999999 13.57512489 10.867150458226511 
Si 9.497314349999998 14.9406993 12.237477939543039 
Si 9.801350909999998 12.83529825 16.910162802286266 
Si 10.889425169999999 13.53374829 13.574532646390042 
Si 11.81569086 14.316336179999999 17.041217495917792 
Si 11.72474379 12.884982749999999 21.5535786684007 
Si 8.4367539 15.882929189999999 18.73616162026948 
Si 11.398536539999998 16.26717771 24.748662415956765 
Si 9.45561195 13.305411359999999 22.026473152847775 
Si 9.47188566 15.55856271 22.467855144462195 
Si 12.069863729999998 14.08736394 25.519769318885906 
Si 10.891608029999999 14.15846979 27.544852538466866 
Si 11.748185099999999 15.717211019999999 29.051550073651754 
Si 8.87484087 14.792949 26.510393696531 
Si 8.82538443 12.928053509999998 34.23675301533481 
Si 8.237250269999999 15.26579883 30.488457619233547 
Si 10.53547605 15.32931354 31.0397364095108 
Si 10.6917786 13.17090483 32.12431150510824 
Si 12.2634378 1.454271831 1.345579992421663 
Si 14.93234253 1.358273232 4.074603290120871 
Si 15.017767289999998 4.051176389999999 1.3012864742922612 
Si 13.575434399999999 -6.68922786e-05 8.144857649138878 
Si 13.574978279999998 2.71484253 5.430434334427854 
Si 12.21728823 1.35749457 6.787093746563955 
Si 14.93312445 1.355577237 9.501137392686633 
Si 13.57688421 2.71225242 10.865528237894491 
Si 12.21336234 1.35545832 12.256530399612727 
Si 14.93123481 4.07952099 12.24621031707498 
Si 13.466454299999999 1.460585835 16.680842974925756 
Si 15.25980411 1.037967849 14.943652091289108 
Si 16.02013986 2.21928444 21.30316997672392 
Si 14.08723362 2.04270084 19.948512453508187 
Si 14.384444669999999 0.187030377 18.54242709423478 
Si 13.13465958 3.68026938 22.766240139575324 
Si 15.4715904 3.30652791 23.352413924654126 
Si 16.067217959999997 2.9202757200000002 25.686340283190816 
Si 14.50647306 2.70081684 30.072202785102338 
Si 12.43878336 1.6446221099999998 25.975820324140937 
Si 14.760108359999998 1.093158369 26.365015142520996 
Si 15.189529049999999 0.765589275 28.716682378731274 
Si 13.499881379999998 3.08117205 34.28697281497502 
Si 14.56093053 1.88185338 32.424732904467945 
Si 16.27107102 8.14242618 2.6933793203188348 
Si 13.58141283 5.43796038 2.680698389468104 
Si 12.293199629999998 6.96700494 1.1868578132976342 
Si 14.929801289999999 6.788499119999999 4.072601401200505 
Si 13.574587320000001 8.14338729 5.430779487689986 
Si 14.932309949999999 4.07287467 6.787542445804727 
Si 13.57519005 5.43001086 8.145168287074798 
Si 12.217516289999999 6.787521719999999 6.787300838521234 
Si 13.57520634 8.145537569999998 10.86218025125181 
Si 16.28786601 5.4319982399999995 10.861904128642104 
Si 14.932912679999998 6.788499119999999 9.501171908012847 
Si 13.49437536 5.42623158 13.745418026471603 
Si 14.812659899999998 6.857650169999999 15.182636209989317 
Si 15.477796889999999 5.86006686 17.937235364412505 
Si 12.994549289999998 5.32026513 21.043821815557926 
Si 13.95148905 4.249376819999999 19.080210391962673 
Si 14.05603827 7.78318281 18.56437884170638 
Si 14.38161021 6.97848939 21.96997156383676 
Si 14.33901186 7.704665009999999 24.217989275428796 
Si 12.340131119999999 7.280424539999999 25.297904801987446 
Si 16.12434699 6.53088906 25.32220359164154 
Si 14.142473009999998 7.652276369999999 29.776233862824135 
Si 12.800828609999998 5.20651206 26.291808135622794 
Si 15.139095209999999 4.959539369999999 26.749205238600144 
Si 15.625612349999999 6.05696409 28.848082225624932 
Si 16.07446701 4.47595443 30.470992864169666 
Si 13.87854243 6.824907269999999 32.27659312436088 
Si 16.00938846 5.83382367 32.477817476183844 
Si 12.369567149999998 5.123253869999999 33.13529992521912 
Si 14.99670432 9.55077813 1.0680491574065518 
Si 13.57949061 10.854157319999999 2.6783513472856066 
Si 14.934883769999999 12.21663663 4.068217954771429 
Si 14.93221221 9.502478279999998 6.787197292542595 
Si 13.574815379999999 10.860152040000001 8.144857649138878 
Si 12.21720678 9.50255973 9.50217285247303 
Si 14.936284709999999 9.49000014 12.239479828463406 
Si 12.22196346 12.20464719 12.213075603910307 
Si 15.63548409 10.816576289999999 16.5193802789004 
Si 13.96626408 8.861580809999998 16.42308251876557 
Si 13.47859035 10.76197221 13.643425237511593 
Si 12.61585566 9.84710952 21.299131683556976 
Si 14.57679699 8.81968293 20.59802186218821 
Si 12.726953459999999 11.41160112 23.05523696595846 
Si 14.78861586 11.94804711 23.976451022588808 
Si 15.444337229999999 9.744107849999999 24.40088598903255 
Si 16.020351629999997 9.89586549 26.65901669120505 
Si 14.383060019999999 9.99303534 30.077000415445973 
Si 14.2861671 11.03699628 27.938085650013875 
Si 13.04294688 10.22932179 32.116994255951035 
Si 13.57582536 8.52734259 33.92287063875196 
Si 13.24608318 13.73509269 0.058270844632699666 
Si 12.216278249999998 14.93004564 4.070357904996647 
Si 14.959644569999998 14.85724563 1.1816770628330324 
Si 13.59035604 16.28027487 2.69561591345745 
Si 13.574815379999999 13.57541811 5.4301927271443615 
Si 12.21727194 12.217516289999999 6.787853083740646 
Si 14.93252172 14.932798649999999 6.787645991783366 
Si 12.2183145 14.93063208 9.502414459756523 
Si 14.93123481 12.21712533 9.501137392686633 
Si 13.57740549 13.572453329999998 10.860109331679018 
Si 14.93459055 14.92835148 12.215181038809312 
Si 12.78484812 14.26859019 14.873309856466603 
Si 14.58311751 12.41356644 14.906651661588556 
Si 13.585306139999998 16.18680285 13.657576521259005 
Si 16.22901024 13.63870476 13.714285202227295 
Si 15.7696974 12.34485522 18.395046651304412 
Si 13.110941339999998 14.785064639999998 21.57470204804318 
Si 12.833490059999999 14.88218562 19.232526526541534 
Si 13.42449126 12.817493279999999 18.354836296266033 
Si 16.282718369999998 13.047670979999998 22.572540128866834 
Si 15.28202367 15.146784089999999 22.58807202566278 
Si 15.5240442 15.57723105 24.965729302511594 
Si 14.397444089999999 13.66087545 25.665147872895908 
Si 14.0064678 15.093124829999999 29.401708058084683 
Si 14.80036095 13.33396773 27.967044008706747 
Si 14.25047571 14.513363729999998 31.693180565379137 
Si 13.01002479 12.654267479999998 32.519684566880464 
Si 13.188888989999999 16.239028589999997 32.94615593757078 
