&CONTROL
  dt          = 30.D0,
  prefix = 'x0.66_y1.66_z3.17_struc45-scf',
  pseudo_dir = './',
  outdir='./',
  wf_collect= .true.,
  verbosity= 'high',
/

&SYSTEM
ibrav= 6, celldm(1) =30.783621515, celldm(3) =2.119710052438847, nat=  432, ntyp= 1,
  ecutwfc     = 12.D0, nbnd= 1728,
  degauss     = 0.05D0,
  occupations = "smearing",
  smearing    = "methfessel-paxton",
/
&ELECTRONS
  electron_maxstep=200,
  conv_thr    = 1.D-8,
  mixing_beta = 0.3D0,
  scf_must_converge=.false.,
/
&IONS
/
ATOMIC_SPECIES
Si  28.08  Si.pbe-hgh.UPF
K_POINTS {automatic}
1 1 1 0 0 0
ATOMIC_POSITIONS (angstrom)
Si 3.26059011 2.44955988 0.20908341305529843 
Si 1.404861003 1.291836096 1.2216741155646156 
Si 4.06759671 1.360089567 4.0737203351568985 
Si 0.000222943311 2.7153801 8.145714166476086 
Si 2.7151357499999995 2.7147773699999997 5.4308904719051085 
Si 1.357620003 1.356958629 6.787300946964724 
Si 2.71132389 2.71775844 10.863162146880384 
Si 1.348005645 1.3639421520000001 12.242293412444285 
Si 1.357662357 4.07337966 9.502953363377804 
Si 4.07253258 1.358199927 9.50267712276377 
Si 0.336438999 0.82974744 16.06456572867689 
Si 0.00684660555 2.8095688799999996 13.740380792426501 
Si 2.3648355899999998 2.1445296299999996 16.416945161953794 
Si 3.9639923099999996 2.75665896 20.379754890576113 
Si 3.28184856 1.4141348999999999 18.58253345567201 
Si 0.9025800299999999 1.220078646 23.84571134478183 
Si 3.6849771899999997 3.9541368599999998 23.97868667036236 
Si 3.22791237 1.64336778 23.782486774244834 
Si 4.005026819999999 0.22473032399999998 25.459405421737205 
Si 1.417940244 2.89162161 29.67324880836276 
Si 0.683795556 1.230245235 26.245033728049417 
Si 2.58059664 0.29976858 27.309492404152028 
Si 0.36540424799999993 3.2314635899999997 27.48663169790122 
Si 3.3774056999999997 1.96631703 28.82981715356397 
Si 0.397298439 1.2259772549999999 31.081730639167755 
Si 1.360690668 4.06815057 4.069922026713933 
Si 2.71769328 5.428479599999999 2.6930766522311647 
Si 1.427691438 6.82357149 1.2594051304339613 
Si 4.0726140299999996 4.07253258 6.786817525890165 
Si 2.7146959199999996 5.430206339999999 8.144781854403721 
Si 1.357569504 6.78770091 6.786990176273936 
Si -0.00198995382 5.429261519999999 10.86295496641986 
Si 1.355546286 6.79206663 12.254378939308264 
Si 3.91535037 6.96742848 15.031598482574134 
Si 0.31420966499999997 6.217762679999999 16.72474626614099 
Si 1.414550295 4.197151079999999 15.332976992485044 
Si 2.74781349 5.40575505 13.71562272739372 
Si 1.88012664 4.1423841 20.325749850532496 
Si 2.23788762 8.11895229 20.097816813877834 
Si 1.9538226 6.09526188 18.82548707571476 
Si 3.86234271 6.5808342 17.494318086762487 
Si 2.1605589899999997 5.13942984 22.57320895623499 
Si 0.366669981 4.947370739999999 24.17561169809173 
Si 2.52830574 7.461341279999999 22.353355957540813 
Si 2.2933061999999995 8.11167066 25.98540208093437 
Si 1.319796252 7.8593711399999995 29.60032128625783 
Si 3.6587502899999995 4.90965939 26.08491776214006 
Si 1.3329227339999998 5.00635683 26.384500708059743 
Si 0.765111978 7.0464838499999995 27.427792447112015 
Si 3.7338308999999996 4.18965768 33.117382254059805 
Si 2.58787827 4.67726625 30.90238142050629 
Si 0.842023584 6.31372707 31.34243271866218 
Si 3.13474986 7.97349888 34.497411301619316 
Si 0.00830395782 8.14587966 2.6869751876686925 
Si 1.357289316 9.500213969999999 4.067953812338942 
Si 2.7197783999999996 10.87417773 2.6926657443177895 
Si 1.301043204 12.1748202 1.2517532654252244 
Si 2.71707426 8.146417229999999 5.429785509448973 
Si 0.00017972756999999997 10.86207426 5.430027219986252 
Si 2.71500543 10.860217200000001 8.145299805555036 
Si 1.3573968299999999 12.21813531 6.787680777809021 
Si 1.356857631 9.50053977 9.502918833301049 
Si 2.7115030799999995 8.14902363 10.861504703196182 
Si 1.3754999069999998 12.22755093 12.233039351874151 
Si 0.6991814609999999 10.13852133 14.917062217980357 
Si 2.76508089 10.884766229999999 13.760511827174216 
Si 3.53554902 9.05181543 16.015947380606935 
Si 1.5435117090000001 9.75757968 17.065212822937685 
Si 0.550083978 9.671307839999999 19.374308115646475 
Si 0.792062154 12.06491157 19.3279687526423 
Si 1.029249441 8.28268308 23.970951933169413 
Si 0.62258751 10.58159304 23.953514244408527 
Si 2.39927265 11.71672911 22.960740007647697 
Si 0.837931536 11.133693719999998 26.280806887566797 
Si 3.35341053 9.03207195 29.141485626347635 
Si 2.8567935899999997 10.100777399999998 27.023169007705963 
Si 0.48852080999999997 10.588141619999998 34.18028707670848 
Si 1.101766005 11.67082389 30.555146968665767 
Si 3.27109716 10.740990689999999 30.824999518500064 
Si 2.84317515 10.07811801 33.20322402487082 
Si 2.7198109799999997 16.283011589999997 2.7123478880676997 
Si 4.0707081 12.219959789999999 4.0696457860999 
Si 3.95187255 14.83922889 1.3070877134238759 
Si 2.1929923799999997 13.949403929999999 0.027255970785182975 
Si 1.360110744 14.93149545 4.070267327481476 
Si 2.7146470499999995 16.290488699999997 8.144540143866442 
Si 0.000385592445 13.574913119999998 8.144643734096706 
Si 2.7144027 13.57569504 5.429647389141956 
Si 4.09035384 14.895836639999999 12.227687189977246 
Si 1.3585990319999999 14.93248914 9.502297291919474 
Si 2.71715571 13.57172028 10.857913575213743 
Si 2.6917270199999996 16.193579489999998 13.553987438107175 
Si 1.3900485059999999 14.662352069999999 17.123983013573383 
Si 1.072080738 15.17721381 14.87421039272836 
Si 1.92202452 12.37914567 17.272600463923585 
Si 2.67682167 12.22860978 20.6801665583379 
Si 0.1411018623 15.736156289999998 20.57074074510375 
Si 3.7513100699999997 14.31009711 20.314044154512814 
Si 2.14940034 15.798970529999998 19.33687751244489 
Si 0.26441928 15.39302373 22.901244685400158 
Si 1.70271225 13.784874929999999 24.020675243695504 
Si 3.88913976 14.42792268 24.40578918973542 
Si 0.9880683209999999 13.4558658 26.281773729715916 
Si 0.9407800799999999 14.00017986 30.032879557758054 
Si 2.25202734 14.38628544 28.07723413070555 
Si 0.619107966 15.69756528 34.35635593807829 
Si 1.506370509 15.577850069999998 31.915908233396415 
Si 3.9293109 15.911143469999999 32.20026341546749 
Si 5.448320819999999 2.70454725 2.7166088995391715 
Si 6.6070611 1.264946193 1.2151928201578468 
Si 8.14289859 2.7179050499999997 5.4307868816748455 
Si 5.42903346 -0.00015825506939999998 5.430441580907303 
Si 5.430255209999999 2.7151194599999995 8.144816384480476 
Si 6.7878801 1.3577535809999999 6.7879224883463 
Si 4.07465028 4.07556252 12.2326249909531 
Si 6.779132369999999 1.363826493 12.239116645382895 
Si 5.69195406 0.058127607 16.519361369606838 
Si 6.7003539299999995 3.8740226399999997 15.3493787789433 
Si 7.29182754 1.9237023899999999 16.69239158422228 
Si 4.07829924 1.160110269 14.958256599548152 
Si 5.34095343 2.70863604 13.670008496001383 
Si 7.616503529999999 2.85454557 18.916404767808647 
Si 7.4211212699999995 3.52782756 25.118110143098406 
Si 5.897859659999999 3.5087682599999996 23.351551416352056 
Si 5.031557459999999 1.600024977 22.23819815156546 
Si 6.67974708 0.44674347600000003 29.856120094853157 
Si 6.1359705899999994 0.35877095999999997 26.36606164707299 
Si 6.5626871399999995 2.56222152 27.051380080414166 
Si 4.67949798 3.7622080799999997 27.912801905201913 
Si 7.945936199999999 2.1292658999999996 28.85070785000028 
Si 4.71618306 1.3523078339999999 30.713363780353642 
Si 5.60898909 2.94677955 32.370565754019346 
Si 7.6643472599999996 2.89536831 34.433806900238025 
Si 4.64157486 0.41496657299999995 34.46923475898787 
Si 4.32388728 4.27456116 1.387763784752456 
Si 6.7890204 4.06971441 4.076275560836712 
Si 4.06785735 6.789476519999999 4.071130579400331 
Si 6.71599233 6.70085892 1.325682159756028 
Si 8.11575945 5.43089052 2.7344022480906256 
Si 8.14475565 5.42989683 8.144989034864247 
Si 5.4307439099999995 5.42792574 5.429163968067397 
Si 6.78773349 6.787407689999999 6.787611717655512 
Si 6.78613707 4.0700565 9.503229603991839 
Si 4.0715226 6.7868049599999996 9.502815243070787 
Si 5.430336659999999 5.432324039999999 10.859087597823386 
Si 6.78996522 6.7689837 12.236630479856592 
Si 7.998161939999999 5.2272655199999996 13.707853460124017 
Si 7.484668559999999 5.8683096 16.834793620756717 
Si 5.86042524 4.1207835600000005 19.932176035687796 
Si 6.37733952 7.92629046 19.85213531777149 
Si 5.874939629999999 5.983365869999999 18.51243739986092 
Si 6.51627693 7.367087339999999 22.15549861773908 
Si 4.58236071 8.10186408 23.314431583841262 
Si 6.79542237 5.041901609999999 21.868139318990387 
Si 4.37816556 7.10750619 25.51527508592554 
Si 8.01518499 5.77910556 25.67300847653886 
Si 4.71756771 5.312820599999999 29.809021070160387 
Si 5.30167824 7.547857469999999 29.095008143036445 
Si 6.3155515499999995 7.45531398 26.853039319537878 
Si 4.98386034 6.32465766 34.13046017595212 
Si 6.414871679999999 4.86997695 31.353965764298096 
Si 8.11953873 10.85132286 2.7043610813144467 
Si 4.26214818 9.60780942 1.4011441894947199 
Si 5.45188833 8.13794643 2.729619832460165 
Si 6.79099149 9.50093073 4.073029733621814 
Si 6.74059023 11.93794731 1.0490720739009274 
Si 4.072304519999999 9.50251086 6.7878534281927925 
Si 5.42997828 8.14488597 8.145161685248018 
Si 5.42906604 10.857431609999999 5.430199870370024 
Si 6.78713076 9.501289109999998 9.50381661529666 
Si 4.04161416 9.51634107 12.217811588025537 
Si 5.4271438199999995 10.86209055 10.862575135575563 
Si 6.80037453 12.21821676 12.218778430174654 
Si 7.908159689999999 8.19212697 16.062183153380847 
Si 8.11057923 10.80642762 13.547219543063346 
Si 5.38402419 8.151825509999998 13.533925463512968 
Si 6.45893613 9.78936147 14.888229603890576 
Si 4.791964139999999 11.69762094 15.257356124393281 
Si 6.6817344599999995 11.64950028 20.21318180031371 
Si 8.03961999 9.70339914 19.590121095360406 
Si 4.43314431 11.130289109999998 19.481454943814846 
Si 4.25001213 8.71244586 18.983013285867557 
Si 8.135730989999999 11.94237819 23.918949637577544 
Si 4.473527219999999 10.53454752 23.484768452469872 
Si 6.18014907 11.950946729999998 22.497173727222176 
Si 4.74775308 10.77853914 25.79652256108874 
Si 6.79144761 9.759404159999999 26.451350936655935 
Si 7.9002753299999995 11.15518023 28.102372026582632 
Si 5.519768759999999 10.34559981 34.100315418945684 
Si 6.90653646 8.535992579999998 30.646720732217982 
Si 6.64162848 8.37695331 33.09448881317175 
Si 7.075170539999999 10.94448537 30.265784925465326 
Si 5.44086 13.55152068 2.671453918167667 
Si 6.78854799 14.93617068 4.068160992799468 
Si 8.12641311 16.27340049 2.6778039992827694 
Si 4.0711153499999995 14.933287349999999 6.7879224883463 
Si 5.430271499999999 13.57457103 8.145368865708543 
Si 6.78784752 12.21712533 6.787646247732266 
Si 4.0716040499999995 12.218575139999999 9.502228231765965 
Si 6.787554299999999 14.93283123 9.503229603991839 
Si 5.42953845 16.2901629 10.864888650718097 
Si 5.5261055699999995 13.516497179999998 13.71047774595734 
Si 6.915007259999999 14.8155921 15.124587979273272 
Si 8.08982577 16.21156365 13.624359734532293 
Si 4.2762879 12.480502049999998 17.50478070001902 
Si 7.4500686 13.921743509999999 19.6015160206893 
Si 5.38112457 14.45959044 18.532533904531885 
Si 6.50187657 15.985197809999999 22.515612788208934 
Si 7.46816679 15.72107175 24.675503619262702 
Si 5.05605762 14.13654345 22.361919416575862 
Si 7.29358686 13.515161399999998 25.45850763974159 
Si 5.01246558 13.0528512 25.99496691219529 
Si 7.9762518899999995 13.591089089999999 27.685628530235842 
Si 6.201505259999999 15.14401479 28.21203955035406 
Si 4.47654087 13.55420853 28.26690784231653 
Si 7.732032209999999 15.637634369999999 31.663009951248444 
Si 5.6212228799999995 14.234120549999998 31.716117209296446 
Si 5.05138239 12.274531289999999 30.28336073453323 
Si 9.5032602 1.3570286759999999 4.068817064257798 
Si 10.858620779999999 2.7152660699999998 2.697171919334216 
Si 9.35313156 4.03309449 1.3613379170124449 
Si 8.14527693 0.00029703023099999994 8.145230745401527 
Si 10.85994027 2.7146307599999995 8.145576046169069 
Si 9.48783357 4.04956368 12.247818224724961 
Si 12.194205299999998 1.3495287599999999 12.23638876931931 
Si 9.502022160000001 1.3561213229999998 9.502884303224295 
Si 8.147133989999999 2.71686249 10.861021282121623 
Si 9.20086893 1.056352743 15.429074196092062 
Si 10.638917549999999 2.47076946 13.722804983358598 
Si 8.98872426 1.418147127 20.236765842736848 
Si 10.92052278 0.8660008349999999 18.88049348798425 
Si 11.55063627 2.9546964899999995 17.95356810759373 
Si 9.81812961 2.7264573 22.094932863112163 
Si 9.717066449999999 0.025742109599999997 24.38106565477939 
Si 9.428652 2.39469516 24.394808625327574 
Si 12.12353928 2.60970687 21.6657240090571 
Si 10.89537102 3.3635754899999997 26.032984526701696 
Si 11.51955495 1.520686161 27.312807291520432 
Si 9.90446661 0.864995742 28.789969444989588 
Si 8.220080609999998 3.8239145999999997 30.419271116637876 
Si 9.629458829999999 3.0380687099999997 32.07626590984305 
Si 8.784789749999998 1.154840454 33.2761860770525 
Si 11.08316214 2.03815593 30.536431667064974 
Si 8.500219739999999 7.69945221 0.04586871805801493 
Si 12.12800274 6.81389523 1.3161380465411594 
Si 9.501126209999999 6.78889008 4.07054356809551 
Si 10.24649145 5.867820899999999 0.10480050945292217 
Si 9.50288553 4.0718809799999995 6.787749837962529 
Si 10.86026607 5.43015747 5.430372520753794 
Si 9.500083649999999 6.787440269999999 9.502884303224295 
Si 10.860282360000001 5.43041811 10.86809994785624 
Si 12.22914735 6.79643235 12.22723829897944 
Si 9.38387079 6.80974128 14.78211867802483 
Si 10.815957269999998 5.497923869999999 16.15717539453173 
Si 12.06670347 4.0788693899999995 14.792684881511624 
Si 9.368900279999998 4.68303291 17.905156939984302 
Si 11.288090339999998 7.73529021 19.98953049317657 
Si 10.26861327 5.6149349399999995 19.87022907799071 
Si 12.211782209999999 4.1577455699999994 19.863806483714423 
Si 9.59327874 6.19011855 23.80686500843332 
Si 11.956273559999998 6.16289796 24.485104776039883 
Si 9.14207832 4.93632612 21.842483471961998 
Si 11.301627329999999 7.0263656999999995 26.558843065591848 
Si 9.03521592 7.7359255199999994 29.81931103303315 
Si 11.648131919999999 4.3845512399999995 30.158534507066694 
Si 9.59248053 5.3901981 29.34849343648924 
Si 9.82233243 5.25095118 27.055454629471168 
Si 10.801296269999998 7.57675593 31.647057055787986 
Si 11.048594759999999 5.19509277 32.40595908269243 
Si 12.22051365 9.50145201 4.071406820014365 
Si 9.42006717 9.40850127 1.4173284364694267 
Si 12.099951359999999 12.137385779999999 1.318748520343779 
Si 10.861862489999998 8.15495319 2.73402932326168 
Si 10.441759679999999 10.97794503 0.07097553686601471 
Si 9.505312739999999 12.217809509999999 4.072373662163484 
Si 8.143973729999999 8.1459774 5.431373892979667 
Si 9.50295069 9.502185059999999 6.787784368039284 
Si 10.860298649999999 8.14486968 8.14526527547828 
Si 8.14508145 10.85998914 8.144989034864247 
Si 10.85998914 10.85837643 5.429578328988447 
Si 8.150001029999999 8.14429953 10.860399740740048 
Si 12.22245216 12.22683417 12.23286670149038 
Si 9.473677559999999 9.50907573 12.189048034089263 
Si 10.85586777 10.86339375 10.860123500126013 
Si 9.502168769999999 12.218493689999999 9.501226859540093 
Si 11.596020209999999 9.94252005 15.00110842480015 
Si 10.848846779999999 8.22350151 13.52170181634197 
Si 9.87692022 11.84952519 14.713887246358475 
Si 11.042306819999999 11.225536739999999 21.516968438399882 
Si 9.78991533 9.20150424 21.17367041530934 
Si 10.356953939999999 11.724352829999999 19.18163028735788 
Si 11.694102299999999 8.67173715 17.777223005609883 
Si 9.514549169999999 9.88353396 17.684302569064254 
Si 8.45657883 9.737901359999999 24.78779542886745 
Si 8.62192233 8.18872236 22.998032490542265 
Si 9.74220192 9.67963203 28.50229937555011 
Si 11.73292137 10.38127491 29.6204868510823 
Si 12.073838489999998 10.56062781 25.963648132579205 
Si 10.267766189999998 9.144228599999998 26.29313412496806 
Si 8.794123919999999 12.138542369999998 31.689632640425952 
Si 11.0561859 11.24430282 31.829099620436285 
Si 11.601395909999999 9.31890627 33.15291370303991 
Si 9.36541422 14.689735559999999 1.2669361401740586 
Si 10.85863707 13.575287789999999 2.709837551487667 
Si 8.14359906 13.573218959999998 5.428887727453363 
Si 9.50285295 14.932049309999998 6.787300946964724 
Si 10.86002172 13.574945699999999 8.144747324326968 
Si 10.85943528 16.288501319999998 5.431132182442388 
Si 8.146303199999998 13.57175286 10.86026162043303 
Si 9.49640211 14.93893998 12.223509050689984 
Si 10.86187878 16.2906516 10.860537861047066 
Si 10.927527479999998 13.66722855 13.626638719598072 
Si 10.563885809999999 15.795598499999999 16.871360972039444 
Si 8.32249584 13.02778089 16.18355637317196 
Si 8.30742759 15.59120787 21.080957159224234 
Si 9.397375199999999 13.698733409999999 18.137406236233243 
Si 10.23730389 15.007960709999999 22.408742200654594 
Si 10.232237699999999 12.771392579999999 23.208873139203586 
Si 11.642495579999999 12.72957615 25.188344319216508 
Si 11.58536655 16.1160228 25.755086468983666 
Si 11.664014669999998 14.203804859999998 27.114984481795457 
Si 9.85654143 14.74499124 28.537071162841617 
Si 8.6908779 12.72881052 34.177800911182175 
Si 11.276833949999999 15.22295613 32.34086988801071 
Si 9.54541872 14.249840399999998 30.84727141800654 
Si 10.5156837 16.2469944 34.399932894942125 
Si 16.28584605 2.72311785 2.6713296098913513 
Si 12.22230555 1.4124032729999998 1.2001722367697572 
Si 14.932016729999999 1.3578627239999999 4.067021500266578 
Si 13.574733929999999 0.00022686431399999998 8.145437925862051 
Si 13.57496199 2.7157547699999998 5.42902584776038 
Si 12.2179887 1.3577275169999998 6.78685205596692 
Si 14.93219592 1.355629365 9.502953363377804 
Si 13.574668769999999 2.7164715299999997 10.86499224094836 
Si 13.44330621 3.20808744 16.520915223060776 
Si 14.535241199999998 1.6932477599999998 14.978180453835341 
Si 14.79990483 0.6408551159999999 17.55875120998588 
Si 15.87618513 3.4422398999999997 20.733480996846428 
Si 12.76104843 0.7321410179999999 20.41072836942465 
Si 15.051829679999999 1.294828569 19.886458214065197 
Si 15.79571253 3.01086441 23.088777532252376 
Si 13.53027852 2.60226234 23.58324823137293 
Si 13.501591829999999 0.453176397 24.54270094406594 
Si 14.891731559999998 0.180271656 26.41730428097626 
Si 14.5358928 0.534385305 30.21975633315194 
Si 14.327690309999998 3.5872534799999998 27.319678776794525 
Si 13.754868749999998 1.404872406 28.066736987372266 
Si 13.66924851 2.70949941 34.10508056953777 
Si 12.62771478 0.7741350089999999 31.76660018151113 
Si 14.93019225 6.7884828299999995 4.066848849882807 
Si 12.21875433 4.07499237 4.068955184564815 
Si 14.97824775 4.13889804 1.1453419278917174 
Si 13.574733929999999 5.42561256 2.6817715051018305 
Si 14.93226108 4.07235339 6.786817525890165 
Si 13.57287687 8.1448371 5.430096280139761 
Si 16.290325799999998 5.42989683 5.4287496071463455 
Si 13.57540182 5.43038553 8.145437925862051 
Si 12.21784209 6.78791268 6.787300946964724 
Si 13.575727619999999 8.14550499 10.854805868305863 
Si 12.21696243 4.0716855 9.502642592687017 
Si 14.93327106 6.78825477 9.502262761842719 
Si 14.94617274 4.07096874 12.217086456413698 
Si 12.73166127 6.92342919 16.560486691021122 
Si 13.64101794 5.4464963399999995 13.605678963008254 
Si 14.844409109999999 6.84658926 15.142750799645995 
Si 13.539889619999999 7.372968029999999 20.842354328852515 
Si 14.32728306 5.21594397 19.892466447420432 
Si 14.37859656 5.323229909999999 17.421666805271588 
Si 13.43652957 7.51601052 23.249031618468752 
Si 15.41390751 6.95956041 24.385865335448226 
Si 12.975815789999999 4.1045424299999995 25.281748176836693 
Si 13.63927491 5.045208479999999 29.01721188010917 
Si 14.94268668 7.9211265299999996 26.624484741501636 
Si 13.14589968 7.14231792 28.068428961133222 
Si 16.23072069 5.693957729999999 34.33190864373629 
Si 13.342096439999999 4.678259939999999 32.68289029826135 
Si 15.082862129999999 5.21079633 30.917436533971134 
Si 14.791352579999998 7.01380611 32.771321824828924 
Si 15.096904109999999 9.52422543 1.144457957926809 
Si 13.58802657 10.85182785 2.6841506273901965 
Si 14.932049309999998 9.50242941 6.786955646197183 
Si 13.57512489 10.86007059 8.14485091455723 
Si 16.2901629 8.14462533 8.144989034864247 
Si 12.218868359999998 9.50143572 9.502400882149736 
Si 14.90161959 9.50132169 12.216568505262385 
Si 16.292606399999997 10.858653359999998 10.867029515476858 
Si 15.175698839999999 11.857474709999998 14.852801745140736 
Si 13.470950339999998 10.77756174 13.654884322383031 
Si 16.17800625 8.19588996 13.665105225102284 
Si 13.51213146 11.136642209999998 21.4754632861413 
Si 14.55482178 9.415603710000001 20.112388506268115 
Si 13.554925289999998 10.084438529999998 18.02290450171622 
Si 14.69147859 11.249906580000001 23.562461125166887 
Si 13.6433637 9.44367138 24.62961314725633 
Si 15.34628772 10.114933409999999 27.48956675442533 
Si 12.5600787 8.25627699 30.131324806584363 
Si 16.26015672 9.784800269999998 29.599112733571435 
Si 13.269524489999998 11.175461279999999 27.95161371147367 
Si 14.525695259999999 9.309490649999999 31.15203387543936 
Si 15.65931636 11.27370627 32.19684493786882 
Si 13.442279939999999 8.326030770000001 34.391852856981636 
Si 13.668629489999999 13.37671269 0.06673317163599016 
Si 12.218917229999999 14.93138142 4.068126462722714 
Si 14.929165979999999 12.22160508 4.070509038018756 
Si 15.039221219999998 14.94837189 1.2303169937761989 
Si 13.584654539999999 16.291629 2.67919901438364 
Si 16.28219709 13.56416172 2.701688453373669 
Si 16.290488699999997 16.289006309999998 5.429716449295464 
Si 13.575434399999999 13.5741312 5.4318918441309805 
Si 12.217043879999999 12.217516289999999 6.787300946964724 
Si 14.93219592 14.933108159999998 6.787300946964724 
Si 16.289136629999998 16.2930951 10.863783688261961 
Si 12.215871 14.93038773 9.502711652840523 
Si 14.931479159999999 12.219422219999998 9.503056953608066 
Si 13.57255107 13.57227414 10.860641451277326 
Si 14.915433509999998 14.942230559999999 12.230276945733813 
Si 12.25975626 14.87394288 15.292438682375579 
Si 13.743612359999998 13.24012104 16.344949951921226 
Si 13.47288885 16.2673569 13.684614718468422 
Si 16.2266319 13.55619591 13.579954055826354 
Si 12.48248943 12.25368009 18.208123833425905 
Si 15.29800416 14.635489859999998 17.410789831094007 
Si 12.50386191 14.96510172 21.47187215815886 
Si 13.36241007 13.134464099999999 20.1971943747765 
Si 15.46698033 13.836611969999998 19.54295301051413 
Si 14.18169933 15.00947568 23.16008214074986 
Si 13.90719654 13.211141129999998 24.604751491993284 
Si 15.043733549999999 14.11986249 26.465439207971656 
Si 14.86993554 14.441459669999999 30.071933074567088 
Si 13.6660068 13.4905635 28.224643028369357 
Si 14.60484837 13.36288248 32.29432334454601 
Si 12.275085149999999 13.17228948 32.61818093442392 
