&CONTROL
  dt          = 30.D0,
  prefix = 'x1.00_y2.00_z3.18_struc44-scf',
  pseudo_dir = './',
  outdir='./',
  wf_collect= .true.,
  verbosity= 'high',
/

&SYSTEM
ibrav= 6, celldm(1) =30.783621515, celldm(3) =2.1217994675793617, nat=  432, ntyp= 1,
  ecutwfc     = 12.D0, nbnd= 1728,
  degauss     = 0.05D0,
  occupations = "smearing",
  smearing    = "methfessel-paxton",
/
&ELECTRONS
  electron_maxstep=200,
  conv_thr    = 1.D-8,  mixing_beta = 0.3D0,  scf_must_converge=.false.,
/
&IONS
/
ATOMIC_SPECIES
Si  28.08  Si.pbe-hgh.UPF
K_POINTS {automatic}
1 1 1 0 0 0
ATOMIC_POSITIONS (angstrom)
Si 2.7249912 0.0013605114779999998 2.6876328676592536 
Si 1.375825707 1.411256457 1.2639232140802383 
Si 1.092514914e-05 2.7146633399999995 8.144929613136416 
Si 2.7147122099999996 0.000388490436 8.144307459096533 
Si 2.71482624 2.7147122099999996 5.431543024637313 
Si 1.3576314059999999 1.357864353 6.787631446903644 
Si 0.00264837933 -0.00028195383599999996 10.859629637941941 
Si 2.7164878199999998 2.71365336 10.863293433954588 
Si 1.365641199 1.333295775 12.232654475738435 
Si 2.12441148 2.38718547 16.49015826300203 
Si 1.422810954 4.0369878 14.973519534332398 
Si 4.008659489999999 1.250115777 15.092765725310093 
Si 3.62779929 3.4927063199999995 17.908876858616647 
Si 0.95346999 1.5645062609999998 20.90651871511591 
Si 2.8074674699999997 0.47979262799999994 19.88079408802778 
Si 0.176604777 3.4724904299999997 19.78812770019845 
Si 1.9529592299999998 2.6757465299999996 22.764685447568326 
Si 3.65853852 1.321612587 23.674032705084887 
Si 2.79516852 0.769322943 25.77940197605106 
Si 0.330191784 0.23420947499999997 29.255203776314215 
Si 1.9378583999999999 1.92692781 29.364841143787036 
Si 2.19967128 2.7788622299999997 27.160895021612635 
Si 0.01223828604 3.90435462 27.41304022833214 
Si 2.3157049499999998 3.1391481599999995 34.50041166600638 
Si 3.6098639999999995 0.595938699 30.271699785144065 
Si 1.7744534099999998 3.35277522 31.321930368580944 
Si 3.3119198999999995 1.4332153769999998 32.92961097175355 
Si 4.07246742 6.7848175799999995 4.070650190618547 
Si 1.3591724399999998 4.07033343 4.070581062391893 
Si 2.7250237799999995 5.4319982399999995 2.69821639915994 
Si 1.2616230329999998 6.648063029999999 1.271758898571439 
Si 0.000447707844 5.42981538 5.429123536704432 
Si 2.71448415 5.43005973 8.145240690156358 
Si 1.3577356619999998 6.78716334 6.787700575130298 
Si 4.07745216 4.07074068 12.224324524426661 
Si 1.3556749769999998 4.07280951 9.502296907595841 
Si -0.001093816485 5.42898459 10.856795380649137 
Si 1.3590453779999998 6.78178764 12.212469033555545 
Si 2.71450044 8.14358277 10.858247073408863 
Si 0.622984986 6.95167605 17.17003437214152 
Si 2.72227077 5.41950381 13.57391489338754 
Si 2.40758055 8.02311822 16.080158750718724 
Si 0.259002855 7.691567849999999 20.98090068699533 
Si 2.27269935 4.5491454 19.679112486765508 
Si 1.456053957 6.65244504 19.259918920337256 
Si 3.38097321 8.00155026 19.04558685359735 
Si 3.00768786 4.66139979 21.94116088344237 
Si 2.55321315 6.70963923 23.23105902868775 
Si 1.238689971 6.82298505 25.269270227459817 
Si 1.4868387989999998 6.656240609999999 29.302487483345367 
Si 3.76756749 4.61753082 27.019251285199132 
Si 2.58975162 6.6853997099999996 27.219446629588354 
Si 0.404909127 4.858508789999999 34.31908832749363 
Si 3.0380035499999996 5.22586458 30.46643399962764 
Si 1.8763962299999999 7.006491899999999 32.307975393569826 
Si 2.61400743 7.94412801 34.427792463906634 
Si 3.95917047 9.339904079999998 1.3337841999365032 
Si -0.00609456141 8.13949398 2.684947236053756 
Si 1.358217846 9.50583402 4.072447524511545 
Si 2.70705591 10.8497916 2.6951747571871763 
Si 1.3064351939999999 12.210267239999999 1.320888329254249 
Si 0.000166123791 8.14454388 8.145240690156358 
Si 2.7161294399999996 8.14527693 5.429711126630989 
Si -0.001486760607 10.86039639 5.430333280670872 
Si 2.71559187 10.85964705 8.14575915185626 
Si 1.357292574 9.502282799999998 9.501847574122593 
Si -0.00043987886999999993 10.85844159 10.861046766588341 
Si 1.3612314959999998 12.222142649999999 12.246722069862471 
Si 1.7882836199999999 11.391808769999999 17.253299321145946 
Si 1.342040247 9.564005609999999 14.760673724465546 
Si 2.88015345 10.93182804 13.597349362223158 
Si 3.97951668 9.249087329999998 20.941566726029354 
Si 3.4444064699999997 9.68665302 17.392972903099817 
Si 2.81531925 11.09311533 24.909872577087047 
Si 1.96985196 8.748251279999998 22.170977672952716 
Si 0.975684663 10.161604259999999 23.768600119147198 
Si 0.1065299211 8.95974435 25.612042539322367 
Si 4.00878981 10.29026268 28.543701503480637 
Si 2.3887330199999997 11.41730262 27.250865408602476 
Si 0.492015015 10.08956988 27.713022167896025 
Si 1.2168271619999997 8.59686831 30.66624913877026 
Si 3.21903432 9.90135522 30.714258692181282 
Si 3.72578364 12.135593879999998 33.55847044962258 
Si -9.20868813e-05 13.58092413 2.715138989044775 
Si 2.55831192 13.78381608 0.1339912417229357 
Si 1.356220692 14.931088199999998 4.071721678131681 
Si 0.00029992170600000003 13.574913119999998 8.144860484909762 
Si 2.7140606099999998 13.57553214 5.4304369730108535 
Si 1.356976548 12.21789096 6.787251241657049 
Si 4.07725668 14.92520751 12.253392943734557 
Si 1.358799399 14.93424846 9.501847574122593 
Si 2.71583622 13.572078659999999 10.862429331121417 
Si 2.62506834 16.15456494 13.708853191815633 
Si 2.66188374 13.50545256 16.395314336033106 
Si 1.126689705 14.9389074 15.207380325101985 
Si 0.357330924 14.404416209999999 17.951114205102076 
Si 2.5570413 12.9868767 20.149253556237564 
Si 0.5809600439999999 12.27431952 19.03110449011339 
Si 2.55342492 14.78082924 18.569604448973053 
Si 2.40466464 13.970711249999999 22.36681793906275 
Si 0.389694267 14.78780136 23.23226877265419 
Si 3.90652119 12.86243739 23.825077880323303 
Si 3.6230588999999997 15.92132472 21.92847585385141 
Si 0.782965818 15.936930539999999 25.359655383809574 
Si 0.526491171 14.97502233 27.47660363274025 
Si 2.1047657399999995 13.49817093 28.35456667535602 
Si 3.9484353599999995 14.929736129999998 28.862555448920993 
Si 3.2401624499999997 12.2065857 31.3104205188431 
Si 1.1327463269999998 15.387403679999998 31.204516075609572 
Si 1.1922260040000001 13.074663509999999 30.487137903510433 
Si 6.7884828299999995 4.075138979999999 4.071894498698314 
Si 8.14408776 -0.0203884011 2.7034597751516265 
Si 4.0670265599999995 1.3601742749999999 4.069440446652107 
Si 5.42152377 2.72404638 2.7039091086248757 
Si 6.6551491799999996 1.2213655559999999 1.3739407867996585 
Si 5.42992941 -0.00019646717399999998 5.428674203231183 
Si 5.429701349999999 2.71454931 8.145067869589724 
Si 6.7877171999999995 1.35751086 6.78745862633701 
Si 4.07290725 1.356465042 9.501052599516074 
Si 5.43032037 0.0026791511399999997 10.861738048854878 
Si 6.78390534 1.3349736449999998 12.246929454542432 
Si 7.15396527 3.62988441 14.939715831498722 
Si 5.41051173 2.6929324799999996 13.63637224616919 
Si 5.847165179999999 0.311751504 16.910527009283395 
Si 6.2263638 2.66963778 20.356465415632137 
Si 4.620919139999999 1.65014442 18.923886610573447 
Si 7.5602541599999995 3.54273291 18.606380665552837 
Si 7.979232959999999 1.4942996189999997 21.464487196551538 
Si 6.8690368799999995 0.0838571733 22.915730622806734 
Si 5.93198721 1.8297742499999998 24.312984904045365 
Si 6.40964259 0.8420463899999999 26.47175573010155 
Si 5.309709209999999 2.2367636099999997 30.073993056914382 
Si 6.860272859999999 1.092055536 28.767884342518702 
Si 7.172242649999999 2.78632305 31.587521015384596 
Si 7.2814670999999995 0.804703194 32.85090848570827 
Si 5.29661205 0.26084525399999997 34.17436838499404 
Si 4.136764049999999 4.13809983 1.2230338680145536 
Si 6.94706598 6.8564935799999995 1.1347329276984044 
Si 5.4513507599999995 8.13006207 2.6940652491493835 
Si 8.13788127 5.41824948 2.685693820901616 
Si 4.07214162 4.07240226 6.787700575130298 
Si 5.4279909 5.42856105 5.430713485917469 
Si 6.7877171999999995 6.78730995 6.787354933997029 
Si 6.787619459999999 4.073461109999999 9.502711676955764 
Si 4.07279322 6.787831229999999 9.501674753555957 
Si 5.427828 5.43058101 10.862913228707992 
Si 6.79563414 6.787375109999999 12.236871297564315 
Si 5.99721237 4.16740554 17.0086890911317 
Si 5.91214599 6.36049566 16.299744562684317 
Si 4.0798305 6.880293269999999 14.874113144404326 
Si 7.830521549999999 7.730517239999999 16.180049038233374 
Si 6.406726679999999 6.16610709 20.58009522885697 
Si 5.3136513899999995 6.71719779 18.564696344880634 
Si 5.40303462 4.39442298 21.762429853429136 
Si 5.83196661 8.0350425 21.92802652037816 
Si 4.69873647 7.2869894099999994 23.909172368047567 
Si 6.527989439999999 4.12060437 23.853247632684695 
Si 5.3540994600000005 5.4960831 25.406662577934117 
Si 4.880304809999999 4.37187762 29.113560039900708 
Si 6.303122279999999 6.952946669999999 27.049771397266756 
Si 7.01538624 5.5336478399999995 28.83151687515347 
Si 5.660498069999999 5.531253209999999 34.178619770933246 
Si 7.57053315 4.95562977 32.71009428801461 
Si 4.21736697 6.96895974 32.89798480805946 
Si 6.79133358 9.50099589 4.072343832171564 
Si 4.07137599 12.22136073 4.068472651478954 
Si 6.62240628 11.993577659999998 1.2755194741014022 
Si 4.0721742 9.502869239999999 6.787631446903644 
Si 5.4297990899999995 8.145374669999999 8.14510243370305 
Si 5.43116745 10.859679629999999 5.429987639537604 
Si 6.78864573 9.50387922 9.503402959222301 
Si 4.0827464099999995 9.49635324 12.21153580249572 
Si 5.42670399 10.85832756 10.862049125874819 
Si 5.96940534 10.2069882 15.21968514944635 
Si 5.5251607499999995 8.30066724 13.62036906169885 
Si 7.90009614 9.834745409999998 19.42371825339328 
Si 4.46735331 11.529377819999999 20.247553894539177 
Si 7.209237239999999 11.300242679999998 23.023985425746485 
Si 7.75342098 9.40351653 21.778882371372728 
Si 6.43350744 10.29117492 25.055975084119716 
Si 4.33480158 9.26855388 25.135714493564798 
Si 7.703133749999999 8.452881 25.924778636703863 
Si 7.67558736 10.20982266 29.668452315250242 
Si 6.597808379999999 12.1037958 26.566495964730493 
Si 4.33952568 8.3074113 27.292999062747924 
Si 5.95036233 11.59870806 28.798093377566385 
Si 5.2432623 10.54819854 34.3518551069275 
Si 7.194885749999999 8.422206929999998 31.145653390613916 
Si 5.10504165 9.09094401 32.156826525991434 
Si 4.1996597399999995 15.027899669999998 1.2482829527998305 
Si 5.43427884 13.56906501 2.6914383765365417 
Si 6.79382595 14.92805826 4.073069678551428 
Si 4.0723696799999995 14.93242398 6.787354933997029 
Si 5.4297828 13.57509231 8.145413510722992 
Si 6.787586879999999 12.21736968 6.787942523923586 
Si 4.0726629 12.218493689999999 9.500810650722785 
Si 6.78714705 14.93302671 9.502469728162474 
Si 6.801954659999999 12.22391826 12.267356845518611 
Si 5.6454298199999995 13.72300551 13.828133946906654 
Si 7.18056684 14.93905401 15.583126801078366 
Si 8.09223669 16.1870472 13.782232804408572 
Si 5.2604156699999995 12.74625711 16.194911606963927 
Si 8.08347267 13.224596669999999 19.21712854803859 
Si 5.7037317299999994 14.92504461 21.447412524568065 
Si 6.753247559999999 15.19736454 19.326938736078052 
Si 5.57629506 13.01030172 18.692618128303373 
Si 5.46736383 12.57776964 22.090201340107825 
Si 7.466782139999999 14.628403709999999 24.32266285577689 
Si 5.44336866 13.873671719999999 25.36304266691561 
Si 5.55080121 13.6241415 29.969229229420645 
Si 7.40993004 15.20419005 29.558538434870805 
Si 4.56351318 15.68635776 26.69621508204623 
Si 8.646862319999999 1.8010224 0.08021708549126132 
Si 9.50127282 1.361891241 4.069060241405511 
Si 10.86283989 2.7128388599999997 2.7012545847213723 
Si 12.21595245 4.07162034 4.070200857145299 
Si 9.41765625 3.9172725899999996 1.2360161489801251 
Si 8.14465791 0.00028790946 8.144964177249742 
Si 8.14464162 2.71461447 5.430195024217565 
Si 10.859044319999999 -0.001070419158 5.4283976903245685 
Si 10.8597285 2.7152009099999996 8.144791356683108 
Si 9.5032602 1.356720795 9.50174388178261 
Si 8.1492354 2.71037907 10.863327998067914 
Si 10.8580995 0.004861880819999999 10.86039004843513 
Si 9.51682977 4.0811337 12.201581337857583 
Si 12.059291519999999 0.22658738399999998 16.789137843279438 
Si 10.67578182 2.1610476899999997 17.086700294910443 
Si 8.976685949999998 1.9050340499999998 15.046830018698685 
Si 10.90579662 2.86031223 13.640312555088453 
Si 11.645216009999999 0.926645247 21.126726681121387 
Si 8.66127897 0.236079567 19.650804477950803 
Si 8.36094024 1.572568182 17.572291523039606 
Si 9.67503825 1.321474122 24.88941062199754 
Si 10.00471527 1.96102278 22.583569493735535 
Si 9.00615456 3.39341877 25.891424267343435 
Si 11.2524804 0.12025489769999999 28.064712020996904 
Si 10.772560709999999 1.400063598 30.01675488524509 
Si 8.62030962 2.3084559 29.764609678525588 
Si 11.712754349999999 1.0867629149999998 25.95253361970534 
Si 8.61858288 3.94872858 28.09312372215159 
Si 10.61875053 0.23198589 34.367236137357956 
Si 12.03777243 3.28401513 30.830774318206153 
Si 10.861422659999999 8.13144672 2.723569176285198 
Si 12.07893726 6.73834221 1.2717035959901162 
Si 9.505817729999999 6.78726108 4.072412960398218 
Si 9.50264118 4.07276064 6.787389498110356 
Si 8.1453258 5.43048327 8.144756792569781 
Si 10.86000543 5.43062988 5.431197383504045 
Si 10.8566334 5.43100455 10.858212509295539 
Si 8.14519548 8.14421808 10.862913228707992 
Si 9.50484033 6.7878801 9.501709317669285 
Si 8.192143259999998 5.36859756 13.601773568728996 
Si 9.609617609999999 6.763559129999999 15.001447337900508 
Si 11.32896195 6.59194398 16.713062229847 
Si 11.99835063 4.39152336 17.108302865739734 
Si 11.15488701 7.4021922899999995 20.94080631553616 
Si 10.656298979999999 5.15840769 20.680573106298176 
Si 8.50465062 5.48990919 19.5508450622095 
Si 10.926175409999999 7.95377169 18.643398830925914 
Si 8.551826460000001 7.55632827 18.38883413627353 
Si 10.591855739999998 4.206550409999999 22.851303115565454 
Si 8.769819239999999 4.97600856 24.17873788788381 
Si 9.32999976 7.270666829999999 24.653095779181747 
Si 10.96926246 6.927550559999999 26.387004524224068 
Si 10.55383488 6.94506231 30.16800744516346 
Si 11.943730259999999 5.20186941 29.362732732874097 
Si 10.86793866 4.70824983 27.298218243860283 
Si 8.278578 6.36898275 30.70554853562291 
Si 8.85306114 7.56942543 34.28507723997999 
Si 12.068707139999999 4.30681536 33.05556260071665 
Si 10.50972156 5.549204789999999 34.48471955855598 
Si 9.52295481 9.32980428 1.2568617657275591 
Si 8.14620546 10.83933342 2.686049831268883 
Si 11.33793774 10.22422302 0.02303145127422509 
Si 12.21722307 12.129175619999998 1.2225603396619755 
Si 8.14263795 8.14286601 5.4304715371241805 
Si 9.50252715 9.502022160000001 6.78690560052378 
Si 10.85995656 8.1448371 8.144203766756553 
Si 8.145162899999999 10.86024978 8.144722228456454 
Si 10.85984253 10.85751306 5.430160460104238 
Si 9.492785729999998 9.516846059999999 12.239152529043889 
Si 10.85925609 10.86024978 10.85928399680867 
Si 11.27732265 11.11408056 16.57007049301375 
Si 10.8639639 8.20678797 13.613594495486787 
Si 8.244092069999999 10.96411482 13.796887988459165 
Si 9.7634115 12.211879949999998 15.136074559308657 
Si 11.06750745 11.412415619999999 20.87637880829488 
Si 10.29705561 10.17387063 19.027717207007356 
Si 8.874107819999999 11.416618439999999 17.667688475821762 
Si 9.79353171 8.46402336 22.603340166558503 
Si 11.165801309999999 10.34385678 23.01050542154901 
Si 10.28250864 11.84335128 24.587216579180733 
Si 8.941874219999999 11.628860849999999 26.55985965497173 
Si 11.16431892 12.10969278 29.64142317862863 
Si 8.75260071 9.57226464 27.68094667072869 
Si 10.636669529999999 8.38138419 28.257683465700808 
Si 12.205087019999999 10.09046583 28.77683644787036 
Si 9.30896937 11.41792164 30.9445593792782 
Si 11.87972685 8.181782819999999 31.795320464705725 
Si 10.22251257 9.74401011 32.51881648486373 
Si 8.28219438 13.153963229999999 0.13326677790760455 
Si 9.50290182 12.21732081 4.064705163126326 
Si 9.52386705 14.864739029999999 1.276881300166481 
Si 10.873086299999999 13.56303771 2.6954581829164566 
Si 8.143419869999999 13.575988259999999 5.430851742370776 
Si 9.50251086 14.932016729999999 6.787666011016971 
Si 10.859907689999998 13.574457 8.144791356683108 
Si 9.50291811 12.217874669999999 9.502711676955764 
Si 8.143990019999999 13.57556472 10.859456817375305 
Si 9.49384458 14.93843499 12.239601862517137 
Si 10.91113974 13.628833019999998 13.605921262328222 
Si 8.94633768 13.70652003 16.871296740657403 
Si 9.631657979999998 13.30262577 21.042493936943806 
Si 10.59210009 15.32014227 20.23030640198907 
Si 11.02153707 14.74854246 18.00496509366534 
Si 8.804451779999999 13.025353679999998 23.24796088010459 
Si 8.37125181 15.95193363 25.962868289590073 
Si 11.9685888 12.736662299999999 25.92505514961048 
Si 10.38653658 13.08978063 27.667328410077904 
Si 9.261353699999999 15.09310854 27.965513015748794 
Si 8.351394299999999 15.309423449999999 31.7184844407801 
Si 8.225032769999999 13.04990271 32.39618301077999 
Si 10.7800704 15.855741179999999 31.754465682753366 
Si 16.28481978 2.7064206 2.7043826369774537 
Si 13.58105445 -0.00990218601 2.7054852321925806 
Si 12.23343162 1.3409325269999999 1.3132462037976786 
Si 14.934688289999999 1.3574961989999998 4.071687114018354 
Si 16.290325799999998 3.3940866599999995e-05 5.430091331877584 
Si 13.57514118 0.00032690609100000003 8.144687664343127 
Si 13.574603609999999 2.71461447 5.431301075844025 
Si 12.218004989999999 1.357572762 6.787804267470278 
Si 14.93165835 1.3568038740000001 9.502677112842436 
Si 13.576753889999999 2.71435383 10.859975279075208 
Si 12.20047695 1.360325772 12.234832014878029 
Si 14.942637809999999 4.06655415 12.201961543104177 
Si 16.28244144 2.69402391 13.556390887930819 
Si 13.61093031 0.0164271618 13.607856852674526 
Si 14.535860219999998 1.78557948 14.840931595610533 
Si 12.86411526 3.5645777999999995 15.019973702643709 
Si 15.860172059999998 2.8527373799999998 17.54778556669086 
Si 12.36099861 2.14149969 19.173439508793432 
Si 14.09651892 0.9781428239999999 17.969018415805394 
Si 14.23042272 2.93407335 22.6375586387521 
Si 16.213469579999998 3.00711771 23.959601409391468 
Si 13.43475396 0.1026276516 24.67379968306454 
Si 13.6013355 0.617477337 22.37673783958756 
Si 15.38080623 1.2618429479999997 25.37804349209947 
Si 14.40518184 0.961816986 29.190741704959603 
Si 12.507999569999999 3.2495780699999997 26.258633407328084 
Si 14.53353075 2.3928869699999997 27.277687160544122 
Si 16.18580916 0.193367187 34.37283552371691 
Si 13.418463959999999 2.85187401 34.46484519339303 
Si 14.15744352 2.23778988 31.150734315272967 
Si 14.31050436 0.9944670330000001 33.18597300029892 
Si 15.74358453 4.0593050999999996 31.335272116325115 
Si 14.965997669999998 4.07766393 1.2852216207122542 
Si 13.57406604 5.43810699 2.6880683754871724 
Si 14.929589519999999 6.79148019 4.0700971648053175 
Si 14.93257059 4.07220678 6.787804267470278 
Si 13.575108599999998 5.43004344 8.144791356683108 
Si 12.21699501 6.78778236 6.787804267470278 
Si 13.577943059999999 8.14442985 10.858558150428808 
Si 12.217809509999999 4.0733144999999995 9.502919061635724 
Si 14.932668329999998 6.78688641 9.501916702349247 
Si 12.20753052 6.78926475 12.228437653912557 
Si 16.26408261 8.11580832 13.516158260018345 
Si 16.03040256 4.98459339 16.325978724699407 
Si 13.4004798 7.66266939 16.18910483592501 
Si 13.52804679 5.32564083 13.540560524027113 
Si 14.994765809999999 6.5699524799999995 14.882097454582832 
Si 13.3459083 8.051560559999999 21.528085165072973 
Si 14.5577214 4.47056244 20.87461603851521 
Si 12.60598392 4.4590616999999995 19.452959493267812 
Si 14.883977519999998 6.42767562 22.21439019929126 
Si 12.69970029 4.07829924 24.025065840032557 
Si 14.16452967 5.845910849999999 24.47204895357561 
Si 16.120632869999998 4.928164829999999 25.32287916722979 
Si 15.794311589999998 5.3963883 29.20633012007002 
Si 13.299823889999999 7.11095967 26.27871515717099 
Si 13.787856 6.6270652199999995 28.67753375028227 
Si 13.579979309999999 10.85790402 2.699588594459017 
Si 15.595752779999998 11.46089466 0.30110008863000975 
Si 12.217679189999998 9.50332536 4.0728622938714665 
Si 14.852179439999999 9.452239919999998 1.2171787072169822 
Si 13.573919429999998 8.14482081 5.431439332297333 
Si 14.93177238 9.503309069999998 6.787424062223683 
Si 13.57489683 10.86007059 8.145033305476396 
Si 12.217092749999999 9.502087320000001 9.502366035822496 
Si 14.92069518 9.502038449999999 12.206765954856612 
Si 12.21329718 12.224781629999999 12.216409342474808 
Si 16.07348961 10.37340684 16.321519954080244 
Si 12.2440527 9.46023831 15.060517407576125 
Si 13.51468899 10.80134514 13.555215708077705 
Si 14.77331955 11.96700867 15.141639381554285 
Si 15.17993424 11.197241009999999 20.365521213323774 
Si 14.83365771 8.924981489999999 19.90353727459686 
Si 15.098321339999998 8.51374044 17.585114809083876 
Si 13.445570519999999 9.68810283 23.240460467512655 
Si 15.340341869999998 11.10759714 22.73191866813445 
Si 14.031228599999999 9.15942717 25.467218904482788 
Si 13.548555899999998 8.66051334 30.122866713158576 
Si 13.20508125 10.906073549999999 26.833814817200487 
Si 15.08069556 11.77791435 27.923206541036706 
Si 15.34894299 11.970934559999998 30.29945476814554 
Si 15.459894180000001 9.738096839999999 31.056305157663967 
Si 12.995575559999999 8.47594764 34.421916564641066 
Si 12.21901497 14.929850159999999 4.0700971648053175 
Si 14.92991532 12.219992369999998 4.075247217691021 
Si 14.985822599999999 14.96565558 1.2871399290018952 
Si 13.57590681 13.57486425 5.430713485917469 
Si 12.217532579999999 12.2173371 6.787424062223683 
Si 14.93276607 14.9323914 6.787527754563664 
Si 12.2163597 14.93133255 9.502435164049148 
Si 14.932472849999998 12.218167889999998 9.502366035822496 
Si 13.57489683 13.57507602 10.861496100061592 
Si 14.940748169999999 14.926885379999998 12.237424323377542 
Si 12.97904121 12.87193446 16.40153587643194 
Si 12.41783442 14.84106966 15.04776324975851 
Si 16.19820585 13.5221661 13.772485724450396 
Si 13.34072808 13.7513664 18.567323217493477 
Si 15.67738197 16.14014829 21.506793671263623 
Si 13.146127739999999 12.43156689 20.46845314281119 
Si 14.96892987 15.446275739999999 19.261197792530346 
Si 13.160528099999999 14.18979546 22.07018871849157 
Si 14.876207189999999 13.30951644 23.411518264367327 
Si 13.715430659999999 14.12419563 25.25364724823607 
Si 14.70649797 14.03647398 27.383487911437665 
Si 13.181574779999998 15.246690659999999 28.784959014502174 
Si 14.02339311 13.17891951 34.52484849412848 
Si 14.12795862 13.30671456 31.995930578454868 
Si 15.461181089999998 15.24579471 32.41076906660393 
Si 12.237031709999998 14.046590069999999 30.61554358451975 
