&CONTROL
  dt          = 30.D0,
  prefix = 'x1.00_y.66_z3.17_struc6-scf',
  pseudo_dir = './',
  outdir='./',
  wf_collect= .true.,
  verbosity= 'high',
/

&SYSTEM
ibrav= 6, celldm(1) =30.783621515, celldm(3) =2.118483252460307, nat=  432, ntyp= 1,
  ecutwfc     = 12.D0, nbnd= 1728,
  degauss     = 0.05D0,
  occupations = "smearing",
  smearing    = "methfessel-paxton",
/
&ELECTRONS
  electron_maxstep=200,
  conv_thr    = 1.D-8,
  mixing_beta = 0.3D0,
  scf_must_converge=.false.,
/
ATOMIC_SPECIES
Si  28.08  Si.pbe-hgh.UPF
K_POINTS {automatic}
1 1 1 0 0 0
ATOMIC_POSITIONS (angstrom)
Si 1.083847005 1.272711636 1.180976766598452 
Si 1.360697184 4.070985029999999 4.072535978466077 
Si 4.06754784 1.3637808809999998 4.068394767404168 
Si -0.0001096913214 2.71498914 8.145382547761798 
Si 2.71490769 0.0001264620393 8.145175487208704 
Si 2.7146307599999995 2.71484253 5.4320610599987535 
Si 1.3569798059999998 1.358501292 6.788031602036625 
Si 2.71448415 2.71397916 10.861844453913458 
Si 1.343133306 1.368936666 12.223474651069271 
Si 3.9469041 0.446605011 16.66492351496711 
Si 2.7083591099999995 0.0770766237 13.588969978549533 
Si 3.7716562799999998 1.86709464 14.794890639777552 
Si 0.313817076 0.5122602270000001 16.410239034659682 
Si 2.45469123 3.93431193 16.65753835524004 
Si 3.54623526 3.11179725 20.18112229735784 
Si 1.189244934 2.71187775 19.694668037952216 
Si 2.07528084 1.77621273 17.424007502615105 
Si 3.06064665 2.30545854 23.645107310276334 
Si 0.792146862 2.042766 24.202445299024973 
Si 3.5740748699999996 1.247584311 21.6246794533551 
Si 0.11968637669999999 1.95471855 26.450605254259045 
Si 0.888313248 3.9983316299999996 27.35963559244034 
Si 1.075407156 0.378366201 27.956384106461485 
Si 3.13362585 1.406442762 28.734621195270815 
Si 2.01476349 3.1636483199999996 34.42374793193759 
Si 0.15176676239999998 1.322604648 31.757636250280317 
Si 2.5273935 1.97775261 32.45536129402768 
Si 3.1433509799999997 3.12186447 30.389207564964533 
Si 3.89910924 4.079325509999999 1.1822363849631163 
Si 2.70555723 5.42790945 2.703917487643292 
Si 1.345193991 6.706332359999999 1.2135301365542783 
Si 0.00390785697 8.140080419999999 2.6790391621888707 
Si 3.1806713699999998 7.75474047 0.034279944377812795 
Si 0.000302534622 5.4288542699999995 5.4299559443756165 
Si 2.71529865 5.43038553 8.145209997300885 
Si 1.3577438069999999 6.78700044 6.787617480930433 
Si 4.07320047 6.78835251 9.50283702376352 
Si 4.07699604 4.07882052 12.246423862370685 
Si 1.358538759 4.0736403 9.50283702376352 
Si 3.80184165e-05 5.429733929999999 10.863777019075682 
Si 1.3630315409999998 6.79335354 12.219367950099544 
Si 0.890046504 4.5909944099999995 15.050299832020814 
Si 2.6992692899999997 5.5218213 13.679731520989714 
Si 0.0291535614 8.022222269999999 21.305426590574065 
Si 3.73816404 5.127196049999999 21.567599760885113 
Si 0.21198176999999999 4.3119629999999995 21.172390185210222 
Si 2.86831062 6.832140029999999 20.186954502936697 
Si 0.6162507 6.23848356 19.792642189658558 
Si 0.6657332039999999 4.27149864 23.521733730723614 
Si 0.29432283299999995 7.63974936 23.645728491935618 
Si 2.9182557599999996 4.7962647 23.86472953692626 
Si 2.5526104199999997 7.25238945 24.079037209380072 
Si 2.5959092399999997 7.76746296 26.35915350997521 
Si 3.89003571 6.713402219999999 29.54567738174577 
Si 1.6106623469999999 6.546836969999999 30.103464001692785 
Si 1.1511263339999998 4.27055382 29.72074707938799 
Si 3.02104566 4.326151589999999 26.342657685911938 
Si 0.3797199 7.75886184 27.093390231251746 
Si 3.99118032 6.2182188 27.27004739313437 
Si 0.32490079199999994 4.97651355 34.33899114553718 
Si 4.04215173 9.47696814 1.3565158014943552 
Si 1.357597197 9.504563399999999 4.0705689032116705 
Si 4.07362401 12.212841059999999 4.069947721552384 
Si 2.7096785999999997 10.84454622 2.7151850327409037 
Si 2.12841882e-05 8.14513032 8.145279017485251 
Si 2.71536381 8.14550499 5.430784186587998 
Si -0.000556948584 10.8587511 5.430301045297442 
Si 2.7151683299999996 10.860217200000001 8.14472685601033 
Si 1.3584850019999999 9.50400954 9.50218133201205 
Si 2.71485882 8.14429953 10.862396615388377 
Si -0.00399781035 10.86207426 10.859911888751233 
Si 3.5864063999999996 8.47407429 16.444542066289166 
Si 0.0878635359 8.22495132 13.590039791407193 
Si 1.5816824369999998 9.27852336 15.225645610400496 
Si 2.676447 10.833192089999999 13.714793774647214 
Si 0.0275134842 12.20482638 17.118731227168016 
Si 0.452694213 9.74901114 17.487299011677955 
Si 0.0232228611 11.739421079999998 20.85041102514677 
Si 3.21053094 9.159704099999999 20.571880071141177 
Si 1.048269645 9.815506919999999 20.02385980728183 
Si 3.4479576899999995 9.067307219999998 22.88823196852802 
Si 2.73307104 11.12097123 23.820936229946568 
Si 1.441024803 10.854776339999999 25.72644547989982 
Si 0.18353942999999998 8.283416129999999 29.382375625537808 
Si 2.69619048 10.428353009999999 29.351558113218765 
Si 3.07257093 9.9344565 27.088110187147816 
Si 1.5068298869999999 10.92496995 32.61738617682489 
Si 3.0094471799999996 8.96323041 32.51513277368791 
Si 0.627169887 10.33191621 30.50464382331526 
Si 2.7062902799999997 16.291466099999997 2.6763542770170665 
Si 1.485561663 12.317504309999999 1.3369589322544881 
Si 1.355966568 14.93338509 4.0709830243178615 
Si -0.000477793845 13.575043439999998 8.144899406471243 
Si 2.7134253 13.575238919999999 5.429265742531965 
Si 1.3577421779999999 12.21696243 6.787686501114798 
Si -0.00513708408 16.293257999999998 10.859842868566869 
Si 4.08556458 14.936186969999998 12.246389352278504 
Si 1.356839712 14.933010419999999 9.50283702376352 
Si 2.7157221899999997 13.573691369999999 10.863397408061672 
Si 1.361399283 12.205852649999999 12.233310027341306 
Si 3.9238863299999998 12.276974789999999 15.043432323676484 
Si 2.16029835 13.3524243 16.334938013517295 
Si 0.0175348818 13.646491379999999 13.579514213291507 
Si 1.318248702 15.08815638 14.992219346877535 
Si 1.615047615 16.160869169999998 21.511693411549338 
Si 1.231981749 15.170355719999998 19.415481392195158 
Si 3.0838598999999998 14.8341627 17.939277688993187 
Si 2.64567519 14.41805094 22.685657727416288 
Si 1.242384543 12.56029047 22.705397500144723 
Si 3.1392133199999996 15.12655191 24.935819267996948 
Si 3.6344293199999997 12.505718969999998 29.798153216153512 
Si 0.549310203 12.932288909999999 26.333029370193 
Si 1.9591005599999998 14.6963493 26.93398811546042 
Si 4.0303089 14.066871119999998 28.012048885151987 
Si 3.19280742 13.28420178 34.467920849931296 
Si 0.186957072 14.113802609999999 30.936641157256776 
Si 2.41144128 13.557271049999999 31.744384374882205 
Si 8.146075139999999 -0.0246164706 2.692063270978576 
Si 5.41469826 2.71435383 2.6783386073175643 
Si 6.57900972 1.11492018 1.2957159210870888 
Si 5.43115116 -0.0017030543399999998 5.430439085666173 
Si 5.42968506 2.7152660699999998 8.144795876194694 
Si 6.787358819999999 1.357566246 6.787859051575712 
Si 8.14715028 2.71314837 10.858704035524843 
Si 4.07274435 1.3566409739999998 9.501974271458955 
Si 6.782243759999999 1.341794268 12.221542085907046 
Si 7.41745602 3.6801716399999997 14.945492682062326 
Si 5.602049549999999 2.80927566 13.680249172372454 
Si 7.52368311 0.230619159 21.010572362966116 
Si 7.42942917 3.66898041 19.791399826339983 
Si 5.14876401 3.86856549 18.34504735287594 
Si 6.18299982 1.6953491699999998 17.53526803981174 
Si 6.158548529999999 0.5494388939999999 24.255314760248684 
Si 4.0975214399999995 0.95532705 25.174870676545666 
Si 8.0702289 2.43732609 21.744291432859914 
Si 7.01523963 2.7369643499999996 23.847405470650607 
Si 4.25517606 2.40126003 26.958731851555328 
Si 6.542764469999999 2.4366093299999996 27.580534692501026 
Si 6.893748809999999 0.400541778 28.737554553106335 
Si 7.05078441 1.88863002 32.47444537500465 
Si 4.7320821 0.8958620339999999 33.02174092692816 
Si 6.79042134 4.071571469999999 4.069430070169646 
Si 4.07192985 6.7869027 4.070396352750757 
Si 4.9106856599999995 5.95860507 0.11906602984648837 
Si 6.761490299999999 6.7737729600000005 1.3689877488091393 
Si 8.13139785 5.43041811 2.71673798688912 
Si 4.07176695 4.0725814499999995 6.787824541483529 
Si 5.42966877 5.43085794 5.430024964559982 
Si 6.78760317 6.787652039999999 6.787410420377338 
Si 6.78766833 4.07287467 9.503009574224432 
Si 5.42541708 5.431656149999999 10.861016211701076 
Si 6.777992069999999 6.80366511 12.220506783141568 
Si 8.14884444 8.140080419999999 10.862569165849292 
Si 8.10849411 5.368288049999999 13.49524056818165 
Si 4.39575876 6.5642184 15.159248193041215 
Si 4.66930044 4.21754616 15.811281874738853 
Si 7.6747565699999996 5.830370189999999 20.75971850289095 
Si 8.10249939 7.72660764 19.38445681932302 
Si 4.25393802 6.7729747499999995 18.29997717248549 
Si 5.795851679999999 6.17330727 22.165935739146654 
Si 6.424922609999999 5.09238432 24.164380667347586 
Si 5.97124611 6.43728672 26.099637616762223 
Si 6.816648239999999 4.274137619999999 29.04673046897005 
Si 7.64268156 5.96036439 27.683305747020743 
Si 4.94745219 4.800206879999999 30.42848004986831 
Si 5.800282559999999 5.751282239999999 32.472374769473696 
Si 7.65867834 4.25281401 32.411257396218346 
Si 6.6217221 8.11916406 32.74182956923527 
Si 8.12409993 10.856535659999999 2.7121723016933648 
Si 5.4380092499999995 8.160833879999998 2.721628066951391 
Si 6.786414 9.50490549 4.075469336301597 
Si 4.85407791 11.371739489999998 0.20774109211331088 
Si 6.856118909999999 12.19405869 1.2187825725844668 
Si 4.07269548 9.50246199 6.787341400192973 
Si 5.4295873199999996 8.14495113 8.144761366102511 
Si 5.43133035 10.85888142 5.430266535205259 
Si 6.78634884 9.503357939999999 9.503251144869711 
Si 4.07176695 9.50409099 12.242524221954055 
Si 5.42971764 10.86095025 10.860395030041788 
Si 6.7768029 12.208361309999999 12.231929623654002 
Si 8.06449482 10.755944909999998 13.610642316440194 
Si 4.95624879 10.56608496 16.345256531079887 
Si 5.52390642 8.163912689999998 13.703060343305136 
Si 6.771981059999999 9.52570782 15.219537324084179 
Si 6.554151179999999 10.22655249 21.525773529159828 
Si 5.211936629999999 10.01577618 19.596762906430243 
Si 5.83499655 11.96790462 18.385010039623367 
Si 6.09640218 8.32567239 18.237789986372487 
Si 5.70016422 8.4914883 22.904831322867842 
Si 4.813059689999999 11.94728148 24.577155879943408 
Si 6.28945497 8.58191409 25.175250287559678 
Si 6.292582649999999 10.19856627 29.996275655373694 
Si 5.27892111 10.43094312 26.310045648799402 
Si 6.708336029999999 11.37439476 27.988927123389658 
Si 4.27594581 8.946435419999998 30.228977206960824 
Si 7.9084692 8.844036479999998 30.972152042112647 
Si 5.23725129 11.75080779 31.373469904103853 
Si 5.06399085 9.980524619999999 32.875487156258394 
Si 4.27457745 15.076785959999999 1.2786230724290577 
Si 5.455244069999999 13.58105445 2.6981404982119286 
Si 6.7925716199999995 14.92730892 4.074779134457945 
Si 4.0728909600000005 14.93229366 6.787997091944442 
Si 5.42957103 13.574815379999999 8.144933916563424 
Si 6.7882059 12.21748371 6.788031602036625 
Si 8.14519548 13.57444071 10.864398200734968 
Si 4.0728258 12.215919869999999 9.501974271458955 
Si 6.7870656 14.933205899999999 9.50283702376352 
Si 5.4266551199999995 16.291629 10.859946398843416 
Si 5.513888069999999 13.59183843 13.73587944097077 
Si 7.4937095099999995 14.39399061 14.994600543238136 
Si 8.11457028 16.25181624 13.624860474419414 
Si 6.74850717 15.87408372 18.83260593523141 
Si 5.07446532 14.143792499999998 19.203278835364483 
Si 5.502028950000001 16.19076132 22.1119619549731 
Si 6.12248247 12.33040599 22.644797778272114 
Si 8.02350918 13.454969849999998 23.518765862795913 
Si 4.76493903 14.02490808 21.60718283661853 
Si 7.11284931 14.880344849999998 25.267185173134067 
Si 4.98612465 13.92751017 25.799641385419065 
Si 4.66899093 15.996454199999999 29.244473297176228 
Si 6.82780689 13.48267914 29.183321413828697 
Si 6.285561659999999 13.774416749999999 31.496256812089467 
Si 4.43415429 15.278716799999998 31.485834764250328 
Si 8.446202099999999 2.33432442 0.11175437661576547 
Si 9.503227619999999 1.3585420169999998 4.067808095837065 
Si 10.36610892 0.657537705 0.048887686787684216 
Si 10.85327766 2.74484871 2.7036828190164504 
Si 8.145374669999999 -3.08144898e-05 8.1445888156416 
Si 8.1445113 2.71415835 5.430473595758355 
Si 10.86108057 -0.0015979317119999999 5.431025757233276 
Si 10.859679629999999 2.71484253 8.144692345918147 
Si 9.50166378 1.356662151 9.501525640260581 
Si 8.62829172 1.188653607 17.08636076070076 
Si 8.94244437 1.8120996 14.843791440400265 
Si 10.81260153 2.67159258 13.669482023611488 
Si 11.30076396 2.59683777 19.90935532142004 
Si 9.39833631 2.99675727 18.54541294808799 
Si 11.868470460000001 1.9841871599999998 22.929609569054936 
Si 10.260044729999999 3.34337589 21.869425027113945 
Si 8.201835809999999 2.56867236 25.855858325584485 
Si 9.910607939999998 2.41787583 29.96242125494259 
Si 9.75327912 0.783676062 26.357876636564455 
Si 11.22866442 4.04729937 26.605210467236994 
Si 10.96895295 2.09614833 27.89606046532634 
Si 8.331520499999998 0.78538977 30.630605659781672 
Si 11.8529298 2.93322627 31.383132729914976 
Si 11.940618869999998 1.054779129 32.77944556971428 
Si 9.497835629999999 4.21428816 1.245634875311731 
Si 9.50321133 6.78781494 4.070810473856948 
Si 9.50242941 4.07264661 6.787513950653886 
Si 8.14542354 5.429701349999999 8.145071956932155 
Si 10.86130863 5.42940813 5.429714373730339 
Si 9.51249663 4.06409436 12.208290210508936 
Si 10.85718726 5.433545789999999 10.859773848382503 
Si 9.50311359 6.78599046 9.501387599891851 
Si 10.05231465 5.94756045 14.764763329302163 
Si 10.93122531 8.11865907 13.843861519410057 
Si 11.93789844 4.40550018 15.014996007718038 
Si 9.22124772 4.93225362 16.809624331488664 
Si 10.97967177 7.333122689999999 21.448885043777043 
Si 11.74914621 6.65839089 19.34390746100849 
Si 9.81464355 7.10046891 17.864735889878816 
Si 9.55789686 5.61112308 22.175322484220317 
Si 8.64311562 5.98321926 24.294897835982102 
Si 9.08125146 4.72892184 26.193643107867565 
Si 10.40070888 6.19319736 29.874075418955186 
Si 8.66092059 7.60216833 29.09825403659864 
Si 11.56096413 8.05270086 26.982647345437858 
Si 11.76563169 5.89398264 27.899649514913328 
Si 8.82083952 4.411608929999999 30.304174697826664 
Si 11.26736946 7.06055841 31.94454290954116 
Si 8.236794149999998 7.89439464 34.416535322671436 
Si 10.959309269999999 5.64943716 34.23635813138619 
Si 9.437823269999999 9.500784119999999 1.3234999963032825 
Si 10.85686146 8.154659969999999 2.700131730530863 
Si 10.569945689999999 11.21423148 0.1222937587683249 
Si 8.14392486 8.146238039999998 5.430128494836529 
Si 9.502413119999998 9.502478279999998 6.787582970838251 
Si 10.860363809999999 8.14429953 8.145382547761798 
Si 8.14501629 10.86018462 8.144795876194694 
Si 10.86248151 10.85979366 5.4295763333616085 
Si 12.217109039999999 9.50189184 9.501594660444947 
Si 9.517904909999999 9.48895758 12.248080346795449 
Si 10.86503904 10.860233489999999 10.86391505944441 
Si 10.585600379999999 9.07326936 16.579718097368325 
Si 9.6954822 11.35908216 16.74515947929161 
Si 10.443567869999999 9.678003030000001 21.564459342496498 
Si 11.99538585 11.481680699999998 21.196788820383308 
Si 8.51115033 9.92904822 20.257044500159513 
Si 8.29890792 11.7819054 18.688008648986404 
Si 9.269335799999999 11.860162560000001 24.824144609694123 
Si 12.071085479999999 8.68942809 24.743321973802523 
Si 10.075185809999999 9.792945269999999 23.903035739248924 
Si 8.598497309999999 8.26385184 24.980992978663945 
Si 10.36882935 12.08688678 28.530286939457767 
Si 11.407887 10.67038983 30.134177983735277 
Si 9.34871697 8.77286547 27.15347230174162 
Si 8.85662865 11.07799821 27.06730060156172 
Si 12.04878447 10.1392218 33.12678964753193 
Si 10.259327970000001 9.172654649999998 31.57901201314329 
Si 9.49970898 12.219357059999998 4.06922300961655 
Si 9.65967678 14.92144452 1.1972413730441014 
Si 10.881052109999999 13.590747 2.7163066107368374 
Si 8.142035219999999 13.57740549 5.43054261594272 
Si 9.502250219999999 14.9320656 6.787893561667894 
Si 10.860282360000001 13.574978279999998 8.144830386286877 
Si 9.50213619 12.21741855 9.502526432933877 
Si 9.518523929999999 14.940911069999999 12.236968097112658 
Si 10.859972849999998 16.2906516 10.860464050226154 
Si 11.96194248 12.22111638 17.219535206433328 
Si 8.989033769999999 12.50262387 14.814630412505988 
Si 10.81271556 13.48513893 13.690291609197583 
Si 8.58443904 15.11228187 17.55549095383073 
Si 11.761884989999999 13.08867291 19.43287447865518 
Si 9.48483621 13.79477925 19.566117944572113 
Si 11.114308620000001 16.007107859999998 22.604904111709054 
Si 12.20520105 12.789865439999998 23.165865660136866 
Si 9.08641539 14.85652887 21.75895822203751 
Si 11.15628795 15.72177222 24.94831192136704 
Si 11.02068999 13.356627119999999 25.120241200620644 
Si 9.11049201 13.96691568 28.974880457045924 
Si 12.061588409999999 12.79183653 27.12886660601544 
Si 8.31060414 15.437479139999999 27.274430174841555 
Si 8.8443297 13.01616612 34.495287353032076 
Si 9.71358039 15.130966499999998 30.9118284009775 
Si 12.08266767 15.43096314 31.446803849991834 
Si 8.349814169999998 14.060713499999999 32.48776627058712 
Si 16.278678449999997 2.7125782199999997 2.707679087691193 
Si 13.57220898 -0.026792488799999997 2.722321719804261 
Si 13.76913879 2.1653319599999996 -0.01240496322585745 
Si 12.2056083 1.3407842879999998 1.4506213718670284 
Si 14.93577972 1.361803275 4.072156367452069 
Si 12.21595245 4.07122938 4.07270852892699 
Si 14.92753698 4.01411664 1.2499106757331524 
Si 13.57533666 -0.00021073069799999999 8.145244507393068 
Si 13.57483167 2.7147284999999997 5.430301045297442 
Si 12.217304519999999 1.358037027 6.78744493046952 
Si 14.933010419999999 1.3567517459999998 9.501732700813678 
Si 13.575662459999998 2.71795392 10.864329180550602 
Si 12.21530085 1.340513874 12.247321124767433 
Si 16.26282828 2.71731861 13.7223514848352 
Si 14.83961985 1.330902774 15.133400133996464 
Si 13.506104159999998 4.05348957 17.19627540430227 
Si 13.95002295 0.5837521499999999 19.569741504251287 
Si 16.28653023 0.781307496 18.84454642712658 
Si 14.095427489999999 1.74716766 17.383320103931844 
Si 12.650879159999999 3.25871676 24.847059310903358 
Si 15.916470299999999 0.7225380629999999 22.65918848671225 
Si 13.937056109999999 1.7805132899999998 21.648353376592347 
Si 13.204217879999998 1.73729592 28.419647583920423 
Si 13.681205369999999 3.4746895799999997 29.9114843588811 
Si 14.064557939999998 1.8216618299999998 26.23384736526027 
Si 15.53370417 0.42102645299999997 34.05314405198889 
Si 12.67440192 4.05819738 33.395036594067115 
Si 15.686504369999998 3.4589860199999998 31.072507390179588 
Si 13.57333299 5.439735989999999 2.6799329735764 
Si 12.267754649999999 6.9745634999999995 1.2042986868954384 
Si 14.93221221 6.78512709 4.06815319675889 
Si 12.21712533 6.78760317 6.787479440561703 
Si 14.932863809999999 4.072060169999999 6.787651991022616 
Si 13.57509231 5.43004344 8.14514097711652 
Si 12.21609906 4.073021279999999 9.501629170537129 
Si 14.933140739999999 6.788808629999999 9.502491922841694 
Si 14.9345091 4.06308438 12.234448860383331 
Si 12.199434389999999 6.80672763 12.2107404270539 
Si 15.266531879999999 5.66313705 16.467698338143677 
Si 13.513809329999999 5.45509746 13.532131856724826 
Si 14.61276531 7.12395909 14.771078676171575 
Si 15.55313814 7.48719351 18.018650901013114 
Si 14.18733567 4.09572954 21.32489028256504 
Si 12.67189326 4.46694606 19.53115922119116 
Si 12.71558304 7.25564745 22.959909429991235 
Si 13.50028863 5.040126 23.4217234835785 
Si 15.441942599999999 5.73706107 24.492640664188276 
Si 15.61077216 5.66230626 26.86265575491903 
Si 14.247494639999998 7.6670025299999995 29.57321643530747 
Si 13.935117599999998 5.53280076 28.60821072760603 
Si 13.71614742 7.205148449999999 31.98454010638077 
Si 14.86887669 5.06811222 32.605169604192255 
Si 13.59177327 10.83749265 2.7056429922524208 
Si 12.23325243 12.19808232 1.414934485541024 
Si 14.9315769 12.216685499999999 4.069257519708732 
Si 12.21808644 9.502152480000001 4.074088932614293 
Si 15.02509779 9.552553739999999 1.1718971613452156 
Si 13.57346331 8.14493484 5.430128494836529 
Si 14.93242398 9.50246199 6.787582970838251 
Si 13.57520634 10.860233489999999 8.145244507393068 
Si 13.57193205 8.14387599 10.862776226402387 
Si 14.93951013 9.52328061 12.23765829895631 
Si 12.22004124 12.196697669999999 12.255120405600696 
Si 12.920397209999999 8.92167462 15.179678167613302 
Si 13.745632319999999 10.828728629999999 13.885791281411889 
Si 12.64437945 9.82581849 17.356781843043443 
Si 14.066643059999999 8.52115239 21.38780218061388 
Si 13.451988779999999 8.3017098 19.076074635579502 
Si 14.25475998 10.84231449 21.65283968857608 
Si 14.17544397 11.745806759999999 23.806165910492425 
Si 13.90841829 10.019767230000001 25.25451996930306 
Si 16.076144879999998 9.19974492 25.33309944920279 
Si 15.49389141 12.145775129999999 30.029715934698615 
Si 13.5697329 10.98840321 27.292375422776495 
Si 12.71616948 9.28370358 28.667982207266256 
Si 13.358435309999999 11.65707513 31.116645798081105 
Si 16.15700844 11.282372549999998 34.40507797206682 
Si 13.46821362 8.43742179 34.10646214441097 
Si 12.216620339999999 14.932407689999998 4.076711699620169 
Si 14.827157999999999 14.825431259999998 1.3419076794734701 
Si 16.3058013 13.58491518 2.7055739720680556 
Si 16.290325799999998 16.2896742 5.430715166403633 
Si 13.574799089999999 13.5765747 5.4311983076941885 
Si 12.21776064 12.21763032 6.787651991022616 
Si 14.932375109999999 14.93270091 6.787582970838251 
Si 12.216652919999998 14.933075579999999 9.502146821919867 
Si 14.933205899999999 12.21702759 9.502422902657328 
Si 13.57561359 13.57670502 10.863328387877308 
Si 14.919929549999999 14.94742707 12.23041117959797 
Si 12.69199512 13.964227829999999 15.293181860801804 
Si 14.75592183 12.653534429999999 15.157936809538278 
Si 13.446059219999999 16.13799801 13.788162230627377 
Si 15.87263391 13.43714859 19.291900752089344 
Si 13.694856389999998 14.486175719999999 19.88906338721668 
Si 14.769035279999999 15.27075099 23.729898606768927 
Si 15.88610574 13.26418137 24.221874480923766 
Si 13.080185819999999 14.71529457 22.18408804763469 
Si 13.46837652 15.89615667 25.64027377971992 
Si 15.987999689999999 16.152235469999997 29.86644868858284 
Si 13.59336969 15.971937749999999 29.533046688006944 
Si 13.58776593 14.524734149999999 27.636510062021166 
Si 15.10244271 12.6796473 27.821208075382327 
Si 14.10508746 12.977493659999999 34.50878079907547 
Si 12.98596446 13.504475159999998 32.50177736801325 
Si 15.17403726 14.597452709999999 32.876280888378595 
