&CONTROL
  dt          = 30.D0,
  prefix = 'x1.00_y.66_z3.16_struc23-scf',
  pseudo_dir = './',
  outdir='./',
  wf_collect= .true.,
  verbosity= 'high',
/

&SYSTEM
ibrav= 6, celldm(1) =30.783621515, celldm(3) =2.107078964909995, nat=  432, ntyp= 1,
  ecutwfc     = 12.D0, nbnd= 1728,
  degauss     = 0.05D0,
  occupations = "smearing",
  smearing    = "methfessel-paxton",
/
&ELECTRONS
  electron_maxstep=200,
  conv_thr    = 1.D-8,
  mixing_beta = 0.3D0,
  scf_must_converge=.false.,
/
ATOMIC_SPECIES
Si  28.08  Si.pbe-hgh.UPF
K_POINTS {automatic}
1 1 1 0 0 0
ATOMIC_POSITIONS (angstrom)
Si 1.406110446 1.463158026 1.2149263389552645 
Si 4.07377062 1.3582145879999998 4.072133917436841 
Si -0.000400567842 2.71529865 8.144611078037066 
Si 2.7152009099999996 -0.00045679766399999995 8.144679726669743 
Si 2.71396287 2.71435383 5.430415763579365 
Si 1.3576020839999998 1.3576346639999999 6.787976799078783 
Si 2.71401174 2.71679733 10.86361179678214 
Si 1.347860664 1.3648576499999998 12.23620688283777 
Si 4.07287467 1.355026635 9.50224076216916 
Si 1.550430072 3.5738956799999997 17.11757088226835 
Si 0.739147347 0.15759174059999997 21.207244525354103 
Si 0.49964525099999996 2.7652275 21.209818849079483 
Si 3.9932002799999995 1.9733705999999998 20.471228210110137 
Si 3.67644123 2.82595662 18.172906312408298 
Si 0.886733118 3.4030787399999998 24.773746938810213 
Si 2.72044629 3.6094241699999996 21.58464038349463 
Si 0.1337037588 1.526938263 23.57002748913943 
Si 3.1089139199999996 3.8423060099999997 23.991392796509427 
Si 1.92722103 1.9130487299999999 28.23192180990238 
Si 0.1467308718 2.64886803 26.922517790225715 
Si 4.06780848 2.7359380799999995 27.55679683184271 
Si 3.0370261499999995 2.6049339 34.171847725208714 
Si 2.83926555 0.35695136699999996 31.478006730339676 
Si 2.64360636 3.78631728 31.90908581923344 
Si 1.587722769 2.15363574 30.600745853363264 
Si 1.357546698 4.06932345 4.073918781886437 
Si 2.72160288 5.43198195 2.701028506710296 
Si 1.220596668 6.721384319999999 1.3825251107723249 
Si -0.00928477872 8.14395744 2.736990092938021 
Si -0.00041244651 5.43002715 5.429969547466967 
Si 2.71448415 5.430711329999999 8.144782699618757 
Si 1.3570270469999999 6.787652039999999 6.788079772027799 
Si 1.3555625759999999 4.073151599999999 9.5013826542607 
Si 1.3606515719999999 6.78056589 12.223575534425244 
Si 3.62358018 7.36694073 15.02794082790388 
Si 0.8820920969999999 4.5283267799999996 14.951191656571252 
Si 2.7052802999999996 5.511721499999999 13.716648970828603 
Si 0.00368916372 7.986987 13.726328428036027 
Si 1.492486542 7.82623728 17.611429145745014 
Si 2.2656457800000003 5.67866142 20.50795522859221 
Si 1.113823863 5.49562698 18.456184895148976 
Si 4.01550129 5.94073494 24.783014504221576 
Si 1.8611325 7.27628688 22.21184861594592 
Si 0.483431814 7.481361689999999 24.156321136515366 
Si 2.28097467 7.1846393399999995 25.653891058359047 
Si 1.376689077 6.29634564 27.543822240266802 
Si 3.09417147 6.4261769399999995 29.175668887626244 
Si 1.4838104879999998 5.931596249999999 30.915328212604553 
Si 1.095206022 7.92679545 32.25212303671925 
Si 4.00543407 9.52072308 1.2238163368869057 
Si 1.9252662299999999 8.71619256 0.12964431578272922 
Si 1.358831979 9.50409099 4.073163646926992 
Si 0.21241997099999999 10.49804163 0.26896396985492205 
Si 2.7205766099999997 10.857219839999999 2.7144664765567734 
Si 4.07140857 12.215985029999999 4.071927971538811 
Si 0.0006209096399999999 8.14442985 8.144645402353405 
Si 2.71402803 8.14638465 5.430244141997674 
Si 0.00142742754 10.858523039999998 5.429626304303582 
Si 2.71529865 10.85977737 8.144679726669743 
Si 1.357084062 9.50252715 9.501794546056763 
Si 2.71404432 8.14415292 10.859561527454211 
Si 1.72529019 8.84587725 15.156348095325773 
Si 2.5959581099999998 10.67926788 13.63663898944383 
Si 2.65349439 11.715279299999999 17.501419711880494 
Si 3.2880387599999996 10.46932236 21.389815563957967 
Si 1.2533069879999998 9.33452838 21.327551254120138 
Si 0.292859991 9.246757859999999 19.165119324801957 
Si 3.9923206199999997 10.46658564 19.13106960299428 
Si 0.264284073 11.49186195 18.174279285061832 
Si 3.84774687 8.37488448 17.936137178306126 
Si 3.4439503499999997 8.82647586 26.88146590788501 
Si 0.1538109945 8.26188075 27.97239565406786 
Si 1.151369055 11.757160889999998 28.435396357156318 
Si 1.9570805999999998 9.57578328 28.662932250163465 
Si 2.10235482 11.60064657 32.14201062990571 
Si 2.55075336 9.3573018 31.022523052529323 
Si 2.70223407 16.28190387 2.6850333752966096 
Si 4.01322069 14.84163981 1.242732467620989 
Si 0.00785583621 13.584866309999999 2.6974587778111045 
Si 1.418407767 12.21872175 1.3208374494489814 
Si 1.35795069 14.93569827 4.073300944192346 
Si -7.34429763e-05 13.57489683 8.144851348251434 
Si 2.71533123 13.57492941 5.428871169344138 
Si 1.3580810099999998 12.21756516 6.787461934333708 
Si 4.07246742 14.919603749999998 12.199308242774007 
Si 1.3575043439999999 14.931185939999999 9.501554275842393 
Si 2.71583622 13.57861095 10.859664500403225 
Si 1.3469728589999999 12.19374918 12.23534877492931 
Si 2.76545556 16.263007469999998 13.558139277977945 
Si 3.44088783 12.384423629999999 15.072699736409133 
Si 2.4680979 15.5719368 16.82269068060529 
Si 1.9545393599999998 14.366379059999998 14.812727364462212 
Si 3.1192580699999994 16.2253287 21.269165592028546 
Si 3.7770645599999995 14.209783289999999 20.206896649988245 
Si 3.6442358999999995 13.87839582 17.857603142523903 
Si 0.207954882 15.989905619999998 17.23602409795211 
Si 2.7457772400000002 12.694780709999998 21.691732250470388 
Si 0.438212403 12.70693305 21.871042479022105 
Si -0.00746676585 14.78465739 22.79398902104491 
Si 3.94196823 13.39013565 23.589455052186953 
Si 3.4742008799999997 15.68705823 23.536973172505565 
Si 1.295426412 15.871298129999998 24.382312435287282 
Si 3.37269789 12.460579379999999 25.640779169517785 
Si 1.07500968 12.47809113 26.166662020138165 
Si 0.75241881 14.841411749999999 26.390525211297106 
Si 2.18147535 15.872878259999998 27.935805932851142 
Si 3.2184152999999998 12.87020772 34.12324449327356 
Si 2.4013577699999997 12.812606279999999 30.118557857441647 
Si 1.70877213 15.034676309999998 30.10898137318324 
Si 7.530362009999999 3.2111662499999998 0.23437089411960868 
Si 5.424016139999999 2.7147773699999997 2.737130822635008 
Si 6.58190934 1.312698699 1.3111717219680925 
Si 5.43120003 0.0014945537429999999 5.429557655670905 
Si 5.430304079999999 2.7147773699999997 8.144645402353405 
Si 6.78714705 1.3581885239999998 6.787736528864415 
Si 4.06727091 4.07300499 12.25656120242643 
Si 6.785599499999999 1.364846247 12.219628238046331 
Si 5.45268654 2.70645318 13.705596540967644 
Si 4.63005783 0.804375765 14.838161682868954 
Si 6.2596931399999995 2.3000176800000003 20.97988025392865 
Si 7.621716329999999 3.3787089 19.447265205103474 
Si 4.3386134400000005 0.807687522 17.203175727216276 
Si 5.03282808 0.354296097 24.940837710745466 
Si 4.760703629999999 2.6641317599999996 25.216736565473393 
Si 7.47135963 0.44343823499999996 21.846706538738193 
Si 6.669728729999999 3.94341804 24.492184571886447 
Si 7.793005679999999 1.411438905 28.017291859838465 
Si 5.4811777500000005 1.029140298 28.455682028112303 
Si 7.8415173 2.02059531 32.535916484205 
Si 6.46424667 0.1026717975 32.62292862612281 
Si 5.079417479999999 0.26187478200000003 30.672758269041193 
Si 4.7584556099999995 0.46449143099999995 34.27585040371402 
Si 7.297854839999999 3.66692787 31.002786570634754 
Si 4.17774969 4.11301323 1.3330500412021784 
Si 6.78726108 4.07096874 4.072168241753179 
Si 4.07113164 6.78882492 4.070486350252598 
Si 6.81562197 6.887737799999999 1.2576566803649183 
Si 4.0723696799999995 4.07194614 6.787976799078783 
Si 5.430222629999999 5.42849589 5.429797925885274 
Si 6.78784752 6.787619459999999 6.787564907282723 
Si 6.7891832999999995 4.07313531 9.502824275546912 
Si 4.07085471 6.78672351 9.501725897424086 
Si 5.427534779999999 5.433822719999999 10.863268553618756 
Si 6.778252709999999 6.79545495 12.235829315358048 
Si 8.08177851 5.34546576 13.523746313006885 
Si 7.98811101 8.10719091 16.339713225407895 
Si 6.80382801 4.0919339699999995 14.97545894822249 
Si 7.683993 6.9146163 18.581400001151405 
Si 5.57538282 6.44816844 21.32748260548746 
Si 7.471897199999999 7.72315416 20.831633531663165 
Si 4.224159899999999 6.4949859 19.412014132223952 
Si 6.32148111 4.8268899 18.0632744460235 
Si 7.85135646 7.329196799999999 24.799078284267942 
Si 6.5627523 4.371991649999999 22.10674755931779 
Si 4.13937045 7.34542164 22.9359887177368 
Si 6.22558188 5.8630968 25.7369215795816 
Si 6.660883259999999 5.19875802 28.045094556072556 
Si 6.983164619999999 7.147775069999999 29.266044812545207 
Si 4.5512793899999995 4.595132069999999 28.85827193444521 
Si 5.9009873399999995 5.1229280699999995 34.31662769152402 
Si 4.9184071199999995 4.106676419999999 31.109741140345157 
Si 7.5465054 6.06064563 31.404346747477508 
Si 5.34123036 6.1568055 32.17914954018384 
Si 5.4121244399999995 8.15109246 2.690288428128016 
Si 6.78818961 9.50508468 4.069868512558507 
Si 4.07232081 9.503162459999999 6.787599231599062 
Si 5.42975022 8.14493484 8.144919996884111 
Si 5.42965248 10.860168329999999 5.430553060844718 
Si 5.42828412 10.858262400000001 10.860797202842392 
Si 8.14493484 8.14635207 10.859733149035902 
Si 6.78672351 9.5011425 9.50224076216916 
Si 4.089001769999999 9.49871529 12.23280877552027 
Si 6.79222953 12.2155452 12.22433066938469 
Si 5.47321194 8.25244884 13.746339504461305 
Si 6.64122123 9.89879769 15.25286807286931 
Si 6.664564799999999 11.850323399999999 17.08671332188014 
Si 7.64817129 10.05312915 20.863726767439555 
Si 6.17153166 11.343622949999999 19.450869258319003 
Si 6.83357355 10.528960049999998 23.034121938148242 
Si 4.6555842599999995 9.62590761 23.18964541547746 
Si 7.89481818 9.69665508 25.035366877941374 
Si 4.43521314 10.39662009 25.46658326410049 
Si 5.55500403 10.54279026 28.867436526907557 
Si 6.50265849 10.81247121 26.622385968162888 
Si 4.81951053 8.21086047 28.79394816562708 
Si 8.08664922 8.27870832 33.97781236494783 
Si 5.1103847700000005 11.20582584 34.26308175803614 
Si 7.24890339 10.74687138 30.479409395107076 
Si 6.277009409999999 9.804755519999999 32.62584619301157 
Si 4.733629649999999 8.331585659999998 31.485489431301446 
Si 5.44473702 13.585289849999999 2.693604157086304 
Si 6.83163504 12.237732179999998 1.2451420346279436 
Si 6.786739799999999 14.931918989999998 4.072168241753179 
Si 4.0725814499999995 14.932505429999999 6.787702204548077 
Si 5.429766509999999 13.57512489 8.14471405098608 
Si 6.78784752 12.21719049 6.787736528864415 
Si 8.143142939999999 13.57556472 10.86192990528156 
Si 4.072923540000001 12.21826563 9.502721302597898 
Si 6.78711447 14.934623129999999 9.50224076216916 
Si 5.4297828 16.2906516 10.858154230484336 
Si 5.821312949999999 14.086565729999998 16.862781482088526 
Si 5.25054393 13.40917866 13.557075224171456 
Si 6.162425549999999 15.191369819999998 14.775039265122668 
Si 8.07496929 16.225279829999998 13.567372519072972 
Si 5.94948267 13.389386309999999 20.692825996390745 
Si 7.37143677 15.100553069999998 20.00139696807034 
Si 6.47389035 16.14270582 18.019236348161353 
Si 6.1853618699999995 12.82327623 23.003298702076375 
Si 7.26695271 16.155770399999998 24.233035983531654 
Si 7.75364904 13.853276639999999 24.433455666631474 
Si 7.11503217 13.16051181 26.647065151610185 
Si 4.59430128 12.71908539 29.364418303171018 
Si 4.39665471 15.79102101 27.06980343163372 
Si 4.83224931 13.55401305 27.17411502898607 
Si 7.77969675 13.085089109999998 30.501960470941395 
Si 5.78485593 14.28232266 30.65477232727988 
Si 12.13564275 1.2990134699999998 1.250977168405469 
Si 8.13292911 -0.00200577141 2.6824796461610334 
Si 9.50298327 1.359861507 4.067980675159896 
Si 10.847999699999999 2.7187521299999995 2.6902300767902405 
Si 8.14526064 0.000415326582 8.144336483506358 
Si 8.14464162 2.7157058999999997 5.430450087895704 
Si 10.860380099999999 -0.0021586530599999997 5.429969547466967 
Si 10.85979366 2.71498914 8.14471405098608 
Si 9.51244776 4.0695678 12.207511754378881 
Si 12.210495299999998 1.333114956 12.239707963104285 
Si 9.50156604 1.3576297769999999 9.501760221740422 
Si 8.14591224 2.71187775 10.859595851770548 
Si 10.86384987 0.000484573743 10.858600446596736 
Si 8.48718774 0.75751758 17.045043601845343 
Si 8.831085929999999 1.756062 14.871696539931555 
Si 10.76153238 2.6541948599999996 13.604477105034764 
Si 8.29638297 3.6194751 16.636549913102236 
Si 9.649202309999998 1.68318054 19.338937662739532 
Si 11.416748759999999 3.23201745 19.037707462553875 
Si 9.97148367 3.04463358 22.983081679753067 
Si 9.74919033 1.02995154 21.673403065545696 
Si 8.875443599999999 3.2309585999999997 25.055343630050313 
Si 9.13616505 -0.00979529103 29.341146416693594 
Si 8.242153559999998 3.5665977599999996 28.89822543866309 
Si 8.67119958 1.060464339 25.822766694743898 
Si 10.94929092 0.42117143399999996 26.203629308834604 
Si 11.357469449999998 0.1086057558 28.521996607278062 
Si 12.22064397 4.0735262699999994 4.074570943896866 
Si 12.14694801 6.69755205 1.2718669473290094 
Si 9.42791895 4.08642795 1.3101351276146735 
Si 8.136854999999999 5.45907222 2.709842991145993 
Si 9.50027913 6.785518049999999 4.07131013384472 
Si 8.14506516 8.144185499999999 5.430484412212041 
Si 9.50220135 4.07274435 6.787702204548077 
Si 8.145 5.42996199 8.144473780771712 
Si 10.860298649999999 5.430369239999999 5.429969547466967 
Si 9.501680069999999 6.787521719999999 9.501485627209716 
Si 10.860298649999999 5.43191679 10.860694229893376 
Si 9.380335859999999 6.72252462 14.90471653224908 
Si 10.822880519999998 8.08922304 13.650986553673274 
Si 12.1119408 4.4885466 16.954290109446656 
Si 9.98857188 5.35734117 16.64749937001418 
Si 9.999518759999999 6.676261019999999 18.542991091168748 
Si 10.57278015 5.14874772 20.180535575040366 
Si 8.88575517 4.742149319999999 21.80239384634534 
Si 8.863340130000001 6.98046048 22.643270948003067 
Si 11.08995507 7.85383254 22.81049901720367 
Si 11.99126448 4.21246368 23.10809083985746 
Si 12.15960534 6.067894679999999 21.64436469392342 
Si 11.34184734 8.05905396 25.150147391776926 
Si 10.90656225 6.55162623 29.378903164665815 
Si 9.6472638 6.86458971 26.2636282137941 
Si 10.34400339 4.57483473 26.423648176563646 
Si 9.09363186 7.746709499999999 28.464572026043946 
Si 10.536274259999999 4.29560784 28.7884219506966 
Si 11.25472842 7.41377448 31.556643739070918 
Si 9.38005893 6.64356699 32.81861155356793 
Si 10.823304059999998 5.31453105 34.1182674674045 
Si 9.49389345 9.49219929 1.190933641834734 
Si 10.860477839999998 8.15132052 2.68802988811295 
Si 8.142312149999999 10.848993389999999 2.6915206710845636 
Si 12.2160339 9.50624127 4.07065797183429 
Si 9.50223393 9.502804079999999 6.787805177497091 
Si 10.859663339999999 8.14526064 8.144748375302418 
Si 8.145 10.859744789999999 8.144988645516788 
Si 10.85863707 10.858490459999999 5.429935223150628 
Si 12.21468183 12.224830499999998 12.219971481209715 
Si 9.493665389999999 9.492182999999999 12.229273370937417 
Si 10.85893029 10.86238377 10.863062607720726 
Si 11.68103772 9.79358058 15.034393799375495 
Si 9.66721905 9.75784032 16.759293668328297 
Si 9.04560894 12.007863989999999 16.93695632969577 
Si 8.145097739999999 10.89095643 13.631867909472794 
Si 9.966678120000001 11.80902825 14.785679803187566 
Si 9.99564174 10.39003893 20.369593909432183 
Si 10.711342890000001 8.90831682 18.639476744395946 
Si 11.378060009999999 11.55177657 24.019881979070288 
Si 11.57204133 10.08702864 22.14090025407448 
Si 10.20690675 10.125065789999999 25.483985692484048 
Si 9.22040064 9.870290189999999 29.512493403854805 
Si 10.323005579999998 10.93648698 27.7039795003017 
Si 10.442867399999999 11.112451559999998 34.10920584789116 
Si 10.516449329999999 9.78825375 31.634525612842708 
Si 9.502608599999999 12.21934077 4.06852986422131 
Si 9.57153159 14.897693699999998 1.2963058605619384 
Si 10.88321868 13.563363509999999 2.6995628584026474 
Si 8.14431582 13.57520634 5.430553060844718 
Si 9.50272263 14.932098179999999 6.7876335559154 
Si 10.860347519999998 13.574733929999999 8.144919996884111 
Si 9.502282799999998 12.215463749999998 9.502309410801837 
Si 9.519631650000001 14.921965799999999 12.234593639969866 
Si 10.99214991 13.63055976 13.698319785903907 
Si 9.605365919999999 14.33557467 19.8667769993912 
Si 10.287020969999999 12.267884969999999 18.951347482646504 
Si 10.18403559 15.78611772 18.13394821336423 
Si 10.07686368 13.617837269999999 23.799657165443218 
Si 10.58517684 15.008596019999999 21.89843328346014 
Si 11.173001489999999 14.453758619999999 25.689176455554907 
Si 12.104023859999998 14.23516311 29.214798608252003 
Si 10.63880352 13.25678571 27.68376247797839 
Si 8.544284189999999 14.007999059999998 28.47236364585276 
Si 10.88277885 16.1800425 34.05511072534187 
Si 8.81878698 13.00155399 34.261125272004854 
Si 11.488717979999999 13.45974282 31.34390162640561 
Si 9.220824180000001 13.900077809999999 32.08451740003892 
Si 9.23688612 16.2960273 31.95607580830069 
Si 15.82742916 0.48754341 0.0687131623914838 
Si 16.3147608 2.7164715299999997 2.710786909845299 
Si 13.5501849 0.00848915883 2.7195293132166856 
Si 14.14635003 2.15510184 0.22552792050135087 
Si 14.930827559999999 1.3572371879999998 4.069284999180756 
Si 14.958520559999998 4.0341207599999995 1.3647657094988452 
Si 13.57483167 -0.0001093327785 8.144817023935095 
Si 13.57457103 2.71559187 5.43031279063035 
Si 12.218070149999999 1.357093836 6.787427610017369 
Si 16.28895744 -0.00177766254 10.861174770322114 
Si 14.931886409999999 1.357916481 9.502584005332546 
Si 13.57807338 2.71713942 10.86148368916916 
Si 14.92219386 4.075318169999999 12.202809323040523 
Si 16.21153107 2.7517719599999997 13.607943860984943 
Si 15.991860419999998 1.9578136499999998 16.9903649659183 
Si 14.49788823 1.88261901 14.984451919103147 
Si 12.559932089999998 3.43117899 14.918720853315143 
Si 13.28869782 2.06808066 19.95639778935072 
Si 15.3885114 2.7750014999999997 19.133300683556275 
Si 14.072637779999999 1.199533698 23.57002748913943 
Si 13.61083257 2.9366797499999997 22.09669053463064 
Si 12.83606388 1.75167999 25.513985144963797 
Si 13.18595679 1.447452837 29.10616214704102 
Si 14.4650313 1.270010754 27.131072336297738 
Si 12.333696569999999 3.3647972399999997 30.075961380865714 
Si 14.351880959999999 0.55573335 30.91663253662541 
Si 14.94045495 2.47169799 32.29269437863122 
Si 13.5637056 5.41787481 2.7045913707462206 
Si 14.93183754 6.7888575 4.074296349366159 
Si 14.08509963 7.364855609999999 0.10357945968485069 
Si 14.93257059 4.07240226 6.787873826129768 
Si 13.57561359 5.4296199 8.144817023935095 
Si 12.21746742 6.787456559999999 6.787805177497091 
Si 13.577242589999999 8.14438098 10.864916120802999 
Si 16.2909774 5.430255209999999 10.85914963565815 
Si 12.21722307 4.0716040499999995 9.502721302597898 
Si 14.932928969999999 6.786006749999999 9.501279681311686 
Si 12.22367391 6.78095685 12.241424178921205 
Si 13.82444334 6.30897039 16.967196052389887 
Si 13.52355075 5.27641245 13.651329796836658 
Si 15.277755689999998 6.180197939999999 15.009268399815799 
Si 14.291477639999998 6.25045671 20.537302519061527 
Si 15.07334877 5.06878011 18.611708372478194 
Si 15.323123339999999 4.59206955 22.017607309787007 
Si 15.87398598 5.3030628900000005 24.20080545048991 
Si 12.417850709999998 4.08111741 25.408472196539606 
Si 15.65920233 5.46964443 29.819799008032355 
Si 14.77752237 7.59750939 29.48009124923137 
Si 14.261618069999999 5.4366083099999996 25.92495018448327 
Si 13.42439352 7.63507413 26.158183914002585 
Si 15.844435919999999 4.79064465 27.606704387798718 
Si 12.685169609999999 7.78148865 28.40889798494309 
Si 15.90768999 5.65352595 34.31278336809412 
Si 14.0326947 4.63116555 31.25688948448781 
Si 13.47986097 6.85546731 32.23605925667288 
Si 12.223804229999999 12.167098739999998 1.1022121489632797 
Si 14.787149759999998 9.3185316 1.367738195293749 
Si 13.555104479999999 10.858653359999998 2.6888708338632408 
Si 13.574815379999999 10.86064074 8.14450810508805 
Si 13.57519005 8.14270311 5.430553060844718 
Si 14.93242398 9.50223393 6.787530582966385 
Si 12.21639228 9.502804079999999 9.502412383750851 
Si 14.936007779999999 9.494870849999998 12.25741931033489 
Si 16.292606399999997 10.862465219999999 10.86065990557704 
Si 13.480137899999999 10.862172 13.652702769490194 
Si 14.24148363 11.22555303 17.09889845418027 
Si 13.03481817 8.89795638 17.759469922112466 
Si 13.834038149999998 10.348841519999999 21.412950153170037 
Si 14.38615512 8.62957863 19.82575944136683 
Si 15.947714519999998 10.59988671 22.57880988191958 
Si 15.769387889999999 11.076662429999999 24.87064448383347 
Si 13.54062267 11.93851746 25.222674672199933 
Si 15.187378769999999 11.692489590000001 28.989665417388544 
Si 15.34140072 9.038082959999999 26.04278556247294 
Si 14.00374737 10.72478214 27.225223936013922 
Si 12.277805579999999 10.119901859999999 28.643573335748616 
Si 12.31092315 11.04189957 30.86799498037392 
Si 14.61203226 10.76314509 31.128653838647605 
Si 15.13608156 8.536741919999999 31.598485080687404 
Si 16.07471136 11.75807313 32.62993078665584 
Si 12.21953625 14.92981758 4.076767700142523 
Si 14.93533989 12.21564294 4.066676351139038 
Si 14.93227737 14.998268159999999 1.3702370055231834 
Si 16.28939727 16.28830584 5.429694952936259 
Si 13.572860579999999 13.577128559999998 5.431273871487825 
Si 12.217532579999999 12.21746742 6.787427610017369 
Si 14.932244789999999 14.93234253 6.7876335559154 
Si 12.216490019999998 14.931886409999999 9.502343735118174 
Si 14.931918989999998 12.216783239999998 9.501760221740422 
Si 13.573284119999999 13.572583649999999 10.860728554209715 
Si 14.94791577 14.935128119999998 12.241767422084589 
Si 12.819627269999998 14.453921519999998 15.16276674248105 
Si 14.449132259999999 12.505083659999999 15.043661364786859 
Si 13.60829133 16.2505782 13.73243815634426 
Si 16.261297019999997 13.49212734 13.6801622225609 
Si 12.55686957 12.679549559999998 18.17709387900158 
Si 12.79441035 14.455501649999999 21.328649632242968 
Si 13.5757602 12.43388007 20.255293936025364 
Si 13.531581719999998 15.993196199999998 19.687810014002867 
Si 15.794376749999998 13.07539656 19.776366750155894 
Si 15.81890949 15.430555889999999 19.43051493873034 
Si 12.40687125 14.994993869999998 17.59052563709494 
Si 14.02660224 15.15911562 23.17797514792241 
Si 13.47086889 14.25998907 25.276701146116547 
Si 14.41005255 13.91407092 28.873614903848466 
Si 14.819957819999999 15.210982979999999 26.936556435608114 
Si 13.64168583 13.723054379999999 34.224466902155456 
Si 15.66496899 14.944446 30.557737484991268 
Si 15.535935899999998 14.071644089999998 32.78274264299432 
Si 12.681211139999998 15.23183418 32.68237834202089 
