&CONTROL
  dt          = 30.D0,
  prefix = 'x1.00_y1.66_z3.17_struc6-scf',
  pseudo_dir = './',
  outdir='./',
  wf_collect= .true.,
  verbosity= 'high',
/

&SYSTEM
ibrav= 6, celldm(1) =30.783621515, celldm(3) =2.118483252460307, nat=  432, ntyp= 1,
  ecutwfc     = 12.D0, nbnd= 1728,
  degauss     = 0.05D0,
  occupations = "smearing",
  smearing    = "methfessel-paxton",
/
&ELECTRONS
  electron_maxstep=200,
  conv_thr    = 1.D-8,
  mixing_beta = 0.3D0,
  scf_must_converge=.false.,
/
&IONS
/
ATOMIC_SPECIES
Si  28.08  Si.pbe-hgh.UPF
K_POINTS {automatic}
1 1 1 0 0 0
ATOMIC_POSITIONS (angstrom)
Si 1.0839121649999999 1.272719781 1.180935354487833 
Si 1.3607199899999998 4.07096874 4.072535978466077 
Si 4.0675152599999995 1.363826493 4.068360257311985 
Si -0.0001005254271 2.71498914 8.145382547761798 
Si 2.71487511 0.00013333267259999998 8.145209997300885 
Si 2.71461447 2.71484253 5.432095570090936 
Si 1.356976548 1.358507808 6.788031602036625 
Si 2.71546155 2.7132949799999997 10.862776226402387 
Si 1.342353015 1.368351855 12.223267590516176 
Si 3.94239177 0.429557526 16.664819984690563 
Si 2.70866862 0.08390197079999999 13.591937846477235 
Si 2.76206724 3.55221369 16.12373624935992 
Si 0.316899144 0.514570149 16.41206806954536 
Si 3.7798501499999997 1.85720661 14.775426947786578 
Si 3.53515806 3.09728286 20.206694275665132 
Si 1.1864007 2.70770751 19.69007819569193 
Si 2.0685042 1.76438619 17.440296266125284 
Si 3.06046746 2.30461146 23.645245350645062 
Si 0.792234828 2.0429614799999998 24.202686869670252 
Si 3.56938335 1.249030863 21.627992422204624 
Si 0.11968637669999999 1.95473484 26.450605254259045 
Si 0.888313248 3.9983804999999997 27.359601082348156 
Si 1.0754560260000001 0.378359685 27.95641861655367 
Si 3.13364214 1.406408553 28.734655705362993 
Si 2.01481236 3.1636157399999996 34.42388597230632 
Si 0.1519309656 1.322565552 31.75780880074123 
Si 2.5274586599999997 1.97780148 32.45515423347459 
Si 3.1432532399999995 3.12186447 30.389380115425446 
Si 3.8991418199999996 4.079244060000001 1.1823330132212273 
Si 2.70549207 5.42789316 2.7038381144312718 
Si 1.3451646689999999 6.7064300999999995 1.2135439405911512 
Si 0.00393589206 8.14004784 2.678776885488283 
Si 3.18063879 7.75449612 0.0342674517244427 
Si 0.00030466698299999996 5.42883798 5.4299559443756165 
Si 2.7151846199999996 5.43054843 8.144968426655607 
Si 1.357745436 6.78700044 6.787617480930433 
Si 4.07334708 6.78952539 9.502491922841694 
Si 4.079569859999999 4.07908116 12.248183877071996 
Si 1.3582064429999998 4.0735262699999994 9.502698983394788 
Si 0.000268731243 5.42895201 10.864363690642787 
Si 1.3654375739999998 6.7950477 12.221196984985221 
Si 0.909198657 4.5786628799999995 15.052922599026692 
Si 2.69917155 5.52046923 13.67969701089753 
Si 0.0314366049 8.02132632 21.30442579790077 
Si 3.74121027 5.130486629999999 21.56194010576717 
Si 0.212726223 4.311588329999999 21.173736078805344 
Si 2.88090279 6.838558289999999 20.16859513389557 
Si 0.620580582 6.23900484 19.7891911804403 
Si 3.85783038 7.423955729999999 17.65156705046703 
Si 0.665412291 4.27166154 23.522147851829807 
Si 0.29433097799999997 7.63971678 23.6449692699076 
Si 2.91747384 4.79644389 23.867317793839955 
Si 2.5531317 7.25273154 24.080176042422096 
Si 2.59576263 7.76726748 26.359636651265767 
Si 3.89001942 6.713434799999999 29.54567738174577 
Si 1.6106151059999998 6.546836969999999 30.10349851178497 
Si 1.151180091 4.27060269 29.72071256929581 
Si 3.0209805 4.32608643 26.34320984738686 
Si 0.379711755 7.75881297 27.09342474134393 
Si 3.9911477399999997 6.218202509999999 27.270012883042185 
Si 0.324780246 4.97648097 34.33906016572155 
Si 4.04218431 9.47711475 1.3567504701211968 
Si 1.357597197 9.50457969 4.070534393119488 
Si 4.0736403 12.21280848 4.069947721552384 
Si 2.70964602 10.844432190000001 2.7151850327409037 
Si 2.1438617399999998e-05 8.14513032 8.145279017485251 
Si 2.7153801 8.14552128 5.430784186587998 
Si -0.0005609917619999999 10.8587511 5.430301045297442 
Si 2.7151031699999995 10.86018462 8.144657835825964 
Si 1.358217846 9.50332536 9.502146821919867 
Si 2.7142723799999997 8.14519548 10.860222479580877 
Si -0.00437547771 10.86153669 10.860360519949607 
Si 0.0271085148 12.20148693 17.119352408827304 
Si 0.08599262939999999 8.2308483 13.591868826292869 
Si 1.5722407529999998 9.28365471 15.218571041503068 
Si 2.67571395 10.83500028 13.713551411328641 
Si 0.452387961 9.749907089999999 17.48201896757402 
Si 0.0222264018 11.740072679999999 20.85082514625296 
Si 3.1980365099999997 9.15225957 20.574537348239236 
Si 1.050359652 9.81158103 20.01899388428409 
Si 3.44429244 9.06460308 22.88795588779056 
Si 2.73419505 11.12165541 23.82110878040748 
Si 1.4405963759999998 10.85508585 25.72672156063728 
Si 0.18357526799999999 8.28336726 29.382444645722174 
Si 2.6961578999999998 10.428336719999999 29.351489093034402 
Si 3.07258722 9.9344565 27.087972146779084 
Si 1.5068168549999998 10.92490479 32.61738617682489 
Si 3.00934944 8.96331186 32.51502924341137 
Si 0.627166629 10.33198137 30.504505782946527 
Si 2.70622512 16.291466099999997 2.6760747452703875 
Si 1.4853596669999998 12.317504309999999 1.3368968140885595 
Si 1.355956794 14.93338509 4.0709485142256785 
Si -0.00048126198599999994 13.575043439999998 8.144899406471243 
Si 2.71340901 13.575238919999999 5.429265742531965 
Si 1.3577438069999999 12.21694614 6.787686501114798 
Si -0.005463128429999999 16.2930951 10.859325217184129 
Si 4.0864116600000004 14.93819064 12.247321124767433 
Si 1.3567908419999999 14.93305929 9.502871533855703 
Si 2.71678104 13.57338186 10.864881342025525 
Si 1.359882684 12.20604813 12.233620618170947 
Si 3.9254990399999996 12.27488967 15.051093564141016 
Si 2.1594512699999995 13.35369492 16.331314453838125 
Si 0.018074080799999996 13.64634477 13.580100884858611 
Si 1.316339514 15.088335569999998 14.992081306508805 
Si 1.616380137 16.161080939999998 21.511796941825885 
Si 1.232853264 15.17073039 19.413583337125118 
Si 3.08250783 14.834113829999998 17.938242386227707 
Si 2.64611502 14.418246420000001 22.685209096217914 
Si 1.244142234 12.55998096 22.704465727655794 
Si 3.139083 15.126877709999999 24.93595730836568 
Si 3.6343478699999996 12.505718969999998 29.798325766614425 
Si 0.5493330089999999 12.932207459999999 26.332856819732083 
Si 1.95898653 14.696430749999998 26.93405713564478 
Si 4.030325189999999 14.06691999 28.012221435612897 
Si 3.19287258 13.284218069999998 34.46781731965474 
Si 0.187010829 14.113672289999998 30.93684821780987 
Si 2.41166934 13.557238469999998 31.744418884974387 
Si 8.14609143 -0.024795660599999998 2.6918976225360995 
Si 5.414584229999999 2.71435383 2.678072879607759 
Si 6.579026009999999 1.1150114039999999 1.2956986660409975 
Si 5.43115116 -0.0017154673199999998 5.430439085666173 
Si 5.429733929999999 2.7152334899999997 8.144795876194694 
Si 6.787358819999999 1.357566246 6.787859051575712 
Si 8.1477693 2.71316466 10.857047551100079 
Si 4.07274435 1.356512283 9.501491130168398 
Si 6.77813868 1.34662914 12.22720174102499 
Si 7.40965311 3.66650433 14.92509721758242 
Si 5.59994814 2.80126098 13.67417539614832 
Si 7.52457906 0.231575382 21.011538645547226 
Si 7.44969393 3.66712335 19.807861140311072 
Si 5.39979291 3.13214346 18.717307717249412 
Si 6.078580919999999 1.309678533 17.472666732592543 
Si 6.15880917 0.5500872359999999 24.25517671987995 
Si 4.0972770899999995 0.9553759199999999 25.174560085716024 
Si 8.07135291 2.43742383 21.74625850811432 
Si 7.01519076 2.7370132199999997 23.84757802111152 
Si 4.25519235 2.40126003 26.958731851555328 
Si 6.542748179999999 2.4366093299999996 27.580534692501026 
Si 6.893748809999999 0.40052874599999994 28.737554553106335 
Si 7.05081699 1.8887603399999997 32.47451439518902 
Si 4.73201694 0.895752891 33.0216719067438 
Si 6.7904376300000004 4.07155518 4.069395560077463 
Si 4.07192985 6.7869027 4.070361842658575 
Si 4.910555339999999 5.9585887799999995 0.11902565303863474 
Si 6.761522879999999 6.773821829999999 1.3689497877077383 
Si 8.13130011 5.43041811 2.7167483399167742 
Si 4.07176695 4.0725814499999995 6.787824541483529 
Si 5.42966877 5.43085794 5.430024964559982 
Si 6.78760317 6.787652039999999 6.787375910285155 
Si 6.78814074 4.07287467 9.503078594408796 
Si 5.422989869999999 5.43183534 10.862362105296196 
Si 6.78082653 6.8044959 12.221611106091412 
Si 8.14903992 8.14136733 10.861257782346353 
Si 8.10935748 5.364639089999999 13.50138336459015 
Si 4.503500819999999 4.888580129999999 17.039530565609 
Si 4.394129759999999 6.5520008999999995 15.179574637336755 
Si 6.84194661 4.390790309999999 17.09602358651188 
Si 5.897045159999999 8.16257691 16.5130100891794 
Si 7.67262258 5.836544099999999 20.757095735885077 
Si 8.1135603 7.72033599 19.390668635915887 
Si 5.7951675 6.1713524699999995 22.16448631527499 
Si 6.4242221399999995 5.0927101200000005 24.164070076517948 
Si 5.97118095 6.43718898 26.100086247960594 
Si 6.81666453 4.274153909999999 29.046764979062235 
Si 7.642697849999999 5.960348099999999 27.683305747020743 
Si 4.9474684799999995 4.80025575 30.42854907005267 
Si 5.80041288 5.75126595 32.47234025938152 
Si 7.65864576 4.25268369 32.41122288612617 
Si 6.6215103299999996 8.11908261 32.742036629788366 
Si 8.12395332 10.85650308 2.712151595638055 
Si 5.43805812 8.160964199999999 2.7216763810804463 
Si 6.786414 9.504921779999998 4.075469336301597 
Si 4.85414307 11.371804649999998 0.20773591559948348 
Si 6.856102619999999 12.194140139999998 1.2188722988241414 
Si 4.07271177 9.50252715 6.787410420377338 
Si 5.4295547399999995 8.14495113 8.144968426655607 
Si 5.431346639999999 10.85886513 5.430266535205259 
Si 6.78612078 9.503634869999999 9.503009574224432 
Si 4.067873639999999 9.50075154 12.240971267805838 
Si 5.430190049999999 10.86042897 10.86094719151671 
Si 6.78162474 12.209371289999998 12.228754695173205 
Si 8.0601291 10.760913359999998 13.610849376993286 
Si 6.161513309999999 10.0618443 14.957950825340236 
Si 5.50714401 8.17907868 13.694743411089135 
Si 4.5739062 10.65141198 16.71430745688038 
Si 6.564446459999999 10.226014919999999 21.54547879179608 
Si 4.8903557399999995 10.64859381 20.068550376658273 
Si 5.822127449999999 11.97661977 18.39681249114981 
Si 5.70022938 8.48984301 22.902553656783795 
Si 4.81289679 11.94744438 24.577190390035593 
Si 6.289634159999999 8.581767479999998 25.175629898573685 
Si 6.292615229999999 10.198517399999998 29.996241145281516 
Si 5.27895369 10.43087796 26.309527997416666 
Si 6.708336029999999 11.37447621 27.988892613297473 
Si 4.27588065 8.94628881 30.22908073723737 
Si 7.90886016 8.844101639999998 30.971737921006458 
Si 5.23734903 11.7509544 31.373297353642943 
Si 5.064072299999999 9.980410589999998 32.87559068653494 
Si 4.27451229 15.076883699999998 1.278533346189383 
Si 5.4554395499999995 13.581103319999999 2.6980197128892893 
Si 6.7926041999999995 14.927276339999999 4.074779134457945 
Si 4.0728909600000005 14.93229366 6.787997091944442 
Si 5.42965248 13.574782799999998 8.144899406471243 
Si 6.78815703 12.21746742 6.78810062222099 
Si 8.143273259999999 13.57553214 10.862741716310204 
Si 4.07272806 12.21626196 9.50190525127459 
Si 6.78779865 14.933368799999998 9.502422902657328 
Si 5.4273393 16.2911403 10.859428747460678 
Si 5.5118518199999995 13.589134289999999 13.738778288714105 
Si 7.49195019 14.39294805 14.996878209322183 
Si 8.11541736 16.25326605 13.625826757000528 
Si 6.75469737 15.842236769999998 18.845995850998246 
Si 5.07785364 14.14550295 19.20679886476711 
Si 5.50201266 16.192048229999997 22.110754101746714 
Si 6.12381825 12.32910279 22.644107576428464 
Si 8.02406304 13.45588209 23.518834882980276 
Si 4.76453178 14.02223652 21.605043210903208 
Si 7.11294705 14.880247109999999 25.267323213502795 
Si 4.98638529 13.92721695 25.799330794589427 
Si 4.668974639999999 15.99642162 29.244438787084043 
Si 6.82775802 13.482597689999999 29.18325239364433 
Si 6.285415049999999 13.774351589999998 31.496153281812916 
Si 4.43408913 15.27873309 31.486041824803422 
Si 8.446169519999998 2.33414523 0.11165498755027965 
Si 9.503227619999999 1.3585501619999998 4.067773585744882 
Si 10.36612521 0.657596349 0.0489235772835541 
Si 10.85322879 2.74506048 2.7036034458044305 
Si 8.14539096 -3.10381515e-05 8.1445888156416 
Si 8.1445113 2.71415835 5.430473595758355 
Si 10.86109686 -0.001609552998 5.431025757233276 
Si 10.859679629999999 2.71484253 8.144692345918147 
Si 9.50164749 1.356645861 9.501525640260581 
Si 8.62822656 1.1880459899999998 17.085981149686752 
Si 8.943910469999999 1.81434762 14.845482434917212 
Si 10.81361151 2.67201612 13.669447513519307 
Si 11.29963995 2.5958440799999996 19.90752628653436 
Si 9.399281129999999 2.99473731 18.55169378486522 
Si 11.868291269999999 1.9841708699999998 22.92950603877839 
Si 10.25939313 3.3428220299999998 21.869148946376484 
Si 8.201949840000001 2.56867236 25.85534067420175 
Si 9.910656809999999 2.41789212 29.962524785219134 
Si 9.753262829999999 0.7836565139999999 26.357876636564455 
Si 11.228615549999999 4.04731566 26.605210467236994 
Si 10.969001819999999 2.09614833 27.896094975418524 
Si 8.33156937 0.7854647039999999 30.63064016987385 
Si 11.85291351 2.9333077199999997 31.383132729914976 
Si 11.94063516 1.054723743 32.779549099990824 
Si 9.498014819999998 4.214125259999999 1.2455071879706554 
Si 9.503227619999999 6.78781494 4.070810473856948 
Si 9.502413119999998 4.07264661 6.787513950653886 
Si 8.1454887 5.4296199 8.145106467024338 
Si 10.86132492 5.42940813 5.429714373730339 
Si 9.51212196 4.06394775 12.206426665531078 
Si 10.856828879999998 5.4336924 10.859532277737223 
Si 9.50304843 6.78564837 9.501732700813678 
Si 10.049545349999999 5.94879849 14.761898991651009 
Si 10.92995469 8.120499839999999 13.845759574480098 
Si 11.941840619999999 4.40424585 15.011579508591963 
Si 9.228252419999999 4.939600410000001 16.831952361130792 
Si 10.976967629999999 7.33276431 21.446779928153905 
Si 11.751329069999999 6.6596940899999995 19.34480472340524 
Si 9.81539289 7.09975215 17.87225908997462 
Si 9.55810863 5.60998278 22.17618523652488 
Si 8.64288756 5.983642799999999 24.29434567450718 
Si 9.08125146 4.72890555 26.193608597775384 
Si 10.40064372 6.1931159099999995 29.874075418955186 
Si 8.660888009999999 7.6021357499999995 29.098219526506462 
Si 11.560947839999999 8.052668279999999 26.982647345437858 
Si 11.765647979999999 5.89398264 27.899615004821147 
Si 8.82079065 4.411576349999999 30.304312738195392 
Si 11.26741833 7.060428089999999 31.94454290954116 
Si 8.236826729999999 7.89437835 34.41674238322453 
Si 10.959358139999999 5.64935571 34.23632362129401 
Si 9.437839559999999 9.50067009 1.3233516029068975 
Si 10.856828879999998 8.154741419999999 2.700021298235879 
Si 10.569847949999998 11.21423148 0.12229444897016857 
Si 8.14392486 8.146238039999998 5.430128494836529 
Si 9.50239683 9.502478279999998 6.787582970838251 
Si 10.86039639 8.14431582 8.14541705785398 
Si 8.14488597 10.860347519999998 8.144899406471243 
Si 10.862497799999998 10.85979366 5.4295763333616085 
Si 12.21714162 9.5016312 9.501594660444947 
Si 9.51862167 9.484803629999998 12.244560317392827 
Si 10.86534855 10.86140637 10.863777019075682 
Si 10.585893599999999 9.07295985 16.57588747713606 
Si 9.70139547 11.365076879999998 16.745332029752518 
Si 10.444496399999998 9.67503825 21.566115826921262 
Si 11.99551617 11.481876179999999 21.196340189184934 
Si 8.50033377 9.92390058 20.24959032024808 
Si 8.29687167 11.778289019999999 18.68500627096652 
Si 9.26912403 11.860178849999999 24.823730488587934 
Si 12.07106919 8.68944438 24.743287463710345 
Si 10.075625639999998 9.792863819999999 23.904174572290948 
Si 8.598383279999998 8.26421022 24.980613367649934 
Si 10.368780479999998 12.0868542 28.530321449549948 
Si 11.40801732 10.670357249999999 30.134039943366552 
Si 9.34871697 8.77288176 27.15347230174162 
Si 8.856742679999998 11.07798192 27.067369621746085 
Si 12.048735599999999 10.13925438 33.126651607163204 
Si 10.259344259999999 9.17280126 31.5791845636042 
Si 9.4996764 12.219357059999998 4.069188499524367 
Si 9.65954646 14.92157484 1.1972965891915934 
Si 10.881198719999999 13.59086103 2.716316963764492 
Si 8.142018929999999 13.577421779999998 5.430577126034903 
Si 9.502250219999999 14.9320656 6.787928071760077 
Si 10.860282360000001 13.574978279999998 8.144830386286877 
Si 9.501549749999999 12.217597739999999 9.503009574224432 
Si 9.518458769999999 14.94063414 12.236277895269009 
Si 10.85998914 16.2906516 10.860360519949607 
Si 11.962691819999998 12.22152363 17.219638736709875 
Si 8.990157779999999 12.5051814 14.813836680385789 
Si 10.81282959 13.48401492 13.690326119289765 
Si 8.58823461 15.1097895 17.555283893277636 
Si 11.7626832 13.088428559999999 19.43214976671934 
Si 9.48418461 13.79357379 19.566117944572113 
Si 11.11391766 16.00749882 22.604766071340325 
Si 12.20524992 12.789898019999999 23.165831150044685 
Si 9.085682339999998 14.856919829999999 21.759268812867155 
Si 11.156304239999999 15.721788509999998 24.94831192136704 
Si 11.0206737 13.35659454 25.120241200620644 
Si 9.110508300000001 13.96696455 28.974880457045924 
Si 12.06157212 12.791852819999999 27.12886660601544 
Si 8.31058785 15.43752801 27.274464684933736 
Si 8.844297119999998 13.01613354 34.49525284293989 
Si 9.71359668 15.13095021 30.911897421161864 
Si 12.08268396 15.43094685 31.446665809623102 
Si 8.349879329999998 14.06072979 32.48780078067931 
Si 16.278596999999998 2.7125619299999997 2.707627322552919 
Si 13.57219269 -0.0269873172 2.7223769359517527 
Si 13.76920395 2.1653971199999997 -0.012509597825355028 
Si 12.205363949999999 1.3407842879999998 1.4506006658117188 
Si 14.93579601 1.361834226 4.072156367452069 
Si 12.21593616 4.07122938 4.07270852892699 
Si 14.927569559999998 4.01405148 1.2500073039912636 
Si 13.57533666 -0.000212260329 8.145244507393068 
Si 13.57483167 2.7147122099999996 5.430301045297442 
Si 12.217304519999999 1.358040285 6.78744493046952 
Si 14.933010419999999 1.356763149 9.501663680629314 
Si 13.57553214 2.71800279 10.864260160366237 
Si 12.215219399999999 1.340393328 12.247735245873624 
Si 16.26290973 2.7200553299999997 13.723283257324129 
Si 14.83898454 1.3304043 15.132433851415353 
Si 13.50476838 4.05332667 17.196413444671002 
Si 13.95012069 0.5839248239999999 19.569948564804378 
Si 16.283565449999998 0.779680125 18.846478992288805 
Si 14.09539491 1.74741201 17.383699714945852 
Si 12.650879159999999 3.25873305 24.847024800811173 
Si 15.916079339999998 0.722339325 22.65956809772626 
Si 13.936828049999999 1.7805295799999998 21.648629457329807 
Si 13.20416901 1.73729592 28.419613073828238 
Si 13.68112392 3.4746732899999997 29.911346318512372 
Si 14.06452536 1.8216455399999998 26.233812855168086 
Si 15.53380191 0.421091613 34.05314405198889 
Si 12.67445079 4.058262539999999 33.394967573882745 
Si 15.686536949999999 3.4589534399999997 31.07254190027177 
Si 13.5733167 5.43981744 2.679681049903467 
Si 12.2678361 6.97448205 1.2042986868954384 
Si 14.93221221 6.7851108 4.068118686666708 
Si 12.21712533 6.78760317 6.787479440561703 
Si 14.932863809999999 4.072060169999999 6.787651991022616 
Si 13.57509231 5.43004344 8.14514097711652 
Si 12.21608277 4.073021279999999 9.501629170537129 
Si 14.933173319999998 6.788841209999999 9.502595453118243 
Si 14.934167009999998 4.0621721399999995 12.233758658539678 
Si 12.199141169999999 6.807216329999999 12.2107404270539 
Si 15.26728122 5.66170353 16.472598771233603 
Si 13.51433061 5.45506488 13.531717735618635 
Si 14.614508339999999 7.1253274499999995 14.77021592386701 
Si 15.5533662 7.491494069999999 18.01775363861637 
Si 14.18779179 4.09571325 21.325028322933772 
Si 12.67142085 4.46745105 19.529916857872585 
Si 12.71558304 7.25566374 22.959909429991235 
Si 13.50030492 5.040109709999999 23.4217234835785 
Si 15.441942599999999 5.73709365 24.49267517428046 
Si 15.61082103 5.66233884 26.862621244826844 
Si 14.24741319 7.66701882 29.573561536229292 
Si 13.93513389 5.53280076 28.608176217513847 
Si 13.71614742 7.205067 31.984505596288585 
Si 14.86877895 5.06824254 32.60530764456099 
Si 13.59190359 10.837329749999999 2.7055739720680556 
Si 12.233301299999999 12.198163769999999 1.4149034264580598 
Si 14.93156061 12.21666921 4.069257519708732 
Si 12.21808644 9.502152480000001 4.074088932614293 
Si 15.02503263 9.552553739999999 1.1718350431792872 
Si 13.57344702 8.14493484 5.430128494836529 
Si 14.93242398 9.50246199 6.787582970838251 
Si 13.57520634 10.860233489999999 8.145244507393068 
Si 13.57178544 8.143990019999999 10.862431125480562 
Si 14.939200619999998 9.52271046 12.237071627389208 
Si 12.2197806 12.196551059999999 12.255707077167799 
Si 12.92078817 8.9218701 15.17991973825858 
Si 13.745290229999998 10.82924991 13.884928529107325 
Si 12.64450977 9.824547869999998 17.35767910544019 
Si 14.066512739999999 8.52072885 21.388250811812252 
Si 13.45110912 8.301514319999999 19.075246393367117 
Si 14.254352729999999 10.84257513 21.652908708760446 
Si 14.175492839999999 11.74579047 23.806165910492425 
Si 13.908401999999999 10.01979981 25.254485459210876 
Si 16.07653584 9.19971234 25.33309944920279 
Si 15.493875119999998 12.14574255 30.029750444790796 
Si 13.5697329 10.98837063 27.292375422776495 
Si 12.71618577 9.28376874 28.667982207266256 
Si 13.3582887 11.657091419999999 31.116818348542015 
Si 16.15702473 11.282405129999999 34.405216012435545 
Si 13.4682462 8.43742179 34.10663469487188 
Si 12.216620339999999 14.932407689999998 4.076746209712352 
Si 14.82720687 14.825529 1.3418938754365968 
Si 16.3058013 13.58498034 2.7055049518836904 
Si 16.290325799999998 16.2896742 5.430715166403633 
Si 13.574799089999999 13.57659099 5.4311983076941885 
Si 12.21776064 12.21763032 6.787651991022616 
Si 14.932375109999999 14.93270091 6.787582970838251 
Si 12.216652919999998 14.933075579999999 9.502146821919867 
Si 14.933205899999999 12.21702759 9.502422902657328 
Si 13.57562988 13.57672131 10.863362897969491 
Si 14.9198481 14.947443359999998 12.230445689690152 
Si 12.69233721 13.9641138 15.293216370893985 
Si 14.75623134 12.6526059 15.158557991197563 
Si 13.446124379999999 16.13803059 13.788058700350827 
Si 15.872503589999999 13.43589426 19.291762711720615 
Si 13.69438398 14.486029109999999 19.889097897308865 
Si 14.76906786 15.27076728 23.729898606768927 
Si 15.88612203 13.26419766 24.22194350110813 
Si 13.08016953 14.71529457 22.18408804763469 
Si 13.46836023 15.89617296 25.6403082898121 
Si 15.987967109999998 16.15231692 29.866586728951567 
Si 13.59336969 15.971872589999998 29.533046688006944 
Si 13.587749639999998 14.524734149999999 27.636510062021166 
Si 15.102459 12.6796473 27.82124258547451 
Si 14.105136329999999 12.97739592 34.5089188394442 
Si 12.985931879999999 13.50452403 32.50167383773671 
Si 15.17406984 14.597468999999998 32.87621186819423 
