&CONTROL
  dt          = 30.D0,
  prefix = 'x1.00_y1.66_z3.16_struc14-scf',
  pseudo_dir = './',
  outdir='./',
  wf_collect= .true.,
  verbosity= 'high',
/

&SYSTEM
ibrav= 6, celldm(1) =30.783621515, celldm(3) =2.1114449815674807, nat=  432, ntyp= 1,
  ecutwfc     = 12.D0, nbnd= 1728,
  degauss     = 0.05D0,
  occupations = "smearing",
  smearing    = "methfessel-paxton",
/
&ELECTRONS
  electron_maxstep=200,
  conv_thr    = 1.D-8,
  mixing_beta = 0.3D0,
  scf_must_converge=.false.,
/
&IONS
/
ATOMIC_SPECIES
Si  28.08  Si.pbe-hgh.UPF
K_POINTS {automatic}
1 1 1 0 0 0
ATOMIC_POSITIONS (angstrom)
Si 1.4820185879999999 1.4320441259999999 1.3001922988103298 
Si 4.07145744 1.3559242139999998 4.071835225509791 
Si -0.00013557890069999998 -3.80553948e-05 5.431865269113033 
Si 0.000477663525 2.71480995 8.145011873130821 
Si 2.71495656 0.00012769584389999997 8.144805500498324 
Si 2.7140769 2.71435383 5.430351869808045 
Si 1.3578887880000001 1.357422894 6.787664673750058 
Si -0.000173387502 -0.000872697654 10.862389116114828 
Si 2.71415835 2.7138162599999998 10.859637481014849 
Si 1.358478486 1.372311954 12.239960833480435 
Si 2.68107336 2.8078095599999995 16.6904898396248 
Si 0.035750522699999995 2.7095157 13.82111915280572 
Si 2.7197783999999996 0.048092641199999994 13.651446453453278 
Si 3.9967840799999994 1.4851641869999999 15.103174736763313 
Si 3.56622309 2.01552912 20.46112420800317 
Si 1.69836282 0.805485114 19.633019624664563 
Si 3.57208749 3.89171358 18.905900049495184 
Si 1.9793979 0.37232261099999997 17.297810101628855 
Si 1.5046307369999998 0.739113138 23.513306651777086 
Si 3.24128646 2.02048128 24.49801366774323 
Si 3.57850575 3.21675372 22.490661466869987 
Si 2.06216739 3.3819831899999997 26.033666821602615 
Si 0.07162061399999999 3.3303276 30.04641068334036 
Si 2.3602581 2.77180866 29.947489401496124 
Si 4.06911168e-05 2.11642938 26.294796992590594 
Si 3.4846264799999997 3.6244598399999997 27.978797673777585 
Si 3.2404230899999997 2.3084559 34.187415136175865 
Si 2.49082245 0.39630474899999996 30.16810174563692 
Si 3.2666825699999995 3.79372923 32.0214655672276 
Si 1.360395819 4.07357514 4.072763902356034 
Si 2.71487511 5.40816597 2.7058926059854693 
Si 1.256043708 6.60026817 1.3315815762133374 
Si 3.0521595599999998 7.39346085 0.015555612338077316 
Si 2.71498914 5.4297828 8.14511505944707 
Si 1.3573789109999999 6.787554299999999 6.787630278311308 
Si 1.358278119 4.07179953 9.502118304440335 
Si 1.3607900370000001 6.7795396199999995 12.237931502594199 
Si 1.322155044 4.20848892 15.290526691633115 
Si 2.70084942 5.446089089999999 13.767531059233633 
Si 0.5712951869999999 5.3387217 20.770751947628277 
Si 2.5307655299999996 5.984946 19.69967798496155 
Si 2.08694448 7.841501009999999 18.24767453814152 
Si 1.6320788099999999 5.35339899 24.782291969009783 
Si 1.416099474 4.22898174 22.651563329341244 
Si 3.21408216 7.17269877 24.929366865103646 
Si 3.2681649599999996 7.12884609 29.280114703435032 
Si 1.338360336 8.03595474 28.2745296561478 
Si 0.1492458849 4.90470723 34.03583443760579 
Si 1.98435006 5.958246689999999 31.04343126637891 
Si 1.4825871089999998 7.71616575 32.6109689919593 
Si 4.0322637 9.359598689999999 1.2137600007761224 
Si 1.358139654 9.50229909 4.068842822338564 
Si 2.72064177 10.85824611 2.6828063874966475 
Si -0.0001173966543 8.14486968 8.144839895937073 
Si 2.7150543000000003 8.144397269999999 5.429870333665549 
Si -0.00240872085 10.858490459999999 5.429835938226799 
Si 2.7151846199999996 10.8598914 8.14525264120207 
Si 4.06903023 9.50376519 12.220355433393085 
Si 1.3576379219999999 9.50236425 9.502565445144084 
Si 2.71546155 8.14550499 10.86201076628858 
Si -0.001144952424 10.86108057 10.863730538226067 
Si 4.07220678 12.21715791 9.502221490756586 
Si 1.3314664079999998 12.244150439999999 12.225961889909293 
Si 2.7260337599999995 10.95012171 13.53611854732542 
Si 1.4801729309999998 9.50697432 14.982171583241747 
Si 3.52152333 8.48124189 16.454502734362872 
Si 0.579295206 11.234903489999999 18.68652594114938 
Si 2.35351404 9.847451609999998 19.3954847246589 
Si 3.6613892699999995 8.26168527 22.863164068529606 
Si 2.12900526 11.51823546 23.033834235605788 
Si 2.00101473 9.54846495 21.76144376993687 
Si 2.51032158 10.93422267 25.290450181098354 
Si 0.544763664 9.6967854 29.791127736939835 
Si 1.9283776199999998 8.821034999999998 26.08838996465344 
Si 3.74244831 11.1118977 28.458717230652628 
Si 1.4323829579999998 11.53766943 28.616867458023904 
Si 0.011806438139999998 10.995766289999999 34.15670000937236 
Si 1.4971454819999999 10.08308646 32.15842820432904 
Si 3.9517911 10.64650869 31.946999442334427 
Si 0.33790184100000004 15.9110946 0.1633308683557631 
Si 2.7225314099999998 16.289038889999997 2.7102745848821854 
Si 4.02687171 14.952362939999999 1.2388067592736791 
Si -0.007052217929999999 13.563151739999999 2.7158156900647676 
Si 2.05128567 14.15723175 0.016191446418804906 
Si 1.3632351659999997 12.298901129999999 1.2803461306517332 
Si 1.356341238 14.936252129999998 4.069977871817305 
Si -0.000212995008 13.57541811 8.14521824576332 
Si 2.7137673899999997 13.574685059999998 5.4303174743692955 
Si 1.3570123859999998 12.21769548 6.787389510240061 
Si 1.358445906 14.93367831 9.502290281634085 
Si 2.7129366 13.576737599999998 10.862595488747326 
Si 3.98816667 12.29246658 14.921704401919715 
Si 1.034701704 15.48750573 15.014331318472749 
Si 1.4077361879999999 13.147105139999999 15.770583830263158 
Si 3.4853432399999997 13.60381158 19.333882493858127 
Si 3.82011903 14.666375699999998 21.46763793213664 
Si 0.9799624169999999 13.48688196 19.396207028872645 
Si 0.0939789648 14.12931069 21.58551110073198 
Si 1.7702668799999999 15.71058099 21.608556044694303 
Si 0.48056151599999997 16.18706349 25.404471060553725 
Si 0.5367554999999999 13.28164425 29.83178314554202 
Si 1.124272269 12.41032473 26.458037744896835 
Si 1.91176182 14.69559996 26.56982292083347 
Si 1.2005485649999998 15.26850297 28.740209501380455 
Si 1.77741819 13.53576825 31.926362179084588 
Si 4.05687789 13.077726030000001 31.733369372259826 
Si 1.514145726 15.7998339 32.024423574960075 
Si 4.09652775 4.015827089999999 1.2579340627624063 
Si 5.44755519 2.71186146 2.6896820357027194 
Si 6.79949487 1.274811417 1.1585484424950492 
Si 5.429212649999999 0.0017645328 5.430111101736798 
Si 5.42989683 2.7146633399999995 8.144839895937073 
Si 6.78757059 1.357558101 6.787664673750058 
Si 4.06282374 4.080514679999999 12.239410506460437 
Si 4.07284209 1.357849692 9.50177435005284 
Si 6.77981655 1.35250983 12.195384344860779 
Si 7.073215739999999 3.76781184 14.952247551529478 
Si 8.13558438 0.165548754 13.631978635120928 
Si 5.382264869999999 0.13437018269999998 16.574749188231944 
Si 6.44712588 2.22092973 17.06815175709688 
Si 5.4533055599999996 2.6959135499999998 13.553488243894035 
Si 5.21289774 0.23498325 20.835243395284024 
Si 7.12716822 0.9865077389999999 22.13504702563648 
Si 6.87936474 1.2397471919999998 24.578636576172602 
Si 7.61510259 3.4504826399999997 25.063749844298854 
Si 4.917022469999999 0.985452147 25.792004468946978 
Si 6.087458969999999 1.8911223899999998 29.92891586457127 
Si 7.4080404 3.8318152499999996 27.41773927689192 
Si 5.49451926 2.42185059 27.686952375986092 
Si 5.61415302 3.5322421499999996 31.618660584029463 
Si 5.024357279999999 0.338248818 34.1253313692326 
Si 6.78851541 4.0725814499999995 4.0734518111310285 
Si 4.073428529999999 6.787619459999999 4.069943476378556 
Si 6.69426147 6.72558714 1.261614374708628 
Si 5.431411799999999 8.14684077 2.699027276411022 
Si 4.07241855 4.07222307 6.7876990691888075 
Si 5.42960361 5.42852847 5.430799010511792 
Si 6.787521719999999 6.787407689999999 6.78745830111756 
Si 6.78791268 4.07290725 9.502118304440335 
Si 4.073037569999999 6.7879941299999995 9.502393467950334 
Si 5.4297828 5.42960361 10.863661747348567 
Si 6.8008469400000005 6.78711447 12.231361973793 
Si 4.44409119 6.718680179999999 15.097602675685856 
Si 6.36828228 5.6171340899999995 16.24090705972702 
Si 4.144159709999999 6.640602209999999 21.266562197205694 
Si 7.012959029999999 4.68568818 20.290247668294487 
Si 5.821817939999999 6.85506006 19.69589448669908 
Si 5.893689419999999 4.344982829999999 18.257477238185192 
Si 5.3260155000000005 4.791931559999999 22.11241482693916 
Si 6.58195821 5.289623639999999 24.037321161129288 
Si 5.32658565 6.40351755 25.823201131892993 
Si 6.98849145 5.67916641 28.999619900430947 
Si 7.07471442 7.973808389999999 26.310515708099224 
Si 4.7249145 5.68362987 28.07899158685556 
Si 7.817685029999999 7.89390594 28.5136811417747 
Si 4.96343268 5.71953303 34.297858890001265 
Si 6.948092249999999 5.4041586299999995 31.359112603223966 
Si 8.1321309 10.850052239999998 2.6894963003334706 
Si 6.78825477 9.5034231 4.071904016387291 
Si 6.7756625999999995 12.081006089999999 1.094603882315418 
Si 4.07264661 9.50233167 6.787561487433809 
Si 5.42986425 8.145162899999999 8.14518385032457 
Si 5.43032037 10.85889771 5.4296983564718 
Si 8.14587966 8.143973729999999 10.860978903126087 
Si 6.78802671 9.5029344 9.502049513562836 
Si 5.43186792 10.857366449999999 10.864246469807313 
Si 6.80500089 12.21785838 12.257020971100303 
Si 5.4679014 8.1738333 13.59287102126248 
Si 6.71727924 9.47683782 15.168354093194058 
Si 4.939193159999999 10.85893029 16.51954450903862 
Si 6.191861579999999 10.7696448 19.63281325203207 
Si 7.23935745 8.66492793 19.831274933618037 
Si 4.100290739999999 11.337530489999999 18.695950291366806 
Si 7.8068684699999995 11.77051869 18.11566484422004 
Si 7.81090839 12.198929399999999 22.265543320252977 
Si 7.57217844 8.463844169999998 22.146603893056394 
Si 5.7013208099999995 9.443133809999999 23.18507097978837 
Si 5.689624589999999 11.38385925 21.869445447611035 
Si 6.27472881 9.9766476 25.43996715334345 
Si 8.11113309 11.407349429999998 25.723316777763763 
Si 4.28091426 9.23906898 29.80020813276976 
Si 6.60344472 9.29981439 29.918941187333846 
Si 6.98704164 11.61436275 29.534537763866815 
Si 4.579298189999999 11.353820489999999 26.229961590547344 
Si 5.41956897 10.504378439999998 33.98413809316494 
Si 7.564424399999999 9.30023793 32.233169492732216 
Si 7.957404359999999 11.812188509999999 31.634344904099343 
Si 4.07394981 12.21688098 4.068533263389817 
Si 5.4348978599999995 13.562858519999999 2.673946122474716 
Si 6.788499119999999 14.93072982 4.066607118819832 
Si 4.072548869999999 14.932945259999999 6.78749269655631 
Si 5.429766509999999 13.575238919999999 8.145011873130821 
Si 6.787489139999999 12.21720678 6.787423905678811 
Si 6.787358819999999 14.93302671 9.502565445144084 
Si 4.077484739999999 14.93110449 12.245395312802891 
Si 5.428170089999999 16.2913032 10.859775062769847 
Si 5.51339937 13.64849505 13.720787657972744 
Si 6.88091229 15.170616359999999 15.136675894105554 
Si 7.6929525 14.05414863 18.74217776104645 
Si 5.459642369999999 15.10671069 18.885916299581584 
Si 7.502147729999999 13.181265269999999 24.36046630818304 
Si 4.11734637 12.84976377 22.890680419529396 
Si 5.17995936 13.321342979999999 24.99248249520941 
Si 4.923408149999999 12.73599441 29.586371690062666 
Si 4.25812455 15.05091744 26.318254681817915 
Si 7.68475863 14.715245699999999 27.864088885547222 
Si 5.351281289999999 14.70620475 28.378816626436997 
Si 4.8216771 16.22360196 30.118469127521056 
Si 7.75151505 14.24001753 32.03395111149376 
Si 5.50893591 15.115702769999999 32.190278380611296 
Si 12.191061329999998 1.2529681559999999 1.3458419251189768 
Si 8.154480779999998 -0.00858559563 2.680016917414044 
Si 9.50053977 1.361622456 4.068774031461064 
Si 10.85252832 2.71917567 2.689479102614096 
Si 8.14441356 0.000295425666 8.144908686814572 
Si 8.14381083 2.71494027 5.431452523848036 
Si 10.86046155 -0.00044389272599999996 5.429216820329303 
Si 10.85945157 2.7156081599999995 8.144943082253322 
Si 12.217581449999999 1.362177945 12.257743275314047 
Si 9.50207103 1.357773129 9.502290281634085 
Si 8.14570047 2.71495656 10.860325389789843 
Si 8.93068299 2.13628689 14.896114195489913 
Si 10.86147153 2.90628261 13.695747778562938 
Si 8.685567359999999 1.350999747 17.114516808531523 
Si 10.889995319999999 0.375259698 21.446278364673056 
Si 8.400753 2.89976661 21.282074540081826 
Si 12.043946339999998 4.06277487 17.534278743033283 
Si 11.44141182 1.545412752 19.46503230181086 
Si 9.34918938 2.46003435 19.087439175216282 
Si 11.7931455 3.9785718599999997 22.397931364000705 
Si 10.96417998 1.98918819 23.15666034738109 
Si 9.865696409999998 2.8867509 25.00775407001429 
Si 9.98767593 1.2339512099999999 26.69017256101879 
Si 11.285207009999999 3.96544212 28.228199000151907 
Si 9.277448219999998 2.7292591799999997 28.316251323351228 
Si 8.19595512 2.63884968 34.186520854768375 
Si 9.41223168 2.32122726 32.23891353100342 
Si 11.6550063 1.395859149 32.33374175563644 
Si 8.42929308 1.603874304 30.177904445680593 
Si 10.86518565 8.15506722 2.685489231719127 
Si 12.21846111 4.072923540000001 4.066263164432335 
Si 12.170014649999999 6.844846229999999 1.1376394552790856 
Si 9.470533589999999 4.087926629999999 1.1576782378946806 
Si 8.13726225 5.4179562599999995 2.6891007527878488 
Si 9.50264118 6.787358819999999 4.067810959176072 
Si 9.50220135 4.0725 6.78749269655631 
Si 8.145309509999999 5.43002715 8.144908686814572 
Si 10.85950044 5.42888685 5.42966396103305 
Si 10.856535659999999 5.42988054 10.8593279220661 
Si 12.23387145 6.79898988 12.245532894557892 
Si 9.503357939999999 6.78797784 9.501052045839094 
Si 9.50852187 4.0735588499999995 12.195659508370776 
Si 8.28743976 5.43278016 13.597927150758693 
Si 9.99829701 6.42889737 14.993246914519164 
Si 8.19646011 7.282868039999999 16.320222941483912 
Si 11.79215181 4.682430179999999 15.140046647103029 
Si 9.69307128 4.46435595 17.8553257683233 
Si 9.16081182 5.80261203 19.772974664937237 
Si 9.00333639 7.80478335 18.51265699826947 
Si 10.23054354 5.74984872 21.92977504717807 
Si 8.43650955 6.594094259999999 23.282169303378872 
Si 11.773841849999998 7.55968401 22.141100622856438 
Si 9.17358318 7.822686059999999 25.16057300437936 
Si 11.59714422 5.84250624 29.57440207737776 
Si 11.138694749999999 6.82357149 25.938185083633353 
Si 11.406209129999999 4.47729021 25.89918065609115 
Si 11.712477419999999 7.64792694 28.093540857446698 
Si 10.64957121 6.35508738 31.737875174736043 
Si 9.06256683 4.68585108 32.09806420932326 
Si 8.364947579999999 7.84961343 34.2414503704517 
Si 10.133878679999999 6.03630837 34.18793106775711 
Si 9.420930539999999 9.45235395 1.2443306667368863 
Si 10.25763381 11.279977919999999 -0.0006109764971431546 
Si 12.11501961 12.106923479999999 1.3235433621775243 
Si 9.50308101 12.22030188 4.069909080939806 
Si 12.216652919999998 9.50159862 4.071388084806045 
Si 8.1438597 8.14596111 5.430558242440544 
Si 9.50239683 9.502673759999999 6.78745830111756 
Si 10.859907689999998 8.145162899999999 8.144667918743325 
Si 8.14535838 10.85985882 8.145424618395818 
Si 10.860168329999999 10.860510419999999 5.430627033318043 
Si 9.50262489 9.494431019999999 12.250382651421603 
Si 10.860380099999999 10.860282360000001 10.86201076628858 
Si 12.048246899999999 9.90233262 15.02839905292139 
Si 10.9946097 8.215095869999999 13.72240424359398 
Si 8.27489646 10.82196828 13.844026515013041 
Si 10.26734265 11.4890112 15.27989850105945 
Si 10.137657959999999 11.29333572 17.72180267509683 
Si 10.932561089999998 9.597530429999999 21.348939273011307 
Si 10.922559029999999 9.25105842 18.99835498885447 
Si 9.80938188 10.13540994 24.772626850721107 
Si 9.041080319999999 10.22011794 22.55735422260572 
Si 11.62842102 11.667631049999999 24.405593123822694 
Si 10.43674236 11.322022409999999 28.730785151163026 
Si 9.959722289999998 8.94910698 28.994254211985993 
Si 10.20949686 11.88492336 30.993351507559296 
Si 9.842760089999999 8.527945319999999 31.362964892363937 
Si 11.08584999 10.26226017 32.37873098952109 
Si 9.60671799 14.95791783 1.1578742918955542 
Si 10.85860449 13.576981949999999 2.6983393676360277 
Si 8.14423437 13.573544759999999 5.431142964899289 
Si 9.50269005 14.9323914 6.787423905678811 
Si 10.86062445 13.574473289999998 8.14514945488582 
Si 12.22681788 12.210104340000001 12.207560330178184 
Si 9.50340681 12.2184774 9.502496654266585 
Si 8.14465791 13.572029789999998 10.865381519286055 
Si 9.51006942 14.93268462 12.259359860935286 
Si 10.85933754 16.28784972 10.865656682796052 
Si 11.13410097 14.907923819999999 16.936279644930398 
Si 8.67533724 15.266189789999999 16.860437702487236 
Si 10.99416987 13.3783254 13.778571995072296 
Si 11.248847729999998 13.145003729999999 20.79610138598683 
Si 8.86480623 13.72049685 20.835656140549023 
Si 11.57433822 13.02232374 18.45480387029242 
Si 8.89414452 15.68052594 22.09786555634802 
Si 9.141280109999999 14.842845269999998 24.314273233942146 
Si 11.13296067 13.90144617 25.156032806464395 
Si 8.66572614 15.58335609 29.852695572301858 
Si 10.95603498 15.17428161 29.578357552833978 
Si 8.27569467 16.14984084 25.992151527031684 
Si 11.7533979 14.16462741 27.525740954566086 
Si 8.44485003 12.381344819999999 27.83361452681496 
Si 8.50181616 13.22137125 34.25544931402284 
Si 11.338605629999998 13.8821751 31.52083995622522 
Si 11.465521019999999 15.876559799999999 34.095923269101576 
Si 14.941285739999998 4.04588214 1.3231822100706523 
Si 16.2970047 2.7119917799999995 2.704640612014979 
Si 13.59330453 -0.00886055454 2.714030566793656 
Si 13.268824019999998 2.9621736 0.13663381670699437 
Si 14.934932639999998 1.3535996309999998 4.072316761652288 
Si 13.575499559999999 -0.000598877415 8.144771105059574 
Si 13.575287789999999 2.7152171999999997 5.4297671473493 
Si 12.21740226 1.357209495 6.787286323923811 
Si 14.93327106 1.3577438069999999 9.502359072511585 
Si 13.574310389999999 2.71482624 10.866138218938547 
Si 15.51140316 0.770091831 15.116348189804462 
Si 12.29365575 0.594352053 17.476907151198724 
Si 14.783663699999998 1.566619074 21.13778567452669 
Si 12.932011979999999 3.0090073499999996 20.61222337043075 
Si 15.88517721 1.8382613399999999 19.106115898457386 
Si 14.736471569999999 0.460120824 17.40667166527177 
Si 16.244778959999998 2.36657862 22.819653838511194 
Si 12.797668349999999 1.11951396 24.40187841643772 
Si 14.71615794 2.48349195 24.556485913617774 
Si 12.3222447 0.9705565709999999 26.677824598507637 
Si 12.88714932 2.2915143 28.52551317270461 
Si 15.227044919999999 2.15213706 28.38837855840942 
Si 15.619259249999999 2.8679848199999998 32.37587616810487 
Si 13.272587009999999 3.3062346899999997 32.2351644281797 
Si 15.80239143 0.488980188 32.40968688439585 
Si 12.374959139999998 0.658765971 30.1968563324317 
Si 16.28325594 8.149887 2.6877455725011097 
Si 13.56632829 5.438921489999999 2.685468594455877 
Si 14.92931259 6.78915072 4.071560061999793 
Si 16.2909774 5.430141180000001 5.429320006645553 
Si 14.93263575 4.07269548 6.787595882872559 
Si 13.57507602 5.430190049999999 8.144805500498324 
Si 12.21727194 6.7877171999999995 6.787423905678811 
Si 13.575157469999999 8.14493484 5.4304894515630435 
Si 14.93358057 4.06717317 12.262765009371508 
Si 13.57178544 8.14416921 10.860290994351093 
Si 16.2924435 5.4285773399999995 10.86321460664482 
Si 12.2179887 4.07370546 9.502221490756586 
Si 14.93281494 6.7889715299999995 9.502290281634085 
Si 13.62741579 5.54257476 13.77826243612355 
Si 16.146582839999997 5.35051566 16.795671091321488 
Si 16.294398299999997 8.09380053 13.662487389291945 
Si 14.9514507 6.99386715 15.280276850885695 
Si 16.15440204 7.568692379999999 17.60155622122776 
Si 13.447883699999998 7.01321967 20.483515638629246 
Si 13.57839918 4.878187109999999 19.334226448245623 
Si 15.80864679 4.223182499999999 18.913535836897623 
Si 15.333614099999998 6.79654638 21.85252289174617 
Si 14.368187249999998 6.13281033 23.962889431674864 
Si 12.70374021 7.727878259999999 24.389702431120316 
Si 13.16756538 4.2259518 24.311143249015924 
Si 15.96659463 6.33506697 25.60695700847341 
Si 15.66415449 5.56031457 29.988247996414557 
Si 15.63409944 6.80967612 27.954514494020273 
Si 13.478965019999999 5.32547793 30.885453016201378 
Si 15.42039093 6.72368121 32.677764934011286 
Si 13.81427838 8.075441699999999 34.00680468730101 
Si 14.9758857 9.49811256 1.1476244511481335 
Si 13.58615322 10.838926169999999 2.69092027149771 
Si 14.932163339999999 9.502608599999999 6.787595882872559 
Si 13.57450587 10.860217200000001 8.144908686814572 
Si 12.218428529999999 9.502673759999999 9.50177435005284 
Si 14.934004109999998 9.49957866 12.24033918330668 
Si 14.23231236 8.93545596 16.5998234630805 
Si 13.588368659999999 10.930866929999999 13.626303387727225 
Si 15.96882636 10.571867909999998 16.31385978531521 
Si 14.69131569 10.785266909999999 19.54613674638274 
Si 13.3454196 8.849656529999999 18.907963775820164 
Si 12.300057719999998 11.347842059999998 22.111314172899167 
Si 16.09443855 8.925388739999999 22.54445593307457 
Si 14.70566718 10.83926826 21.906661312338247 
Si 16.195029299999998 8.60463864 24.923829199464937 
Si 14.07319164 9.19451583 25.74281899153486 
Si 14.47061877 9.99026604 29.884304980512862 
Si 13.46614479 11.4145659 25.823957831545485 
Si 13.920342569999999 8.498330099999999 28.01931550062477 
Si 12.625401599999998 12.060627299999998 27.943714326252856 
Si 13.41424485 9.848412719999999 32.23220642044723 
Si 14.31915435 11.96521677 33.07774949123194 
Si 12.21692985 14.93110449 4.073039065866031 
Si 14.934199589999999 12.218933519999998 4.071353689367295 
Si 14.85527454 14.810020919999998 1.3240489751271454 
Si 13.574310389999999 13.575010859999999 5.430455056124294 
Si 12.21746742 12.21777693 6.787630278311308 
Si 14.93257059 14.932179629999998 6.787664673750058 
Si 12.21875433 14.932603169999998 9.502152699879087 
Si 14.93129997 12.217304519999999 9.501911931807838 
Si 13.57514118 13.574668769999999 10.860050226279846 
Si 14.929589519999999 14.931674639999999 12.229435829223014 
Si 12.6584703 14.3780427 15.04281074175753 
Si 14.709576779999999 12.43547649 15.259639587635855 
Si 13.63165119 16.22741382 13.72766674572269 
Si 16.25535117 13.65061275 13.786173387035989 
Si 13.885367939999998 12.653664749999999 18.322071872157192 
Si 14.55452856 15.46851159 20.929968433600795 
Si 15.17366259 14.618271329999999 18.770382020821227 
Si 12.43388007 14.94208395 21.72044440694719 
Si 16.17391746 12.33166032 23.03919992405075 
Si 12.83269185 15.08988312 24.012900399616978 
Si 14.818296239999999 14.85548631 25.21581207901143 
Si 15.405306389999998 12.631070519999998 25.26400008869981 
Si 14.46693723 12.34720098 29.470631038669808 
Si 13.701747059999999 15.39838314 27.18467578392372 
Si 15.315304139999999 16.12828917 28.728446261328042 
Si 13.159681019999999 13.73872536 34.37975442966438 
Si 14.34381741 15.770169809999999 30.802078472672022 
Si 13.68900828 13.51666008 31.33462305083416 
