&CONTROL
  dt          = 30.D0,
  prefix = 'x1.00_y.66_z3.16_struc14-scf',
  pseudo_dir = './',
  outdir='./',
  wf_collect= .true.,
  verbosity= 'high',
/

&SYSTEM
ibrav= 6, celldm(1) =30.783621515, celldm(3) =2.1114449815674807, nat=  432, ntyp= 1,
  ecutwfc     = 12.D0, nbnd= 1728,
  degauss     = 0.05D0,
  occupations = "smearing",
  smearing    = "methfessel-paxton",
/
&ELECTRONS
  electron_maxstep=200,
  conv_thr    = 1.D-8,
  mixing_beta = 0.3D0,
  scf_must_converge=.false.,
/
ATOMIC_SPECIES
Si  28.08  Si.pbe-hgh.UPF
K_POINTS {automatic}
1 1 1 0 0 0
ATOMIC_POSITIONS (angstrom)
Si 1.481860575 1.431853533 1.2998621025983321 
Si 4.07144115 1.3558948919999998 4.071835225509791 
Si -0.00013810352489999997 -3.87640098e-05 5.431899664551784 
Si 0.00048700421099999994 2.71480995 8.145011873130821 
Si 2.71494027 0.0001415511405 8.144805500498324 
Si 2.7140606099999998 2.71433754 5.430351869808045 
Si 1.357895304 1.357421265 6.787664673750058 
Si -0.001207859517 -0.000409757031 10.862733070502324 
Si 2.7142723799999997 2.71446786 10.859121549433603 
Si 1.358926461 1.371456729 12.240029624357934 
Si 2.66888844 2.6829792899999996 16.681650211866117 
Si 0.0347841999 2.7115030799999995 13.82094717561197 
Si 2.7218309400000003 0.0460765908 13.653166225390766 
Si 3.99807099 1.478343564 15.09698355778836 
Si 3.56695614 1.9921529699999998 20.46848483189561 
Si 1.6971736499999999 0.8066237849999999 19.630749525707085 
Si 1.97478783 0.35363961 17.290036732471417 
Si 1.5051373559999999 0.739953702 23.51289390651209 
Si 3.23884296 2.01741876 24.504514405666928 
Si 3.57721884 3.217275 22.50111768024991 
Si 2.06241174 3.38214609 26.03249737668512 
Si 0.0717269877 3.33024615 30.046857824044107 
Si 2.3602581 2.7718901099999997 29.94790214676112 
Si 7.88426226e-05 2.1165108299999997 26.2945906199581 
Si 3.48474051 3.62457387 27.978832069216335 
Si 3.24048825 2.3084233199999997 34.187277554420874 
Si 2.49119712 0.39661425899999997 30.167345045984426 
Si 3.26661741 3.79356633 32.02122479915636 
Si 1.360449576 4.07360772 4.072763902356034 
Si 2.71487511 5.4077587199999995 2.705724068335596 
Si 1.2560909489999998 6.600072689999999 1.331485268984838 
Si 3.0523550399999997 7.393656329999999 0.015823690387692747 
Si 2.7150380100000002 5.4297990899999995 8.14514945488582 
Si 1.357375653 6.787554299999999 6.787630278311308 
Si 1.358159202 4.07162034 9.502049513562836 
Si 1.359395613 6.7789206 12.238069084349197 
Si 1.328034105 4.2029829 15.293243931294345 
Si 2.7000675 5.44354785 13.765226564837398 
Si 0.570793455 5.34127923 20.771027111138274 
Si 2.5058255399999996 6.0033537 19.704424555509014 
Si 2.08655352 7.850835179999999 18.2372183247616 
Si 3.94304337 4.23074106 19.939379797608446 
Si 1.6325186399999998 5.352437879999999 24.781844828306035 
Si 1.418670036 4.22876997 22.651700911096242 
Si 3.21432651 7.171867979999999 24.93008916931739 
Si 3.2676762599999996 7.12863432 29.280424262383782 
Si 1.338415722 8.0360199 28.2743920743928 
Si 0.1487298177 4.9048864199999995 34.03583443760579 
Si 1.98452925 5.95821411 31.043362475501407 
Si 1.48247145 7.7162472 32.6109689919593 
Si 4.032133379999999 9.35950095 1.213704968074123 
Si 1.358152686 9.50229909 4.068774031461064 
Si 2.7207558 10.858213529999999 2.6822044673185275 
Si -0.000114901515 8.14486968 8.144874291375823 
Si 2.7150543000000003 8.14438098 5.429870333665549 
Si -0.0024536812499999995 10.85845788 5.429835938226799 
Si 2.7152009099999996 10.85984253 8.144805500498324 
Si 4.07165292 9.5112423 12.225996285348042 
Si 1.357585794 9.502804079999999 9.502565445144084 
Si 2.71528236 8.14364793 10.862561093308575 
Si -0.000759970854 10.86189507 10.86459042419481 
Si 4.0721253299999995 12.21745113 9.502462258827833 
Si 1.333082376 12.245176709999999 12.230914833089253 
Si 3.1989976199999997 8.51911614 16.22047616910968 
Si 1.441265895 9.52389963 14.954517650486961 
Si 2.72451879 10.95282585 13.534261193632934 
Si 0.576312507 11.23361658 18.680919484633172 
Si 2.35639737 9.847451609999998 19.39937140923762 
Si 3.6599720399999995 8.267240159999998 22.86722273030208 
Si 2.12916816 11.51753499 23.034453353503288 
Si 2.00135682 9.548318339999998 21.761822119763117 
Si 2.51019126 10.93425525 25.290518971975857 
Si 0.545027562 9.69704604 29.79160927308233 
Si 1.9284101999999999 8.82092097 26.088217987459693 
Si 3.74251347 11.111881409999999 28.45864843977513 
Si 1.432301508 11.53763685 28.616729876268906 
Si 0.01195381377 10.99581516 34.15642484586236 
Si 1.4971145309999998 10.08292356 32.158325018012796 
Si 3.9516281999999996 10.64637837 31.947377792160676 
Si 0.337748715 15.91127379 0.16326173352387613 
Si 2.72266173 16.2890226 2.7101885962853114 
Si 4.02670881 14.952672449999998 1.2385866284656806 
Si -0.00718599141 13.562923679999999 2.7158294482402674 
Si 2.0515626 14.15728062 0.01610435716789058 
Si 1.363013622 12.298559039999999 1.2803461306517332 
Si 1.356318432 14.936317289999998 4.069943476378556 
Si -0.000223233273 13.57545069 8.14525264120207 
Si 2.7137510999999996 13.574668769999999 5.4303174743692955 
Si 1.3570042409999998 12.21771177 6.787389510240061 
Si 1.3585436459999998 14.93366202 9.502118304440335 
Si 2.7124967699999996 13.57654212 10.86207955716608 
Si 4.01175459 12.270491369999998 14.91441256890477 
Si 1.02092688 15.492294989999998 15.006833112825307 
Si 3.4809938099999997 13.601921939999999 19.333985680174376 
Si 3.8202819299999997 14.66919387 21.46870419073788 
Si 0.9803680379999999 13.48590456 19.39668856501514 
Si 0.09401463989999999 14.12960391 21.585545496170727 
Si 1.77051123 15.710287769999999 21.609106371714297 
Si 0.48063807899999994 16.18714494 25.404436665114975 
Si 0.536773419 13.281595379999999 29.831989518174517 
Si 1.1243357999999999 12.410373599999998 26.458072140335585 
Si 1.91174553 14.69564883 26.569754129955975 
Si 1.20058929 15.26843781 28.740209501380455 
Si 1.77722271 13.535817119999999 31.926706133472084 
Si 4.0571874 13.0777749 31.733231790504828 
Si 1.5142841909999998 15.79968729 32.02462994759258 
Si 4.09636485 4.01574564 1.258226423991779 
Si 5.447880989999999 2.7117963 2.689210818191848 
Si 6.799315679999999 1.2748228199999998 1.15841086074005 
Si 5.42919636 0.0017973897299999998 5.430111101736798 
Si 5.42989683 2.7146307599999995 8.144943082253322 
Si 6.78757059 1.357564617 6.787664673750058 
Si 4.06005444 4.079309219999999 12.238344247859196 
Si 4.07256516 1.3578187409999998 9.501155232155345 
Si 6.78203199 1.351542204 12.195659508370776 
Si 5.446838430000001 2.6975425499999997 13.557099764962757 
Si 8.13403683 0.16357929300000001 13.632941707405923 
Si 5.39646975 0.1185856614 16.57110327172447 
Si 6.97298337 3.9744667799999998 14.88242481086752 
Si 5.214103199999999 0.23226281999999998 20.837788657751506 
Si 4.629536549999999 3.41490528 17.95995669299999 
Si 7.12751031 0.9871642259999999 22.13504702563648 
Si 6.87869685 1.2396966929999997 24.578877344243853 
Si 7.6150863 3.44984733 25.063509076227607 
Si 4.91739714 0.9851947649999999 25.79217644614073 
Si 6.08729607 1.89131787 29.92898465544877 
Si 7.40807298 3.8317338 27.41780806776942 
Si 5.4944541 2.4219320399999997 27.686952375986092 
Si 5.61397383 3.5322421499999996 31.618694979468216 
Si 5.024259539999999 0.33821298 34.12581290537509 
Si 6.788531699999999 4.0725814499999995 4.0734518111310285 
Si 4.07344482 6.787619459999999 4.069874685501056 
Si 6.69450582 6.725896649999999 1.2615180674801285 
Si 5.431444379999999 8.14687335 2.6987280360938994 
Si 4.07241855 4.07223936 6.787664673750058 
Si 5.42960361 5.42849589 5.430833405950541 
Si 6.787554299999999 6.787423979999999 6.78749269655631 
Si 6.78714705 4.07267919 9.501808745491589 
Si 4.073493689999999 6.787456559999999 9.502703026899082 
Si 5.43111858 5.42888685 10.861804393656083 
Si 6.798941009999999 6.78717963 12.229126270274268 
Si 4.43317689 6.744695309999999 15.105651208353294 
Si 4.13992431 6.6502621799999995 21.270173718274417 
Si 7.00382034 4.68420579 20.263488016947196 
Si 5.83366077 6.853431059999999 19.673296683440505 
Si 5.7698528399999995 7.356189329999999 17.225407703060664 
Si 6.914502269999999 4.0935141 17.289623987206422 
Si 5.32220364 4.7881197 22.10856253779919 
Si 6.58695924 5.2913992499999996 24.044062667124237 
Si 5.325429059999999 6.40348497 25.82323552733174 
Si 6.988344839999999 5.67919899 28.99934473692095 
Si 7.07476329 7.973824679999999 26.310515708099224 
Si 4.72499595 5.6836461599999994 28.078957191416812 
Si 7.81765245 7.8937430399999995 28.513715537213454 
Si 4.96326978 5.719809959999999 34.29772130824627 
Si 6.94828773 5.40406089 31.35918139410147 
Si 8.131902839999999 10.84987305 2.68901820373485 
Si 6.78827106 9.503439389999999 4.071904016387291 
Si 6.775353089999999 12.08113641 1.0947758595091668 
Si 4.0726629 9.502315379999999 6.787595882872559 
Si 5.42997828 8.14495113 8.14525264120207 
Si 5.43032037 10.85886513 5.4296983564718 
Si 8.14478823 8.14366422 10.861769998217332 
Si 6.788368799999999 9.50298327 9.50167116373659 
Si 5.432910479999999 10.85748048 10.863661747348567 
Si 6.800048729999999 12.21481215 12.254303731439073 
Si 4.416772859999999 10.6727193 16.539562654390966 
Si 6.71397237 10.94082012 16.181024600863736 
Si 5.48218773 8.1687834 13.603739979907397 
Si 7.292544299999999 9.013973759999999 15.008552884762794 
Si 6.187951979999999 10.76967738 19.638488499425772 
Si 7.238347469999999 8.66681757 19.839357861724224 
Si 4.0909077 11.341928789999999 18.72002709849162 
Si 7.81310754 11.760826139999999 18.11129662349882 
Si 7.81069662 12.19777281 22.26485541147798 
Si 7.573742279999999 8.46609219 22.147979710606386 
Si 5.701011299999999 9.44199351 23.18259450819839 
Si 5.69135133 11.38337055 21.867278534969802 
Si 6.27469623 9.97671276 25.43989836246595 
Si 8.11113309 11.407316849999999 25.72338556864126 
Si 4.281012 9.23954139 29.80051769171851 
Si 6.60354246 9.29966778 29.919319537160096 
Si 6.98681358 11.61421614 29.534503368428066 
Si 4.579314479999999 11.353820489999999 26.2298584042311 
Si 5.419813319999999 10.50423183 33.98413809316494 
Si 7.564522139999999 9.300335669999999 32.233238283609715 
Si 7.957436939999999 11.812302540000001 31.634482485854342 
Si 4.07398239 12.21686469 4.068464472512317 
Si 5.43497931 13.56263046 2.673182543734472 
Si 6.78851541 14.93069724 4.066503932503582 
Si 4.072548869999999 14.93296155 6.78749269655631 
Si 5.429733929999999 13.575304079999999 8.145011873130821 
Si 6.787521719999999 12.21719049 6.787389510240061 
Si 6.78693528 14.932440269999999 9.50308137672533 
Si 4.07652363 14.92949178 12.246977502985379 
Si 5.42781171 16.2909774 10.86094450768734 
Si 5.516852849999999 13.644683189999999 13.725843787468955 
Si 6.879657959999999 15.17529159 15.135609635504313 
Si 7.69436973 14.063026679999998 18.741352270516455 
Si 5.45490198 15.11448102 18.87914039814789 
Si 7.50204999 13.181200109999999 24.360431912744293 
Si 4.118177159999999 12.84976377 22.89043965145815 
Si 5.17987791 13.32129411 24.992448099770655 
Si 4.92353847 12.73609215 29.58619971286892 
Si 4.25818971 15.050852279999999 26.318289077256665 
Si 7.68474234 14.715261989999998 27.86412328098597 
Si 5.351281289999999 14.70623733 28.378885417314493 
Si 4.82201919 16.223439059999997 30.118847477347302 
Si 7.75177569 14.23991979 32.033847925177504 
Si 5.508544949999999 15.11567019 32.19024398517255 
Si 12.190996169999998 1.253096847 1.345580519784479 
Si 8.15464368 -0.008745644879999999 2.6793668436216738 
Si 9.500490899999999 1.361700648 4.068705240583565 
Si 10.852397999999999 2.7192571199999995 2.6890010060154745 
Si 8.14442985 0.000315460737 8.144908686814572 
Si 8.14379454 2.71492398 5.431486919286786 
Si 10.86046155 -0.00045215827200000003 5.429182424890554 
Si 10.85943528 2.7156244499999995 8.144977477692072 
Si 12.2173371 1.362612888 12.258431184089043 
Si 9.50213619 1.357919739 9.502083909001588 
Si 8.145374669999999 2.71454931 10.860015830841096 
Si 8.91032049 2.1429495 14.897455617601151 
Si 10.86161814 2.90444184 13.69526624242044 
Si 8.68685427 1.349918091 17.106605857619083 
Si 10.890223379999998 0.37455434099999996 21.446691109938055 
Si 8.3997756 2.90235672 21.281145863235583 
Si 12.04865415 4.06209069 17.531320735300802 
Si 11.44139553 1.5434937899999999 19.46386285689337 
Si 9.34107696 2.4615818999999997 19.08716401170628 
Si 11.79423693 3.97889766 22.398825645408195 
Si 10.96421256 1.98907416 23.15700430176859 
Si 9.86590818 2.88637623 25.008270001595534 
Si 9.98777367 1.234017999 26.69010377014129 
Si 11.28530475 3.96537696 28.228164604713157 
Si 9.27743193 2.72932434 28.316354509667477 
Si 8.19590625 2.63906145 34.18710557722712 
Si 9.41229684 2.32114581 32.23856957661592 
Si 11.65485969 1.3959568889999998 32.33353538300394 
Si 8.42914647 1.603747242 30.178110818313094 
Si 10.865267099999999 8.1552627 2.6849354651552564 
Si 12.2184774 4.072923540000001 4.066159978116085 
Si 12.17016126 6.844846229999999 1.1375018735240865 
Si 9.47038698 4.087926629999999 1.157877731439429 
Si 8.13711564 5.41774449 2.688619216645353 
Si 9.50264118 6.787358819999999 4.067742168298572 
Si 9.502185059999999 4.072516289999999 6.78745830111756 
Si 8.145244349999999 5.43012489 8.14508066400832 
Si 10.859484149999998 5.4288542699999995 5.42966396103305 
Si 10.85635647 5.43098826 10.859259131188601 
Si 12.23507691 6.799217939999999 12.245532894557892 
Si 9.5034231 6.78828735 9.500880068645346 
Si 9.508701059999998 4.07246742 12.195315553983278 
Si 8.28470304 5.448353399999999 13.602536139551157 
Si 10.000838250000001 6.423081839999999 14.99231823767292 
Si 8.20929663 7.27135101 16.34485007562872 
Si 11.795214329999999 4.68228357 15.13853324779804 
Si 9.67389795 4.461765839999999 17.862651996776993 
Si 9.157130279999999 5.802693479999999 19.770188634398508 
Si 9.00778356 7.80797619 18.508048009477008 
Si 10.231618679999999 5.75146143 21.930566142269313 
Si 8.436867929999998 6.593784749999999 23.28103425390013 
Si 11.77366266 7.55965143 22.14082545934644 
Si 9.17356689 7.822637189999999 25.160538608940612 
Si 11.59707906 5.842636559999999 29.574505263694007 
Si 11.138662169999998 6.82363665 25.938150688194604 
Si 11.40619284 4.477371659999999 25.89918065609115 
Si 11.71242855 7.6479921 28.09357525288545 
Si 10.649734109999999 6.3548104499999996 31.737840779297294 
Si 9.06243651 4.68612801 32.09802981388451 
Si 8.364589200000001 7.84928763 34.24155355676795 
Si 10.13410674 6.0363409500000005 34.18793106775711 
Si 9.420930539999999 9.452467979999998 1.2448947519323819 
Si 10.25792703 11.28005937 -0.0006757603060282791 
Si 12.114547199999999 12.107298149999998 1.3235089667387745 
Si 9.5030973 12.22035075 4.069874685501056 
Si 12.216652919999998 9.50158233 4.071388084806045 
Si 8.14382712 8.1459774 5.430558242440544 
Si 9.50236425 9.502608599999999 6.78752709199506 
Si 10.85984253 8.14526064 8.144736709620824 
Si 8.14557015 10.85971221 8.145355827518319 
Si 10.860168329999999 10.86052671 5.430627033318043 
Si 9.51208938 9.49570164 12.239410506460437 
Si 10.85963076 10.85909319 10.862561093308575 
Si 12.04844238 9.90049185 15.028708611870139 
Si 10.994495670000001 8.21576376 13.722025893767734 
Si 8.285745599999998 10.830471659999999 13.839658294291825 
Si 10.26955809 11.487903479999998 15.2797265238657 
Si 10.13985711 11.29600728 17.722559374749327 
Si 10.93366881 9.5974164 21.349420809153802 
Si 10.922901119999999 9.2504394 19.000143551669453 
Si 9.8093493 10.13545881 24.772661246159856 
Si 9.04168305 10.220215679999999 22.558248504013218 
Si 11.62840473 11.667631049999999 24.40548993750644 
Si 10.43662833 11.321989829999998 28.730544383091775 
Si 9.95968971 8.94896037 28.99432300286349 
Si 10.209741209999999 11.88513513 30.993454693875545 
Si 9.84246687 8.52833628 31.36306807868019 
Si 11.08591515 10.26209727 32.378662198643596 
Si 9.606701699999999 14.957885249999999 1.1579912363873035 
Si 10.85857191 13.57701453 2.69802980868728 
Si 8.14421808 13.57352847 5.431177360338038 
Si 9.50269005 14.9323914 6.787423905678811 
Si 10.86062445 13.574457 8.14514945488582 
Si 12.22699707 12.209615639999999 12.20694121228069 
Si 9.50381406 12.21811902 9.502255886195336 
Si 8.147199149999999 13.57172028 10.865759869112301 
Si 9.51054183 14.93221221 12.260150956026528 
Si 10.859353829999998 16.287735689999998 10.8658286599898 
Si 11.13377517 14.90816817 16.93727711265414 
Si 8.67238875 15.266189789999999 16.862019892669725 
Si 10.99407213 13.37878152 13.77946627647979 
Si 11.249841420000001 13.14531324 20.796720503884323 
Si 8.86555557 13.721262479999998 20.83627525844652 
Si 11.57472918 13.02040152 18.454081566078674 
Si 8.89440516 15.680802869999999 22.097521601960523 
Si 9.141214949999998 14.84289414 24.3143076293809 
Si 11.13304212 13.9013973 25.155964015586896 
Si 8.66567727 15.58289997 29.853005131250605 
Si 10.95596982 15.17415129 29.578323157395225 
Si 8.27577612 16.149857129999997 25.992151527031684 
Si 11.75349564 14.164725149999999 27.525740954566086 
Si 8.44493148 12.38129595 27.833717713131207 
Si 8.501962769999999 13.221501570000001 34.25538052314534 
Si 11.33868708 13.88210994 31.520736769908968 
Si 11.465602469999999 15.87631545 34.096060850856574 
Si 14.941399769999999 4.04622423 1.323195968246152 
Si 16.297167599999998 2.71194291 2.7044479975579807 
Si 13.59364662 -0.00902715237 2.7140133690742814 
Si 13.26877515 2.9620921499999997 0.13653647761533264 
Si 14.934965219999999 1.353526326 4.072316761652288 
Si 13.57551585 -0.000609693975 8.144736709620824 
Si 13.575304079999999 2.7152171999999997 5.4297671473493 
Si 12.21738597 1.357202979 6.787286323923811 
Si 14.933352509999999 1.357791048 9.502324677072835 
Si 13.57426152 2.71485882 10.866275800693547 
Si 15.515263889999998 0.769617792 15.11521314032572 
Si 12.29391639 0.594325989 17.477491873657467 
Si 14.78359854 1.566578349 21.13785446540419 
Si 12.932093429999998 3.00879558 20.612911279205747 
Si 15.884558189999998 1.8401835599999998 19.10501524441739 
Si 14.73565707 0.45859607999999996 17.406740456149265 
Si 16.24591926 2.36713248 22.819481861317445 
Si 12.7975869 1.119385269 24.40191281187647 
Si 14.71609278 2.48349195 24.556761077127774 
Si 12.32216325 0.97047675 26.677790203068888 
Si 12.88714932 2.29131882 28.525581963582113 
Si 15.227012339999998 2.15208819 28.38837855840942 
Si 15.61943844 2.86816401 32.37556660915612 
Si 13.272652169999999 3.3062672699999998 32.2352332190572 
Si 15.80208192 0.48893946299999996 32.41003083878335 
Si 12.374796239999998 0.658809954 30.197200286819196 
Si 16.283141909999998 8.14998474 2.6872365200076134 
Si 13.566165389999998 5.43908439 2.684921706979756 
Si 14.92924743 6.7891832999999995 4.071560061999793 
Si 16.2909774 5.430141180000001 5.429320006645553 
Si 14.93263575 4.07271177 6.787595882872559 
Si 13.57507602 5.430206339999999 8.144805500498324 
Si 12.21725565 6.7877171999999995 6.787423905678811 
Si 13.575157469999999 8.14491855 5.4304894515630435 
Si 14.933042999999998 4.0671243 12.263246545514004 
Si 13.571541089999998 8.14403889 10.86049736698359 
Si 16.2921177 5.42870766 10.863111420328572 
Si 12.218102729999998 4.0735588499999995 9.502221490756586 
Si 14.93274978 6.7889715299999995 9.502221490756586 
Si 13.627497239999999 5.542916849999999 13.7782968315623 
Si 16.14604527 5.34745314 16.796496581851482 
Si 16.2924435 8.09443584 13.66038926752821 
Si 14.95233036 6.993687959999999 15.280036082814446 
Si 16.15547718 7.5692299499999995 17.60523653317398 
Si 13.44833982 7.01331741 20.48361882494549 
Si 13.58043543 4.87807308 19.334157657368124 
Si 15.806854889999999 4.22468118 18.914602095498864 
Si 15.33258783 6.796888469999999 21.852694868939917 
Si 14.36830128 6.13300581 23.962786245358615 
Si 12.7037565 7.727861969999999 24.389736826559066 
Si 13.167679409999998 4.22603325 24.31121203989342 
Si 15.966415439999999 6.33500181 25.60709459022841 
Si 15.664496579999998 5.560493759999999 29.98831678729206 
Si 15.634115729999998 6.809659829999999 27.954514494020273 
Si 13.47901389 5.32528245 30.886140924976374 
Si 15.42058641 6.72332283 32.67804009752128 
Si 13.81419693 8.07555573 34.006667105546015 
Si 14.97608118 9.49806369 1.1480543941325052 
Si 13.586364989999998 10.838535209999998 2.6904696912500885 
Si 14.932163339999999 9.50262489 6.787595882872559 
Si 13.57450587 10.860217200000001 8.144908686814572 
Si 12.21865659 9.503292779999999 9.501258418471593 
Si 14.933906369999999 9.500018489999999 12.241061487520424 
Si 14.234316029999999 8.935749179999998 16.599307531499253 
Si 13.58985105 10.9333593 13.628435904929708 
Si 15.9648516 10.57346433 16.321461177278902 
Si 14.69110392 10.78503885 19.545173674097743 
Si 13.345175249999999 8.85034071 18.907379053361424 
Si 12.300025139999999 11.34789093 22.111314172899167 
Si 16.09438968 8.92494891 22.54555658711456 
Si 14.705178479999999 10.83890988 21.907280430235748 
Si 16.194898979999998 8.604606059999998 24.92372601314869 
Si 14.07307761 9.194434379999999 25.74288778241236 
Si 14.470602479999998 9.99018459 29.884580144022863 
Si 13.4661285 11.41450074 25.823957831545485 
Si 13.92039144 8.49834639 28.01928110518602 
Si 12.625336439999998 12.060627299999998 27.943783117130355 
Si 13.414293719999998 9.84849417 32.23230960676347 
Si 14.31902403 11.965395959999999 33.07778388667069 
Si 12.216913559999998 14.93107191 4.073073461304781 
Si 14.934232169999998 12.2189661 4.071319293928545 
Si 14.855046479999999 14.810248979999999 1.3240661728465202 
Si 13.5742941 13.575010859999999 5.4304894515630435 
Si 12.21746742 12.21777693 6.787630278311308 
Si 14.93257059 14.932179629999998 6.787664673750058 
Si 12.21872175 14.932538009999998 9.502049513562836 
Si 14.931185939999999 12.21732081 9.501567977420342 
Si 13.574668769999999 13.57561359 10.8595342946986 
Si 14.93138142 14.92709715 12.232153068884244 
Si 12.658356269999999 14.37778206 15.044496118256266 
Si 14.7111732 12.43388007 15.254170712874647 
Si 13.631341679999998 16.227267209999997 13.727391582212691 
Si 16.25634486 13.668010469999999 13.797936627088397 
Si 13.88663856 12.653664749999999 18.318288373894724 
Si 14.553974699999998 15.46922835 20.930381178865794 
Si 15.17485176 14.62037274 18.769453343974988 
Si 12.43374975 14.94195363 21.72044440694719 
Si 16.17403149 12.331953539999999 23.03885596966325 
Si 12.832659269999999 15.08994828 24.012934795055724 
Si 14.818328819999998 14.85542115 25.215777683572686 
Si 15.405306389999998 12.631103099999999 25.26403448413856 
Si 14.466888359999999 12.34708695 29.47059664323106 
Si 13.701714479999998 15.39841572 27.18464138848497 
Si 15.31527156 16.12837062 28.728411865889292 
Si 13.159892789999999 13.738937129999998 34.37982322054188 
Si 14.34388257 15.770169809999999 30.80252561337577 
Si 13.688894249999999 13.516611209999999 31.33476063258916 
