&CONTROL
  dt          = 30.D0,
  prefix = 'x1.00_y1.66_z3.16_struc1-scf',
  pseudo_dir = './',
  outdir='./',
  wf_collect= .true.,
  verbosity= 'high',
/

&SYSTEM
ibrav= 6, celldm(1) =30.783621515, celldm(3) =2.107444715732142, nat=  432, ntyp= 1,
  ecutwfc     = 12.D0, nbnd= 1728,
  degauss     = 0.05D0,
  occupations = "smearing",
  smearing    = "methfessel-paxton",
/
&ELECTRONS
  electron_maxstep=200,
  conv_thr    = 1.D-8,
  mixing_beta = 0.3D0,
  scf_must_converge=.false.,
/
&IONS
/
ATOMIC_SPECIES
Si  28.08  Si.pbe-hgh.UPF
K_POINTS {automatic}
1 1 1 0 0 0
ATOMIC_POSITIONS (angstrom)
Si 3.4775729099999997 3.46366125 1.5695080528730452 
Si 1.72480149 1.6205845859999999 1.3722222648677884 
Si 1.347950259 4.08263238 4.073870674512295 
Si -0.001013148405 0.0010230690149999999 5.429916514073721 
Si -0.000193556151 2.7152009099999996 8.14578452338269 
Si 2.71497285 0.00019642807799999997 8.145269569266402 
Si 2.71656927 2.7160317 5.427788037059726 
Si 1.356917904 1.3573561049999998 6.787369894886337 
Si 2.7120406499999996 2.71609686 10.860519633635828 
Si 1.3627187729999999 1.3769888129999999 12.234794848913888 
Si 4.07276064 1.3581738629999998 9.501384069376666 
Si 1.5300577979999999 1.108282005 16.71321347718294 
Si 3.0669020099999997 2.90820483 16.642699093525746 
Si 0.024497064899999997 2.7176607 13.796273050600263 
Si 2.88982971 0.1562613363 13.587819624326418 
Si 2.05390836 1.88331948 20.371653500947566 
Si 3.7239917399999998 3.30221106 19.355889341430014 
Si 0.445813317 1.67387895 18.643536147230023 
Si 1.4766656939999998 1.5356403809999999 24.40484280027302 
Si 1.318359474 2.80181484 22.446026002457938 
Si 2.34027027 3.13955541 25.97037197434087 
Si 0.9341728559999999 3.7230143399999998 29.644775575710465 
Si 3.0049674299999998 2.61009783 29.906612578706287 
Si 0.1509553575 0.036592878599999996 29.54806719267136 
Si 0.460570428 3.27635883 27.390958729810535 
Si 3.7501208999999998 0.720944901 28.69780928612914 
Si 1.5760542419999999 0.8029520189999999 33.20293686789638 
Si 3.42019953 3.94253838 33.60388014283912 
Si 3.429045 2.0704264199999995 32.22253289103069 
Si 2.71595025 5.42370663 2.7112299892349268 
Si 1.573783416 6.91425792 1.280852239500884 
Si 0.0005370796709999999 5.43097197 5.433692844259841 
Si 2.7146470499999995 5.430238919999999 8.145509881187337 
Si 1.356706134 6.78678867 6.787816188453787 
Si 4.074340769999999 4.09411683 12.255393013565454 
Si 1.359252261 4.073249339999999 9.50169304184644 
Si 0.00285936741 5.428137509999999 10.862064495984693 
Si 1.355025006 6.78616965 12.23853684882559 
Si 3.6208597499999997 7.462530449999999 15.181568283966913 
Si 0.250590699 5.14733049 17.09939473412538 
Si 1.438962489 4.1330988 15.262690722419663 
Si 2.73083931 5.605274969999999 13.822501380256593 
Si 3.32333919 5.1599552399999995 20.926156093367723 
Si 1.1340153179999999 6.05331513 20.66335784268816 
Si 1.513598382 6.892722539999999 18.502301398269122 
Si 3.6907927199999997 7.26744141 17.617850538405293 
Si 0.740859426 7.39021914 22.768593260901458 
Si 3.0995471699999997 4.26726324 23.06561879517704 
Si 1.454097528 7.409441339999999 25.162374635608778 
Si 3.0020515199999998 5.50598742 25.31229494399776 
Si 1.75402575 5.89442247 29.53433508290365 
Si 3.51903096 5.935505849999999 27.94573596442605 
Si 1.4574206879999998 5.37705207 33.68180986577087 
Si 1.9606643999999998 6.71646474 31.749324388435376 
Si 0.01111279365 8.133287489999999 2.695578817127179 
Si 1.35583299 9.50159862 4.068789793898242 
Si 2.7074794499999997 10.877419439999999 2.6923552043592087 
Si 0.000412599636 8.14478823 8.145166578443146 
Si 2.7146796299999996 8.145928529999999 5.427959688431822 
Si 0.001121239071 10.8611946 5.430294147092333 
Si 2.7152497799999997 10.85982624 8.144994927071048 
Si 1.358286264 9.50387922 9.50172737212086 
Si 2.7174000599999997 8.14364793 10.86268244092424 
Si -0.00194816997 10.85720355 10.859524055677669 
Si 1.371932397 12.206846339999998 12.24849262840718 
Si 0.0983319786 8.27512452 13.636190980983178 
Si 1.85016933 9.144261179999999 15.139342046431205 
Si 2.84405481 10.87567641 13.782300628911619 
Si 2.98157499 9.657379889999998 17.99874493308717 
Si 1.5122332799999998 10.46956671 21.425215292600747 
Si 0.771043167 10.29796785 19.179466061189352 
Si 2.89514025 8.71946685 22.37503099495887 
Si 0.1230149124 11.57586948 23.10599119789411 
Si 3.8811902399999996 10.17209502 24.10634106419741 
Si 0.650798532 11.26157022 25.4090719875857 
Si 2.26453806 9.5814522 25.744650420034127 
Si 0.932723046 9.22295817 29.314518335797025 
Si 3.84092136 11.6673867 28.810618567870883 
Si 2.9962685700000002 9.60966648 28.00148833008295 
Si 3.82420782 10.92052278 31.136837962521064 
Si 2.92281696 8.433593639999998 34.25924508150311 
Si 0.267193467 11.40842457 33.56862295101052 
Si 0.48966110999999996 8.703437489999999 31.64111536346582 
Si 2.0271438899999996 10.08007281 32.7645049332878 
Si 2.73668742 16.27458966 2.70550026643435 
Si 0.004939779599999999 13.566702959999999 2.678516670740798 
Si 1.5016203449999999 12.319882649999998 1.1021425629838977 
Si 1.355072247 14.930648369999998 4.068034527861019 
Si -0.0004986515610000001 13.575157469999999 8.14492626652221 
Si 2.71681362 13.57647696 5.429676202152786 
Si 1.357106868 12.21740226 6.787266904063078 
Si 4.07813634 14.929035659999998 12.22995428022077 
Si 1.357359363 14.932668329999998 9.503203573920887 
Si 2.71487511 13.57409862 10.86268244092424 
Si 0.0865393218 13.59949473 13.678108246049113 
Si 1.322329347 15.26615721 14.866313373974696 
Si 2.1189543299999998 15.081151679999998 17.214504144253215 
Si 2.8468404 12.32545383 20.96573889977315 
Si 2.9235988799999997 16.16679873 21.34199870740842 
Si 1.534035816 14.31086274 21.044732861211905 
Si 0.5734242900000001 14.316433919999998 18.88899760932785 
Si 3.92743755 12.298901129999999 23.004339255338632 
Si 3.0887469 16.216385489999997 23.68926256027762 
Si 3.4109142299999995 14.000652269999998 24.55187936561078 
Si -0.00366780753 14.58065772 25.28222162360647 
Si 0.35074650599999996 12.6216549 29.754563793303312 
Si 2.34409842 15.3215595 29.590327760481493 
Si 1.7597272499999999 13.28030847 26.07205824717077 
Si 2.17932507 13.25774682 28.43624692532867 
Si 3.07736019 13.74169014 34.048560187392006 
Si 2.0695304699999997 14.894305379999999 32.21199349678397 
Si 0.254800035 13.35496554 32.14745258087573 
Si 6.781119749999999 4.0786250399999995 4.066352344414474 
Si 4.08175272 1.350541998 4.078196289089124 
Si 5.42377179 2.6990575199999998 2.701411530751014 
Si 6.84453672 1.441197477 1.2427662330601383 
Si 5.42997828 0.000971252154 5.432491284655166 
Si 5.42984796 2.7148914 8.14496059679663 
Si 6.7863162599999995 1.3572697679999999 6.788056500374721 
Si 5.43009231 -0.001204218702 10.861549541868404 
Si 6.7989573 1.357354476 12.240768316662843 
Si 5.67594099 0.1584168291 16.46679076740137 
Si 4.298556329999999 1.5100813709999998 15.059215185936612 
Si 5.620880789999999 2.8870115399999996 13.669731659090811 
Si 7.14816603 1.332021897 18.02912722594823 
Si 5.64070572 1.89095949 19.817459880997184 
Si 5.20657722 3.13053075 23.393953539723 
Si 4.98557079 1.021681107 24.484248725004807 
Si 6.73125606 3.06348111 21.500261272481286 
Si 5.944872599999999 0.469937178 29.486856313381793 
Si 5.82681897 3.1897937699999996 27.207669394686018 
Si 7.40549916 1.7133984899999999 28.000389761301534 
Si 4.12591491 1.7357483699999998 26.578052161836485 
Si 5.60576367 1.063973205 31.908925834210592 
Si 7.87991283 3.05808912 34.21180064225567 
Si 7.5227708699999996 2.61017928 31.828867634264842 
Si 4.079439539999999 6.7787577 4.069785371856401 
Si 7.14437046 7.037556929999999 1.1937666323815048 
Si 4.0725 4.07240226 6.787129582965401 
Si 5.430206339999999 5.4317213099999995 5.431392715873749 
Si 6.78801042 6.78713076 6.787129582965401 
Si 6.78906927 4.07359143 9.502482638158083 
Si 4.0744548 6.78889008 9.501349739102247 
Si 5.42478177 5.430401819999999 10.86281976202192 
Si 6.776200169999999 6.80680908 12.244098353281512 
Si 7.747279649999999 6.02477505 16.67373366160077 
Si 7.047901079999999 4.27881285 15.155820578152456 
Si 4.48331751 7.217561429999999 21.27546663558386 
Si 8.03056275 4.85464806 20.451402728423545 
Si 7.504004789999999 6.750315359999999 19.032154853656234 
Si 5.42647593 7.90372881 19.158593254342428 
Si 6.24956076 7.0182207 22.84171674541452 
Si 5.26585653 6.356423159999999 24.896417999682644 
Si 6.25881348 4.27527792 25.166940562106543 
Si 7.54655427 6.11946882 29.916465367464617 
Si 4.62539889 4.11829119 28.993633260800046 
Si 6.2391188699999995 8.01433791 26.253219105281293 
Si 4.75176042 7.95950577 28.11213480453628 
Si 7.13808252 5.30980695 33.91559903456615 
Si 6.154215389999999 4.4571069 30.737679861848136 
Si 4.125295889999999 7.3738965599999995 32.52628715909244 
Si 5.15404197 5.26906566 32.67960616464894 
Si 4.22249832 9.69683427 1.3416786197169581 
Si 5.4462357 8.14897476 2.681959997265052 
Si 6.789411359999999 9.497281769999999 4.071604876400623 
Si 4.0729887 9.50282037 6.787781858179368 
Si 5.429733929999999 8.145439829999999 8.145063587619887 
Si 5.432535809999999 10.86145524 5.43039713791559 
Si 6.7889715299999995 9.50417244 9.502585628981342 
Si 4.07637702 9.51226857 12.238159215806977 
Si 5.42681802 10.86007059 10.859524055677669 
Si 8.10808686 10.834690769999998 13.633410228755217 
Si 5.4670869 8.33209065 13.805336243046954 
Si 6.61681881 10.00370529 15.244976300819317 
Si 4.77849231 11.81740131 15.027116379354588 
Si 6.434256779999999 10.06560729 19.300857911535914 
Si 4.28907555 11.50831485 19.144483511556107 
Si 7.2390968099999995 10.702823219999999 21.430124521842703 
Si 7.22365389 9.14896899 23.226833763849964 
Si 6.108359039999999 10.11874527 25.06679915162551 
Si 6.559282529999999 8.276297399999999 29.57810618278823 
Si 8.04668985 10.0351287 28.83392882420157 
Si 7.30880172 11.42334621 27.11590457116329 
Si 5.646814469999999 11.066904719999998 34.222546018148904 
Si 5.32770966 9.101727989999999 31.397851038930824 
Si 7.1079297299999995 10.049089229999998 32.52178989314352 
Si 4.0687044299999995 12.21846111 4.0713988947541075 
Si 4.24725912 15.04257696 1.2345201011446283 
Si 5.42657367 13.59077958 2.7093074938674473 
Si 6.883437239999999 12.309733979999999 1.4309613643991708 
Si 6.78517596 14.93123481 4.071089922284334 
Si 4.0734774 14.932733489999999 6.78812516092356 
Si 5.43012489 13.575043439999998 8.14492626652221 
Si 6.787358819999999 12.21769548 6.787816188453787 
Si 4.074340769999999 12.21756516 9.501452729925505 
Si 6.78854799 14.932472849999998 9.501590051023182 
Si 6.79508028 12.2218983 12.22188666573224 
Si 5.51802573 13.6161594 13.642061457908873 
Si 6.900916409999999 14.93465571 15.116512413942385 
Si 7.60265703 13.367525129999999 16.955962847601644 
Si 6.75756441 14.66254755 21.24051841622504 
Si 4.98847041 15.95107026 20.285553172704024 
Si 4.4509167 15.0325749 17.90519493529464 
Si 5.1999309 12.819562109999998 17.286185757240666 
Si 6.77206251 15.828927839999999 24.847909321928206 
Si 6.13729008 12.60186255 22.25748413534727 
Si 8.07197193 15.788740409999999 22.842609332549422 
Si 6.892689959999999 12.398807699999999 24.442228469115612 
Si 5.52576348 13.909949549999999 25.574406589188932 
Si 5.59721142 12.90413979 27.737351198701038 
Si 6.58472751 14.51981457 29.127349679663126 
Si 6.60276054 13.40274411 31.249303941518615 
Si 4.655682 12.60013581 32.6136577074895 
Si 7.73038692 14.628126779999999 32.94460155289133 
Si 5.96129292 16.0697592 33.96115530872053 
Si 12.006397889999999 1.21257873 1.2703437425011432 
Si 9.50239683 1.359183843 4.0761364726239675 
Si 10.84231449 2.7094668299999998 2.697614602400242 
Si 8.14490226 -6.465321810000001e-05 8.144994927071048 
Si 8.14669416 2.7119103300000003 5.427822367334144 
Si 10.85971221 -1.2171888e-05 5.430019504896979 
Si 10.860363809999999 2.71454931 8.14489193624779 
Si 9.503309069999998 1.3578431759999998 9.502413977609244 
Si 8.14234473 2.7133112699999997 10.861309229947471 
Si 10.57098825 0.323123553 16.557319701045003 
Si 8.2306854 0.0467835768 13.690261163193538 
Si 9.28088541 1.7901080999999999 15.2686298598942 
Si 10.81110285 2.7710919 13.72431679541746 
Si 8.26965108 3.21644421 17.004917818923534 
Si 10.147285349999999 1.6691059799999999 20.260904035670983 
Si 9.730342799999999 3.76743717 19.119388080955616 
Si 9.16213131 0.0949752612 18.782402107255994 
Si 11.75668848 3.8480238 23.548474104884164 
Si 9.755494559999999 2.61726543 23.82685830015008 
Si 8.590336019999999 1.6753939199999999 22.052223424594416 
Si 10.29026268 0.9805390829999999 25.49345580210828 
Si 8.29595943 0.182179215 26.482613998950896 
Si 11.281997879999999 2.37487023 27.12970534147984 
Si 9.40477086 2.79397935 28.570375307484785 
Si 11.57858991 2.87686287 31.84071157893949 
Si 9.58255992 1.8325435499999998 30.654978230772098 
Si 12.217581449999999 4.073184179999999 4.06703894990286 
Si 9.51503787 4.13876772 1.2691387498690267 
Si 8.1573804 5.44954257 2.7057474444101683 
Si 9.49996962 6.7828953599999995 4.0719138488703965 
Si 11.33743275 5.153471819999999 0.08847632653610382 
Si 9.501614909999999 4.07359143 6.787404225160755 
Si 8.14501629 5.42984796 8.144754615150115 
Si 10.860217200000001 5.430401819999999 5.430637449836525 
Si 10.860477839999998 5.42878911 10.857464239212511 
Si 9.503243909999998 6.786332549999999 9.503306564744147 
Si 9.509922809999999 4.083430589999999 12.227173527992809 
Si 9.207498959999999 7.3114406999999995 15.098523350146685 
Si 10.692902609999999 7.62442047 16.982603140551003 
Si 8.31954735 5.64526692 13.586206101428711 
Si 11.88977778 4.77583704 18.708111393412683 
Si 12.076949879999999 5.956568819999999 22.470434827570042 
Si 8.377946999999999 5.91190164 22.513553652240653 
Si 8.46620622 4.47885405 24.468628450144035 
Si 10.21918941 7.43918688 22.38241200395902 
Si 11.582108550000001 4.35045627 25.8587642522038 
Si 10.60930233 7.9680906 29.944410210841912 
Si 10.976201999999999 5.68929879 29.687791409557818 
Si 8.711647649999998 7.778442419999999 26.169315914600578 
Si 9.554085 5.5786408199999995 26.216554372201504 
Si 9.086008139999999 5.069887829999999 28.45907655781749 
Si 10.74007845 5.10404796 32.04827241807844 
Si 8.54565255 5.91318855 32.000930969654256 
Si 9.68412807 9.79377606 1.2607278326363038 
Si 10.855444229999998 8.17168302 2.698205083120253 
Si 8.15048973 10.85430393 2.7192083450099664 
Si 9.50189184 12.21676695 4.074660270823939 
Si 12.214242 9.50137056 4.0706436287168835 
Si 8.145928529999999 8.147492369999998 5.430637449836525 
Si 9.502673759999999 9.50236425 6.787816188453787 
Si 10.86008688 8.14454388 8.144651624326857 
Si 8.14447872 10.86026607 8.144754615150115 
Si 10.860168329999999 10.861732169999998 5.430706110385364 
Si 8.14170942 8.14591224 10.861377890496309 
Si 9.500148809999999 9.51093279 12.222367289574109 
Si 10.858979159999999 10.8618462 10.860828606105601 
Si 10.382040539999998 11.44328517 16.99932198419319 
Si 10.8885618 8.22457665 13.608246137605887 
Si 11.89329642 9.64444563 17.060635854306017 
Si 8.49722238 9.898846559999999 16.990018479825565 
Si 9.57878064 11.07894303 21.441831145419677 
Si 10.527966359999999 9.106468379999999 20.589753734333232 
Si 9.22452201 8.44325361 18.715561062961665 
Si 10.25150877 10.926387179999999 23.691940321682324 
Si 9.39125016 8.79420537 24.13301568742119 
Si 12.204044459999999 9.00063225 27.171416624899265 
Si 9.87604056 8.83507698 27.889914938220304 
Si 8.37703476 8.563701870000001 34.05195888455952 
Si 10.360439999999999 11.686625189999999 34.28598836527573 
Si 9.07540335 8.22548889 31.830618478260224 
Si 8.1801864 11.49801957 30.76871442992316 
Si 10.33924671 12.22013898 31.68794185777371 
Si 8.14358277 16.3100367 2.703725391246873 
Si 12.2175 14.92954065 4.072154160791332 
Si 8.59817151 13.289496029999999 0.2877549869713996 
Si 9.5951358 15.00222663 1.4103906639671402 
Si 10.885189769999998 13.5633798 2.7095855690902435 
Si 8.14715028 13.576102289999998 5.430465798464429 
Si 9.502543439999998 14.932472849999998 6.787953509551464 
Si 10.86020091 13.575010859999999 8.14444564268034 
Si 12.20450058 12.22183314 12.230160261867287 
Si 9.503439389999999 12.21916158 9.501555720748762 
Si 8.1430452 13.575711329999999 10.860004679519538 
Si 9.501223949999998 14.934818609999999 12.224186794118332 
Si 10.86236748 16.28864793 10.862476459277726 
Si 11.86983882 15.05300256 14.958078197497423 
Si 9.268895969999999 12.285396719999998 15.110779258114366 
Si 10.711424339999999 13.49791029 13.632517641620314 
Si 10.16689851 13.27204944 20.783651124253307 
Si 8.40054123 14.264550269999999 19.563003887001507 
Si 11.52551709 13.41522225 17.66889965646676 
Si 9.96477219 14.28347925 22.90577703748089 
Si 9.191029769999998 12.80553642 24.599152153486123 
Si 12.09558564 15.7597605 25.175317149064842 
Si 12.029741459999999 12.29298786 29.89023703780829 
Si 9.956203649999999 15.902705249999999 29.839565552765443 
Si 9.280364129999999 12.82340655 26.956783749229945 
Si 11.52157491 12.5077878 27.55512610208352 
Si 8.68017537 14.82012072 28.097063814066217 
Si 9.9323388 14.78579769 32.017649813296444 
Si 11.11321719 15.737475779999999 34.10723062637455 
Si 16.276902839999998 2.71371852 2.6775691551668266 
Si 13.56934194 0.01618144344 2.705325182034811 
Si 12.60834597 3.15387432 0.12663923279154846 
Si 14.931218519999998 1.3564063979999998 4.069716711307563 
Si 14.630896079999998 3.94037181 1.1947896745591995 
Si 13.574913119999998 -0.000296953668 8.144994927071048 
Si 13.57681905 2.7152009099999996 5.430122495720236 
Si 12.217092749999999 1.357468506 6.787369894886337 
Si 14.933303639999998 1.3581722339999998 9.501933353767376 
Si 13.574750219999999 2.7142886699999997 10.86374667943124 
Si 12.210055469999999 1.366858062 12.244064023007093 
Si 12.53116395 1.7045856 16.613690011641456 
Si 15.88933116 0.6987774689999999 15.043526250527002 
Si 12.42729891 3.99337947 15.153417458943107 
Si 12.520445129999999 1.533203397 20.632941219552684 
Si 13.02577722 2.73033432 18.61960794595979 
Si 15.282740429999999 3.47263704 18.37977664886672 
Si 15.42184074 3.6401471099999996 22.287454464915296 
Si 13.43162628 2.39831154 22.717544142839994 
Si 13.94350695 0.518587263 24.084781651862105 
Si 15.88882617 0.5628113549999999 25.429361179767493 
Si 15.5238813 1.2870321749999998 27.65986776933673 
Si 13.215034439999998 1.578367422 28.387532265927717 
Si 15.49498284 3.2239376099999997 31.443647625006136 
Si 15.817769189999998 0.9231184619999999 31.78283073626859 
Si 13.387317479999998 3.08012949 30.2067278376796 
Si 13.57287687 5.45459247 2.695050130901122 
Si 12.345848909999999 7.0295422499999995 1.2542737410454798 
Si 14.93486748 6.781608449999999 4.0733213901215874 
Si 14.93268462 4.07385207 6.788296812295656 
Si 13.575222629999999 5.42944071 8.14496059679663 
Si 12.2178258 6.78700044 6.7875072159840135 
Si 12.21735339 4.07481318 9.502757280353437 
Si 14.9327172 6.78776607 9.502207995962728 
Si 14.946628859999999 4.05793674 12.232426059978959 
Si 12.20476122 6.77994687 12.223500188629945 
Si 14.68763415 6.64954542 16.922216187847493 
Si 13.595422229999999 5.42235456 13.572405331112162 
Si 14.43626316 7.381210769999999 14.72803102861385 
Si 12.34959561 5.86658286 16.726911256676228 
Si 14.16508353 8.04880755 20.014652977261512 
Si 13.19389002 5.9030073000000005 20.348823868458748 
Si 15.352657109999999 4.82662926 20.302100364974113 
Si 15.59096352 5.43771603 23.761012833813908 
Si 13.7798739 7.00803945 23.701724449891817 
Si 13.57181802 7.482306509999999 25.99227468942037 
Si 13.14746352 5.116754159999999 29.075373644192343 
Si 16.25618196 7.19060148 28.849926732080952 
Si 15.58974177 4.8107628 26.033265037076987 
Si 15.874686449999999 7.09030395 26.574241501375948 
Si 13.441432859999999 5.2805664 26.767658267454152 
Si 14.99849622 7.07536602 32.42391428077416 
Si 14.27626278 6.88298112 30.0968366292635 
Si 15.470906219999998 4.747182929999999 33.312450443293876 
Si 14.93219592 12.217239359999999 4.070437647070368 
Si 15.017001659999998 9.46929555 1.2346986185716085 
Si 13.58882478 10.851355439999999 2.6785681661524268 
Si 13.57509231 10.86002172 8.14496059679663 
Si 13.576004549999999 8.14589595 5.42902392693882 
Si 14.93312445 9.50187555 6.787541546258432 
Si 12.2163597 9.50220135 9.50313491337205 
Si 13.573919429999998 8.143973729999999 10.865394532603364 
Si 14.94351747 9.52963371 12.231464812295219 
Si 12.76179777 9.13598586 14.861129502537386 
Si 13.610360159999999 10.97787987 13.649991751299728 
Si 15.94836612 8.342939789999999 18.474013252147635 
Si 13.80041559 11.80311498 20.307730529978873 
Si 12.64224546 9.803859569999998 19.569835611610944 
Si 14.271049979999999 10.873379519999999 22.502464973603228 
Si 12.48778368 11.610616049999999 23.95683271910146 
Si 14.877771029999998 8.54125425 22.259887254556617 
Si 12.807800729999999 11.046151259999998 26.23807945426239 
Si 12.80437983 8.62646724 29.487439928046918 
Si 15.516567089999999 10.77547662 28.958616380892384 
Si 15.02032482 11.50738632 26.801370596933882 
Si 13.603111109999999 10.611615509999998 30.32866897241687 
Si 14.641419419999998 10.34489934 32.561647341744305 
Si 13.71784158 8.4325185 33.92023362161275 
Si 13.12397334 14.34401289 0.04352769823894498 
Si 12.343698629999999 12.284403029999998 1.1355733842133893 
Si 14.931462869999999 15.005875589999999 1.3398076197611075 
Si 13.57409862 13.57670502 5.42902392693882 
Si 12.2175 12.217679189999998 6.787884849002626 
Si 14.93281494 14.932049309999998 6.787404225160755 
Si 16.28587863 16.2917919 10.861446551045148 
Si 12.217614029999998 14.932847519999997 9.502448307883665 
Si 14.9323914 12.21702759 9.501178087730151 
Si 13.576770179999999 13.57654212 10.861309229947471 
Si 14.933303639999998 14.92585911 12.23609939934182 
Si 13.4063442 14.044228019999998 16.364692531278443 
Si 14.271783029999998 16.258413689999998 16.650869698837532 
Si 14.73063975 12.58049007 15.02320272807079 
Si 13.4641737 16.18896942 13.611026889833848 
Si 13.56935823 15.703511129999999 20.329976547802566 
Si 12.35448261 13.66494795 19.883717310626388 
Si 15.31662363 16.07730147 18.734957668008555 
Si 15.709114889999999 12.21789096 18.834858766568654 
Si 16.26264909 13.944174839999999 22.90862645025769 
Si 12.240501479999999 14.01953238 23.579165370215 
Si 14.164611119999998 15.00724395 22.51224910181272 
Si 14.738458949999998 13.85842428 26.949471400778638 
Si 15.229292939999999 14.34388257 29.22076235635798 
Si 12.220725419999999 15.87437694 29.16085602749634 
Si 12.489559289999999 14.62481991 27.168635872671302 
Si 13.253397389999998 14.23638486 30.456823886824033 
Si 14.48371593 14.57459784 32.433732739258076 
