&CONTROL
  dt          = 30.D0,
  prefix = 'x1.00_y.66_z3.17_struc40-scf',
  pseudo_dir = './',
  outdir='./',
  wf_collect= .true.,
  verbosity= 'high',
/

&SYSTEM
ibrav= 6, celldm(1) =30.783621515, celldm(3) =2.1138013110639746, nat=  432, ntyp= 1,
  ecutwfc     = 12.D0, nbnd= 1728,
  degauss     = 0.05D0,
  occupations = "smearing",
  smearing    = "methfessel-paxton",
/
&ELECTRONS
  electron_maxstep=200,
  conv_thr    = 1.D-8,
  mixing_beta = 0.3D0,
  scf_must_converge=.false.,
/
ATOMIC_SPECIES
Si  28.08  Si.pbe-hgh.UPF
K_POINTS {automatic}
1 1 1 0 0 0
ATOMIC_POSITIONS (angstrom)
Si -0.00710489979 2.7084731399999997 2.679705557924184 
Si 3.0999707099999996 2.40189534 0.04230505103846184 
Si 1.297801494 1.2330878399999998 1.229418342381945 
Si 0.00014809743989999997 -0.000930377286 5.430489414022366 
Si 1.9018900799999998e-05 2.71498914 8.145217613683192 
Si 2.71541268 0.000766268568 8.144632238686118 
Si 2.71459818 2.7151357499999995 5.429766303731864 
Si 1.3578627239999999 1.356943968 6.787182054297314 
Si -0.000347043789 0.00054043704 10.86090996039802 
Si 2.71388142 2.71580364 10.865214188317674 
Si 1.341755172 1.353925431 12.22590115210206 
Si 4.074340769999999 1.3561701929999999 9.500360731907062 
Si 0.8440305119999999 0.521398917 16.387228704823563 
Si 0.0634304907 2.83688721 13.617406387791165 
Si 1.97480412 3.5501774399999997 15.019999314601304 
Si 3.67588737 1.6750355399999999 14.935911917962942 
Si 0.174918762 0.19599313499999999 21.47795958378012 
Si 0.795240333 2.2928500799999996 20.584883941186945 
Si 2.73937527 1.5566854319999999 19.53169101998264 
Si 1.029526371 0.8877268079999999 24.843487044892633 
Si 0.682107912 3.8889442799999996 22.29231950617866 
Si 2.97382095 0.1479495267 23.758546138552962 
Si 1.004429997 3.19378482 24.57652161240401 
Si 3.2454404099999996 3.8978711999999995 25.099364786260224 
Si 3.3500710799999998 1.5553154429999998 28.47133137234054 
Si 1.376527806 2.4413823 29.462991051205467 
Si 3.49658334 0.380451321 31.82528906880502 
Si 1.600042896 1.9663658999999998 31.800117943930882 
Si 3.04404714 3.8177732699999996 32.39482450713364 
Si 1.358175492 4.07127825 4.0658425605519 
Si 2.7147284999999997 5.43414852 2.692576921095118 
Si 1.3048469189999998 6.7570431300000005 1.2401479217400586 
Si -0.00141253848 5.431525829999999 5.429766303731864 
Si 2.7146796299999996 5.43015747 8.145286481329906 
Si 1.3576102289999998 6.7875054299999995 6.787664127824314 
Si 1.3549191209999998 4.07295612 9.502736665718713 
Si 0.00181003077 5.429733929999999 10.855469416307576 
Si 1.353462795 6.76381977 12.22700303444949 
Si 3.5221097699999997 7.52964525 14.902545543129785 
Si 2.76956064 5.495969069999999 13.727250284300737 
Si 2.87751447 4.448131109999999 17.010721944352966 
Si 1.039894956 5.494046849999999 18.244485835242592 
Si 3.11130855 5.38503417 19.39688260153908 
Si 0.869477121 6.86776626 24.813942824452127 
Si 1.6757522999999999 7.253155079999999 22.62736060744453 
Si 2.5126184699999996 5.24987604 21.692654472412464 
Si 2.06351946 6.27239934 28.163217520940027 
Si 3.8536927199999997 6.78125007 29.622006447469165 
Si 0.6178911029999999 4.64457222 29.163347920350834 
Si 2.80772811 6.045935759999999 25.924295892429434 
Si 0.540034677 5.674116509999999 31.25317109372461 
Si 2.79595044 6.27557589 31.66654914312818 
Si 4.06590255 9.610269209999998 1.3657521792002343 
Si 2.23402689 8.69809437 0.25613461768983703 
Si 1.3607541989999998 9.503667449999998 4.069974619354768 
Si 0.543199824 10.460623499999999 0.00788310735028794 
Si 2.70980892 10.86617934 2.744730389951981 
Si 1.3462577279999999 12.174412949999999 1.4035639606288108 
Si 0.000265039929 8.145228059999999 8.14435676809926 
Si 2.7146470499999995 8.145048869999998 5.430902619902653 
Si 0.0007169587379999999 10.86072219 5.430282811082224 
Si 2.71498914 10.859875109999999 8.144907709272976 
Si 1.357225785 9.50229909 9.501979121604853 
Si 2.71448415 8.14627062 10.862803820682666 
Si 0.572047785 10.23420879 16.406993719430613 
Si 1.6338869999999999 9.092784779999999 14.715053374949655 
Si 2.8453580099999995 10.91794896 13.647157211171816 
Si 1.2455545769999998 11.471108489999999 21.480060047004912 
Si 3.1736503799999998 10.26818973 21.136376056076376 
Si 2.5120809 8.83295928 19.375533631057596 
Si 2.2590157499999997 10.75977306 17.986989704177212 
Si 3.23841942 9.0069039 23.069904105231675 
Si 2.7716620499999998 10.03639932 25.152737212463933 
Si 0.761275683 9.009151919999999 25.75343526093085 
Si 2.1620088 9.91095003 29.37907582368389 
Si 1.062560862 8.418004109999998 27.974141396885464 
Si 1.4584339259999999 12.008303819999998 28.601215754044016 
Si 3.24159597 8.43079176 32.63107496918761 
Si 1.243019853 9.444665070000001 31.48232818816699 
Si 0.27185240699999996 11.66124537 32.18271215525309 
Si 2.7015987599999995 16.278303779999998 2.705035078385764 
Si 3.9574763099999997 14.84445798 1.3062952964093015 
Si -0.0243253683 13.587423839999998 2.6981620872436602 
Si 1.359130086 14.93571456 4.072453854636488 
Si 0.000174483819 13.574538449999999 8.145011010743048 
Si 2.71363707 13.5723393 5.431453561076369 
Si 1.357678647 12.21745113 6.787905164587815 
Si 1.358242281 14.935242149999999 9.503459776009214 
Si 2.71722087 13.569749189999998 10.861116563338161 
Si 1.374600699 12.211684469999998 12.230274247668428 
Si 2.6406741599999997 16.26528807 13.636448292107715 
Si 1.302346404 14.77900476 14.949444410542334 
Si 3.4719202799999995 14.423605829999998 20.344776890916965 
Si 1.049030388 12.30797466 19.289070300607587 
Si 0.399078936 14.440140179999998 18.491445216360663 
Si 2.2457394 15.97188888 18.11425711530554 
Si 1.127028537 13.13835741 23.059608392047863 
Si 2.01372093 15.06451959 22.073423691096735 
Si 2.38790223 12.36520143 24.968412956032672 
Si 3.24174258 13.612477859999998 29.142446589572994 
Si 0.563938623 12.377288609999999 26.43339997076611 
Si 0.7166785499999999 16.15883292 26.97735107834031 
Si 2.89678554 15.6115215 27.708587751154493 
Si 0.1058432976 15.94900143 34.11104069708145 
Si 2.99468844 13.14282087 34.420497467592895 
Si 2.04115329 15.117527249999998 30.76820512556135 
Si 1.282334139 13.92622326 32.82590154174283 
Si 6.7898349 4.06342647 4.071317538465699 
Si 8.132375249999999 0.01318434408 2.7092738820410394 
Si 4.075448489999999 1.353409038 4.068046325246763 
Si 5.461450559999999 2.7051174000000002 2.691485368894693 
Si 7.05835926 1.47279519 1.1281897884763539 
Si 5.43066246 -0.0018390758399999998 5.4302483772588666 
Si 5.4291312000000005 2.7147122099999996 8.144425635745975 
Si 6.787896389999999 1.357408233 6.786493377830169 
Si 4.08817098 4.08545055 12.246423710822969 
Si 6.780077189999999 1.3427521199999999 12.218842218313826 
Si 7.13703996 3.6234661499999996 15.062043012920483 
Si 5.465930309999999 2.66918166 13.667232130189083 
Si 5.60076264 0.5331733289999999 18.524880458840535 
Si 7.35156297 3.7796546699999998 20.08524916427351 
Si 4.47069276 0.318462984 20.58753534558545 
Si 4.20332499 3.3149987100000002 18.70255898736385 
Si 4.51045665 1.608062463 22.61902762219208 
Si 4.14373617 3.97272375 22.827834327030335 
Si 6.53448915 1.76634099 23.91284410101672 
Si 7.32668814 4.030325189999999 24.154397371867702 
Si 5.82119892 0.798516252 25.91754686305142 
Si 4.50933264 2.6261434799999996 26.706666792929106 
Si 7.4564054099999995 0.55517949 27.59051417086254 
Si 8.13696903 2.7513158399999997 27.96518860281258 
Si 5.05882692 3.37800843 31.16687993239139 
Si 6.64263846 3.87052029 32.72473496871928 
Si 4.90301307 1.267645446 30.19123198138757 
Si 4.31429247 0.273039948 34.10281101329907 
Si 4.17273237 4.106513519999999 1.3496474800160567 
Si 4.06758042 6.792685649999999 4.071696310522629 
Si 6.68461779 6.71696973 1.3741299284230488 
Si 5.415805979999999 8.15400837 2.710186378360006 
Si 8.16124113 5.42214279 2.6910136255146995 
Si 4.07269548 4.072304519999999 6.787664127824314 
Si 5.43203082 5.43203082 5.428388950797576 
Si 6.7877497799999995 6.787489139999999 6.787664127824314 
Si 8.145114029999998 8.14392486 5.429904039025294 
Si 6.786446579999999 4.07372175 9.501669217194639 
Si 4.07277693 6.78766833 9.502082423074924 
Si 5.42702979 5.42859363 10.861460901571734 
Si 6.7860882 6.7825044 12.247835497580615 
Si 8.111980169999999 5.38032636 13.724323409315373 
Si 6.480161999999999 7.56307233 19.720044033746706 
Si 4.31551422 7.348060619999999 18.764367700290084 
Si 6.34322826 4.68182745 22.124282448195366 
Si 6.53504301 7.01999631 21.9932617503211 
Si 4.88209671 7.20277011 25.59342128378979 
Si 5.49922707 5.099421599999999 29.639429962087924 
Si 6.63561747 5.594930819999999 25.9060459660501 
Si 6.15783177 4.076148959999999 27.638893692679453 
Si 5.55044283 5.2883856 34.237894902329494 
Si 7.4203882199999995 6.16086171 30.452446965375536 
Si 7.22683044 6.362515619999999 32.82986143142891 
Si 8.146417229999999 10.847869379999999 2.691998432862716 
Si 6.789606839999999 9.502022160000001 4.070456692881769 
Si 4.88056545 11.355579809999998 -0.001117925065733563 
Si 4.07033343 12.219682859999999 4.075346295798496 
Si 6.668783909999999 12.156542819999999 1.362742663038812 
Si 4.0720927499999995 9.5027715 6.787629694000957 
Si 5.42947329 8.145472409999998 8.14535534897662 
Si 5.427469619999999 10.859386409999999 5.430041774318723 
Si 8.14666158 8.14640094 10.860978828044733 
Si 6.7888575 9.50334165 9.50311543777564 
Si 4.08318624 9.50599692 12.220804946245186 
Si 5.42561256 10.85950044 10.861288732454948 
Si 4.77098262 8.603970749999998 16.772267717604134 
Si 7.83343746 10.28739564 17.084341458690727 
Si 5.422028759999999 8.208693899999998 13.661068475808136 
Si 6.40130211 10.0416447 15.026472873392464 
Si 4.59192294 11.77597584 15.281007695649123 
Si 7.391962169999999 9.73654929 19.38906612363699 
Si 5.994850319999999 11.67157323 19.404733513264528 
Si 4.5448122600000005 10.975029119999999 17.519447250632712 
Si 6.55159365 10.38116088 23.97878487274582 
Si 5.38729848 8.30439765 23.5466059557892 
Si 6.50347299 10.47937329 26.352962559403615 
Si 7.7199613199999995 8.39150028 29.774686020235134 
Si 4.33498077 9.102347009999999 29.070273295816236 
Si 4.523276879999999 9.30636297 26.688003660669487 
Si 7.96910058 8.943552089999999 27.453880759781043 
Si 6.08631867 9.91031472 30.544213104622557 
Si 7.48062864 8.350253999999998 34.22109119653116 
Si 7.34560083 11.97515367 30.294705620576053 
Si 5.44779954 9.51440256 32.95151612935001 
Si 7.83962766 13.698456479999999 -0.008717576625527104 
Si 5.42577546 13.58779851 2.7152171599524975 
Si 6.78392163 14.93765307 4.0748986560948515 
Si 8.14477194 13.57562988 5.4298351713785795 
Si 4.0721253299999995 14.9325543 6.787423091060814 
Si 5.42988054 13.57483167 8.144838841626262 
Si 6.78685383 12.217532579999999 6.787491958707528 
Si 8.152069860000001 13.564601549999999 10.857122239828723 
Si 4.0730701499999995 12.21756516 9.503253173069071 
Si 6.7863162599999995 14.93258688 9.504974864236932 
Si 4.06818315 14.949837989999999 12.22114928447876 
Si 6.80281803 12.23724348 12.230274247668428 
Si 5.42220795 16.299122399999998 10.854160931020001 
Si 5.3151012 14.04831681 15.620525193951433 
Si 5.92384221 14.15442987 13.402194991808466 
Si 7.58742588 14.283039419999998 16.239025529094036 
Si 4.23238635 16.194214799999997 16.640696078556147 
Si 7.854207209999999 15.99415731 13.5749494835917 
Si 7.367722649999999 15.29031528 18.35963254054918 
Si 4.4358647399999995 12.26876463 21.062687674091897 
Si 7.64532054 13.36631967 19.72297090873207 
Si 7.51838886 13.22342379 22.113332492367768 
Si 5.524085609999999 12.41759007 23.14180192840158 
Si 4.5788746499999995 13.306616819999999 25.140272168408615 
Si 4.1221844999999995 15.52352292 25.604577842557536 
Si 6.47353197 15.917170769999998 29.551589278703627 
Si 5.81803866 13.55160213 29.071650648750527 
Si 6.2831996100000005 12.82891257 26.77756603522165 
Si 7.6533678 16.27038684 31.799532568933813 
Si 6.639478199999999 15.892165619999998 33.97864264627289 
Si 12.19409127 1.4442583679999998 1.358886074822802 
Si 9.49785192 1.358546904 4.074313281097779 
Si 10.58206545 0.261280197 0.12463563400913674 
Si 10.84887936 2.73991284 2.728911491501669 
Si 8.14498371 0.000375634368 8.144907709272976 
Si 8.145798209999999 2.71578735 5.431625730193155 
Si 10.86020091 0.00140644602 5.430730450785867 
Si 10.85979366 2.7150543000000003 8.144666672509477 
Si 12.221556210000001 1.336267071 12.225487946221772 
Si 9.50233167 1.356585588 9.503631945126 
Si 8.149382009999998 2.7151683299999996 10.864284475087029 
Si 10.30073715 1.4191815419999998 16.85067353338855 
Si 11.55412233 3.40446339 17.0080361061311 
Si 8.99799327 1.608876963 14.863463153619326 
Si 10.78020072 2.6192039400000002 13.527878447062363 
Si 11.041752959999998 2.49054552 21.01334400522099 
Si 8.781271109999999 1.83036069 20.67065859516981 
Si 9.20868813 0.423468324 18.79587464866195 
Si 12.09291408 1.1931740819999999 22.62687853391753 
Si 8.35111737 0.70830549 22.863473334205068 
Si 10.25255133 1.379562633 24.069035923765124 
Si 9.699668729999999 3.6459626399999996 24.441127818963373 
Si 10.995912899999999 0.26482978799999995 26.011482333169948 
Si 9.238889789999998 2.72354139 30.056561298237433 
Si 11.12791077 1.345234716 29.496495161332053 
Si 10.119771539999999 3.59049519 26.790065513100323 
Si 11.87767431 2.0344906799999998 27.341901966223325 
Si 9.07937811 2.20907061 34.40538101913907 
Si 8.255772 2.27144502 32.16453109652047 
Si 12.215561489999999 4.0713597 4.070525560528483 
Si 9.70869339 4.178466449999999 1.1906630741933801 
Si 9.506876579999998 6.78708189 4.071971781109487 
Si 9.50304843 4.07176695 6.787526392530885 
Si 8.14526064 5.42975022 8.14473554015619 
Si 10.85881626 5.42960361 5.429215362558149 
Si 9.502282799999998 6.787423979999999 9.501221577490993 
Si 9.49949721 4.091070599999999 12.229069063850924 
Si 10.85607954 5.4312326099999995 10.85942930599366 
Si 9.60627816 6.8235877799999995 14.905265815175007 
Si 11.15615763 5.67652743 16.39996921946574 
Si 10.0320336 6.27428898 20.843275351659617 
Si 12.20355576 7.349836229999999 20.63150733801264 
Si 8.24647041 5.93814483 19.282390138876284 
Si 9.98901171 6.88933422 18.097901049210854 
Si 8.77433157 7.59649941 22.288635087079438 
Si 10.864843559999999 4.517787149999999 22.09807830862051 
Si 9.82847376 7.3276818299999995 24.370297444317547 
Si 11.27755071 5.4544621499999995 24.157737452733354 
Si 8.534673089999998 6.94450845 26.326379647771834 
Si 9.44569134 5.068128509999999 29.887112453496496 
Si 10.092746429999998 5.77566837 27.696811383566317 
Si 11.963490029999999 7.25253606 27.981510235083913 
Si 11.78410455 7.8653007 30.312921113132028 
Si 11.25083511 5.68051848 31.318767527220135 
Si 11.452098059999999 5.197096439999999 34.11327889559967 
Si 9.38304 9.37878831 1.1985828535655436 
Si 10.84397607 8.13325491 2.6862445409797227 
Si 12.21626196 9.50269005 4.065429354671613 
Si 9.50262489 9.502152480000001 6.7875952601776 
Si 10.85964705 8.145309509999999 8.145011010743048 
Si 8.145667889999999 10.86011946 8.144838841626262 
Si 10.85964705 10.860152040000001 5.430110641965437 
Si 9.502250219999999 9.48340269 12.215329968331389 
Si 10.857659669999999 10.86055929 10.864938717730816 
Si 11.81585376 10.03742559 14.84734812428814 
Si 9.262412549999999 8.50707783 16.560258667193654 
Si 10.93171401 8.18772867 13.57171270419612 
Si 8.17445232 10.8488142 13.59819231435783 
Si 10.00794069 11.78669466 14.844972190476492 
Si 11.275286399999999 9.64446192 17.33935835447439 
Si 9.07786314 9.60264549 21.100220541551284 
Si 11.45726199 9.64126908 20.919959476276173 
Si 11.43290844 11.28113451 19.198853683411638 
Si 8.46030924 11.134882889999998 22.732796974564373 
Si 12.17633517 10.335434849999999 23.100378038902825 
Si 10.471179419999999 11.7810909 23.742121204811564 
Si 11.77338573 8.64401157 24.67431367073855 
Si 9.963925109999998 12.11707215 25.99925832587813 
Si 9.67841028 11.18012022 29.709055152916246 
Si 11.811504329999998 9.32226201 26.89260943905816 
Si 9.8072316 10.371354299999998 27.525158774130514 
Si 11.26800477 10.43947908 34.39880415887784 
Si 11.94726519 11.801371949999998 30.258928878107888 
Si 9.75595068 9.05336298 30.807184213601737 
Si 10.427261579999998 11.07083061 32.216629471259964 
Si 12.21230349 12.270263309999999 1.244944553333721 
Si 9.50269005 12.218298209999999 4.068872737007337 
Si 9.43420689 14.88666537 1.355067363812485 
Si 10.85462973 13.574310389999999 2.704201779860519 
Si 9.50220135 14.933352509999999 6.786837716063741 
Si 10.8598914 13.574408129999998 8.144322334275904 
Si 12.243661739999999 12.22771383 12.233097821183721 
Si 9.50159862 12.21958512 9.49925884955963 
Si 9.516699449999999 14.92118388 12.24514965935875 
Si 10.86248151 16.2911403 10.860565622164447 
Si 8.93320794 12.430133369999998 16.809835018886872 
Si 11.054312549999999 13.639144589999999 13.741574754817345 
Si 11.98707795 16.03950867 17.370727567552827 
Si 9.877408919999999 13.09888674 18.852277251321098 
Si 10.922966279999999 15.17910345 19.406833976489324 
Si 10.8269856 14.08777119 23.34206904504724 
Si 8.566047629999998 14.71487103 23.56774832333054 
Si 11.94661359 15.228266669999998 21.613112340457256 
Si 12.19500351 14.69100618 25.18672339611752 
Si 10.51100847 15.31251855 29.297433228503895 
Si 8.31874914 13.814864819999999 25.858906061874052 
Si 12.07712907 12.8798514 26.716721469349416 
Si 9.28298682 15.47189991 27.24331792995157 
Si 9.702291419999998 14.84494668 31.533703452615978 
Si 11.77393959 15.44394627 32.73740661571474 
Si 8.66390166 12.80076345 32.205059706611934 
Si 14.933287349999999 1.358041914 4.069630281121195 
Si 13.57470135 1.132519896e-05 8.145148746036478 
Si 13.57437555 2.7157221899999997 5.430420546375653 
Si 12.21738597 1.3581201059999999 6.787939598411172 
Si 14.93129997 1.355127633 9.502254592191711 
Si 13.577943059999999 2.71288773 10.863699100089956 
Si 13.615605539999999 0.1406297781 13.814230122101105 
Si 14.56185906 2.08526661 14.975269778060259 
Si 12.61026819 3.47265333 14.87248481533892 
Si 15.40421496 1.8542907 17.207545678662903 
Si 12.51174627 2.69783577 19.178124521750586 
Si 16.101133739999998 3.5380576799999996 18.750800773887335 
Si 13.799715119999998 0.786290607 18.547159142552662 
Si 15.39484821 0.5334812099999999 23.552080933702996 
Si 14.02225281 2.4904314899999997 23.421680044649158 
Si 15.01804422 3.57845688 25.351523674705234 
Si 14.225356529999999 2.65513968 27.38064001750021 
Si 15.833326139999999 1.251778986 28.487033195791437 
Si 15.75914148 0.969437448 32.15268586128559 
Si 13.05099414 3.3223292099999995 34.3607547840681 
Si 13.78485864 2.64293847 32.17765038321958 
Si 12.68269353 0.783019575 31.18657607935172 
Si 14.95358469 4.07471544 1.1860937058338754 
Si 13.58641386 5.44540491 2.681282627033945 
Si 12.261890249999999 6.9155285399999995 1.1749199301544537 
Si 14.93051805 6.78770091 4.0722128178729875 
Si 14.932375109999999 4.07240226 6.787526392530885 
Si 13.575010859999999 5.42992941 8.144632238686118 
Si 12.217516289999999 6.787489139999999 6.787319789590742 
Si 12.21828192 4.07430819 9.502908834835498 
Si 14.934818609999999 6.78687012 9.501979121604853 
Si 14.93822322 4.0888225799999995 12.211886585995666 
Si 12.221507339999999 6.781543289999999 12.21481346098103 
Si 16.17771303 8.03061162 13.550604770478136 
Si 13.25872422 6.6210216299999995 16.843132526073315 
Si 13.445423909999999 5.28426423 13.576533439466132 
Si 14.768709479999998 6.60844575 14.981777770674777 
Si 15.955387109999998 7.78318281 21.478889297010767 
Si 14.13395334 4.260584339999999 19.77434617318106 
Si 16.07668245 7.455607199999999 19.122376161735225 
Si 13.83597666 6.48848619 19.124648794076805 
Si 14.645736269999999 4.355326979999999 22.04222664713508 
Si 13.92987222 6.65765784 22.2246570432817 
Si 13.24401435 6.808177439999999 24.41320198822066 
Si 15.05982807 5.950997639999999 25.58426188677677 
Si 14.18453379 6.55133301 27.708553317331134 
Si 14.561354069999998 4.52477556 28.762916988529582 
Si 13.6055709 8.03155644 32.06019661174806 
Si 16.27538787 5.34984777 34.15880041007793 
Si 15.832039229999998 7.77678084 30.9186464998091 
Si 14.646453029999998 5.790785489999999 32.40863247029989 
Si 13.32551322 4.5669992399999995 30.79134465485741 
Si 14.93877708 9.56799666 1.225389585049149 
Si 13.58144541 10.87899957 2.692928146093361 
Si 16.272651149999998 8.1370179 2.693393002708684 
Si 13.576134869999999 8.14263795 5.429628568438436 
Si 14.93221221 9.502608599999999 6.787629694000957 
Si 13.575304079999999 10.85985882 8.145148746036478 
Si 12.216685499999999 9.501419429999999 9.503322040715785 
Si 13.57672131 8.14452759 10.86152976921845 
Si 14.926624739999998 9.500213969999999 12.216707321265677 
Si 16.2957015 10.857464189999998 10.863320328033025 
Si 13.40688177 8.89214085 16.49149432194926 
Si 13.68394209 10.90608984 13.639168564152937 
Si 15.23056356 11.89003842 15.212759857755088 
Si 15.306442379999998 10.99768851 19.44805126304793 
Si 15.315353009999999 9.29484594 17.824324322637647 
Si 14.424860159999998 11.02837887 23.444509669535005 
Si 15.62336433 10.10649519 21.632636318300804 
Si 15.35536125 10.655468189999999 25.631883864479818 
Si 14.063499089999999 10.58159304 29.43733785280433 
Si 13.502145689999999 10.94670081 27.130684893750065 
Si 15.17721381 8.412742439999999 28.764983017931012 
Si 13.1170338 8.76160908 34.297086644680576 
Si 12.21666921 14.93387379 4.067495384073046 
Si 14.93226108 12.21455151 4.072832626693418 
Si 14.82849378 14.859526229999998 1.1206315642494413 
Si 13.58269974 16.2909774 2.6843437939304033 
Si 13.57631406 13.57414749 5.429525266968364 
Si 12.21756516 12.21748371 6.787491958707528 
Si 14.93232624 14.932668329999998 6.7875952601776 
Si 12.217092749999999 14.930827559999999 9.502116856898281 
Si 14.93242398 12.219682859999999 9.50335647453914 
Si 13.569651449999999 13.5762489 10.857810916295868 
Si 14.927651009999998 14.936154389999999 12.253895850491489 
Si 13.936485959999999 13.36587984 16.731429203102458 
Si 15.744692249999998 14.904046799999998 16.444147814833066 
Si 12.50342208 14.873894009999999 15.37222289372243 
Si 16.225817399999997 13.39727067 13.63279830683185 
Si 13.86883359 13.975744859999999 21.043645769775353 
Si 15.116207759999998 15.54610086 19.86332317273615 
Si 13.49136171 12.445853219999998 19.234079484706086 
Si 15.00566382 13.27198428 23.04945041415748 
Si 14.44149225 14.91452127 24.63103035477851 
Si 15.56516016 14.34593511 26.67901643277325 
Si 15.74540901 12.27296745 29.891451115239505 
Si 14.66389962 16.21514745 30.05163726149735 
Si 12.23629866 13.724732249999999 28.899033892260718 
Si 14.56500303 14.139443069999999 28.88770516437619 
Si 13.350974489999999 13.74081048 33.99706474176901 
