&CONTROL
  dt          = 30.D0,
  prefix = 'x1.00_y.66_z3.15_struc2-scf',
  pseudo_dir = './',
  outdir='./',
  wf_collect= .true.,
  verbosity= 'high',
/

&SYSTEM
ibrav= 6, celldm(1) =30.783621515, celldm(3) =2.102903110474409, nat=  432, ntyp= 1,
  ecutwfc     = 12.D0, nbnd= 1728,
  degauss     = 0.05D0,
  occupations = "smearing",
  smearing    = "methfessel-paxton",
/
&ELECTRONS
  electron_maxstep=200,
  conv_thr    = 1.D-8,
  mixing_beta = 0.3D0,
  scf_must_converge=.false.,
/
ATOMIC_SPECIES
Si  28.08  Si.pbe-hgh.UPF
K_POINTS {automatic}
1 1 1 0 0 0
ATOMIC_POSITIONS (angstrom)
Si 0.004731202439999999 2.7151520399999995 2.7023521015377856 
Si 2.7042866099999996 0.00873590346 2.685919358423865 
Si 1.261476423 1.3797695159999999 1.175230598309932 
Si 4.06619577 1.36269108 4.069955756976848 
Si -0.000957065193 -0.0005290992 5.430238842886111 
Si 0.000330235767 2.71492398 8.144878676245792 
Si 2.7156896099999996 -0.0001526496804 8.145289751745826 
Si 2.71432125 2.7157384799999997 5.431335044219539 
Si 1.357321896 1.3580060760000001 6.787199068503421 
Si 2.71630863 2.71324611 10.858251026813697 
Si 1.3775687369999998 1.3631960699999999 12.204214982805055 
Si 1.357383798 4.071571469999999 9.501667620404753 
Si 0.0842137614 2.6881432199999997 13.587072964924603 
Si 2.80091889 0.0628078869 13.552097291129913 
Si 1.2736531979999999 4.00595535 15.151763343226538 
Si 2.95492455 2.9255699699999997 16.489574301800523 
Si 1.65462417 1.467100206 17.828926793499644 
Si 2.9845560599999996 2.31796926 21.102766332074335 
Si 1.0672116569999999 1.2693819599999998 20.129956161240237 
Si 2.4750537299999995 2.2372360199999997 23.407426866731907 
Si 0.987038793 4.0442531399999995 23.639958574585343 
Si 1.5084751769999998 0.33032373299999995 24.39822159069256 
Si 1.6430094 0.7028010989999999 26.75385548735454 
Si 0.32713740899999993 3.1926445199999995 29.467159325339104 
Si 0.165092634 2.4865055999999996 27.25944409610658 
Si 3.91911336 0.6671211119999999 27.605501154553167 
Si 3.8828681099999995 0.7944909929999999 31.229919582074828 
Si 0.21313998899999997 1.163438316 30.672912279526678 
Si 2.0410229699999998 2.2942998899999996 31.70680141840772 
Si 1.83811473 3.21313734 33.89111960042989 
Si 1.360096083 4.06758042 4.073860974227186 
Si 2.7352539 5.42274552 2.694527964520442 
Si 1.4685793379999998 6.77896947 1.2689147047680311 
Si 0.000947421513 5.430222629999999 5.429142641552683 
Si 2.71445157 5.4304995599999994 8.14426206299574 
Si 1.358643015 6.78688641 6.787438862545108 
Si 0.000337953969 5.43365982 10.861471118230641 
Si 1.33978734 6.7829279399999995 12.220212671014773 
Si 3.5859665699999996 7.195863149999999 14.939477103749853 
Si 2.58561396 5.40652068 13.65928522776418 
Si -0.00336092022 8.10927603 13.654831909847129 
Si 3.18503709 4.76166474 20.799769432256475 
Si 2.05662879 5.2626474 18.847263575962682 
Si 2.4439724099999998 7.572976649999999 18.683141682573492 
Si 0.042705049499999995 7.236360089999999 22.175365080542065 
Si 1.93912902 5.8474584 22.499737906361773 
Si 3.46963968 7.2216665099999995 23.567883336912445 
Si 3.9925161 6.739449929999999 25.809341013439553 
Si 0.854609238 4.34670957 25.96811892532828 
Si 3.1649841 4.60373319 26.365560421279305 
Si 0.412588233 7.432117019999999 28.411414672372835 
Si 4.00070997 4.8237948 28.56221086830254 
Si 0.422974737 5.218794719999999 34.14125904220152 
Si 1.538930961 6.4246131 30.43692068621461 
Si 3.4828671599999996 7.531176509999999 31.32631678683316 
Si 0.0591287904 6.79441239 32.314131213418555 
Si 2.32834599 4.2328098899999995 30.10617619014435 
Si 3.3684136199999997 7.478185139999999 33.97090250372845 
Si 4.04897724 9.355689089999998 1.1939687898532187 
Si 1.360338804 9.503309069999998 4.074717381518926 
Si 2.7074468699999996 10.82964087 2.697658989579046 
Si 1.193025843 12.06789264 1.384361833323845 
Si -0.00014952542129999998 8.14488597 8.144912932537462 
Si 2.71441899 8.145 5.4305814058028075 
Si -0.000780465303 10.85894658 5.430033305136093 
Si 2.7152497799999997 10.860217200000001 8.14515272657915 
Si 1.356683328 9.502738919999999 9.502215721071469 
Si 2.71764441 8.143761959999999 10.865890179856024 
Si 0.00040401154799999994 10.8592398 10.861334093063963 
Si 1.359369549 12.202219979999999 12.253852349434347 
Si 1.7580168 8.96567391 15.006242616213958 
Si 2.75097375 10.83609171 13.808094558777045 
Si 0.84745467 8.82654102 17.326112944372845 
Si 1.08506061 11.243748959999998 17.554259846892567 
Si 2.1933996299999996 9.307438109999998 20.327477939007313 
Si 2.96033283 11.15684181 18.986686683058068 
Si 3.2739316199999995 9.31980222 22.476169577693067 
Si 2.00150343 10.917101879999999 23.74077484096906 
Si 0.426522699 12.153382559999999 22.44629809135715 
Si 0.7111757879999999 9.58477536 25.227258105389232 
Si 3.51323172 10.90348344 29.87552857833274 
Si 3.69139545 8.53336989 27.261122654398395 
Si 1.5101318699999997 9.26830953 27.39595541841005 
Si 1.7025656399999998 11.36124873 28.452556478668058 
Si 2.86946721 9.821729699999999 31.923027131426416 
Si 0.5424309359999999 9.27985914 32.619765847694985 
Si 4.05234927 14.90922702 1.3102072387466008 
Si 0.009258519239999999 13.579572059999999 2.7274311326691203 
Si 3.1088650499999995 12.905149769999998 0.27568812666174997 
Si 1.3582357649999999 14.93289639 4.070435345060223 
Si -0.000310216986 13.57486425 8.144947188829132 
Si 2.71459818 13.57455474 5.430375868052789 
Si 1.3571736570000001 12.21743484 6.787712912878464 
Si 1.3569798059999998 14.93327106 9.501496338946405 
Si 2.71487511 13.57730775 10.8606147109389 
Si -0.0172154349 13.45433454 13.79463183615088 
Si 1.097382366 15.36166548 14.736679857065653 
Si 2.87803575 16.02387027 16.618754777686693 
Si 0.09457436429999999 15.50345364 20.910348741766033 
Si 3.5082469799999996 13.21091307 20.258965355668057 
Si 3.09234699 12.79802673 24.854652420898688 
Si 1.71735696 13.96821888 21.696427866708994 
Si 2.8916378999999997 14.833934639999999 23.548117456619067 
Si 3.9936401099999994 14.65849134 28.079813769010837 
Si 1.13138937 15.39027072 29.942465372255196 
Si 2.34009108 13.25251773 27.09552774046741 
Si 0.792143604 14.973882029999999 27.650171358890358 
Si 3.3824230199999996 14.89784031 30.302601766577993 
Si 0.46265228999999997 13.613732189999999 31.331420974291937 
Si 3.96593082 12.7915596 31.175315053153444 
Si 2.13112296 12.333077549999999 32.47027139084872 
Si 5.444834759999999 2.7001815299999996 2.6994231886000324 
Si 6.80065146 1.2517268579999998 1.3562305666047463 
Si 5.432324039999999 0.00017785421999999998 5.429211154136022 
Si 5.43015747 2.71480995 8.145221239162488 
Si 6.78757059 1.357675389 6.787473118836778 
Si 4.0723696799999995 4.06275858 12.263375598518504 
Si 4.0711479299999995 1.359141489 9.502147208488129 
Si 5.43209598 -0.0026593262099999996 10.861162811605615 
Si 6.80809599 1.3564226879999999 12.246521503017046 
Si 5.4842891400000005 2.5635573 13.78192275194145 
Si 4.83746211 0.684463446 15.26039004411093 
Si 6.149279519999999 2.5795052099999998 16.2286098718613 
Si 4.5130304699999995 1.046963187 19.849876720549357 
Si 8.06535819 0.18494688599999998 17.790559746829665 
Si 6.290758169999999 0.5659797599999999 21.281789712339812 
Si 6.518932199999999 1.85098383 18.940406433012402 
Si 4.14684756 3.0146111099999997 24.88551733969302 
Si 6.401383559999999 2.83617045 21.94605346410557 
Si 5.28343344 1.4776561259999998 29.48812417584092 
Si 6.00604155 3.6426068999999996 28.93974945879351 
Si 5.453110079999999 1.375371216 25.946331923826396 
Si 7.01437626 2.85980724 26.98789447204144 
Si 4.11431643 3.5289026999999997 33.33085795017312 
Si 5.37931638 1.6062575309999998 32.79563764912685 
Si 7.80597252 2.83558401 34.000431427147674 
Si 4.3908065999999994 4.25274885 1.2867451045820726 
Si 6.7872285 4.0752692999999995 4.070195551018536 
Si 4.07155518 6.78524112 4.071976878185356 
Si 6.813569429999999 6.9752965499999995 1.2137894802132656 
Si 4.0720927499999995 4.07293983 6.787507375128448 
Si 5.42960361 5.42966877 5.430410124344459 
Si 6.787375109999999 6.78753801 6.787610144003457 
Si 6.78924846 4.07219049 9.501222288613048 
Si 4.0728583800000004 6.786674639999999 9.502592540279833 
Si 5.43139551 5.42922894 10.865650385814336 
Si 6.7756300199999995 6.802427069999999 12.231345965807401 
Si 8.06612382 5.37337053 13.558057885880428 
Si 7.591905629999999 5.446936169999999 15.874399815997343 
Si 5.3182614599999996 6.01529427 20.636983534242404 
Si 6.507398879999999 4.12065324 19.949665298182985 
Si 4.254948 7.08083946 17.204708646695682 
Si 5.07443274 4.58827398 17.510720100180468 
Si 5.494779899999999 6.26083344 22.926742582023685 
Si 6.88086342 8.06473917 23.36039297826951 
Si 5.85035802 4.14842769 23.795310857307104 
Si 7.32771441 4.6805242499999995 25.55748875708445 
Si 4.422018239999999 7.142627429999999 29.10483052834945 
Si 6.742431 7.00113249 28.816666602824537 
Si 6.33280266 6.61338162 26.47089851816341 
Si 5.327318699999999 5.84877789 33.99834179335583 
Si 7.4750900399999995 5.13255546 30.092542186059838 
Si 7.29554166 4.993911269999999 32.57862404139976 
Si 8.14737834 10.85153463 2.723272418860427 
Si 5.43234033 8.15032683 2.704835682683833 
Si 6.78602304 9.502217639999998 4.073107335810454 
Si 5.001160319999999 11.28321963 0.1396032951895687 
Si 6.784719839999999 12.170617379999998 1.3900278239660013 
Si 4.07227194 9.50213619 6.787712912878464 
Si 5.42975022 8.145162899999999 8.144947188829132 
Si 5.43004344 10.85958189 5.430238842886111 
Si 8.150440859999998 8.14247505 10.861539630813981 
Si 6.787342529999999 9.50321133 9.502352746238147 
Si 4.07222307 9.5228082 12.239224912891416 
Si 5.42528676 10.860575579999999 10.860751736105579 
Si 8.09135703 10.79551332 13.605537106134532 
Si 6.05536767 10.72489617 16.66599420389911 
Si 5.4528168599999995 8.24200695 13.667849300681587 
Si 7.06495671 9.27173043 15.09452107984659 
Si 4.38083712 12.02814504 15.18482066468773 
Si 7.717811039999999 11.37436218 18.470307342430093 
Si 5.95078587 8.29752327 19.948569096849557 
Si 4.7153848499999995 9.33998553 18.17395616319614 
Si 6.339497849999999 11.54607507 22.904715786480114 
Si 5.57569233 9.5161293 21.982673439900402 
Si 5.35621716 12.08169027 25.051215022499015 
Si 6.91197732 8.716990769999999 25.611750723089138 
Si 7.305576299999999 9.177378749999999 29.582431746807405 
Si 5.66294157 10.6789095 28.81341225511592 
Si 5.316909389999999 10.17155745 26.529613802085155 
Si 7.96620096 8.535406140000001 34.0627778779864 
Si 7.459630829999999 10.01652552 32.10986094619257 
Si 5.87966373 12.01643253 32.29933249541728 
Si 4.07476431 12.218347080000001 4.068448480143385 
Si 5.43900294 13.58225991 2.715068037005551 
Si 6.786397709999999 14.931739799999999 4.07536825106065 
Si 4.07263032 14.93252172 6.787473118836778 
Si 5.42968506 13.57535295 8.144810163662452 
Si 6.787652039999999 12.21748371 6.787610144003457 
Si 4.07310273 12.21686469 9.5010510071547 
Si 6.787423979999999 14.932016729999999 9.5029693594882 
Si 4.078282949999999 14.917420889999999 12.233983700265961 
Si 6.78030525 12.227094809999999 12.23319580555756 
Si 5.4579645 13.575108599999998 13.73026426410365 
Si 6.48286614 15.282349469999998 15.027275979299109 
Si 6.46183575 14.86563498 18.324409796209146 
Si 7.3051527599999995 13.26815613 19.899959418970354 
Si 4.14823221 15.16561533 18.94218776017922 
Si 5.133353669999999 15.350571989999999 22.725760918797977 
Si 6.493633829999999 15.9638742 24.553710898581002 
Si 5.562578879999999 13.29301467 21.536690778653515 
Si 6.74770896 13.928324669999999 25.82821623014952 
Si 6.8804561699999995 12.59775747 29.467227837922447 
Si 7.12534374 16.280291159999997 29.100411466724065 
Si 6.25189023 14.341357619999998 28.06833791130151 
Si 8.08686099 15.47686836 31.34666502408492 
Si 6.612453089999999 14.373286019999998 32.83931442100563 
Si 5.602407929999999 16.04478663 34.22227517200019 
Si 9.50513355 1.356122952 4.073038823227114 
Si 10.67289849 0.1427306994 0.005732208053953884 
Si 10.86306795 2.7137348099999996 2.7026021724669733 
Si 9.378527669999999 3.95008065 1.3141056047386046 
Si 8.14498371 4.08857823e-05 8.145255495454158 
Si 8.145798209999999 2.7161945999999997 5.429587973344389 
Si 10.859402699999999 -0.0016856729099999999 5.430855456136165 
Si 10.859321249999999 2.7152660699999998 8.14508421399581 
Si 9.50075154 1.358284635 9.502592540279833 
Si 8.14428324 2.7164389499999997 10.856092880438512 
Si 8.44532244 3.3423333299999998 16.69812660548522 
Si 8.227818359999999 0.1128794373 13.856327417447881 
Si 9.848640779999998 1.3227333389999998 15.415296995040986 
Si 10.801752389999999 2.7283143599999997 13.71529426464402 
Si 12.056147549999999 3.2333043599999995 20.581248547695917 
Si 9.81522999 2.55779064 20.328916703257434 
Si 9.57262302 0.336913038 19.698909243161307 
Si 8.64793746 2.63907774 22.375147773559334 
Si 11.90339622 3.33936855 22.955415098151164 
Si 8.55545913 0.6111503009999999 23.64019836862703 
Si 11.840500529999998 1.160998074 23.918941813942798 
Si 9.87962436 1.0692560519999998 25.549438528542087 
Si 10.36061919 1.479540879 29.204927412608104 
Si 10.95766398 3.3331294799999998 26.076471575879314 
Si 8.56849113 1.277570943 27.699260624852936 
Si 10.99166121 3.6016701299999996 28.442553641500528 
Si 8.86949775 0.9939033989999999 32.91735025342904 
Si 10.63943883 1.64313972 31.532505406392655 
Si 11.21734287 4.01178717 32.02096586930988 
Si 10.85300073 8.12335059 2.708648407946663 
Si 12.092881499999999 6.69338181 1.2360629210568577 
Si 8.13749031 5.43927987 2.6894340539491686 
Si 9.502543439999998 6.78875976 4.07437481860223 
Si 9.502738919999999 4.07225565 6.787781425461804 
Si 8.145228059999999 5.42981538 8.14504995770414 
Si 10.85964705 5.43106971 5.43030735546945 
Si 9.490016429999999 4.05779013 12.228194386973795 
Si 10.8615204 5.43377385 10.860477685772223 
Si 12.20964822 6.7971816899999995 12.214594639180953 
Si 9.50158233 6.786397709999999 9.5018389018631 
Si 8.56627569 7.72431075 16.1943193239 
Si 10.90405359 8.09158509 13.719644813686065 
Si 11.629626479999999 4.57677324 14.906830857788696 
Si 9.897201269999998 6.21329922 14.849109006325373 
Si 10.1581182 6.029336249999999 19.483437168559345 
Si 8.684345610000001 4.2051006 19.07869908248269 
Si 9.593897759999999 7.97154408 18.29371615887316 
Si 9.22546683 7.879994279999999 23.05160676515948 
Si 9.8833059 4.436744399999999 23.190344746421474 
Si 10.36379574 6.26339097 21.846436167930296 
Si 10.2011238 7.4916081 25.264597463309126 
Si 9.59829606 5.16236616 25.369935560193234 
Si 10.39635945 7.14977874 30.974093595886046 
Si 8.98900119 6.6868821 32.970173455183605 
Si 9.88617294 4.9632209099999995 30.098057449018647 
Si 10.613684339999999 5.32632501 34.1140938029075 
Si 9.473286599999998 9.49452876 1.3657846463514054 
Si 11.0737791 10.561637789999999 0.09086926697160566 
Si 12.192657749999999 12.1880151 1.4194060197018743 
Si 9.501354269999998 12.217548869999998 4.07067513910191 
Si 12.219764309999999 9.502413119999998 4.073004566935445 
Si 8.14438098 8.14315923 5.431060993886182 
Si 9.50213619 9.50251086 6.787747169170134 
Si 10.86033123 8.144739359999999 8.144947188829132 
Si 8.14470678 10.860477839999998 8.144741651079114 
Si 10.859875109999999 10.858848839999999 5.429724998511067 
Si 9.51068844 9.49654872 12.238094455266317 
Si 10.862758439999999 10.859418989999998 10.858662102313733 
Si 12.200395499999999 12.209420159999999 12.216410222639443 
Si 9.64843668 11.99113416 14.911489713455767 
Si 11.51235477 11.47575114 18.531180772727023 
Si 11.87399277 9.10485567 20.988590111939466 
Si 8.145781920000001 9.24841944 19.60723940665338 
Si 11.552183819999998 9.12251403 18.670227060614042 
Si 9.62170479 12.17535777 17.225947547530854 
Si 9.5527818 9.652476599999998 21.557861166905344 
Si 8.760647969999999 11.56487373 22.789820184220183 
Si 9.6692553 11.4238512 25.001098067786344 
Si 11.95642017 11.898248579999999 25.22359268218058 
Si 11.06393994 8.94640284 29.479183283715145 
Si 9.082408049999998 9.390777749999998 26.132549125342496 
Si 9.230272379999999 9.928331459999999 28.416279065789926 
Si 11.35211004 10.71723987 30.96785895080217 
Si 9.47048472 11.4443766 32.375758282132225 
Si 12.216457440000001 14.93569827 4.0767385027274345 
Si 9.53611713 14.87324241 1.3244373023061644 
Si 10.86125976 13.580875260000001 2.728654082281726 
Si 8.17428942 16.267210289999998 2.7251839199355925 
Si 8.14416921 13.57634664 5.430101817719432 
Si 9.50233167 14.932603169999998 6.787781425461804 
Si 10.860152040000001 13.574913119999998 8.144912932537462 
Si 9.503374229999999 12.21609906 9.502215721071469 
Si 8.14491855 13.57492941 10.864588440772577 
Si 9.48804534 14.949723959999998 12.247514935475467 
Si 10.860347519999998 16.28845245 10.865684642106007 
Si 11.820626729999999 16.20970659 16.477550343424486 
Si 10.81828674 13.54067154 13.602214245842578 
Si 9.299716649999999 13.335124319999998 21.310256690717274 
Si 11.531137139999998 12.632585489999999 20.615744633407235 
Si 11.48987457 15.670817099999999 18.718185868951522 
Si 12.14818605 14.226773759999999 24.638529476755004 
Si 9.615302819999998 15.60225249 21.8851115212253 
Si 11.97536544 15.464878919999999 22.551601931949588 
Si 11.33292042 15.77315088 28.34177163140848 
Si 10.746952829999998 13.76319294 29.413650997751148 
Si 8.98804008 13.344181559999999 26.237544659309904 
Si 10.58807646 15.187443929999999 26.152623312260896 
Si 9.16130052 12.30443973 28.364346527618764 
Si 8.250656939999999 13.34375802 34.22306306670858 
Si 8.90836569 13.2970383 30.778798477077498 
Si 12.084084899999999 16.10662347 32.38538430009139 
Si 12.21676695 4.0729887 4.0698187318101695 
Si 15.60114477 0.362608884 0.09802061042055722 
Si 13.55438772 -0.00449460648 2.716743169668196 
Si 12.233268719999998 1.376552241 1.2840936676068435 
Si 14.936121809999998 1.35819504 4.0713602649353025 
Si 14.99821929 4.06569078 1.2298248503438185 
Si 13.57535295 -0.000582911586 8.144741651079114 
Si 13.57320267 2.71334385 5.429896279969415 
Si 12.217597739999999 1.3572616229999999 6.787781425461804 
Si 16.289136629999998 -0.0015063851699999998 10.862498806980732 
Si 14.932928969999999 1.3571378189999999 9.501975927029779 
Si 13.57667244 2.7146959199999996 10.863081163939114 
Si 12.217972409999998 1.3651850789999997 12.25189974080918 
Si 14.92753698 4.06865556 12.245151251350261 
Si 15.664431419999998 1.553111406 16.9249717689215 
Si 15.440590529999998 4.01859639 16.50375640655175 
Si 15.603962939999999 0.703706823 14.719311917189152 
Si 15.63624972 2.8272761099999997 20.400580865430296 
Si 13.67934831 1.63051497 20.052639710941886 
Si 13.988956049999999 0.18720467999999998 18.12229767535834 
Si 15.22808748 3.9114407699999996 22.5135774481963 
Si 15.365249279999999 0.336002427 24.03106265657749 
Si 13.69224999 3.9045663899999994 24.32820173051984 
Si 14.302554839999999 0.1079754957 21.880110102641538 
Si 13.803966809999999 1.7046833399999999 25.109142411712355 
Si 14.14387395 1.94903334 27.367899515532624 
Si 13.259164049999999 3.9952691099999997 28.119516811055934 
Si 13.95194517 2.32836228 34.11614918040768 
Si 13.408689959999998 2.81258253 31.750306908828147 
Si 14.293855979999998 0.33591609 30.806820123663254 
Si 13.577829029999998 5.42903346 2.6821511663402053 
Si 14.933173319999998 6.7860393299999995 4.069099349685107 
Si 13.57419636 8.14612401 5.430375868052789 
Si 14.932994129999999 4.0718809799999995 6.78723332479509 
Si 13.574945699999999 5.43038553 8.144604625912436 
Si 12.21740226 6.787521719999999 6.787849938045143 
Si 12.216343409999999 4.07215791 9.503209153529887 
Si 14.932228499999999 6.78662577 9.502249977363137 
Si 13.4807895 5.45490198 13.646165068054712 
Si 14.58513747 7.07160303 14.975446210002962 
Si 16.10222517 4.45085154 18.754429025537988 
Si 14.385275459999999 5.92403769 19.2978365802933 
Si 12.23600544 4.97522664 18.953047004638492 
Si 15.13345887 8.06249115 18.583387361231534 
Si 12.55673925 7.21436859 22.291493909302105 
Si 15.83819685 7.715074319999999 24.44309733277977 
Si 14.472752759999999 5.968737449999999 21.610752881243254 
Si 12.4739046 7.4854993499999996 26.050025718710362 
Si 15.90063642 6.270737759999999 26.395774470531915 
Si 13.67209926 5.40963207 26.2378872222266 
Si 14.46468921 6.479119439999999 30.97960885884486 
Si 12.563825399999999 7.232336459999999 32.065327767022055 
Si 14.5723824 4.32872541 30.04324738234724 
Si 14.93069724 12.21771177 4.075471019935659 
Si 16.293257999999998 8.13967317 2.692106044699399 
Si 12.853901429999999 8.72319726 0.07190258596288265 
Si 14.810037209999999 9.46326825 1.3636744587845566 
Si 13.57155738 10.85847417 2.736618670094914 
Si 14.93219592 9.50275521 6.788329526128519 
Si 13.57520634 10.860038009999998 8.144947188829132 
Si 12.21694614 9.502185059999999 9.501975927029779 
Si 13.57269768 8.14514661 10.862361781814053 
Si 14.946384509999998 9.514891259999999 12.232990267807542 
Si 12.999501449999999 8.864056889999999 14.848012804991946 
Si 13.49269749 10.82573127 13.613416053218549 
Si 13.631830379999998 11.567740769999999 17.310320793913146 
Si 16.14019716 9.00289656 20.584400126529523 
Si 15.2462997 11.15109144 20.844610918052016 
Si 15.409672109999999 12.134535029999999 18.703147356908556 
Si 13.39758018 9.21300498 17.255613496116748 
Si 13.01253345 11.050549559999999 21.595919906950304 
Si 13.43954322 10.75170951 23.870777467855298 
Si 13.55264469 8.357698529999999 24.175521438548312 
Si 15.184185929999998 10.97120097 25.67313799776111 
Si 16.07436927 11.91660741 29.783413410033113 
Si 14.792541749999998 8.30167722 29.46304857033875 
Si 13.29681024 11.05511076 27.105359296176594 
Si 12.939407639999999 8.84815785 28.001572398837403 
Si 15.27975936 10.05037614 31.03935183151669 
Si 13.15376775 9.58404231 32.06995236639745 
Si 15.86183364 10.995766289999999 34.24012269996006 
Si 13.99910472 13.0038183 0.1495338515816772 
Si 14.82541497 14.817954149999998 1.4394253965536052 
Si 13.57496199 13.57470135 5.431163762761191 
Si 12.21769548 12.217581449999999 6.787815681753473 
Si 14.932163339999999 14.93248914 6.787815681753473 
Si 12.217728059999999 14.93159319 9.502421258821487 
Si 14.93169093 12.21813531 9.50187315815477 
Si 13.579409159999999 13.57352847 10.85890189635542 
Si 14.94765513 14.908200749999999 12.229050794265536 
Si 12.548105549999999 14.52445722 14.947082000500512 
Si 14.165865449999998 12.621834089999998 15.094726617596608 
Si 13.59222939 16.17895107 13.648460239596577 
Si 12.82089789 14.56345548 20.331759975466017 
Si 15.03435051 14.39322498 19.361005182132097 
Si 15.271467749999998 12.68929098 24.21358017859327 
Si 14.40925434 14.700731309999998 25.052996349665833 
Si 14.79169467 14.58626148 27.393763015743193 
Si 14.172218549999998 12.631754699999998 28.619761438307513 
Si 13.635479339999998 16.25673582 28.550118397343162 
Si 15.20656839 15.11001756 32.42460775405311 
Si 13.12801326 13.93093107 32.366029495298044 
Si 12.542729849999999 12.682530629999999 30.346278538456772 
