&CONTROL
  dt          = 30.D0,
  prefix = 'x1.00_y.66_z3.19_struc38-scf',
  pseudo_dir = './',
  outdir='./',
  wf_collect= .true.,
  verbosity= 'high',
/

&SYSTEM
ibrav= 6, celldm(1) =30.783621515, celldm(3) =2.1298470991719882, nat=  432, ntyp= 1,
  ecutwfc     = 12.D0, nbnd= 1728,
  degauss     = 0.05D0,
  occupations = "smearing",
  smearing    = "methfessel-paxton",
/
&ELECTRONS
  electron_maxstep=200,
  conv_thr    = 1.D-8,
  mixing_beta = 0.3D0,
  scf_must_converge=.false.,
/
ATOMIC_SPECIES
Si  28.08  Si.pbe-hgh.UPF
K_POINTS {automatic}
1 1 1 0 0 0
ATOMIC_POSITIONS (angstrom)
Si 2.0438248499999996 3.13949025 0.177750149054513 
Si 1.2495635459999999 1.200283038 1.208402912332851 
Si -0.00267911856 -0.0009751633829999999 5.429800246922579 
Si -0.000572098284 2.71536381 8.145116712894813 
Si 2.71461447 0.000203638032 8.145255493731796 
Si 2.71321353 2.7143049599999998 5.43087579840919 
Si 1.3574913119999998 1.3576770179999997 6.787527870327187 
Si 0.00231112746 0.0007610183009999999 10.86081482616875 
Si 2.7178235999999996 2.7163575 10.862757757886499 
Si 1.3676546429999998 1.3251377429999998 12.222879350729048 
Si 0.11532049379999999 3.58889877 17.015744946322524 
Si 1.5254721629999999 3.51883548 14.977956526496639 
Si 3.62260278 1.9010755799999999 14.98142604742119 
Si 2.2033528199999997 3.2927139899999998 20.51038520236744 
Si 2.81406492 1.164397797 19.660595442317124 
Si 0.679762152 0.0843255108 19.49326044812602 
Si 0.788921442 2.21078106 22.193206936402493 
Si 1.9695424499999998 0.492632406 23.30994163638778 
Si 3.7379359799999996 0.5134591709999999 21.776933815874845 
Si 2.6079801299999996 1.496479221 25.354842574108993 
Si 0.60087294 2.75095746 25.70758876650811 
Si 2.2670793 0.304895043 27.39616990527792 
Si 3.5760948299999997 3.70196766 28.711638763821494 
Si 1.8731708099999997 2.08195974 28.97331003195114 
Si 2.27633202 3.0371401799999997 32.54476548126563 
Si 2.6700939 1.2301621559999998 31.03170740606886 
Si 3.92953896 4.1239275300000005 1.2741260472066238 
Si 1.3608942929999999 4.07339595 4.069748044498521 
Si 2.6927369999999997 5.43866085 2.7226753198532085 
Si 1.18203498 6.566499 1.2633115504847978 
Si -7.15955274e-05 5.429522159999999 5.4303900654797514 
Si 2.71655298 5.430173759999999 8.144977932057833 
Si 1.358092413 6.787407689999999 6.787493175117942 
Si 1.358670708 4.07162034 9.503781106949052 
Si -0.00447683409 5.433513209999999 10.867129354251434 
Si 1.3653365759999998 6.79451013 12.248553805570726 
Si 2.7255124799999995 8.13638259 10.854534993295314 
Si 2.60812674 5.362944929999999 13.816707873049364 
Si 0.125858169 7.660160729999999 15.885305638685262 
Si 1.88087598 6.78040299 17.70118350017685 
Si 3.31389099 7.92482436 21.310977155707622 
Si 1.135816992 4.68081747 18.871522298446454 
Si 3.4909144199999997 6.064555229999999 22.722968086372216 
Si 1.4722706519999997 6.11533116 24.002596793765175 
Si 1.3650515009999997 4.9380039899999995 26.099609935773145 
Si 3.1794333299999997 5.35007583 30.33599907027786 
Si 1.295017533 6.63810984 29.674500210802936 
Si 3.51565893 5.275141829999999 26.93784619114471 
Si 3.56814531 7.619012189999999 27.58314238790198 
Si 0.1441798578 5.25969891 28.11554037377436 
Si 0.240821586 4.71756771 34.68795794677937 
Si 2.9167733699999996 7.697969819999999 34.64108471908869 
Si -0.001141987644 6.3983699099999995 31.59668419342277 
Si 0.1354668255 4.13925642 32.362060509378765 
Si 3.8933588699999997 9.28570725 1.4192352903550518 
Si -0.01598687568 8.14030848 2.6823560171889995 
Si 4.07344482 12.221719109999999 4.0738420791894905 
Si 1.3592815829999998 9.504824039999999 4.0702337774279576 
Si 2.7038956499999998 10.85264235 2.704252163743842 
Si 1.308678327 12.085518419999998 1.209006608973723 
Si -0.000411146568 8.14550499 8.145116712894813 
Si 2.7146633399999995 8.14462533 5.430355370270506 
Si -0.00250877403 10.859418989999998 5.431014579246172 
Si 2.7146633399999995 10.860168329999999 8.144873846430094 
Si 4.074128999999999 9.47154357 12.223989597424904 
Si 1.356236982 9.50055606 9.504752572807927 
Si -0.00790099209 10.86935589 10.859635189054401 
Si 1.3507114139999998 12.203637209999998 12.236167615870079 
Si 0.49480874999999996 8.57613114 13.608848874459502 
Si 3.8774924099999994 11.46021048 14.938403987956757 
Si 2.33047998 10.37832642 13.50396525691032 
Si 3.5360703 11.610062189999999 17.390661377429524 
Si 2.95873641 11.376170369999999 21.306362692877972 
Si 1.8174753 8.32653576 19.491664468500726 
Si 2.0680155 10.676417129999999 19.22433788126406 
Si 0.10504997459999998 12.039515459999999 19.221874521407628 
Si 2.7391146299999996 9.60678315 22.859944772473494 
Si 0.9437986169999999 8.45175699 23.913395410794966 
Si 0.11804988329999999 9.405569069999999 25.955937074287483 
Si 0.545835546 9.726775289999999 29.73344737131106 
Si 3.34360395 11.403700469999999 27.723935547020265 
Si 1.82752623 9.46390356 27.716198515358517 
Si 1.090711611 8.44827093 33.28536941782032 
Si 0.07846892999999999 10.572747569999999 34.377574604869025 
Si 2.0671847100000003 9.77597109 31.631969221225457 
Si 3.23061651 11.570933609999999 33.062591479254884 
Si 2.7198761399999998 16.28719812 2.6807149337916867 
Si 4.05500454 14.889336929999999 1.188605825937362 
Si -0.012871054799999998 13.55974713 2.6766278381425654 
Si 1.356960258 14.93289639 4.063711078089801 
Si -0.0007120163519999999 13.575222629999999 8.144353418291413 
Si 2.7130994999999998 13.570905779999999 5.430598236735225 
Si 1.35742941 12.21740226 6.787527870327187 
Si 1.353083238 14.929719839999999 9.501387137511111 
Si 2.71278999 13.579914149999999 10.86119647347045 
Si 2.7373716 16.28451027 13.763762983740712 
Si 1.1775959550000001 14.83088841 15.350513683374945 
Si 2.7969767099999996 13.927884839999999 17.47469317422215 
Si 2.28861468 13.63585401 21.65258618593893 
Si 1.4111847809999998 14.100167879999999 19.458287677206545 
Si 0.850548141 14.639269139999998 23.28652237014706 
Si 1.086132492 13.29918858 25.296589317785777 
Si 3.39534099 12.37152195 25.497682750572764 
Si 1.1081223629999999 13.97603808 29.35658800848631 
Si 3.2884623 13.359445289999998 29.08766544162435 
Si 0.642518325 14.84199819 27.219814156682983 
Si 2.5523986499999998 13.496981759999999 34.44304446471531 
Si 1.1875833539999998 15.67366785 31.036460649735492 
Si 0.85724496 14.47509852 33.053536029641805 
Si 4.07241855 1.359868023 4.067423465479071 
Si 5.42771397 2.7111121199999997 2.671943984894421 
Si 6.78696786 1.1880704249999998 1.1779648052617635 
Si 5.42828412 -0.00299046933 5.4301125038057885 
Si 5.429701349999999 2.7152660699999998 8.145255493731796 
Si 6.787928969999999 1.3569781769999998 6.787631955954924 
Si 4.06508805 4.0788531 12.243557695439373 
Si 8.14218183 2.72158659 10.865186422533686 
Si 4.0687044299999995 1.354306617 9.50201165127753 
Si 5.42808864 0.00564938829 10.861335254307432 
Si 6.784508069999999 1.3407924329999998 12.228673450673048 
Si 5.4922223699999995 2.7554535 13.626265869500749 
Si 7.232711129999999 0.9363768929999999 19.189989624111004 
Si 4.332374369999999 1.4113265039999998 17.393749251052373 
Si 7.106577659999999 1.83296709 21.415062783444156 
Si 8.04245445 3.9647090699999996 20.958265658517753 
Si 6.309524249999999 2.82282894 17.497036888976258 
Si 4.79983221 2.5625310299999997 24.865674818956524 
Si 5.063827949999999 2.2743283499999998 22.523956366139956 
Si 6.532420319999999 1.340596953 25.971827480121927 
Si 4.78996047 0.534830022 30.202908247612076 
Si 5.62104369 2.68242543 29.41942103242993 
Si 7.32437496 2.8236108599999996 27.689275032984 
Si 6.1335922499999995 3.9566618099999995 31.40815042638266 
Si 6.79250646 4.070594069999999 4.068707188221155 
Si 4.072304519999999 6.78779865 4.073113479795335 
Si 6.6207772799999995 6.680203199999999 1.2341120623837751 
Si 5.4421631999999995 8.13569841 2.7165620239841495 
Si 8.12999691 5.42092104 2.6868559858281422 
Si 4.07197872 4.0728258 6.787805432001152 
Si 5.4283329899999995 5.42878911 5.429696161294842 
Si 6.787456559999999 6.78778236 6.787458479908696 
Si 6.78581127 4.07096874 9.502358603369984 
Si 4.072304519999999 6.79037247 9.499825853095063 
Si 5.42787687 5.42694834 10.86529050816142 
Si 6.797931029999999 6.7979147399999995 12.23693091047348 
Si 4.19154732 7.01556543 17.172012168764308 
Si 4.5745089299999995 6.1939467 15.021325538053528 
Si 5.355467819999999 7.99648407 13.726257462546315 
Si 6.48706896 4.30064145 15.227588557018096 
Si 4.21907742 4.153428719999999 21.38446160888962 
Si 5.54306346 7.95409749 20.552713357646965 
Si 5.9273934299999995 6.38607096 18.823261262385945 
Si 5.9613092100000005 4.13303364 19.544644053018626 
Si 6.897186 7.40993004 22.535336394772486 
Si 5.23396071 6.82823043 24.147761549248393 
Si 5.31094725 4.86383562 25.453203492320018 
Si 4.76721963 6.89039307 29.582974248813272 
Si 7.44298245 4.93609806 26.469113914237848 
Si 8.017058339999998 7.012437749999999 27.496161498323485 
Si 4.60932066 5.96982888 34.482492917627454 
Si 6.84100179 6.07750578 30.57994108648305 
Si 7.2211941 7.858100519999999 32.40379884610111 
Si 4.08719358 4.57493247 32.44650864868233 
Si 6.79029102 9.50295069 4.070719510357395 
Si 6.518622689999999 12.001054769999998 1.3064585127025161 
Si 4.0725814499999995 9.502347959999998 6.787874822419643 
Si 5.43058101 8.14469049 8.143937075780466 
Si 5.42808864 10.8587511 5.430737017572207 
Si 8.137197089999999 8.15101101 10.85408395557512 
Si 6.787423979999999 9.49949721 9.498993168073172 
Si 5.43633138 10.85896287 10.860467874076296 
Si 8.033169149999999 10.6844481 13.628625143729444 
Si 5.9353592399999995 10.88719344 17.209448299540217 
Si 6.0120688499999995 9.937209509999999 14.89871266857989 
Si 5.35460445 11.55065256 21.03348487216202 
Si 6.20490987 9.98686143 19.46883502081718 
Si 7.90397316 9.450333989999999 23.19336573332286 
Si 6.1442459099999995 11.0025918 23.219872873186432 
Si 4.23864171 10.35389142 24.472890355088087 
Si 4.95276273 8.560851119999999 25.86649282485255 
Si 4.71911526 10.497715829999999 29.562469380149174 
Si 7.00707834 10.35348417 29.08905324999417 
Si 7.01898633 9.124924949999999 26.988848148735613 
Si 5.121396809999999 8.64979452 33.16213203458026 
Si 4.959571949999999 10.61039376 34.52214954179507 
Si 4.1173626599999995 8.693598329999999 30.940736567427127 
Si 7.467466319999999 13.77508464 0.03769842655780318 
Si 5.41034883 13.57131303 2.6980972336236877 
Si 6.789476519999999 14.93543763 4.074189031281946 
Si 4.07240226 14.932538009999998 6.787493175117942 
Si 5.43009231 13.574880539999999 8.144526894337641 
Si 6.787423979999999 12.2175 6.7877013463734155 
Si 4.0713922799999995 12.2173371 9.503468850065843 
Si 6.787391399999999 14.93232624 9.502809641090177 
Si 4.06453419 14.922047249999999 12.23970652721312 
Si 6.796774439999999 12.20239917 12.229610221322677 
Si 7.357183019999999 12.6382707 16.278055407344453 
Si 4.78522008 15.32957418 17.05255656333201 
Si 5.06760723 13.17663891 13.536405277554875 
Si 6.18831036 14.468012369999999 15.197230248928273 
Si 7.7659642799999995 15.94473345 13.590980841698064 
Si 5.91219486 13.825355579999998 20.777746484813353 
Si 6.369243389999999 15.02939835 18.77822688078527 
Si 7.8069825 14.0796099 22.112714050952906 
Si 4.33027296 14.64433533 22.324458912978265 
Si 6.87672576 13.07847537 24.02272001512757 
Si 4.887684179999999 14.13424656 24.697854091835985 
Si 5.71959819 15.465905189999999 26.588500129251653 
Si 7.365604949999999 12.68529993 29.410296192398363 
Si 7.5104067599999995 14.253114689999999 27.593932597977336 
Si 4.14025011 15.47852994 28.328846520215762 
Si 4.1708753100000004 12.310743959999998 31.009953509871924 
Si 6.315632999999999 13.34612007 31.552586582471726 
Si 6.12010413 15.791053589999999 31.97586813526697 
Si 5.807792249999999 15.7486833 34.43992189588321 
Si 12.02692329 1.225628649 1.3011744323344248 
Si 9.50236425 1.360219887 4.073668603143264 
Si 10.32686631 0.1387912887 0.04330517237187786 
Si 10.854222479999999 2.71034649 2.713456802756676 
Si 9.50739786 3.99505734 1.2684603195368316 
Si 8.14457646 2.29840497e-05 8.14483915122085 
Si 8.143761959999999 2.71267596 5.431361531338626 
Si 10.858848839999999 -0.00020856249899999998 5.4315697025941 
Si 10.86064074 2.7157384799999997 8.14483915122085 
Si 9.50242941 1.3560203249999998 9.50201165127753 
Si 10.86125976 0.00447854454 10.860918911796485 
Si 9.500523479999998 4.08124773 12.21993025794318 
Si 8.86824342 1.3551879059999998 14.892502226124945 
Si 10.56230568 2.43636498 13.542719805637558 
Si 11.64127383 4.012226999999999 14.877722066986356 
Si 10.480481009999998 2.83729446 17.618817073428005 
Si 10.430438129999999 0.23896289699999998 21.5743484890903 
Si 11.40932052 2.3253975 21.15106693629506 
Si 10.10458926 3.7752726599999997 19.765826011958758 
Si 9.47876004 0.8101538279999999 18.308904785321236 
Si 8.261701559999999 0.1266570306 22.438051028048072 
Si 11.74807107 3.3277374899999996 23.198570014709688 
Si 8.45281584 0.948258819 24.61482845611147 
Si 10.03258746 2.7387399599999998 24.761866752893955 
Si 11.047470749999999 1.7536510799999998 26.745461255878347 
Si 9.54478341 0.61170579 30.07009498662026 
Si 9.51854022 2.3810441399999998 28.45659428065774 
Si 8.299640969999999 0.6240633839999999 32.072771854689684 
Si 8.36822187 3.0494717099999997 32.387457402546474 
Si 8.65738566 2.12260329 34.639662215509624 
Si 11.791842299999999 0.10820697659999999 30.87169310102856 
Si 12.21688098 4.07176695 4.07144810975155 
Si 12.20060727 6.741681659999999 1.2974898011125513 
Si 9.504758879999999 6.78779865 4.070823595985131 
Si 11.26328067 5.00419026 0.00733696120393911 
Si 9.50312988 4.07207646 6.787250308653223 
Si 8.14501629 5.42988054 8.145290188941042 
Si 10.85780628 5.42874024 5.430702322362962 
Si 10.86748254 5.424390809999999 10.855922801665134 
Si 9.50037687 6.784345169999999 9.502289212951494 
Si 9.78137937 6.56420211 16.930013084276865 
Si 10.34357985 7.73255349 13.589246081235789 
Si 8.95910904 4.77109665 15.615515691592162 
Si 8.68314015 5.96960082 13.50073860245049 
Si 10.407452939999999 6.106534559999999 19.5170266664592 
Si 8.2907955 7.05282066 18.71976545320658 
Si 9.234491489999998 4.96695132 24.817032135594317 
Si 8.658135 5.77584756 22.553967722137326 
Si 10.682802809999998 6.89791905 21.718333607459176 
Si 11.21524146 6.25058703 25.60964419080803 
Si 10.47741849 4.48584246 28.96605873321883 
Si 8.94879747 6.25793382 29.482496922838273 
Si 9.97962867 7.95683421 26.577536443130068 
Si 11.005524 4.053310379999999 31.204003815182073 
Si 10.69386372 5.809926239999999 32.595975610112 
Si 8.33503914 7.61941944 34.52863754592398 
Si 12.11353722 7.16725791 31.344727583881866 
Si 9.36730386 9.353164139999999 1.204360920455749 
Si 10.841109029999998 8.1342486 2.694010137974567 
Si 8.13478617 10.84609377 2.6847569256687884 
Si 11.105528309999999 10.493871389999999 0.1080724542309368 
Si 8.143485029999999 8.1427194 5.429973722968806 
Si 9.50246199 9.502282799999998 6.787527870327187 
Si 10.86046155 8.14442985 8.145012627267077 
Si 8.143990019999999 10.8600543 8.14421463745443 
Si 10.858588199999998 10.858588199999998 5.430459455898243 
Si 9.497705309999999 9.479151 12.221352761522244 
Si 10.865071619999998 10.862253449999999 10.864735384813493 
Si 9.88643358 10.166002559999999 17.196368205654657 
Si 9.3159252 11.70154683 15.322584039932307 
Si 10.814963579999999 8.368254449999998 15.849534877953138 
Si 11.43398358 9.245145149999999 21.670003180980178 
Si 9.320274629999998 10.24893495 21.439488210752998 
Si 8.48933802 9.40724694 19.304518509830437 
Si 11.54263788 11.53617075 18.324829886364924 
Si 11.879547659999998 11.885265449999999 24.44572400624885 
Si 8.78426847 9.617958089999998 25.40789154904538 
Si 9.95100714 11.632135139999999 25.810460061921052 
Si 10.15422489 8.133352649999999 30.273790560100657 
Si 10.704370769999999 11.51090496 28.045213184633706 
Si 11.00795121 9.16108875 28.35035754994798 
Si 12.170373029999999 9.03805038 32.70793705034726 
Si 8.33984469 9.47463867 30.985007654424404 
Si 10.25924652 10.705690259999999 32.547853354888474 
Si 8.13338523 16.28639991 2.7178041124751386 
Si 9.5060295 12.21735339 4.0688806642673825 
Si 9.256059449999999 14.748721649999998 1.3592854382997324 
Si 10.848276629999999 13.57303977 2.7037664308144045 
Si 8.14346874 13.57548327 5.430841103199944 
Si 9.50252715 14.932945259999999 6.7877013463734155 
Si 10.86039639 13.57496199 8.145428969778024 
Si 9.49759128 12.21420942 9.502774945880931 
Si 8.146238039999998 13.57848063 10.860745435750259 
Si 9.49236219 14.90837994 12.250670213334704 
Si 11.693613599999999 15.121290239999999 15.251146604095798 
Si 9.58093092 15.88429755 16.29578465926891 
Si 10.71592038 13.39725438 13.85275619545545 
Si 9.97917255 13.263708959999999 19.113278516469176 
Si 9.594891449999999 12.65473989 21.362048503717016 
Si 10.697463809999999 15.49985355 19.510399881493303 
Si 8.31267297 14.168585879999998 17.67915204230595 
Si 11.64774096 13.26540312 22.474619778592842 
Si 11.326420709999999 15.395630129999999 23.37867284590314 
Si 9.74138742 15.33749112 25.120198873981597 
Si 8.49042945 13.41470097 25.64218829708032 
Si 9.70392042 12.970977659999999 29.60542204919512 
Si 11.142864989999998 15.686341469999999 26.921921090101016 
Si 9.5317677 15.09540543 28.580074530362513 
Si 10.91333889 12.82979223 31.656498734162035 
Si 11.43171927 15.0107463 32.91055707234106 
Si 16.2673569 2.6979823799999996 2.682536432277076 
Si 14.933987819999999 1.361834226 4.07207262351797 
Si 14.6963493 3.9077592299999995 1.1799840664398524 
Si 13.57514118 -0.00027521954999999997 8.145012627267077 
Si 13.574457 2.71349046 5.429834942131824 
Si 12.2170113 1.3583383919999998 6.7877013463734155 
Si 14.930827559999999 1.354884912 9.502289212951494 
Si 13.57535295 2.7191268 10.861022997424223 
Si 12.193765469999999 1.3591708109999998 12.208515534101405 
Si 14.929768709999998 4.06554417 12.226522347699825 
Si 16.16191173 2.52915282 13.542650415219066 
Si 12.73741164 2.81580795 16.690685530901323 
Si 14.557020929999998 1.4491095299999999 14.935628371217115 
Si 15.457597289999999 0.909827451 21.166332828363085 
Si 13.65212772 2.42100351 20.42729017622444 
Si 13.734310769999999 1.318802562 18.43554229906735 
Si 15.962017139999999 1.2838556249999997 17.711904319833714 
Si 15.662606939999998 3.15990162 23.761187527834903 
Si 13.53726693 2.30483952 24.279117611451905 
Si 13.108432679999998 2.84786667 26.558349992417302 
Si 16.02331641 3.11003793 29.089365506877378 
Si 15.17555223 1.9570805999999998 27.27348764538579 
Si 12.710402819999999 3.01322646 34.51545336641069 
Si 14.83657362 2.60410311 31.113206452586567 
Si 15.29124381 0.26548790399999994 31.24945453929369 
Si 12.58159779 2.47041108 32.01320018041514 
Si 13.58727723 5.4305973 2.691973529191855 
Si 14.93463942 6.78634884 4.072384880401179 
Si 14.9325543 4.07219049 6.787319699071714 
Si 13.57492941 5.42870766 8.144284027872922 
Si 12.216913559999998 6.78753801 6.787111527816241 
Si 12.19757733 6.7849479 12.241198421210678 
Si 13.579572059999999 8.14245876 10.864527213558018 
Si 12.21513795 4.07222307 9.49986054830431 
Si 14.930827559999999 6.78589272 9.502601469834705 
Si 14.32804869 6.3969038099999995 15.418308122240672 
Si 14.13261756 4.704356519999999 17.134298476314438 
Si 13.35244059 5.21506431 13.597850493128677 
Si 15.81778548 5.55257682 20.42645749120255 
Si 13.5884664 4.8225893399999995 20.230533644593145 
Si 15.881756309999998 7.903077209999999 20.16915781943783 
Si 12.658861259999998 6.37038369 18.452716427643878 
Si 15.916568039999998 5.27685228 22.83114774879972 
Si 12.9725415 7.761565979999999 24.875320087126777 
Si 14.1556842 6.779132369999999 23.151037578043336 
Si 12.45344436 5.451041249999999 22.23962912637299 
Si 14.28834996 6.1693488 27.92804746301161 
Si 14.266179269999999 6.533251109999999 30.2842685132928 
Si 12.30069303 4.97522664 27.330283702920692 
Si 12.887572859999999 8.68196727 0.20367649111531408 
Si 12.216147929999998 9.50176152 4.0679438936177545 
Si 14.84830242 9.549833309999999 1.2662467651869682 
Si 13.575043439999998 10.885597019999999 2.7076488247289774 
Si 13.576004549999999 10.860787349999999 8.145186103313305 
Si 13.57505973 8.14363164 5.430251284642771 
Si 14.932733489999999 9.50308101 6.787215613443977 
Si 12.21548004 9.50176152 9.50426683987849 
Si 14.95143441 9.496320659999999 12.228083632115874 
Si 14.932033019999999 12.21476328 9.499791157885818 
Si 12.206357639999998 12.199108589999998 12.262154327594967 
Si 14.90365584 9.225808919999999 16.888933956530177 
Si 15.27013197 11.480491529999998 17.164622089195014 
Si 13.14677934 8.637006869999999 15.318177748358126 
Si 13.42380708 10.43304453 13.706446498067127 
Si 14.81443551 11.907403559999999 14.852672125911099 
Si 14.533351559999998 11.73681468 20.76355614423194 
Si 12.821630939999999 10.20337182 19.897043293325286 
Si 13.967616149999998 8.39531214 18.807440246969993 
Si 15.4629567 8.58758301 22.362588947939084 
Si 14.741244539999999 10.73747205 22.938321250159103 
Si 12.6197001 9.81102717 23.643848330166584 
Si 15.659853929999999 11.5890318 25.054867794972296 
Si 16.16233527 12.10347 30.105657576096906 
Si 14.63415408 8.85521142 30.043761322802915 
Si 14.418002069999998 8.2038069 26.667986853633117 
Si 13.039330499999998 11.893589639999998 28.01655494179691 
Si 13.34396979 9.55859733 28.227397728381888 
Si 14.134230269999998 10.061160119999998 32.06090609312772 
Si 12.23198181 12.27971151 1.2861409981683445 
Si 12.21544746 14.937278399999999 4.068637797802664 
Si 14.93366202 12.2183145 4.074813545048365 
Si 14.742498869999999 14.824046609999998 1.1569707341473046 
Si 13.57149222 16.282213379999998 2.6848193770454305 
Si 13.574799089999999 13.572632519999999 5.429800246922579 
Si 12.217662899999999 12.21792354 6.787423784699451 
Si 14.93276607 14.9325543 6.787423784699451 
Si 12.21484473 14.930420309999999 9.50225451774225 
Si 13.579506899999998 13.57303977 10.865082336905948 
Si 14.918463449999999 14.93172351 12.246298616969769 
Si 13.178007269999998 12.41710137 16.796332443053906 
Si 15.364174139999998 15.907022099999999 16.148295324766238 
Si 13.37703849 14.74093503 16.908051016824455 
Si 13.274476649999999 16.19313966 13.632927349675889 
Si 16.25230494 13.50584352 13.714599872239821 
Si 13.58023995 13.9013973 21.095554601502243 
Si 12.98814732 15.406870229999999 19.157272041792485 
Si 14.93172351 15.320663549999999 22.52256855777014 
Si 13.41030267 16.18996311 24.127673023095245 
Si 13.62036222 12.64866372 25.867256119455956 
Si 13.94018379 12.9573918 29.94585144231208 
Si 13.80631257 15.39027072 29.80786859514268 
Si 13.30798518 15.001884539999999 26.15571208912314 
Si 14.832289349999998 15.903112499999999 27.651908292626587 
Si 16.178657849999997 16.100742779999997 34.453938760418396 
Si 13.43512863 12.32884215 32.187127264362886 
Si 13.12297965 13.699792259999999 34.2942367122613 
Si 16.084094399999998 12.330340829999999 32.566623463090295 
