&CONTROL
  dt          = 30.D0,
  prefix = 'x1.00_y.66_z3.16_struc46-scf',
  pseudo_dir = './',
  outdir='./',
  wf_collect= .true.,
  verbosity= 'high',
/

&SYSTEM
ibrav= 6, celldm(1) =30.783621515, celldm(3) =2.108862401886256, nat=  432, ntyp= 1,
  ecutwfc     = 12.D0, nbnd= 1728,
  degauss     = 0.05D0,
  occupations = "smearing",
  smearing    = "methfessel-paxton",
/
&ELECTRONS
  electron_maxstep=200,
  conv_thr    = 1.D-8,
  mixing_beta = 0.3D0,
  scf_must_converge=.false.,
/
ATOMIC_SPECIES
Si  28.08  Si.pbe-hgh.UPF
K_POINTS {automatic}
1 1 1 0 0 0
ATOMIC_POSITIONS (angstrom)
Si 0.0310000329 2.71225242 2.726520364523898 
Si 1.495970973 1.5766618589999999 1.2177204188300432 
Si 4.07085471 1.356487848 4.069912276098414 
Si -3.66311601e-05 2.71487511 8.145114970949944 
Si 2.7146633399999995 0.00044892144899999996 8.144908850738783 
Si 2.7156081599999995 2.71660185 5.430717910179128 
Si 1.3571313029999998 1.3578187409999998 6.787435493405162 
Si 2.7129366 2.71487511 10.859134144666967 
Si 1.3710283019999998 1.359638334 12.245498684931567 
Si 0.0336657285 2.73217509 13.692668687488473 
Si 2.2418135099999996 3.1299606 16.484532594287057 
Si 0.032439091499999996 0.399228804 18.244283897068655 
Si 0.9815083379999999 0.6576875729999999 20.831367374079417 
Si 2.11005999 3.9896816399999997 19.285156610059957 
Si 1.8752559299999998 1.6984279799999997 18.748453933566903 
Si 3.21940899 0.37328046299999995 21.60222261045065 
Si 0.0275928165 1.9471762799999999 22.612830005769904 
Si 1.0760424659999999 1.132632297 24.579972594347353 
Si 3.9368694599999996 2.9443197599999995 25.19118772717488 
Si 1.6433351999999999 3.1327299 25.698449566840534 
Si 1.83479157 3.0840553799999997 28.018160776607782 
Si 2.8401615 1.033196508 28.543011540959117 
Si 3.0547333799999996 2.9669139899999997 33.99200544319447 
Si 0.599812461 1.14481233 31.909504243104273 
Si 2.8480621499999996 0.592249014 30.833419327373072 
Si 1.355108085 4.07033343 4.075511875168271 
Si 0.11864772629999999 5.55155055 0.06508623554442244 
Si 2.72702745 5.42331567 2.703919283370164 
Si 1.5598310309999999 6.93712908 1.2980866891614686 
Si 2.7148914 5.430141180000001 8.145870745057533 
Si 1.357546698 6.7872936600000005 6.787710320353376 
Si 4.06414323 4.0721253299999995 12.245326918088931 
Si 1.357668873 4.07178324 9.501729494070398 
Si 0.000625088025 5.43111858 10.86401232299776 
Si 1.369029519 6.7846058099999995 12.22529890423785 
Si 2.71487511 8.141953769999999 10.858824964350225 
Si 3.33115839 7.50563379 15.206449871618702 
Si 0.717584274 4.570974 15.243654569733147 
Si 2.65932621 5.51753703 13.851759137135746 
Si 2.8882495799999996 7.272149219999999 17.81785553354639 
Si 0.056113837199999995 5.11854606 19.081338074590885 
Si 0.696246003 7.38824805 18.772879178589402 
Si 0.399647457 4.9695903 24.859471600680806 
Si 2.9526602399999997 7.11122031 21.650386033125116 
Si 0.641576763 4.24347984 22.61877313852503 
Si 2.69242749 4.70523618 21.560345854216568 
Si 3.5378622 7.41094002 25.66973015075219 
Si 2.8861155899999997 5.12379144 28.526075330275443 
Si 1.225817613 6.945730199999999 25.8449323302385 
Si 1.178794899 6.68895093 28.185976981860843 
Si 2.78523162 5.12273259 32.93268497130431 
Si 3.7265492699999996 5.41864044 30.702464286549187 
Si 3.64257432 7.04752641 34.223890680749875 
Si 0.649796697 5.40479394 32.138091557281115 
Si 3.70512792 9.14375619 1.3442713578088004 
Si 0.01381563045 8.157054599999999 2.6970279976437026 
Si 1.353382974 9.5060295 4.07530575495711 
Si 2.70296712 10.84971015 2.7114392357406643 
Si 0.00027932463 8.14452759 8.144908850738783 
Si 2.7169439399999997 8.147329469999999 5.428725414804578 
Si 0.0021695022 10.859663339999999 5.431301917444083 
Si 2.7151520399999995 10.859809949999999 8.144874497370257 
Si 4.07728926 9.498633839999998 12.224646190235841 
Si 1.357520634 9.50099589 9.501832554175976 
Si 1.37209041 12.22443954 12.248556134730443 
Si 0.1223383887 8.20550106 13.59568912813752 
Si 1.5876690119999999 9.411857009999999 15.012456399548272 
Si 2.8588787099999995 10.891103039999999 13.694077175598066 
Si 3.9405021299999996 8.199392309999999 19.77802438831291 
Si 0.872200809 8.18122896 20.98932416256531 
Si 0.9118571849999999 10.50568164 20.644588109399603 
Si 3.20714262 10.476343349999999 19.88719939349085 
Si 0.68155731 10.74784878 24.88987433182696 
Si 3.00069945 10.908207540000001 25.36453482476075 
Si 1.01390589 10.27353285 29.826865629539967 
Si 2.4394275 8.59071069 28.976619758503467 
Si 3.6217557 9.356308109999999 27.025554546396528 
Si 0.375412824 12.178615769999999 28.536106513885247 
Si 1.3104588240000001 11.35435806 32.13156441726103 
Si 3.68155629 11.86462602 32.850133826734584 
Si 2.72137482 16.3027062 2.6801604936970795 
Si 0.00430355736 13.59838701 2.707395844265069 
Si 1.3982716979999998 12.28274145 1.3511385961772933 
Si 1.35558864 14.928384059999999 4.07121770410243 
Si -0.000435807999 13.57499457 8.14494320410731 
Si 2.713914 13.5738054 5.430717910179128 
Si 1.356831567 12.21741855 6.7881225607756965 
Si -0.00015387419969999997 16.292280599999998 10.865420811107358 
Si 1.3582406519999999 14.93139771 9.502004321018612 
Si 2.7150380100000002 13.57646067 10.861573233832363 
Si 2.66571189 16.1945406 13.729289378337961 
Si 0.659816676 15.37129287 15.023002883685978 
Si 0.847550781 14.629234499999999 17.39558392761586 
Si 3.99706101 14.869397969999998 20.323658940622916 
Si 2.9334869099999996 13.89924702 18.44727795169308 
Si 2.6849829599999997 13.94958312 23.69839645121448 
Si 3.03650487 16.235900909999998 23.940622052696437 
Si 0.36357325199999996 13.714550999999998 23.01514230458641 
Si 3.8996956799999998 13.082971409999999 25.534480938862465 
Si 3.99461751 13.841775899999998 27.724679949283953 
Si 0.9651352589999999 15.95401875 28.155677310820273 
Si 1.9357407 13.916937959999998 28.79104286172209 
Si 2.86402635 13.54712238 34.30262860141313 
Si 1.1553128639999999 13.924626839999998 32.525597554262596 
Si 2.7621812699999997 14.55843816 30.90291619190264 
Si 6.788841209999999 4.07398239 4.0731758461084535 
Si 5.44260303 2.69373069 2.718028211824091 
Si 6.84328239 1.37870415 1.292655421597393 
Si 5.430190049999999 0.000197723133 5.429927782703014 
Si 5.430238919999999 2.71458189 8.145424151266685 
Si 6.787863809999999 1.3573952009999999 6.787366786668109 
Si 6.78784752 4.07057778 9.502176087861244 
Si 4.0716855 1.3585762259999998 9.501969967650084 
Si 5.42963619 0.0013959275669999998 10.861779354043524 
Si 6.78682125 1.370652003 12.230932856676233 
Si 8.04054852 0.0628394895 16.185280401050736 
Si 4.28006718 1.141107984 15.071544193414246 
Si 5.40254592 2.70500337 13.716441218508967 
Si 6.662675159999999 2.8326355199999997 20.002008351107172 
Si 7.30599984 0.5055308279999999 18.56562530626766 
Si 5.07340647 1.8137286 21.449487533980818 
Si 4.1352165 2.00538045 17.31124640788274 
Si 6.5036195999999995 2.5712136 17.71668486323518 
Si 4.6801007100000005 0.714054231 25.46467489401616 
Si 6.845888789999999 1.233905598 24.726386651008266 
Si 7.27851861 3.55640022 24.849715244019215 
Si 6.72291558 0.438539832 22.53859237638365 
Si 4.33188567 3.5629813799999996 22.875255387945572 
Si 6.637393079999999 3.2784113699999997 28.610790737062352 
Si 5.648019929999999 3.94693668 26.50757445575054 
Si 8.093328119999999 1.384838964 28.387974788798 
Si 4.23320085 1.83998808 32.21528357636067 
Si 5.17547961 3.3759396 30.62537532757521 
Si 6.07392198 0.301848813 32.281860404565464 
Si 8.03207772 2.88582237 34.08235480241976 
Si 4.28024637 4.13775774 1.3356486623085921 
Si 4.07566026 6.782178599999999 4.07351937979372 
Si 6.9140950199999995 6.90678081 1.3340065712930145 
Si 4.07271177 4.07277693 6.7881225607756965 
Si 5.4295547399999995 5.42887056 5.431473684286717 
Si 6.787391399999999 6.786707219999999 6.7881225607756965 
Si 4.072027589999999 6.789574259999999 9.501763847438923 
Si 5.4293103899999995 5.4283329899999995 10.868512614274762 
Si 6.78620223 6.792897419999999 12.266729066681082 
Si 6.66122535 8.02606671 17.097224921961235 
Si 5.29635141 4.93609806 15.037877892258052 
Si 7.076392289999999 4.931487989999999 20.933499938709378 
Si 7.858230839999999 7.1176385699999996 20.437402943814913 
Si 4.70419362 5.83695135 17.232405427113907 
Si 6.26635575 4.8172787999999995 23.138093010543564 
Si 4.3213623299999995 7.871816699999999 23.501173762502543 
Si 6.49228176 7.025225399999999 23.901390505838915 
Si 7.4104350299999995 7.5835162799999996 26.045762122645744 
Si 7.8732013499999995 5.280436079999999 29.115682194299662 
Si 4.63248504 5.93478909 27.152318476260152 
Si 6.50371734 6.93738972 28.144615526154666 
Si 5.6222002799999995 5.52371094 34.34041730679253 
Si 4.11864957 7.8383081699999995 30.589304290622145 
Si 8.15524641 5.63304942 31.440615116082974 
Si 6.61417983 4.16984904 32.559985276157846 
Si 7.54484382 7.821024479999999 32.28440255383644 
Si 8.14745979 10.85159979 2.698439921090151 
Si 5.42119797 8.14965894 2.7041975456552305 
Si 6.78916701 9.50205474 4.071011583891269 
Si 4.074096419999999 12.22103493 4.073072786002873 
Si 6.56791623 11.966731739999998 1.325895740983854 
Si 8.14311036 8.14275198 5.430202609651227 
Si 4.0721742 9.50255973 6.78777902709043 
Si 5.43004344 8.145162899999999 8.14504626421289 
Si 5.43048327 10.86112944 5.429549895649219 
Si 8.146563839999999 8.14561902 10.86267254162522 
Si 6.788385089999999 9.50352084 9.501798200807452 
Si 5.42963619 10.8590769 10.8603365125654 
Si 4.07118051 12.21694614 9.502588328283565 
Si 7.967878829999999 10.736918189999999 13.78085378449658 
Si 5.250055229999999 8.18482905 13.795900559911287 
Si 6.2213139 9.80459262 15.331736606635676 
Si 4.41112023 11.57555997 15.508965634865062 
Si 4.216959719999999 11.906784539999999 17.98491596469186 
Si 6.85795968 10.7083944 20.326510270210637 
Si 6.25904154 8.55563832 19.457232633010335 
Si 6.54642972 11.03466681 24.32922735747077 
Si 7.948672919999999 10.99210104 22.445013800516843 
Si 4.43809647 10.19946222 23.616978967806137 
Si 4.70204334 11.1848769 21.503937623095684 
Si 7.34345055 9.95711589 26.276513699039775 
Si 6.12398115 8.7430059 29.618718569636528 
Si 5.640868619999999 10.229240339999999 27.89885152771446 
Si 4.98483774 10.33805754 34.1050280256474 
Si 8.021586959999999 9.567850049999999 30.821258234914605 
Si 5.01166737 8.35843158 32.75971576077224 
Si 7.70538177 13.78555911 0.11671866137272276 
Si 4.216699080000001 15.01130016 1.2623351385357038 
Si 5.42263149 13.5593073 2.706942379800516 
Si 6.78931362 14.93183754 4.068881675042612 
Si 6.178112819999999 15.71712957 0.1198084033380166 
Si 4.07277693 14.93219592 6.787710320353376 
Si 5.42986425 13.57507602 8.145183677686997 
Si 6.787456559999999 12.217548869999998 6.787607260247796 
Si 8.14674303 13.573968299999999 10.85721035602947 
Si 6.7875054299999995 14.93061579 9.502485268177987 
Si 4.062807449999999 14.91603624 12.244536790612816 
Si 6.787391399999999 12.22500969 12.257144476862125 
Si 5.380244909999999 13.5927018 13.783361580399031 
Si 6.0051456 15.589334519999998 15.138224081724621 
Si 8.0417214 16.18642818 13.543918601767745 
Si 4.49519292 15.33579696 17.370746442171036 
Si 6.06201399 14.834700269999999 19.124073665038136 
Si 6.47775108 12.50454609 18.714272331882807 
Si 6.2152866 13.34533815 24.81501834180722 
Si 6.38266635 14.34205809 22.656561843904427 
Si 4.307613569999999 13.411671029999999 22.05530918794965 
Si 7.576185779999999 13.64219082 28.77668315367792 
Si 5.53829049 12.40568208 28.872975645658336 
Si 6.69514113 15.899088869999998 29.06250317982029 
Si 4.70852676 16.13029284 27.690017400440485 
Si 5.4963763199999995 12.621459419999999 31.300693846073614 
Si 7.7429790899999995 12.343780079999998 32.21092069855777 
Si 5.155361459999999 14.963814809999999 30.82974351694071 
Si 8.16168096 0.001394135667 2.7037406458538253 
Si 9.5030973 1.355888376 4.0723513652638115 
Si 10.86026607 2.71608057 2.6788516303562115 
Si 8.14452759 0.000261483822 8.145218031055524 
Si 8.14563531 2.7158688 5.430374376493861 
Si 10.86018462 0.0011966682869999998 5.430958383758816 
Si 10.8598914 2.7150543000000003 8.145286737792578 
Si 12.224863079999999 1.3697251019999999 12.23715081637957 
Si 9.50044203 1.3563738179999998 9.501729494070398 
Si 8.145847080000001 2.71608057 10.860096038985715 
Si 10.860477839999998 0.0033844592699999996 10.861332760252676 
Si 9.957832649999999 0.799061967 14.610728107996726 
Si 10.8828603 2.79252954 13.68734391536683 
Si 10.130311169999999 3.09920508 19.445483780974193 
Si 8.9827947 3.63566736 21.45041507493104 
Si 9.28183023 0.918355266 19.70100413607599 
Si 8.83633131 1.290961323 21.95602795290741 
Si 10.45479168 0.221456034 23.306561929798633 
Si 10.53870147 0.8721258749999999 25.576804288887395 
Si 9.949361849999999 1.21394709 29.8629023131245 
Si 12.0518307 2.46088143 29.60714148444302 
Si 11.22034023 3.0895613999999996 25.848676847407912 
Si 8.37866376 0.332258985 26.249374537903655 
Si 11.677062959999999 3.36693123 31.794763992225004 
Si 8.49160233 0.6629068889999999 31.6072289534376 
Si 9.91404513 1.8956347199999999 32.967244460042195 
Si 8.671460219999998 7.7691897 0.07409437583950083 
Si 10.86438744 8.16005196 2.7096562959141277 
Si 12.18474081 6.7908937499999995 1.3254319705087434 
Si 9.38717766 4.0837401 1.2564332298228118 
Si 8.13560067 5.430206339999999 2.7157780661855906 
Si 9.50345568 6.7850945099999995 4.070461929994842 
Si 10.29246183 5.95495611 0.11259350888003337 
Si 9.502282799999998 4.0726629 6.787504200142216 
Si 8.14550499 5.42971764 8.14514932431847 
Si 10.860412679999998 5.4307439099999995 5.430099549545647 
Si 10.85943528 5.430222629999999 10.861676293937943 
Si 9.500979599999999 6.7872285 9.503069275442941 
Si 9.492541379999999 4.075350749999999 12.240242619546976 
Si 9.03694266 7.88589126 17.164110930482774 
Si 11.761396289999999 4.745993759999999 15.2695570096023 
Si 8.21493297 5.4656370899999995 13.75072588029864 
Si 9.90655173 6.566955119999999 15.201468633182326 
Si 8.916445529999999 4.4914788 18.022258076280416 
Si 11.38969107 7.10079471 20.554960170913372 
Si 9.649104569999999 6.548237909999999 18.996519607698396 
Si 11.91268152 5.6169549 22.306535371985607 
Si 8.483538779999998 7.40693268 22.686724101470897 
Si 9.72063396 5.31094725 22.927609921580306 
Si 9.459782189999999 4.43288367 25.04552944462156 
Si 11.43057897 7.64400105 25.59521769441772 
Si 11.13374259 7.631050499999999 29.285903135349592 
Si 9.50283666 6.46686936 26.19684823742629 
Si 11.72019888 4.111986959999999 27.951961835456782 
Si 10.036708829999998 5.75247141 28.347231693725302 
Si 10.606207229999999 5.52566574 32.11799483669298 
Si 12.167229059999999 7.10351514 31.27173395640558 
Si 9.590085899999998 9.59987619 1.237676290607219 
Si 12.21719049 9.50138685 4.074859161166263 
Si 9.50270634 9.50257602 6.787538553510743 
Si 10.86002172 8.14465791 8.145114970949944 
Si 8.14539096 10.85998914 8.144668377159096 
Si 10.8610317 10.858148369999999 5.430202609651227 
Si 9.4830606 9.496516139999999 12.250445569999414 
Si 10.8577737 10.86248151 10.86404667636629 
Si 12.236168339999999 12.2054454 12.230383202779805 
Si 11.80940292 10.029655259999998 15.37031543949119 
Si 10.92044133 8.2601703 13.761581544753085 
Si 9.795453929999999 11.6830251 14.987241027049656 
Si 10.83537495 9.34583364 21.03844947955853 
Si 9.28420857 9.8119557 19.262723860412002 
Si 10.09562976 11.87102799 18.539104505765025 
Si 9.60003909 9.46406646 23.02393676692925 
Si 10.72326717 9.8086977 25.09788397825629 
Si 9.89314506 9.65795004 29.268142443821276 
Si 9.46510902 10.65177036 27.03816223264584 
Si 11.142816119999999 10.86899751 34.15449687632589 
Si 11.020070969999999 11.548665179999999 30.148275745476024 
Si 12.20720472 9.10241217 32.76242967688585 
Si 12.219552539999999 14.93437878 4.072110891684125 
Si 9.501484589999999 12.218738039999998 4.069603095781673 
Si 9.499269149999998 14.838121169999999 1.2992718803756407 
Si 10.870431029999999 13.56911388 2.713112244787916 
Si 8.1453258 13.57694937 5.430614850073548 
Si 9.50314617 14.93245656 6.787950793933063 
Si 10.85971221 13.574782799999998 8.14494320410731 
Si 9.501680069999999 12.21841224 9.501660787333345 
Si 9.49856868 14.90736996 12.21492418694278 
Si 11.49567381 15.292156050000001 14.970029989417766 
Si 9.59065605 14.719334489999998 16.823050687749426 
Si 10.771371539999999 13.448307239999998 13.58572665126477 
Si 8.59967019 12.613526189999998 16.930920264923348 
Si 10.0361061 13.36488615 20.359901744418615 
Si 10.26933003 15.25483566 19.034754906868645 
Si 8.42675184 13.2620148 22.076161682645374 
Si 11.73933963 13.207606199999999 23.854738631379618 
Si 9.6514992 14.3001765 23.776550364612785 
Si 12.10078215 13.05407295 21.51572082850035 
Si 8.257498739999999 14.29506144 25.68725036870082 
Si 9.38633058 13.08186369 27.310515738325734 
Si 11.368155689999998 14.30151228 28.107376474671693 
Si 9.17035776 13.13814564 30.466216171190883 
Si 11.60895447 15.55243767 32.1587722851342 
Si 10.45648584 15.16693482 30.15734503476708 
Si 10.800921599999999 16.262583929999998 34.207641537436736 
Si 14.06724579 2.3699017799999997 0.1002211432051326 
Si 12.26003319 1.30056102 1.2272878319647367 
Si 14.93281494 1.3556505419999998 4.0693969755705135 
Si 12.21743484 4.07337966 4.0692595620964065 
Si 15.041436659999999 4.06503918 1.3648146721877832 
Si 13.57538553 -5.37930009e-05 8.144874497370257 
Si 13.57505973 2.7159991199999998 5.429790369228907 
Si 12.21771177 1.35697329 6.78767596698485 
Si 14.93100675 1.35855342 9.501832554175976 
Si 13.57740549 2.7137510999999996 10.860748752987721 
Si 14.81476131 1.80009387 16.988599570679725 
Si 15.26921973 0.920301921 14.82502442086645 
Si 12.437154360000001 3.3986804399999997 19.304257082960817 
Si 12.76658703 1.423835595 18.081586343726073 
Si 12.784180229999999 0.05856808859999999 22.88676376640203 
Si 13.93443342 2.08194345 22.921014074823173 
Si 13.26613617 3.8541814199999997 21.476832815328095 
Si 13.465314 2.83843476 25.104033231222576 
Si 16.059072959999998 3.4122337199999997 29.197134031076533 
Si 15.763523489999999 0.1607909337 29.96060329321451 
Si 14.313289949999998 1.77645708 28.960198848347694 
Si 14.093179469999999 1.122812685 26.707785887524302 
Si 15.936783929999999 0.7350243479999999 34.29177293695869 
Si 15.984448469999998 3.3487353 31.6122445452425 
Si 13.84619049 3.8420616599999997 32.60004130386001 
Si 13.57352847 5.4210676499999995 2.694681662573327 
Si 14.932179629999998 6.786365129999999 4.068950381779666 
Si 16.2919548 5.43012489 5.42985907596596 
Si 14.93270091 4.07253258 6.787401140036636 
Si 13.575287789999999 5.42992941 8.145080617581417 
Si 12.21746742 6.7875054299999995 6.787504200142216 
Si 13.573821689999999 8.147052539999999 5.43102709049587 
Si 12.22274538 6.80573394 12.246597992724421 
Si 13.57541811 8.141122979999999 10.86140146698973 
Si 12.21890094 4.07189727 9.502141734492719 
Si 14.93234253 6.788368799999999 9.501557727227764 
Si 14.92129791 4.06438758 12.248315661150757 
Si 15.38044785 6.5951042399999995 15.005207838789135 
Si 15.44906133 8.09819883 16.98547341414379 
Si 15.37311735 4.168969379999999 17.131578290487962 
Si 13.54638933 5.4663375599999995 13.72784653685984 
Si 15.03674514 7.3396224 21.45398782525782 
Si 15.278016329999998 5.0393115 21.197574282574326 
Si 13.43426526 7.13467791 19.538650116418676 
Si 13.08570813 5.002528679999999 17.559793029173616 
Si 12.964624559999999 6.6227320800000005 24.133825397290746 
Si 14.331094919999998 5.00788809 25.3093289615383 
Si 15.435068219999998 5.65548075 28.920314587488164 
Si 13.61521458 5.54050593 27.47733569589152 
Si 12.704668739999999 7.6894990199999995 27.542160502301453 
Si 14.64589917 6.26067054 32.986447993048635 
Si 14.671930589999999 7.00365744 30.706243157087126 
Si 13.605619769999999 8.054411309999999 34.316919602720255 
Si 14.95648431 9.54910026 1.2863928025149707 
Si 13.57374024 10.858588199999998 2.709481093734641 
Si 14.932244789999999 9.50345568 6.787950793933063 
Si 13.57509231 10.86000543 8.14494320410731 
Si 12.21821676 9.50205474 9.502725741757674 
Si 14.9237577 9.49794966 12.239280725228227 
Si 16.2890226 10.860933959999999 10.867825546904228 
Si 13.500142019999998 10.7598708 13.744576627332357 
Si 14.982808949999999 11.96114427 15.161790492533957 
Si 16.267584959999997 10.25566272 16.541043885513524 
Si 12.695904719999998 10.80295785 21.072493667768516 
Si 13.599331829999999 10.69023105 18.913727989548985 
Si 15.87416517 11.281313699999998 18.81056482386322 
Si 13.30272351 8.64036261 17.78686879513528 
Si 12.25522764 11.908609019999998 17.444022177238544 
Si 12.547682009999999 11.196850049999998 24.724291095528137 
Si 16.26396858 11.402869679999998 22.712970075025314 
Si 14.02769367 10.489521960000001 22.97951786142419 
Si 14.512288589999999 8.26818498 23.57905284895263 
Si 15.94536876 8.6820813 25.50421562119042 
Si 14.49117675 9.1978227 27.47774793631384 
Si 15.172473419999998 9.196454339999999 29.86156253175196 
Si 13.651720469999999 11.30643288 26.79789477316991 
Si 14.547621599999998 10.872988559999998 31.456761199290533 
Si 12.342704939999999 11.5342974 32.093226057985206 
Si 15.96744171 11.28396897 34.07215185196732 
Si 14.192108639999999 13.163248529999999 0.03064457886058165 
Si 12.324215789999998 12.29003937 1.329719270900879 
Si 14.930273699999999 12.21728823 4.071458177682117 
Si 15.04629108 15.068201129999998 1.2513764139756778 
Si 13.57310493 16.28213193 2.698855596849324 
Si 16.2913032 16.290325799999998 5.429893429334487 
Si 13.57463619 13.574652480000001 5.429721662491853 
Si 12.21732081 12.217614029999998 6.787435493405162 
Si 14.932375109999999 14.932538009999998 6.787401140036636 
Si 12.217239359999999 14.930583209999998 9.502416561440933 
Si 14.930843849999999 12.21844482 9.501832554175976 
Si 13.578317729999998 13.575010859999999 10.858618844139064 
Si 14.923301579999999 14.90961798 12.228631180984943 
Si 13.4573319 16.14855393 13.614239947141954 
Si 16.23176325 13.527818729999998 13.699779834773503 
Si 13.451516369999998 13.856420609999999 17.99209581871395 
Si 13.521775139999999 14.983167329999999 21.169919820910316 
Si 15.94616697 14.8752135 21.011310318422417 
Si 12.536507069999999 15.62315256 19.155781824188306 
Si 15.65138313 13.6241415 18.960826457799126 
Si 13.206970890000001 14.82429096 24.65266432214991 
Si 15.463461689999999 14.22887517 25.02251268770865 
Si 12.67368516 12.43195785 28.654247748248665 
Si 14.71464297 12.581776979999999 29.858711202164244 
Si 16.074955709999998 16.218861569999998 26.120102812137585 
Si 15.77489391 12.24172323 26.30756914418793 
Si 12.26915559 15.86390247 26.529217077922375 
Si 15.30026847 14.40097902 31.180044815807744 
Si 13.35317364 14.06050173 32.36966761451978 
