&CONTROL
  dt          = 30.D0,
  prefix = 'x1.00_y.66_z3.16_struc25-scf',
  pseudo_dir = './',
  outdir='./',
  wf_collect= .true.,
  verbosity= 'high',
/

&SYSTEM
ibrav= 6, celldm(1) =30.783621515, celldm(3) =2.110832797198731, nat=  432, ntyp= 1,
  ecutwfc     = 12.D0, nbnd= 1728,
  degauss     = 0.05D0,
  occupations = "smearing",
  smearing    = "methfessel-paxton",
/
&ELECTRONS
  electron_maxstep=200,
  conv_thr    = 1.D-8,
  mixing_beta = 0.3D0,
  scf_must_converge=.false.,
/
ATOMIC_SPECIES
Si  28.08  Si.pbe-hgh.UPF
K_POINTS {automatic}
1 1 1 0 0 0
ATOMIC_POSITIONS (angstrom)
Si 0.0204082749 2.7135556199999997 2.703395673501679 
Si 2.74533741 -0.01095891831 2.6902294784682868 
Si 1.9974798 1.9067119199999998 1.5277978444140996 
Si 3.7994144399999996 3.84033492 1.3866283126575287 
Si -0.001354754592 0.00163776402 5.429637050790732 
Si 0.000189666099 2.71484253 8.144816623581896 
Si 2.7151520399999995 -4.04075079e-05 8.14505732184576 
Si 2.7133275599999997 2.7151846199999996 5.428811799600339 
Si 1.358019108 1.357704711 6.787759811913443 
Si 2.7137836799999997 2.7151194599999995 10.862368793545437 
Si 1.325756763 1.366594164 12.21904736508496 
Si 2.61387711 0.01264082823 13.590064676057558 
Si 1.7529180299999998 3.75166845 14.7684202195397 
Si 3.40755849 1.8684955799999998 14.971569554241398 
Si 2.6078172299999998 1.5073022969999998 17.203392627726238 
Si 2.66377338 3.40039089 21.36499683901214 
Si 0.18134516699999997 0.303362154 20.70421133377136 
Si 0.313865946 2.6224456499999995 20.035242087559183 
Si 0.54152847 2.58637959 17.729112021472726 
Si 3.25935207 1.6762735799999997 24.699046033665383 
Si 0.485021718 0.401887332 23.02100089440039 
Si 1.5884932859999998 2.5088554800000002 23.320807774776846 
Si 2.8266408 2.5013294999999998 28.02429254895443 
Si 3.10093182 0.515958057 26.777303614804623 
Si 1.218417066 3.8920068 26.854120746443687 
Si 0.7974541439999999 3.52567728 32.9259407652251 
Si 3.06582687 0.9928282589999999 31.724203104681823 
Si 1.7658522899999998 2.1488139 30.10787987736496 
Si 1.5247179359999998 1.3751724779999999 33.59841732899644 
Si 1.3488901919999998 4.08137805 4.079182248645422 
Si 0.271914309 5.33114685 0.055725774340600207 
Si 2.71322982 5.4293429699999995 2.724047584541259 
Si 1.527555654 6.88412142 1.3129849595548497 
Si 0.005536156499999999 8.15700573 2.695150038691004 
Si 2.7151520399999995 5.42981538 8.145126092778293 
Si 1.3575076019999999 6.78753801 6.78920400149663 
Si 1.355443659 4.07344482 9.501632736986483 
Si -0.000201938985 5.4297990899999995 10.855698013089762 
Si 1.3209723899999999 6.78618594 12.201235693558983 
Si 3.5053636499999996 7.30207395 14.627474193313862 
Si 0.917397414 4.73294547 16.82102624284423 
Si 2.68628616 5.44266819 13.468787136536081 
Si 1.444334931 7.34563341 20.56202743075993 
Si 2.8995711299999996 5.52273354 20.130592985515822 
Si 2.9897036999999997 4.70608326 17.897050638717666 
Si 2.26276245 7.824901499999999 22.735498367990743 
Si 2.8680174 5.8710789 23.968836272032807 
Si 1.0467237239999998 4.42890891 24.535336828771207 
Si 2.6327898000000003 7.74644886 26.990149650993438 
Si 0.52401672 5.81028462 30.002007026730816 
Si 1.0312531109999998 6.1229385899999995 27.691372464563464 
Si 0.630062991 7.8330465 31.1874803617301 
Si 2.1193778699999997 4.40276346 31.08332678440927 
Si 3.2340862799999996 7.82394039 34.23114429376387 
Si 1.3633182449999999 9.493942319999999 4.075881243883851 
Si 2.71917567 10.84184208 2.6839953934341945 
Si 0.9709833689999999 11.614737419999999 1.2273754641914751 
Si 0.00030484617299999996 8.14477194 8.144472768919233 
Si 2.71368594 8.14506516 5.4319064915643125 
Si 2.71528236 10.859809949999999 8.144919779980695 
Si 4.07417787 9.50767479 12.186518713996977 
Si 1.358050059 9.50348826 9.501667122452751 
Si 2.71746522 8.147036250000001 10.862540720876769 
Si 0.00368199612 10.854255059999998 10.857829911998277 
Si 0.6335555669999999 10.57831875 16.110244269652153 
Si 2.70084942 11.78702046 16.593979009087406 
Si 1.6559762399999998 8.98305534 14.700990320191353 
Si 2.64264525 10.73914992 13.493957297843062 
Si 3.7166612399999996 8.44797771 17.19046369241008 
Si 2.7104116499999997 11.18051118 18.83928118534866 
Si 2.02896837 8.85570012 18.741557690219647 
Si 0.9253485629999999 9.26490492 24.03279323928825 
Si 0.6564136949999999 11.30369616 22.959519680716127 
Si 3.3688860299999996 11.813882669999998 25.48547603264347 
Si 2.8494956699999996 11.78498421 29.120329286194895 
Si 2.13620544 9.787944239999998 25.944969018360936 
Si 1.0827278820000001 10.63531746 27.899817161070185 
Si 1.5531700499999999 12.15678717 33.18795801817481 
Si 3.13013979 10.9429704 31.480341377920748 
Si 2.8470033 8.554726079999998 31.69910171430738 
Si 4.06668447 14.91150762 1.0407758544037795 
Si 1.3551455519999998 14.935176989999999 4.0652561348075436 
Si -6.398972639999999e-05 13.575108599999998 8.144988550913228 
Si 2.71577106 13.574668769999999 5.428261632140078 
Si 1.356520428 12.2178258 6.787347186318247 
Si 4.06344276 14.93257059 12.24043512510264 
Si 1.355733621 14.93063208 9.502664300974475 
Si 2.71686249 13.577242589999999 10.858861475986268 
Si 1.3631814089999998 12.21223833 12.20041044236859 
Si 0.0469251369 15.286031009999999 16.75012341140298 
Si 3.05178489 14.021226539999999 16.166808361660326 
Si 1.339261173 14.798634209999998 14.811849063434122 
Si 3.87987075 15.88408578 20.90739505393932 
Si 1.2513896549999999 12.758686379999999 19.861114086386298 
Si 1.85367168 15.11208639 19.87834120498575 
Si 2.25020286 15.548560649999999 17.683757591467387 
Si 2.2983561 12.83168187 22.15998881909055 
Si 3.70768545 16.169225939999997 23.251830529446515 
Si 1.8795076199999998 14.78654703 23.49974974122702 
Si 1.73208312 13.59713268 25.491252790976223 
Si 1.90355166 13.92741243 29.481411067458016 
Si 1.6153538669999998 15.061473359999999 27.357455201650772 
Si 0.186391809 15.67265787 33.49887140415531 
Si 2.3860940399999997 14.370402689999999 33.44251362494473 
Si 3.31112169 14.913364679999999 31.216536080725177 
Si 8.15562108 -0.00408882258 2.7038805085760345 
Si 4.0823554500000006 1.347007068 4.0754342328223885 
Si 5.45203494 2.70932022 2.684167320765526 
Si 7.04707029 1.414561698 1.1589758946944173 
Si 5.42940813 0.00171046629 5.432800513687238 
Si 5.430141180000001 2.71497285 8.146020114901217 
Si 6.78766833 1.356347754 6.788344364839971 
Si 4.07194614 1.35610992 9.503695864962465 
Si 5.433855299999999 -0.0027394893 10.865085245380481 
Si 6.776200169999999 1.366841772 12.262373052580584 
Si 5.36229333 2.83709898 13.837364949445274 
Si 7.52145138 2.1557697300000003 16.61295978646644 
Si 8.0448165 3.34406007 14.641022067022808 
Si 6.50503683 1.96802748 21.439372602546293 
Si 7.80672186 3.90801987 21.13041918814298 
Si 4.3017003 1.9072331999999999 20.462206422188668 
Si 7.32732345 0.025506881999999998 20.464888488557445 
Si 7.419915809999999 0.326922381 18.115879746036825 
Si 5.130616949999999 3.15335304 24.695332403308615 
Si 6.597840959999999 1.574785251 23.779544280236454 
Si 5.12644671 3.1854606299999997 28.26468134362261 
Si 6.5099075399999995 1.196801865 27.986159066865035 
Si 5.76638307 3.8386570499999997 30.465557497467717 
Si 5.35716198 1.70061084 31.72887952809405 
Si 6.548824349999999 0.264779289 30.232217723384146 
Si 6.790128119999999 4.07091987 4.068282055838984 
Si 4.075350749999999 6.78814074 4.076775266006776 
Si 6.555324059999999 6.65216811 1.2545949992879315 
Si 5.435435429999999 8.13323862 2.7236349589460627 
Si 4.07243484 4.07279322 6.787794197379709 
Si 5.430190049999999 5.4319656599999995 5.42984336358833 
Si 6.78713076 6.78776607 6.787691040980909 
Si 6.78794526 4.07484576 9.50091064219489 
Si 4.07219049 6.787391399999999 9.502182904446746 
Si 4.095126809999999 4.079374379999999 12.223930101294785 
Si 5.42957103 5.42557998 10.85875831958747 
Si 6.7903236 6.78926475 12.242979649606353 
Si 4.20251049 6.258455099999999 16.60295361578293 
Si 7.58208276 7.42890789 15.422087933263343 
Si 6.46833546 6.1651134 17.03315018424145 
Si 4.919954669999999 6.89288544 20.48827060561857 
Si 6.475405319999999 7.65525744 18.798809491553147 
Si 7.72134597 4.26237624 17.3800995388691 
Si 6.22053198 5.47663284 21.808397426516947 
Si 4.3838019 4.43215062 22.88032995190468 
Si 7.4208443399999995 6.79767039 23.333805481025532 
Si 5.69654784 7.936536869999999 24.35443489074385 
Si 4.36537791 6.5609766899999995 25.784423276363267 
Si 5.624171369999999 4.67254215 26.48977234588526 
Si 7.832346029999999 5.57456832 26.811689081070988 
Si 4.65483492 8.07417108 27.93760678849692 
Si 4.6991762999999995 5.80448538 34.16529612586377 
Si 8.07633765 4.351140449999999 30.266156178589053 
Si 4.42167615 5.39324433 31.66224049446983 
Si 4.55727411 7.51063482 30.277778466187083 
Si 8.150701499999998 10.850475779999998 2.717710343108368 
Si 4.21963128 9.47783151 1.2737167570786583 
Si 6.789606839999999 9.50174523 4.07285532285241 
Si 4.0726140299999996 12.2204322 4.067869430243787 
Si 4.07269548 9.501158789999998 6.788000510177307 
Si 5.43005973 8.145179189999999 8.14516047824456 
Si 5.42906604 10.85642163 5.428983726931671 
Si 6.787375109999999 9.50340681 9.502767457373274 
Si 5.43066246 10.859549309999998 10.857864297464545 
Si 8.0562195 10.867287059999999 13.715193387800868 
Si 5.425205309999999 8.264291669999999 13.635144022332765 
Si 6.262038899999999 9.99121086 15.071734417475326 
Si 4.3837856099999994 11.51380458 14.894064713277006 
Si 5.70987306 9.623545559999998 17.607765711018715 
Si 4.9515084 11.11513941 19.458632203738468 
Si 4.49230959 8.428494869999998 22.328064978200555 
Si 7.377007949999999 10.41146028 22.802034245216163 
Si 4.30912854 12.192527429999998 23.30082981887609 
Si 5.23896174 10.59180687 21.80733147706269 
Si 7.00585659 9.754158780000001 25.131099417302288 
Si 7.47634437 9.603476279999999 28.915563834578677 
Si 5.87787183 10.01905047 27.264476900866516 
Si 4.60471059 11.97758088 27.49444689925598 
Si 6.461607689999999 8.85983778 30.92594450530811 
Si 7.67037456 8.40137202 34.28292880596101 
Si 6.04243341 10.329586739999998 34.370886828670386 
Si 5.46081525 10.80186642 32.11076451644833 
Si 5.42054637 13.572583649999999 2.6732602508658347 
Si 6.90686226 12.23810685 1.322685099588592 
Si 6.784214849999999 14.934557969999998 4.068935379698044 
Si 4.07295612 14.933303639999998 6.786453164195321 
Si 5.430206339999999 13.574880539999999 8.144713467183095 
Si 6.78776607 12.21732081 6.787381571784513 
Si 8.14498371 13.577193719999999 10.858861475986268 
Si 4.0728258 12.216604049999999 9.502148518980478 
Si 6.78760317 14.93025741 9.501942206182882 
Si 6.78385647 12.222631349999999 12.230910350946857 
Si 5.27704776 13.413348899999999 13.656669324215512 
Si 6.5229721199999995 14.960801159999999 14.927453001021648 
Si 6.93592362 14.47294824 17.21553069731826 
Si 5.88385026 14.541724619999998 21.02396178458231 
Si 6.187463279999999 13.076553149999999 19.174505095979477 
Si 6.12168426 13.758061589999999 23.325552969121606 
Si 5.67602244 15.78284343 24.366779273133478 
Si 5.306500079999999 15.904431989999999 26.68986137408925 
Si 5.869726829999999 13.93809867 27.862990326698903 
Si 6.64749288 12.71716317 31.34383107684327 
Si 7.503955919999999 14.353070129999999 32.90826663556418 
Si 5.46439905 14.413734089999998 30.140236601121615 
Si 5.9953715999999995 16.205096519999998 33.927039230104114 
Si 9.5027715 1.357328412 4.072477082723481 
Si 10.855835189999999 2.71702539 2.703120589771548 
Si 8.145032579999999 -0.000361743885 8.145126092778293 
Si 8.145309509999999 2.7142072199999996 5.430703000244989 
Si 10.86031494 0.00020912287499999998 5.431150011306452 
Si 10.860412679999998 2.7148914 8.145091707312027 
Si 12.21909642 1.354436937 12.21932244881509 
Si 9.503586 1.356722424 9.502320446311812 
Si 8.1428823 2.7171719999999997 10.864913318049148 
Si 10.03159377 0.747326556 15.015067169068352 
Si 10.882811429999999 2.66023845 13.730770004019533 
Si 9.668896919999998 0.76307247 17.449042398733162 
Si 11.29359636 1.6620849899999999 21.408563224771626 
Si 10.47591981 2.16093366 19.215389415370186 
Si 8.673529049999999 1.2498697979999998 24.74563834045631 
Si 10.33831818 2.27416545 23.511268872426257 
Si 11.999067389999999 2.8046818799999995 25.05032795704259 
Si 10.606272389999999 0.7733807819999999 28.146017099537378 
Si 11.99414781 2.26905039 29.40349360089843 
Si 12.14931006 0.815995422 26.358729333944133 
Si 8.66834883 1.72981881 27.12370280197201 
Si 8.866011689999999 3.88568628 28.068615414971784 
Si 8.695748609999999 2.63114451 34.144733617036486 
Si 11.64308202 2.4555546 31.87175114043081 
Si 9.15727689 3.6160541999999998 32.134628030037184 
Si 9.99378468 0.910192347 32.74954332327864 
Si 10.87147359 8.145928529999999 2.683575890745745 
Si 12.21606648 4.06966554 4.068453983170315 
Si 9.72910476 4.211681759999999 1.2450839793186543 
Si 8.14648239 5.430401819999999 2.6799241542282566 
Si 9.501191369999999 6.786918989999999 4.0668378662557965 
Si 11.59940853 5.08852359 0.07502736811990018 
Si 9.502380539999999 4.07210904 6.787381571784513 
Si 8.145032579999999 5.42996199 8.145573103839755 
Si 10.85992398 5.429277809999999 5.4292588106618025 
Si 12.213460079999999 6.77981655 12.223689403030919 
Si 9.50285295 6.78711447 9.502836228305807 
Si 9.5205276 4.06179747 12.22472096701891 
Si 10.86598386 5.42890314 10.856523264280156 
Si 11.88181197 6.041977289999999 16.238845913488365 
Si 8.356411620000001 5.57750052 13.678297782497058 
Si 9.859962329999998 6.88358385 15.24888833967965 
Si 8.54464257 7.86557763 19.926721556022528 
Si 10.31811858 6.18920631 19.73804850261897 
Si 9.16763733 4.158462329999999 19.193726571622378 
Si 9.37927701 4.26117078 22.878163667529904 
Si 12.05751591 7.072205759999999 23.073507501389134 
Si 11.190122279999999 5.3172840599999995 21.772223916004727 
Si 10.96501077 6.67362204 25.19347465310948 
Si 8.89306938 5.678140139999999 24.707332931035577 
Si 11.13098958 4.276548539999999 28.45462665927802 
Si 11.21727771 5.96961711 30.057058158223274 
Si 11.9420361 4.819380209999999 26.307529374673514 
Si 8.581327649999999 7.569164789999999 28.147942685648292 
Si 8.962692839999999 6.606572399999999 30.27884441564134 
Si 11.09920779 4.84479261 32.16963243469635 
Si 9.455367599999999 9.49545729 1.2795932332635807 
Si 8.145602729999998 8.147753009999999 5.431012469441387 
Si 9.502347959999998 9.50270634 6.788034895643573 
Si 10.86008688 8.14477194 8.144988550913228 
Si 8.14454388 10.860217200000001 8.144885394514429 
Si 10.86007059 10.863019079999999 5.4307373857112555 
Si 8.145602729999998 8.14421808 10.861818626085176 
Si 9.500083649999999 9.50304843 12.252229340032006 
Si 10.86095025 10.858523039999998 10.865429100043144 
Si 10.128063150000001 9.873499319999999 16.47679334005163 
Si 10.97742375 8.195417549999998 13.679054262754915 
Si 9.56082906 11.946841649999998 15.244383843598756 
Si 11.28007566 10.24057818 20.20221791174866 
Si 8.32577013 11.99462022 19.01272147719622 
Si 9.33438177 9.82391256 18.86276645880859 
Si 10.91996892 8.975692259999999 22.24756860167099 
Si 9.182282039999999 11.910189149999999 22.832293455530568 
Si 10.79666991 10.61226711 23.871215933302587 
Si 8.57187945 8.47316205 22.171954961351247 
Si 9.34431867 10.050115499999999 25.69323301982486 
Si 8.28779814 11.7517689 29.67733945424378 
Si 10.468996559999999 8.30638503 26.857937533199255 
Si 10.416005189999998 11.17283859 34.27010302704366 
Si 8.59696605 8.3546523 32.016238869682084 
Si 10.485009629999999 11.808295199999998 30.577757273894875 
Si 10.81947591 9.953418059999999 32.16444022929013 
Si 11.240604989999998 15.96390678 0.08462125706287933 
Si 12.18612546 12.236314949999999 1.1601174921744606 
Si 8.763971129999998 13.11858135 0.13039587746599285 
Si 9.50387922 12.215154239999999 4.075193534558523 
Si 9.60196131 14.901668459999998 1.4147212385971508 
Si 10.893367349999998 13.54150233 2.7309934487270655 
Si 8.147264309999999 13.57421265 5.430909313042588 
Si 9.502657469999999 14.93274978 6.78720964445318 
Si 10.859467859999999 13.57562988 8.144747852649362 
Si 9.50120766 12.21852627 9.502836228305807 
Si 9.498633839999998 14.91083973 12.229775630560068 
Si 10.86062445 16.2911403 10.862196866214106 
Si 11.806601039999999 15.29987751 14.85778804636599 
Si 8.952560459999999 13.27721337 17.142152112305837 
Si 10.79629524 13.46461353 13.689129204370964 
Si 8.174533769999998 16.23816522 13.678916720889852 
Si 9.2533716 13.06003509 20.866751432812478 
Si 11.07304605 14.5834596 20.21879170648905 
Si 10.47580578 14.916557519999998 17.957809757610335 
Si 9.15983442 15.322993019999998 21.532419674263082 
Si 9.327442229999999 15.40766844 23.969420824959336 
Si 8.2495818 13.37567013 24.325963724675297 
Si 11.403635309999999 15.27438366 25.10022126859509 
Si 9.688021379999999 15.134762069999999 29.234110794070304 
Si 11.44983375 13.18460472 26.222425345664252 
Si 9.19884897 12.40410195 26.27224988628422 
Si 8.230180410000001 13.500011699999998 28.113007051921663 
Si 11.4952014 13.967322929999998 30.18428438340883 
Si 8.596265579999999 15.811171739999999 31.34458755710113 
Si 12.23914941 1.417788747 1.2940935843881076 
Si 14.935176989999999 1.349716095 4.069554318090839 
Si 13.574342969999998 0.000393669027 8.144679081716829 
Si 13.578057089999998 2.71775844 5.429121268796737 
Si 12.21728823 1.3572648809999999 6.787656655514643 
Si 16.2911403 0.0021065087699999995 10.858242537593474 
Si 14.931902699999998 1.356715908 9.502389217244344 
Si 13.57211124 2.71437012 10.861268458624913 
Si 16.23606381 2.74784607 13.661964686020532 
Si 15.203668769999998 1.065193326 16.887149494474457 
Si 13.570824329999999 0.0382448475 13.620770897433426 
Si 14.37743997 1.9356266699999998 14.887840943882793 
Si 12.58506756 3.80755944 15.064100843964193 
Si 14.298514919999999 3.5160824699999997 19.788904607226925 
Si 12.75093234 2.21892606 18.486658228787068 
Si 13.74721245 0.08468226179999999 18.42366405458708 
Si 13.838208389999998 3.0184881299999997 23.56700771324404 
Si 14.68157427 0.820773279 23.96498509981097 
Si 12.758295419999998 3.49943409 21.559481036214716 
Si 14.56666461 0.9974676509999999 26.292640467780174 
Si 15.898535009999998 0.910617516 29.7783295686681 
Si 14.379834599999999 2.6829792899999996 29.244357663017677 
Si 15.250274459999998 3.12465006 27.117547803510327 
Si 13.187243699999998 3.2766846299999997 34.31824267981658 
Si 15.006152519999999 4.16273031 1.3837433720377805 
Si 13.582227329999998 5.457378059999999 2.7086566498404334 
Si 12.503047409999999 7.03596051 1.1949155840360244 
Si 14.930273699999999 6.78278133 4.073990043239201 
Si 16.2921177 5.4310534200000005 5.433178753816168 
Si 14.93281494 4.07316789 6.788309979373705 
Si 13.574733929999999 5.42986425 8.144713467183095 
Si 12.21769548 6.78770091 6.787415957250779 
Si 12.218233049999998 4.074340769999999 9.501907820716614 
Si 14.933727179999998 6.786739799999999 9.50187343525035 
Si 14.94503244 4.08468492 12.222898537306794 
Si 16.14014829 8.00875044 13.585800878240528 
Si 15.555842279999998 6.54080967 17.13555010278269 
Si 13.570009829999998 5.40598311 13.623865589397397 
Si 14.42484387 7.12531116 15.051756461574568 
Si 15.34736286 7.35382728 20.749393836445368 
Si 14.341015529999998 5.84825661 19.157209206447494 
Si 12.28902939 6.96599496 18.593253174212805 
Si 14.437696679999998 7.04247651 23.019316006553336 
Si 15.067011959999999 4.9741515 24.082583394441947 
Si 14.24742948 5.09269383 26.265269636632148 
Si 13.38521607 6.791529059999999 30.019199759864 
Si 15.35440014 7.069631939999999 26.77269596232493 
Si 14.661244349999999 4.7954827799999995 30.33912213800628 
Si 14.845810049999999 4.15624689 32.62238586902561 
Si 15.563547449999998 6.8942212199999995 32.97848175768011 
Si 12.2139162 9.502152480000001 4.067319262783525 
Si 15.24963915 9.88576569 1.3441622618185651 
Si 13.56999354 10.87746831 2.69599248261453 
Si 16.2909774 10.860282360000001 5.4294651234594005 
Si 13.57753581 8.145667889999999 5.4292588106618025 
Si 14.93248914 9.502543439999998 6.788000510177307 
Si 13.574782799999998 10.85969592 8.144851009048162 
Si 14.944950989999999 9.50446566 12.209556976395442 
Si 12.221507339999999 12.21673437 12.237993756997728 
Si 12.216490019999998 9.50104476 9.503042541103405 
Si 13.574473289999998 8.146172879999998 10.861887397017709 
Si 12.8826207 9.07926408 14.844927881982368 
Si 13.704972479999999 10.897276949999998 13.595566350660176 
Si 15.309977309999999 11.95684371 15.010803371251324 
Si 12.39638049 10.38774204 16.784921503264545 
Si 15.823372949999998 11.42000676 20.87287204580789 
Si 15.01503057 9.48537378 19.67388522256593 
Si 12.851376479999999 9.30025422 18.768653437637543 
Si 16.24914468 8.91752067 17.713054008726335 
Si 15.14249982 8.463664979999999 24.824037203543625 
Si 12.63561543 11.80593315 24.68487922156364 
Si 14.356947149999998 8.25785712 28.500703184074954 
Si 16.07927256 9.509890229999998 29.573048335057884 
Si 12.30681807 10.997525609999999 29.31893973934943 
Si 13.845310829999999 10.217446379999998 25.916050841230923 
Si 15.51945042 11.680206929999999 26.808835087370884 
Si 12.466851029999999 9.34270596 27.65121023996435 
Si 14.3609382 10.735729019999999 30.813263332353223 
Si 13.056223229999999 8.87806629 31.912257219692584 
Si 14.08262355 8.450323469999999 34.054987550081265 
Si 12.218672879999998 14.930061929999999 4.071961300729485 
Si 14.92585911 12.226052249999999 4.073646188576537 
Si 14.964515279999999 14.84984997 1.0586666125021704 
Si 13.59734445 16.2960273 2.6772764733257466 
Si 16.2872307 13.54577031 2.6668336072206507 
Si 13.57603713 13.57505973 5.431493865969116 
Si 12.21738597 12.218640299999999 6.788413135772504 
Si 14.931918989999998 14.93175609 6.78720964445318 
Si 12.21696243 14.932863809999999 9.502114133514214 
Si 14.9327172 12.216490019999998 9.50318008296847 
Si 13.5718506 13.578936749999999 10.862196866214106 
Si 14.93331993 14.928905339999998 12.229775630560068 
Si 12.6012924 14.788338929999998 17.066641628384893 
Si 15.11138592 13.22915787 16.94780545696833 
Si 16.26579306 13.471829999999999 13.5355293265591 
Si 12.552715619999999 15.968223629999999 21.409079006765623 
Si 14.21828667 13.05355167 21.238870948747106 
Si 14.54250654 15.293671019999998 20.35217293013629 
Si 12.23173746 12.47673906 20.10476950034978 
Si 13.058389799999999 12.55770036 17.792965832329372 
Si 16.05198681 12.57721578 24.721190273940923 
Si 14.11075638 13.29008247 23.57130589652733 
Si 13.12928388 15.395809319999998 23.572303075049057 
Si 12.58987311 13.11991713 28.302092730920418 
Si 15.936083459999999 13.42015812 30.072462847110604 
Si 15.719312429999999 15.850805309999998 27.725620388964767 
Si 14.826701879999998 13.63023396 28.009128558330968 
Si 15.58752633 12.28156857 32.13510942656492 
Si 12.94462044 14.16312873 34.214879968219876 
Si 15.334868429999998 15.50765646 31.380314056551885 
Si 13.387578119999999 14.036555429999998 31.849434972823936 
