&CONTROL
  dt          = 30.D0,
  prefix = 'x1.00_y.66_z3.16_struc22-scf',
  pseudo_dir = './',
  outdir='./',
  wf_collect= .true.,
  verbosity= 'high',
/

&SYSTEM
ibrav= 6, celldm(1) =30.783621515, celldm(3) =2.1107125888071807, nat=  432, ntyp= 1,
  ecutwfc     = 12.D0, nbnd= 1728,
  degauss     = 0.05D0,
  occupations = "smearing",
  smearing    = "methfessel-paxton",
/
&ELECTRONS
  electron_maxstep=200,
  conv_thr    = 1.D-8,
  mixing_beta = 0.3D0,
  scf_must_converge=.false.,
/
ATOMIC_SPECIES
Si  28.08  Si.pbe-hgh.UPF
K_POINTS {automatic}
1 1 1 0 0 0
ATOMIC_POSITIONS (angstrom)
Si 0.01411725609 2.7186706800000002 2.684186379473717 
Si 1.387688085 1.534131927 1.02674656463295 
Si 9.4887621e-05 2.7151683299999996 8.144902926049232 
Si 2.71555929 -4.74451137e-05 8.144696625000803 
Si 2.7129366 2.7141746399999995 5.429946745202179 
Si 1.3575124889999999 1.357219269 6.787063808790953 
Si 2.7164389499999997 2.7130180499999996 10.856351989072975 
Si 1.379953593 1.372215843 12.2225119152846 
Si 4.0742593199999995 1.3621909769999998 9.503292179436658 
Si 2.6835331499999997 0.0257399919 13.703684675995955 
Si 0.228017646 2.92547223 13.566253794233493 
Si 3.85204743 3.48566904 15.772505973160206 
Si 3.93774912 2.1908095199999997 19.97454887810694 
Si 1.8533784599999998 2.7714176999999998 18.87606456223326 
Si 0.28319513399999996 1.0314860579999998 18.60907662205675 
Si 1.63168785 3.3062672699999998 24.803815737297064 
Si 2.3405472 3.8630757599999996 22.630743643659514 
Si 2.11584294 0.1005731568 22.67647370939483 
Si 3.5828551799999997 1.9347633 22.28336706161144 
Si 1.3745664899999999 1.63427796 27.954101513839518 
Si 2.1162338999999997 3.5196174 29.13194296634261 
Si 2.71704168 1.6215538409999999 26.031375742471788 
Si 2.71316466 3.1565133 34.10011919814227 
Si 0.565352595 3.60963594 30.912974300946992 
Si 0.07607625479999999 1.31949 31.580873945239162 
Si 4.07023569 6.78815703 4.067947223467227 
Si 1.357049853 4.070561489999999 4.072417079516545 
Si 2.7165204 5.4332525700000005 2.6942469939354874 
Si 1.291450023 6.84541638 1.3247484290901053 
Si -0.007037231129999999 8.15190696 2.7386704863640836 
Si 0.00044582472 5.431248899999999 5.434038382662707 
Si 2.71495656 5.43001086 8.144868542541161 
Si 1.357447329 6.786479159999999 6.788129697541175 
Si 2.71388142 8.144397269999999 5.431665920605762 
Si 1.358900397 4.07232081 9.50250135875101 
Si 1.3637857679999998 6.79314177 12.245067496579614 
Si 0.806788314 6.263439839999999 16.50583743331276 
Si 1.5659609579999998 4.27669515 15.191906055862002 
Si 2.81543328 5.49117981 13.651352976710875 
Si 2.30773914 8.06526045 15.98148893521981 
Si 3.18555837 6.600040109999999 19.865381239979392 
Si 0.23931638999999996 4.38797214 19.609533556418103 
Si 0.928313343 6.55341813 19.03959252662212 
Si 0.16079500619999998 4.246949610000001 21.939256912830178 
Si 0.47048452199999996 8.03531943 23.631200578020863 
Si 2.6736451199999998 7.162403489999999 23.89622865823729 
Si 3.51233577 5.8037034599999995 22.12633758024813 
Si 1.96413417 5.580220949999999 25.540069795635713 
Si 2.5365321899999995 5.52688749 27.793496147636752 
Si 1.6690896899999998 7.49978568 28.80206758990302 
Si 1.546592148 4.841876699999999 32.756171018144954 
Si 3.50436996 6.48889344 32.57747992669649 
Si 2.6826046199999998 8.09505486 34.23631227361415 
Si 4.064306129999999 9.522971100000001 1.2386555632294531 
Si 1.3600048589999998 9.50508468 4.075133376654207 
Si 2.7043191899999997 10.84609377 2.7053975656031297 
Si 4.07497608 12.21657147 4.072176394960043 
Si 1.109252889 11.929557959999999 1.315310156124432 
Si -0.000425341674 8.14493484 8.14507484358959 
Si -0.0006486335909999999 10.85811579 5.429946745202179 
Si 2.71539639 10.85982624 8.145624979718738 
Si 1.35814617 9.50371632 9.50226067419451 
Si 2.71077003 8.14576563 10.863400608227668 
Si -0.00180664245 10.8563076 10.863950744356815 
Si 1.396701342 12.2135904 12.227188072382345 
Si 0.11175396119999999 8.27828478 13.68752442720227 
Si 3.0109784399999997 10.894735709999999 13.868759898248038 
Si 1.113866217 10.052298359999998 15.055609829865908 
Si 3.32671122 9.704376539999998 17.390731397045233 
Si 3.23934795 10.569342959999998 21.228928019577566 
Si 0.944984529 11.02745034 21.159198265208225 
Si 3.7969872299999996 8.88595065 19.626656543437793 
Si 0.373963014 11.590611929999998 18.92757105732462 
Si 2.03043447 11.67271353 17.253369282298916 
Si 3.06582687 11.93525946 24.92120103385374 
Si 3.0749329800000003 10.74437901 27.009964765699557 
Si 1.141109613 9.51876828 27.604524387274857 
Si 3.08732967 8.144120339999999 30.646364579359272 
Si 0.11715051239999999 10.33774803 31.483499850380195 
Si 1.78157214 12.148788779999999 32.19551353552831 
Si 2.02416282 9.351958680000001 32.3321879801132 
Si 3.5980537499999996 12.11436801 30.630582549154372 
Si 2.68967448 16.2968418 2.6813291099529613 
Si 3.72694023 14.59642644 1.4263310653370438 
Si 1.3540687829999998 14.9408622 4.070250918508029 
Si 3.44795769e-05 13.574847959999998 8.145109227097661 
Si 2.715543 13.574538449999999 5.427986885242094 
Si 1.357098723 12.217043879999999 6.78802654701696 
Si 1.360245951 14.93364573 9.501916839113791 
Si 2.71604799 13.572225269999999 10.861612665807941 
Si 0.1163456235 13.58160831 13.606413731661203 
Si 0.682103025 15.51441681 14.836724417481662 
Si 3.4807331699999997 15.36402753 17.638017587096677 
Si 2.07914157 14.68082493 21.11673463273971 
Si 1.3880627549999998 15.246560339999998 18.866402796465124 
Si 3.9453402599999996 13.015481939999999 17.859206694521724 
Si 0.636088662 13.09719258 22.151128089567802 
Si 0.8687896829999999 12.68367093 24.45640477174092 
Si 2.55907755 15.80020857 24.915080769416985 
Si 2.19188466 16.06365045 29.135828302754707 
Si 0.785608056 14.564563199999998 25.856604370943494 
Si 1.3745746349999999 14.14006209 28.092942119432916 
Si 3.2038357499999996 12.63177099 28.36147731747265 
Si 3.7877508 16.2714294 32.48240952687832 
Si 2.9361096 12.722766929999999 34.355726197147064 
Si 1.6826592599999999 15.8861709 31.465620426182927 
Si 0.1438322292 13.93754481 31.788997319596973 
Si 6.78932991 4.072027589999999 4.070560370080675 
Si 8.13038787 -0.01548709848 2.726423080788955 
Si 4.07186469 1.3595503679999998 4.068428592580231 
Si 5.42639448 2.71347417 2.697575317516825 
Si 6.60398229 1.123306272 1.3608545509161647 
Si 8.1453258 2.71547784 5.430049895726394 
Si 5.43204711 -0.000859893714 5.430703182379756 
Si 5.42991312 2.71482624 8.145006076573447 
Si 6.78760317 1.3572828000000001 6.787476410887813 
Si 5.42773026 -0.00298273158 10.864638414518247 
Si 6.79851747 1.3664051999999998 12.239084766175143 
Si 4.34824083 0.888368634 15.321050512179193 
Si 5.4156105 2.65821849 13.766778413307467 
Si 8.065032389999999 0.9040037759999999 16.105682166374677 
Si 7.03283283 0.490322484 19.20116063105089 
Si 7.8763127399999995 2.83164183 17.588367801441187 
Si 5.84511264 2.40510447 23.00277320099497 
Si 7.33092354 0.9285707249999999 21.525898378792572 
Si 6.61712832 2.17636029 25.284359646106708 
Si 7.631865 1.109133972 29.25531099330376 
Si 4.78336302 2.65844655 26.697143609263517 
Si 5.39733312 1.576200852 28.672682449029328 
Si 4.247275409999999 2.2459674599999997 32.5099851003518 
Si 6.670885319999999 2.3027544 32.73605666592302 
Si 4.20211953 2.9262867299999997 30.21612374285848 
Si 7.2151667999999995 0.378836982 31.44361498101706 
Si 4.184510039999999 4.17439395 1.2375243458138951 
Si 6.892869149999999 6.842744819999999 1.2329857227484349 
Si 5.43927987 8.15293323 2.682972641638787 
Si 8.14436469 5.41824948 2.695165033601001 
Si 4.072548869999999 4.07238597 6.78720134282324 
Si 5.42893572 5.42960361 5.429706060645677 
Si 6.787896389999999 6.7865280299999995 6.787338876855526 
Si 6.78903669 4.07399868 9.501641771049218 
Si 4.07336337 6.787407689999999 9.502398208226795 
Si 4.078429559999999 4.06153683 12.242626267506525 
Si 5.43082536 5.42865879 10.861887733872514 
Si 6.81037659 6.76712664 12.220964657421373 
Si 4.1259312 7.068850019999999 14.871451760634047 
Si 7.5711195899999995 7.68972708 16.460313668625872 
Si 6.366604409999999 4.46218938 14.893801040880634 
Si 5.39446608 5.73518772 16.54166504872344 
Si 6.9336918899999995 5.11106895 20.885677458498098 
Si 7.510830299999999 7.389763019999999 20.839466023649774 
Si 5.01233526 4.91386221 19.267417651104996 
Si 5.62837419 4.94473176 22.823910192006146 
Si 8.06633559 7.75421919 23.162175144415226 
Si 6.14939355 6.86854818 24.227169923427105 
Si 7.7899268699999995 4.19557095 25.746989747211014 
Si 5.19833448 4.97465649 29.756072404859545 
Si 6.5554217999999995 6.0854553 26.38862039133643 
Si 7.98441318 7.6401077399999995 27.4982793473334 
Si 4.779600029999999 4.98959442 27.45805064288955 
Si 5.480363249999999 5.59947573 34.07794183543605 
Si 7.4535383699999995 5.0929218899999995 30.27268461363637 
Si 7.22393082 4.60809891 32.59511866633725 
Si 8.141888609999999 10.850247719999999 2.665815271111024 
Si 6.788710889999999 9.50166378 4.068772427660948 
Si 4.0721253299999995 9.50270634 6.7876827119362435 
Si 5.4299457 8.14486968 8.145246761129949 
Si 5.4288054 10.85801805 5.43121893500083 
Si 6.78915072 9.50303214 9.502776426815585 
Si 4.0471527599999995 9.52490961 12.210065085362654 
Si 5.42321793 10.86283989 10.86219718544516 
Si 4.8412413899999995 10.70337708 15.651510408256001 
Si 5.52639879 8.257238099999999 13.43411797271407 
Si 6.80402349 9.422478089999998 15.002556076911322 
Si 6.09547365 9.09325719 20.05160231969555 
Si 6.490033739999999 11.27566107 20.828222616510338 
Si 8.11773054 8.487676440000001 18.731447527283823 
Si 4.47031809 8.49552822 24.672883338560148 
Si 6.246775169999999 11.82522051 23.117235899365557 
Si 4.2642821699999995 10.534238010000001 23.425827884308784 
Si 6.76678455 9.67915962 27.580868533721553 
Si 6.78568095 10.2928365 29.888792746016186 
Si 8.02100052 11.546710379999999 26.846677485867204 
Si 4.56695037 8.89880346 27.050709222764485 
Si 4.57574697 9.998052659999999 30.770901645594854 
Si 4.88621808 11.36820456 34.33000733310946 
Si 7.9090067699999995 8.42484591 31.722533998494438 
Si 5.42271294 13.583155859999998 2.712126418132755 
Si 6.67640763 12.24299385 1.2501534083286192 
Si 6.78753801 14.933238479999998 4.07602734786407 
Si 5.033447099999999 15.97258935 0.10265437019353273 
Si 4.07256516 14.93265204 6.787751478952386 
Si 5.4297990899999995 13.574750219999999 8.144971693065376 
Si 6.78696786 12.21764661 6.787579561412028 
Si 4.0721742 12.21984576 9.49999136266178 
Si 6.78814074 14.93214705 9.502226290686437 
Si 4.05836028 14.935584239999999 12.248333929846423 
Si 6.80495202 12.22183314 12.25362899008946 
Si 5.710589819999999 12.86365914 16.12820336416162 
Si 5.6257515 13.79637567 13.64485449368533 
Si 6.395828669999999 15.62644314 14.982716792753969 
Si 7.92746334 13.10199813 17.136568505379454 
Si 4.41380808 14.46200136 21.159438949764727 
Si 4.48856289 12.33407124 20.198144831097004 
Si 4.76749656 16.23414159 19.493764284740795 
Si 7.7424903899999995 15.10371333 22.521747923072322 
Si 5.64977925 14.0978547 23.1668169180049 
Si 4.23577467 14.09959773 25.146447395231245 
Si 4.486559219999999 15.777777239999999 28.9181119296449 
Si 4.91698989 13.992409529999998 27.455575030308392 
Si 7.171802819999999 13.4868168 27.929757990124777 
Si 7.33414896 12.651318989999998 30.13566633397077 
Si 5.356656989999999 15.31069407 31.050989702346673 
Si 5.55068718 13.042637369999998 31.669273944491422 
Si 8.39580084 2.1241834199999996 0.16327868395533804 
Si 9.502478279999998 1.359504756 4.0666750336685755 
Si 10.349672309999999 0.634032864 0.16769593323730533 
Si 10.86797124 2.73470004 2.689092906075544 
Si 9.40009563 4.0205348999999995 1.2131498769418891 
Si 8.14470678 -0.0001270321893 8.144868542541161 
Si 10.85998914 2.7151357499999995 8.145006076573447 
Si 9.50332536 1.358538759 9.503257795928587 
Si 8.14038993 2.71577106 10.859412121291355 
Si 10.86137379 -0.00313253442 10.86260978754202 
Si 8.31451374 0.21044725199999997 13.65479132751804 
Si 10.25709624 1.106131725 15.192593726023436 
Si 10.90130058 2.79997407 13.64138175937009 
Si 11.09624301 2.1699094499999996 17.5900525933367 
Si 9.47872746 1.84013469 21.34885769573155 
Si 11.042990999999999 1.10858337 19.727228304547424 
Si 10.59835545 0.843401718 23.18981948490485 
Si 10.738710089999998 2.80396512 24.455648334563346 
Si 8.324727569999999 0.531834291 25.938265202613707 
Si 12.21023466 1.78046442 29.54292903832327 
Si 8.630588609999998 3.2273747999999998 29.451537673868774 
Si 10.180288889999998 1.91778912 26.485513117082395 
Si 9.436422330000001 3.9082316399999995 27.41232057715423 
Si 11.846544119999999 0.638851446 27.493843874792155 
Si 10.523991599999999 2.8790946 30.77306780660337 
Si 10.56253374 0.718366194 32.16501536386875 
Si 12.20940387 4.07774538 4.068909961693234 
Si 9.50816349 6.78172248 4.067259553305794 
Si 9.502738919999999 4.07256516 6.78720134282324 
Si 8.14465791 5.430173759999999 8.145006076573447 
Si 10.86220458 5.43069504 5.431081400968544 
Si 10.861797329999998 5.42991312 10.86326307419538 
Si 8.142018929999999 8.145162899999999 10.861475131775654 
Si 9.50306472 6.789720869999999 9.502329441210653 
Si 9.49428441 4.06955151 12.21529137858955 
Si 8.19821943 5.39055648 13.666378569738194 
Si 9.41293215 6.84836487 15.071013641482015 
Si 10.85976108 5.61428334 16.412554975914322 
Si 10.75666167 4.790709809999999 20.176036235406922 
Si 11.46051999 6.9496560899999995 19.515494661842087 
Si 11.456235719999999 7.8859889999999995 17.394547966441188 
Si 9.85173588 4.12483977 18.008603037093128 
Si 12.021303239999998 7.25462118 23.106473861339126 
Si 9.20718945 4.42700298 23.890624146421608 
Si 9.93057948 6.60341214 24.02702352294192 
Si 8.996576039999999 4.13269155 21.58005240400545 
Si 10.00696329 7.32683475 26.277492893248795 
Si 10.88347932 6.56126991 29.871394690931922 
Si 8.57591937 7.109200349999999 29.774570732202104 
Si 10.989152549999998 5.69154681 27.679239750314597 
Si 11.03706144 4.98741156 31.750522174064777 
Si 8.544104999999998 7.670081339999999 34.04053257865407 
Si 9.33544062 5.3973494099999995 33.57614891863811 
Si 9.656369909999999 9.34666443 1.0609787852691037 
Si 10.886525549999998 8.14374567 2.680730836912514 
Si 9.502217639999998 12.2184774 4.06677818419279 
Si 12.20643909 9.50980878 4.075167760162278 
Si 8.14351761 8.145733049999999 5.429706060645677 
Si 9.50311359 9.50301585 6.787717095444315 
Si 10.860363809999999 8.14469049 8.145177994113805 
Si 8.14486968 10.860282360000001 8.14507484358959 
Si 10.861422659999999 10.8598914 5.432319207259123 
Si 12.218607719999998 9.502673759999999 9.501916839113791 
Si 9.50721867 9.508733639999999 12.230695190205655 
Si 10.85824611 10.85899545 10.862506637017804 
Si 9.50418873 12.22017156 9.503085878388228 
Si 11.5799094 11.45900502 16.271513825804337 
Si 10.901512349999999 8.19458676 13.607032634806494 
Si 8.265529710000001 10.86236748 13.762136639717792 
Si 11.867297579999999 8.58201183 21.156722652627064 
Si 9.42703929 10.30821426 19.587493727744164 
Si 11.4310188 10.537137629999998 18.413675145685456 
Si 10.22158404 10.19043756 21.827476128089184 
Si 9.14865948 9.72954459 23.86160446560912 
Si 8.184731309999998 11.743819379999998 24.51430659933361 
Si 10.74257082 9.460466369999999 25.666669872355595 
Si 11.092805819999999 10.49893758 29.72502409707083 
Si 10.33525566 11.05719588 27.42672726703626 
Si 11.1949767 10.58320575 34.08705346507504 
Si 9.09846999 10.3400775 31.17129759708944 
Si 9.46118313 11.84133132 32.98877545024979 
Si 9.49053771 14.959286189999998 1.3226166515896616 
Si 10.87157133 13.56784326 2.6920017508584073 
Si 8.14205151 13.57470135 5.431184551492758 
Si 9.502038449999999 14.93315703 6.7876139449201 
Si 10.86020091 13.57502715 8.14507484358959 
Si 10.85922351 16.28754021 5.430703182379756 
Si 12.217597739999999 12.2310207 12.24207613137738 
Si 8.14258908 13.57647696 10.86137198125144 
Si 9.499041089999999 14.93268462 12.233824089440178 
Si 11.88158391 15.66338886 14.68523068091789 
Si 9.56680749 12.29600151 15.336385556779156 
Si 10.85876739 13.64471577 13.706160288577115 
Si 9.35083467 13.879959659999999 21.068528954423236 
Si 8.24243049 12.292548029999999 19.706873267768998 
Si 10.32761565 15.21772704 19.338041376684206 
Si 8.41780863 15.38471583 17.835619607984558 
Si 10.872988559999998 12.46939227 22.29952731040513 
Si 9.27388071 15.477666569999998 24.23576580044502 
Si 10.13106051 13.220898839999998 24.446330403875923 
Si 11.39716818 12.972199409999998 26.492355435188653 
Si 8.4266541 15.53596848 27.897024890440548 
Si 10.76798322 14.86768752 27.890182572334286 
Si 8.23633803 13.504181939999999 34.198799866307965 
Si 9.407523869999999 13.3820721 31.14636955373748 
Si 8.860212449999999 15.32757051 32.35711602346516 
Si 11.372619149999998 14.27227173 30.09505941093813 
Si 12.293639459999998 1.496436867 1.2491494098929266 
Si 14.934688289999999 1.355590269 4.068634893628661 
Si 13.574538449999999 4.32836703e-05 8.14504046008152 
Si 13.576004549999999 2.71630863 5.428915239960029 
Si 12.21658776 1.357277913 6.787098192299024 
Si 16.28995113 -0.001128579345 10.863400608227668 
Si 14.932407689999998 1.358514324 9.50208875665415 
Si 13.572599939999998 2.7137673899999997 10.858655684113776 
Si 12.21308541 1.386696024 12.214638091936186 
Si 14.92633152 4.09828707 12.247611876176919 
Si 14.788110869999999 1.250472528 16.907849409686715 
Si 13.73287725 0.17042923799999998 13.455435747718505 
Si 15.48587673 1.1226351239999999 14.658067709541271 
Si 12.837855779999998 3.9653118 21.030225726431393 
Si 13.033645289999999 1.614321081 20.933298617177357 
Si 15.09993405 0.663884289 20.3834719396033 
Si 13.306225859999998 3.0511332899999997 17.29504209408178 
Si 12.71366082 3.9671362799999996 24.842806635450334 
Si 16.11076113 0.49264869599999994 22.543581450697832 
Si 12.88688868 0.611915931 23.027735627855 
Si 15.92039619 2.59410105 23.54806125550357 
Si 13.923665729999998 2.04525837 24.578156773822702 
Si 13.872987539999999 3.2503437 28.7666525765892 
Si 14.858141579999998 0.0753687801 29.970281660146043 
Si 13.977944009999998 0.6292550069999999 26.440058119411646 
Si 15.3007083 1.500670638 28.109274285766958 
Si 15.753049019999999 1.2290674679999998 33.80957855493667 
Si 13.840717049999999 2.7098415 34.09344879757637 
Si 14.97345849 4.12167951 1.2688442833163784 
Si 13.5881406 5.43279645 2.7015053524894164 
Si 12.93359211 7.2703899 1.3763683897581018 
Si 14.94213282 6.777421919999999 4.080806655486032 
Si 14.933482829999999 4.0729887 6.78782024596853 
Si 13.57486425 5.43058101 8.14507484358959 
Si 12.21714162 6.78770091 6.7876827119362435 
Si 16.28571573 5.431379219999999 10.8617845833483 
Si 12.2197806 4.07246742 9.502157523670293 
Si 14.93331993 6.78923217 9.501435470000787 
Si 12.22745319 6.7834818 12.240735174562584 
Si 12.345897779999998 4.15111554 15.196857281024323 
Si 13.63078782 5.58427716 13.802399727669716 
Si 15.104739599999998 7.107082649999999 15.246403916155598 
Si 15.49630233 8.04444183 19.79957120553022 
Si 14.19539922 4.38525171 19.129952385834468 
Si 13.747114709999998 6.69273021 18.852236791139596 
Si 15.589855799999999 5.96113002 23.27760058101182 
Si 13.319127539999998 5.32344168 22.982486931232685 
Si 16.06668039 4.91136984 25.29501853360893 
Si 15.68000466 6.63097482 29.15394841150848 
Si 14.24767383 8.10696285 26.362317007661602 
Si 14.89380039 5.94228249 26.998962043116624 
Si 12.97863396 4.65094161 27.079144383939756 
Si 16.08484374 5.73264648 34.24071336264733 
Si 14.83256628 4.71222459 30.377898148335678 
Si 13.3452567 4.80188475 32.40456526460406 
Si 13.920081929999998 6.813406529999999 33.640686763288635 
Si 12.292515449999998 12.17366361 1.257435835338199 
Si 14.9359752 12.21732081 4.073723652823268 
Si 16.10616735 10.240757369999999 0.06979508303468084 
Si 14.576080229999999 9.13147353 1.50363206818377 
Si 13.581526859999999 10.857154679999999 2.72283688089708 
Si 14.932863809999999 9.502380539999999 6.787751478952386 
Si 13.5752715 10.85963076 8.144971693065376 
Si 13.576004549999999 8.14488597 5.428124419274381 
Si 13.57727517 8.14390857 10.861028146170723 
Si 14.946628859999999 9.4913685 12.219589317098507 
Si 12.40763688 9.639802979999999 14.993891432877263 
Si 13.69586637 10.93145337 13.560958733990457 
Si 15.504398459999999 11.85104016 14.90404732628599 
Si 13.800073499999998 8.51409882 16.671944160806994 
Si 15.013857689999998 9.935596799999999 18.486740100337755 
Si 13.156748819999999 10.288324170000001 19.974411344074653 
Si 12.78758484 8.851220369999998 24.656757473274535 
Si 15.783055199999998 9.28564209 21.895727391611445 
Si 14.063433929999999 10.3400775 23.27529688597102 
Si 13.102959239999999 11.87249409 21.76833649420591 
Si 15.278700509999998 11.341309769999999 25.021772794963372 
Si 16.15182822 9.215741699999999 25.656595504490596 
Si 14.26557654 8.51505993 28.713186221537754 
Si 12.31582644 8.484727949999998 30.028630473343664 
Si 15.7566654 10.31308497 29.152022935056465 
Si 12.918817079999998 8.93063412 32.50465565660069 
Si 14.524750439999998 10.673761859999999 32.804514230493716 
Si 12.21644115 14.933629439999999 4.07272653108919 
Si 14.812154909999999 14.71547376 1.391167051632148 
Si 13.569781769999999 16.2906516 2.6897255626240626 
Si 16.3040094 13.54559112 2.719821447239195 
Si 16.288110359999997 16.28742618 5.42956852661339 
Si 13.573821689999999 13.57444071 5.42936222556496 
Si 12.21644115 12.217304519999999 6.787957780000816 
Si 14.93252172 14.932847519999997 6.78782024596853 
Si 12.21921045 14.933287349999999 9.50208875665415 
Si 14.93257059 12.21865659 9.502054373146079 
Si 13.5723393 13.574913119999998 10.858827601654136 
Si 14.940617849999999 14.90572467 12.220620822340656 
Si 13.403770380000001 15.54574248 16.486995270889487 
Si 15.38442261 14.06709918 16.197864351514824 
Si 14.27292333 14.77403631 19.771067277338805 
Si 15.913391489999999 13.740696449999998 18.456654530775044 
Si 12.359223 14.55610869 18.362271801118315 
Si 14.470439579999999 15.227745389999999 23.401621894626334 
Si 14.64400953 13.60252467 21.758124592308626 
Si 14.74820037 14.836589909999999 25.696892975950597 
Si 15.75875052 14.15244249 29.4757780470593 
Si 13.85148474 12.74241267 26.44954796763943 
Si 14.47524513 12.324818519999999 28.74124316412424 
Si 13.999023269999999 12.852321299999998 32.18378875927588 
Si 13.29713604 13.80030156 34.24504568466436 
Si 12.636657989999998 12.29134257 30.218358670883134 
Si 12.536230139999999 16.21382796 30.972629687451338 
Si 15.9075108 15.21772704 33.80390527610485 
