&CONTROL
  dt          = 30.D0,
  prefix = 'x1.00_y.66_z3.15_struc27-scf',
  pseudo_dir = './',
  outdir='./',
  wf_collect= .true.,
  verbosity= 'high',
/

&SYSTEM
ibrav= 6, celldm(1) =30.783621515, celldm(3) =2.1056208385809962, nat=  432, ntyp= 1,
  ecutwfc     = 12.D0, nbnd= 1728,
  degauss     = 0.05D0,
  occupations = "smearing",
  smearing    = "methfessel-paxton",
/
&ELECTRONS
  electron_maxstep=200,
  conv_thr    = 1.D-8,
  mixing_beta = 0.3D0,
  scf_must_converge=.false.,
/
ATOMIC_SPECIES
Si  28.08  Si.pbe-hgh.UPF
K_POINTS {automatic}
1 1 1 0 0 0
ATOMIC_POSITIONS (angstrom)
Si 1.227355389 1.320752475 1.2654987085364966 
Si 3.9226319999999997 3.88816236 1.1714499935841944 
Si 4.07438964 1.356166935 4.068355531484597 
Si -0.000258173694 2.7147447899999997 8.144771695382408 
Si 2.7150705900000003 0.00019134885599999998 8.144771695382408 
Si 2.71445157 2.7174000599999997 5.429093184525475 
Si 1.3573789109999999 1.3575906809999998 6.787601300941422 
Si 2.7171882899999997 2.7129366 10.860861813000867 
Si 1.3467187349999998 1.357882272 12.215425364618858 
Si 2.10406527 2.20362975 16.195388344065787 
Si 0.322915041 0.48786921 16.63155430902931 
Si 1.160457246 4.06471338 15.050058229556752 
Si 3.88632159 1.248408585 14.951649912988621 
Si 1.4605320779999997 2.96759817 20.93898476783348 
Si 3.13885494 3.7337494499999995 19.508342566460136 
Si 2.41116435 1.2719150549999998 22.37288552273557 
Si 3.77884017 3.9901214699999996 24.259759518696818 
Si 2.4163119899999996 2.08425663 24.542567664428514 
Si 0.34785666 2.76451074 25.329285387958183 
Si 1.437405165 2.97137745 29.002738532322226 
Si 3.0636440099999995 0.774058446 26.401246597225246 
Si 1.266200523 0.8313340859999999 27.90920226863852 
Si 2.34108477 2.4682445099999994 33.77892049137738 
Si 3.51834678 3.0511332899999997 30.136475056381617 
Si 2.51493165 1.1690437049999998 31.704799719485347 
Si 4.07069181 6.78605562 4.067566618525006 
Si 1.356090372 4.07432448 4.075078441922852 
Si 2.7152497799999997 5.40959949 2.694854638780073 
Si 1.561254777 6.91505613 1.2697279680111744 
Si 0.0008080230959999999 5.42877282 5.430979715515802 
Si 2.71498914 5.4299457 8.145251903270855 
Si 1.357411491 6.78703302 6.787669902068342 
Si 4.07316789 6.787440269999999 9.501633384752251 
Si 1.355857425 4.07183211 9.502833904473368 
Si 1.336433229 6.78685383 12.211789504892046 
Si 3.4031927699999995 7.390479779999999 14.866070007154713 
Si 2.5526429999999998 5.40868725 13.624938418900545 
Si 1.2968973990000001 7.3265904 19.46460934804802 
Si 3.08063448 5.98585824 18.681253079737473 
Si 3.04811964 5.62480668 22.668796483709173 
Si 2.54519847 7.749153 23.380910481712288 
Si 0.880220376 4.91223321 22.089254163480824 
Si 0.8978819939999999 7.50177306 25.095355545157684 
Si 1.9489844699999999 7.39890171 28.797964168463135 
Si 3.8553868799999997 4.9283603099999995 26.428206840105183 
Si 1.8243333899999998 6.1011425699999995 26.822766221591138 
Si 0.5907812849999999 4.1541780600000004 27.169785022120855 
Si 1.483142598 4.38622911 32.56032437331675 
Si 0.22291724699999999 5.72994234 34.02043075870265 
Si 0.00759402333 6.63281559 30.055560027178334 
Si 3.8150365499999994 7.1004852 30.204424472596834 
Si 0.0991907874 4.2200874 30.515153276985366 
Si 3.5022196799999996 5.02601886 31.40185714300235 
Si 3.47845257 7.82763822 34.26478797279514 
Si 1.3570873199999998 9.500360579999999 4.068184028667295 
Si 2.72793969 10.85853933 2.6706693114840854 
Si 1.32305751 12.15867681 1.1367858441510288 
Si -0.000275403627 8.145 8.144737394818948 
Si 2.71451673 8.14519548 5.430705311008118 
Si 0.0010659475529999998 10.86072219 5.430019299738908 
Si 2.7155267100000002 10.8595656 8.144394389184342 
Si 4.088904029999999 9.50679513 12.210314580663246 
Si 1.3571443349999999 9.503439389999999 9.50159908418879 
Si 2.7186381 8.143973729999999 10.86381166145847 
Si 0.0019112405399999998 10.85767596 10.86175362765084 
Si 1.68208911 9.218006009999998 14.950517994394424 
Si 2.79950166 10.85184414 13.607925339424146 
Si 1.0121286509999998 10.39793958 16.94533586356582 
Si 2.08000494 8.83263348 21.23688516148779 
Si 2.61863379 11.994164099999999 17.823293085900378 
Si 0.057196959299999996 8.55669717 17.921941506412733 
Si 3.6537655499999997 10.85371749 25.0059339762162 
Si 0.0711332172 9.643875479999998 25.775398516325247 
Si 1.89705195 10.964505779999998 26.53292646035004 
Si 2.5788699 9.69323418 28.38772942947574 
Si 3.4430544 8.78228109 31.991723932832297 
Si 0.931390524 9.437008769999998 32.31360042034549 
Si 1.2384228149999998 10.692365039999999 30.083034778510182 
Si 2.71292031 16.284168179999998 2.6765278477231367 
Si 3.98546253 14.928758729999998 1.0789619542693443 
Si 0.007170858 13.573691369999999 2.6821702904123863 
Si 1.3577242589999998 14.93213076 4.068458433174978 
Si 4.041549e-05 13.57489683 8.145183302143934 
Si 2.7162108899999997 13.5762489 5.428955982271633 
Si 1.357385427 12.217614029999998 6.787155393616435 
Si 4.07207646 14.92893792 12.221565165478285 
Si 1.358514324 14.934134429999999 9.50293680616375 
Si 2.7161783099999997 13.572029789999998 10.860690310183566 
Si 1.346378274 12.22649208 12.256929046406045 
Si 2.5761168899999998 16.166212289999997 13.533115810516827 
Si 3.1501276199999997 13.826740229999999 16.288137067662937 
Si 1.364453658 15.05363787 15.236070185202959 
Si 3.5046305999999996 12.33302868 21.19524427744676 
Si 1.7193117599999999 12.973714379999999 19.808438196175914 
Si 1.587328551 15.32582748 19.488928447541504 
Si 3.6713424599999995 16.17913026 18.674290065354995 
Si 0.750521025 16.14964536 21.547511064185937 
Si 2.8843399799999996 12.41415288 23.403960460357734 
Si 4.00828482 14.39786763 23.95534201798502 
Si 0.6713760599999999 12.792765059999999 24.036497151132526 
Si 3.05590626 14.7344679 26.0809822361947 
Si 3.02594895 14.25111102 29.686897571105046 
Si 0.9558597329999999 15.104250899999998 29.071614063750875 
Si 1.165283973 13.21909065 26.30105465135717 
Si 2.4073687799999997 13.56324948 33.73710810451905 
Si 0.319940487 16.24572378 31.060120629245542 
Si 2.6708432399999995 12.33724779 30.934100359091723 
Si 3.9166209899999997 15.57257211 31.496355195335983 
Si 0.240658686 14.75176788 32.914203286538566 
Si 6.78683754 4.07587203 4.070482166419147 
Si 5.43084165 2.7151031699999995 2.6851647296024868 
Si 6.922989359999999 1.4050613699999999 1.2896703156071 
Si 5.43120003 0.000507066975 5.43012220142929 
Si 5.42981538 2.71492398 8.145046099890093 
Si 6.78714705 1.357520634 6.787807104322185 
Si 6.78616965 4.07263032 9.502113592640699 
Si 4.07215791 1.356714279 9.501667685315711 
Si 6.775353089999999 1.371134187 12.238441042700844 
Si 5.46970959 2.75908617 13.77328835586714 
Si 7.26951024 4.06432242 15.387301369500234 
Si 5.14915497 3.9693028499999996 20.72810490367842 
Si 7.288879049999999 0.6736077899999999 19.97314950191316 
Si 6.813406529999999 2.90175399 19.59008080918647 
Si 4.47373899 2.4338888999999995 18.042850992610937 
Si 5.69249163 3.4494074999999995 22.97883927682849 
Si 6.18063777 1.219982535 23.360810351524442 
Si 6.82933815 1.074986874 25.567022593302802 
Si 8.114211899999999 0.705249486 22.135834328660163 
Si 5.19711273 1.373880681 27.232074845365098 
Si 4.828225679999999 3.52013868 28.19595497916817 
Si 5.986819349999999 2.0856087 32.54993130258822 
Si 5.005363139999999 5.85685773 0.14936797769010232 
Si 6.79929939 6.8403339 1.3603843572372347 
Si 4.07196243 4.0728909600000005 6.787258295306816 
Si 5.43214485 5.431379219999999 5.430568108754276 
Si 6.787456559999999 6.78810816 6.787772803758724 
Si 4.07781054 4.0767028199999995 12.251303753998526 
Si 5.43116745 5.431379219999999 10.860621709056645 
Si 6.7814292599999995 6.77131317 12.234050570577901 
Si 5.33679948 8.08655148 13.613756435212428 
Si 4.36208733 6.88436577 16.92273179224536 
Si 6.54237351 7.4587023 21.12571703531236 
Si 4.51035891 6.2398193399999995 20.843320496342187 
Si 8.06260518 4.80918267 19.72724876246495 
Si 7.2303979499999995 6.89316237 18.88691925824654 
Si 5.89162059 5.01632631 17.319795114863926 
Si 7.562339279999999 4.74335478 23.659602559828723 
Si 7.21298394 6.11093286 25.51701237177742 
Si 6.63879402 4.89051864 28.8878316447296 
Si 5.09971482 6.88602735 26.300745946286025 
Si 5.63189283 7.0123562999999995 28.618023412549434 
Si 7.3443790799999995 4.984349040000001 31.189468054055027 
Si 5.501181869999999 4.57742484 32.57617123363549 
Si 4.444254089999999 9.68433984 1.1684967150702465 
Si 5.43712959 8.170949969999999 2.720614361938897 
Si 6.785518049999999 9.501223949999998 4.075318545867075 
Si 4.07264661 12.215561489999999 4.068801438809584 
Si 4.0728583800000004 9.502152480000001 6.787223994743355 
Si 5.42989683 8.145374669999999 8.145251903270855 
Si 5.43062988 10.85915835 5.430671010444657 
Si 8.14431582 8.14628691 10.863708759768087 
Si 6.787896389999999 9.50378148 9.502456598275302 
Si 5.428104929999999 10.860233489999999 10.858357871868252 
Si 8.03092113 10.756547639999999 13.72571347434745 
Si 7.10806005 8.75496276 15.097530209386061 
Si 4.41014283 12.19852215 15.016203573421253 
Si 5.838922439999999 8.8181028 17.275032879547997 
Si 4.09162446 10.116187739999999 20.732632578055206 
Si 4.492146689999999 10.614563999999998 18.42170071603199 
Si 6.43187844 9.467829449999998 24.270804300131097 
Si 4.29217065 8.56230093 24.75896991930071 
Si 7.990749989999999 11.16363474 21.53605467599013 
Si 6.20992719 9.652183379999999 21.89017369315617 
Si 5.88008727 11.55925368 25.335116483746468 
Si 4.921241579999999 10.307416049999999 28.73128387309595 
Si 6.89016501 8.94490416 28.867560011724454 
Si 5.736637529999999 12.14113248 27.586571168729204 
Si 5.97367332 11.09650365 34.05905319315916 
Si 4.621358969999999 11.082396509999999 30.9112904843905 
Si 6.942618809999999 9.251237609999999 32.877535984199305 
Si 5.42588949 13.58833608 2.6774436727675313 
Si 7.10382465 12.46220838 1.3111424683333632 
Si 6.78615336 14.93131626 4.070139160784542 
Si 8.14519548 13.57409862 5.430293704246592 
Si 4.07277693 14.9323914 6.787464098687579 
Si 5.42984796 13.574782799999998 8.145114701017013 
Si 6.7874728499999994 12.217581449999999 6.78749839925104 
Si 4.07269548 12.21608277 9.501290379117647 
Si 6.78703302 14.93045289 9.504068724757946 
Si 6.79245759 12.20971338 12.233913368324059 
Si 5.427192689999999 16.292280599999998 10.860930414127788 
Si 6.89633892 13.157090909999999 16.202214156194422 
Si 5.59958976 13.71235185 13.589643139099707 
Si 6.86419875 15.43743027 15.718644812528515 
Si 4.6460709 15.78095379 16.55828830547771 
Si 8.104568219999999 16.2360801 13.566044351438892 
Si 5.47901118 13.516122509999999 20.587952801378883 
Si 5.25298743 15.79655961 20.309603728897052 
Si 6.100132589999999 12.37096809 18.610422416191575 
Si 7.19444592 13.280047829999999 22.18083666792032 
Si 4.37505417 16.28094276 22.461621080407845 
Si 6.197139539999999 13.638883949999999 24.314366015725913 
Si 7.52560533 15.09421626 25.671776514111123 
Si 7.924808069999999 14.939852219999999 27.983908895855457 
Si 4.48633116 14.12250147 27.857134013305505 
Si 7.90425009 12.63659283 28.340223149082966 
Si 5.89297266 15.870727979999998 28.59727157165584 
Si 6.42731724 12.26640258 31.96929136432914 
Si 6.79126842 14.68465308 32.525200596333214 
Si 6.02886384 16.266363209999998 30.906865711704096 
Si 5.682668759999999 16.16732001 34.19632404812801 
Si 8.16205563 -0.00567470295 2.6985556695774595 
Si 9.50383035 1.3525456679999999 4.070516466982608 
Si 10.870854569999999 2.70811476 2.705024755846107 
Si 9.56187162 4.05925623 1.3044435682895308 
Si 8.1453258 -0.000376957116 8.145149001580474 
Si 8.145537569999998 2.71495656 5.428578676073568 
Si 10.86121089 -9.78838407e-05 5.431014016079263 
Si 10.860152040000001 2.7151846199999996 8.145011799326632 
Si 9.503862929999999 1.358595774 9.50238799714838 
Si 12.21846111 4.07256516 9.501873488696475 
Si 8.14583079 2.7147122099999996 10.862336737229668 
Si 10.856600819999999 0.00166096098 10.864394771037297 
Si 8.51533686 0.573627915 16.790228715597507 
Si 9.96843744 0.7609824629999999 14.883631895646483 
Si 10.98643212 2.6491938299999997 13.789306719003186 
Si 9.645064649999998 2.6888925599999998 16.473085705841868 
Si 11.02725486 2.74212828 20.434354878202836 
Si 11.14221339 0.488673936 19.748858117445053 
Si 9.93258315 3.93074442 18.66955658759745 
Si 11.542426110000001 0.580432248 23.390754743425447 
Si 9.521309519999999 3.5578500299999996 24.243672554433854 
Si 9.972917189999999 2.1101740199999997 22.483024632007186 
Si 8.66108349 2.47578678 26.13466261801036 
Si 11.10170016 3.58204068 29.05195984088802 
Si 9.62141157 0.00549655551 28.953380021502586 
Si 10.29270618 0.952440462 26.94408731455087 
Si 12.184138079999999 2.06912322 27.553917032314825 
Si 8.21410218 2.9610495899999996 31.93577971382825 
Si 8.707575149999998 2.3531556599999996 34.15197341957361 
Si 9.69916374 2.0690906399999998 30.29027878293843 
Si 10.970223569999998 1.80872757 32.35524130438651 
Si 8.14074831 5.42380437 2.6987477527328383 
Si 9.501842969999998 6.786642059999999 4.068492733738439 
Si 10.86158556 5.43129777 5.429710594667763 
Si 9.50236425 4.07272806 6.787635601504882 
Si 8.14514661 5.43001086 8.145183302143934 
Si 9.501777809999998 6.78613707 9.502662401656066 
Si 9.52080453 4.05813222 12.248045200469779 
Si 10.861487819999999 5.42874024 10.861376321452775 
Si 12.21044643 6.78235779 12.236314407766294 
Si 8.26797321 5.4968976 13.70111997034628 
Si 9.14808933 7.276270589999999 15.154880751491993 
Si 12.125836169999998 4.15939086 15.280112108686222 
Si 11.17124217 5.31759357 17.19669039260425 
Si 11.051575829999999 7.677346679999999 19.93284633984709 
Si 9.38647719 7.68720213 18.08044441016363 
Si 11.657303189999999 4.5628778699999994 24.637580225214055 
Si 10.32455313 6.87543885 22.040170057168872 
Si 8.20059777 5.929331939999999 21.810802189308614 
Si 10.271284829999999 5.432470649999999 27.792648953999795 
Si 10.203257789999999 7.368846659999999 29.061598299220417 
Si 11.789056709999999 6.28686486 26.200931306616013 
Si 8.17842708 4.648253759999999 27.127904034135607 
Si 8.885478240000001 6.8249887199999995 31.05291751091884 
Si 10.2218121 7.11050355 32.92466495839402 
Si 8.394106679999998 8.033804459999999 34.231379223984625 
Si 11.05317225 5.33060928 34.22054024593111 
Si 9.55545336 9.53080659 1.316225811838207 
Si 10.86746625 8.148991050000001 2.704767501620154 
Si 8.15319387 10.8626607 2.7072611525837305 
Si 12.2181516 9.502103609999999 4.070585068109529 
Si 8.145798209999999 8.147883329999999 5.430911114388881 
Si 9.502152480000001 9.50275521 6.787944306576025 
Si 10.85964705 8.14478823 8.145011799326632 
Si 8.14519548 10.85985882 8.14494319819971 
Si 10.8610317 10.861699589999999 5.430430906500433 
Si 9.498894479999999 9.51357177 12.237343424670106 
Si 10.85756193 10.85798547 10.862816945118116 
Si 11.297913209999999 10.696209479999998 16.88647609666763 
Si 10.849091129999998 8.170200629999998 13.670180862104923 
Si 8.25792228 11.69965719 19.243645118235577 
Si 9.063104399999999 10.01390283 17.71219356085187 
Si 9.831666599999998 10.678469669999998 22.943200991393045 
Si 10.088038619999999 8.5102218 23.766620317825435 
Si 11.805118649999999 11.10634281 21.735169446878245 
Si 10.05495363 12.06505818 24.87456281816254 
Si 12.03712083 8.4017304 25.094155025436564 
Si 8.25860646 8.18160363 25.21904337699619 
Si 9.3204864 11.2829427 27.01138502006034 
Si 8.80287165 8.94985632 27.428960079628276 
Si 11.238845669999998 11.192777549999999 28.311239172958857 
Si 10.623751559999999 11.11440636 34.172485156522974 
Si 8.16052437 9.07765137 30.86748866485146 
Si 11.75668848 10.66447656 31.999956068062815 
Si 10.102357529999999 10.45200609 30.315352494828044 
Si 12.209925149999998 8.26935786 32.15080994616203 
Si 9.502380539999999 12.217679189999998 4.0722314951556315 
Si 9.76979718 15.067419209999999 1.2302171489610425 
Si 10.868850899999998 13.572143819999999 2.702740338319639 
Si 9.502315379999999 14.932538009999998 6.78749839925104 
Si 10.8598914 13.57486425 8.144462990311263 
Si 12.21881949 14.933042999999998 9.502079292077237 
Si 9.5030973 12.22009011 9.501153176863804 
Si 8.14965894 13.5713619 10.857260253837516 
Si 9.495929699999998 14.91908247 12.212269712780493 
Si 11.79324324 15.430034609999998 14.689284903079377 
Si 10.67081337 13.028937479999998 16.942969124687046 
Si 9.15814026 12.56234301 15.096809897553392 
Si 10.82478645 13.593483719999998 13.601099527295508 
Si 11.331112229999999 13.078882619999998 20.45308298585226 
Si 9.607467329999999 13.62116043 18.930515274404815 
Si 9.11824605 15.97195404 18.855808647187878 
Si 8.997211349999999 14.81585274 22.331587644329147 
Si 9.41306247 14.31377865 24.57611361549287 
Si 11.26712511 15.32162466 21.628631896769978 
Si 11.058776009999999 15.71537025 25.34873380744028 
Si 11.75545044 15.8524506 34.222015170159914 
Si 9.04445235 13.152969539999999 34.14871486604486 
Si 8.52400314 12.239752139999998 30.576791389523855 
Si 9.169152299999999 14.112613439999999 31.906384130942612 
Si 11.070684 14.92054857 30.200548508925802 
Si 16.28778456 2.73781143 2.6947242966389235 
Si 13.56539976 0.015545335229999999 2.722747856986139 
Si 12.379178249999999 1.4659892279999998 1.270561471703264 
Si 14.930273699999999 1.3558948919999998 4.070756570926831 
Si 16.2901629 0.0012097182059999999 5.43015650199275 
Si 13.57476651 0.000455950584 8.144497290874725 
Si 13.57502715 2.7147773699999997 5.431528524531169 
Si 12.21746742 1.3571573670000001 6.7873954975606585 
Si 16.289429849999998 0.0022829946299999996 10.859798495533594 
Si 14.93156061 1.3572143819999998 9.501907789259937 
Si 13.57211124 2.71754667 10.859009582574 
Si 12.22145847 1.377855441 12.215288162365017 
Si 16.256800979999998 2.7129366 13.57561420864437 
Si 13.604088509999999 0.1580379237 13.62524712397169 
Si 14.97068919 1.4511702149999999 15.140714618782813 
Si 13.94055846 3.05821944 16.6338181462177 
Si 12.93452064 3.98319822 21.09906549750356 
Si 15.7649733 1.6724780099999998 20.709857003917445 
Si 14.844572009999998 1.3094569889999998 18.524568105849983 
Si 14.47861716 2.7725905799999997 22.35796477763026 
Si 13.61917305 1.3675487579999999 23.993964452441524 
Si 13.169878559999999 3.02428737 25.654317527309736 
Si 14.342840009999998 3.38045193 29.77429540680236 
Si 15.69455163 0.857753208 26.462301600184908 
Si 14.559089759999999 3.93100506 27.43259593935509 
Si 13.941519569999999 0.538886232 28.121659958712762 
Si 15.622957079999999 0.49278879 34.24201239865738 
Si 12.40522596 0.0699588711 31.570375811283707 
Si 14.001140969999998 2.5487659799999998 34.22544522650596 
Si 14.446770209999999 1.0266674759999999 30.38093517216449 
Si 12.2950404 3.71276793 32.86011129796138 
Si 16.2935838 8.157315239999999 2.676147111468725 
Si 12.221572499999999 4.0679713799999995 4.0697961551499375 
Si 15.095714939999999 4.247177669999999 1.1453712751851879 
Si 13.58783109 5.4309231 2.6931773412268556 
Si 12.280884389999999 6.815850029999999 1.3097498654568678 
Si 14.933482829999999 6.78382389 4.068698537119202 
Si 13.575809069999998 8.146107719999998 5.429367589033159 
Si 14.932538009999998 4.07267919 6.787567000377961 
Si 13.57499457 5.4297828 8.144977498763172 
Si 12.21763032 6.787407689999999 6.78749839925104 
Si 13.57261623 8.14627062 10.864806377798823 
Si 16.287523919999998 5.4336435299999994 10.858083467360567 
Si 14.93327106 6.78564837 9.502113592640699 
Si 14.91391854 4.08398445 12.233604663252915 
Si 15.61922667 4.876085699999999 16.466945904982442 
Si 16.28548767 8.12833533 13.628231272992751 
Si 13.48898337 5.449167899999999 13.741594635229653 
Si 14.881876109999999 6.85341477 15.222555763199528 
Si 14.07099249 7.977441059999999 17.193054532877436 
Si 15.82562097 6.24596067 20.607126816353293 
Si 14.26044519 4.91120694 19.370522902475912 
Si 12.67796943 6.46225929 18.649490757973066 
Si 15.162731999999998 6.313645619999999 24.794711106426536 
Si 12.23675478 5.64549498 22.64814754450596 
Si 13.60983888 7.45217001 23.454210785827343 
Si 15.70352742 4.23095283 23.771285194456063 
Si 14.46822414 7.52332473 28.745690109749358 
Si 14.020949609999999 6.118735769999999 26.90042269726567 
Si 15.763311719999999 7.432068149999999 32.398391413219805 
Si 12.53753334 4.62158703 30.602105205357695 
Si 12.4763481 7.03622115 30.035734301498174 
Si 13.77311355 7.8543049499999995 33.94105925485509 
Si 13.581787499999999 10.84516524 2.6942029280743243 
Si 12.22626402 12.159295829999998 1.288891692816547 
Si 14.85527454 9.49535955 1.1139485289990383 
Si 14.932668329999998 9.502315379999999 6.7873954975606585 
Si 13.574913119999998 10.860152040000001 8.145526307778539 
Si 12.21738597 9.50255973 9.502044991513777 
Si 14.933238479999998 9.52148871 12.243105919331468 
Si 12.22145847 12.220187849999999 12.235182489172097 
Si 12.412654199999999 9.496923390000001 15.03160452641501 
Si 13.70937078 11.05926471 13.716418021649657 
Si 15.10610796 11.45955888 17.772768355923088 
Si 14.587059689999998 8.262597509999999 21.419295557970642 
Si 12.64693698 9.35384832 20.372956869608565 
Si 15.886643309999998 11.994864569999999 20.23801845295502 
Si 13.23994185 10.02822174 18.1719583134762 
Si 16.278173459999998 9.984874049999998 21.57049244170446 
Si 13.561278389999998 11.74813623 23.186529188581726 
Si 15.700481189999998 10.799976779999998 23.73509810000525 
Si 12.43583487 12.17682387 25.19239183918739 
Si 15.43756059 11.41204095 29.219277989448262 
Si 12.691962539999999 10.23025032 26.63047726283166 
Si 14.785308989999999 9.68816799 27.649615604369576 
Si 13.72310325 11.97091827 30.90079451197159 
Si 16.12529181 10.949111729999998 33.94891408388754 
Si 13.34413269 13.795675199999998 0.06038785700035586 
Si 12.215773259999999 14.93302671 4.0748726385420895 
Si 14.933205899999999 12.219063839999999 4.0684241326115185 
Si 14.8569687 14.96679588 1.350217670227547 
Si 13.574717639999998 13.57685163 5.430705311008118 
Si 12.21738597 12.217679189999998 6.787807104322185 
Si 14.93245656 14.93268462 6.787601300941422 
Si 14.93325477 12.2173371 9.503211210671434 
Si 13.5718506 13.57615116 10.863228551879642 
Si 14.929654679999999 14.94060156 12.250411939348552 
Si 12.671062469999999 14.267433599999999 16.565217019296732 
Si 14.50311732 12.68712441 15.647745547855694 
Si 16.167157109999998 13.665355199999999 13.8992743254575 
Si 13.16155437 14.427140759999999 20.330286968663724 
Si 13.06835928 15.999467849999998 18.582227353027054 
Si 14.784559649999998 15.75006795 24.75907282099109 
Si 15.9993864 14.68294263 23.045931178957197 
Si 14.59740384 13.3491663 21.754240560162273 
Si 13.013282789999998 14.430545369999999 25.70196100995635 
Si 15.85660455 13.488119999999999 28.03608005287885 
Si 12.34532763 13.137624359999998 29.28503216960201 
Si 13.716864179999998 14.47539174 27.899186504108062 
Si 14.94188847 12.843850499999999 32.83050991169499 
