&CONTROL
  dt          = 30.D0,
  prefix = 'x1.00_y.66_z3.18_struc39-scf',
  pseudo_dir = './',
  outdir='./',
  wf_collect= .true.,
  verbosity= 'high',
/

&SYSTEM
ibrav= 6, celldm(1) =30.783621515, celldm(3) =2.1207375915848425, nat=  432, ntyp= 1,
  ecutwfc     = 12.D0, nbnd= 1728,
  degauss     = 0.05D0,
  occupations = "smearing",
  smearing    = "methfessel-paxton",
/
&ELECTRONS
  electron_maxstep=200,
  conv_thr    = 1.D-8,
  mixing_beta = 0.3D0,
  scf_must_converge=.false.,
/
ATOMIC_SPECIES
Si  28.08  Si.pbe-hgh.UPF
K_POINTS {automatic}
1 1 1 0 0 0
ATOMIC_POSITIONS (angstrom)
Si 2.69547372 -0.010590633989999999 2.6957570967112736 
Si 1.394264358 1.3925767139999998 1.203566136523414 
Si 4.03423479 3.9639434399999995 1.3652970526636363 
Si -0.000278208765 2.7147122099999996 8.145379033580975 
Si 2.71458189 0.000210510783 8.144999018611939 
Si 2.7125456399999996 2.71448415 5.429826611664459 
Si 1.357176915 1.357419636 6.787723736476501 
Si 2.7169113599999997 2.7151194599999995 10.864489777480285 
Si 1.351999953 1.3485497309999999 12.250818931339301 
Si 1.355780862 4.0721742 9.50258522208568 
Si 0.30770018099999996 3.84874056 17.29175204241837 
Si 0.7597786320000001 0.0151666416 21.33062022696465 
Si 4.05629145 3.8793005999999997 21.52204413091274 
Si 0.723795651 2.37324123 20.8773660093507 
Si 1.8815275799999998 2.93925357 18.77263582993664 
Si 2.5750580399999996 1.0648838159999998 17.311167352654582 
Si 2.05353369 3.3000282 22.622014732195378 
Si 2.4870105899999997 1.9882270799999997 24.570213291181933 
Si 1.4746212989999998 2.7429102 26.694842436247335 
Si 4.054320359999999 0.950783769 28.614125310771776 
Si 2.72388348 2.89849599 28.729131659128246 
Si 3.3516512099999995 2.0914731 34.50646468656852 
Si 1.69469757 2.33328186 30.829681673882902 
Si 3.63679137 2.10571056 32.17016720375002 
Si 0.283061556 0.317615904 30.578975434765187 
Si 4.07271177 6.78831993 4.069165741623062 
Si 1.3573577339999998 4.07463399 4.074485951189567 
Si 2.7037816199999996 5.411652029999999 2.709520547953453 
Si 1.3640529239999999 6.586340219999999 1.1750995606610746 
Si 0.0191832669 8.12297592 2.701975523477319 
Si -0.0006743555009999999 5.4293429699999995 5.430897562940833 
Si 2.7152497799999997 5.43035295 8.145275393134876 
Si 1.357678647 6.78713076 6.787551002399667 
Si 1.3680260549999999 6.786430289999999 12.233096415056071 
Si 4.023548549999999 6.877181879999999 15.23853116471639 
Si 0.628357428 4.45818204 14.948717930603323 
Si 2.64894948 5.43111858 13.77022241799168 
Si 0.5491538189999999 6.57576801 21.047854543186432 
Si 2.50413138 6.62304159 19.60493770575641 
Si 3.4801141499999995 4.52598102 19.380867061286583 
Si 0.5462362799999999 7.53031314 18.213184701884785 
Si 1.351196856 5.543226359999999 22.981958001503283 
Si 3.4018732799999998 6.49148355 23.753837497246312 
Si 3.28463415 5.34342951 25.837321385209716 
Si 0.9236462579999999 7.99337268 29.05166072739378 
Si 1.0109297069999998 5.02992846 26.50749505651254 
Si 0.06184058669999999 5.3203954499999995 34.159234645315635 
Si 1.370774178 7.94645748 31.381117940769634 
Si 0.98183088 4.391832869999999 32.00503342629616 
Si 2.73746934 6.194272499999999 32.11744876350011 
Si 3.2540904 7.24667166 34.473541571523846 
Si 3.99764745 9.324298259999999 1.159829868268897 
Si 1.3618521449999998 9.500979599999999 4.072274955006084 
Si -0.001122530868 10.73892186 0.26236475289959077 
Si 2.71942002 10.8273114 2.7085117809447397 
Si 1.305628839 12.17312604 1.4504860446769172 
Si 0.00040161366 8.14488597 8.144584456827536 
Si 2.71235016 8.145114029999998 5.429377503064688 
Si 4.0267739699999995e-05 10.85889771 5.42993025211056 
Si 2.71531494 10.859533019999999 8.144826284535105 
Si 1.3589639279999999 9.50291811 9.501272443101737 
Si 2.71324611 8.145 10.861311470466529 
Si 0.001127113245 10.858848839999999 10.861276923651161 
Si 1.3455540000000001 12.22966863 12.253479036122553 
Si 2.0731957199999997 8.32493934 16.600746641449298 
Si 1.116648549 9.536166 14.903703430180231 
Si 2.68206705 10.844790569999999 13.64775395751596 
Si 4.03130259 12.16682181 15.204053442980207 
Si 0.00420628977 11.45276595 18.426994942190635 
Si 0.199956492 8.86068486 21.43664440332572 
Si 3.490947 10.34340066 20.310694596887156 
Si 2.15347284 12.036029399999999 19.21493870707928 
Si 2.19543588 9.94302504 22.22292992107675 
Si 1.500576156 12.128507729999999 22.881323128339456 
Si 3.35702691 8.84419938 23.979324561146182 
Si 2.0599193700000002 9.287629469999999 25.88703425252271 
Si 3.89765943 9.91435464 29.447774512390854 
Si 1.94932656 11.55070143 26.608509944645405 
Si 2.97110052 8.35471746 27.916106906283215 
Si 3.8869731899999995 11.70034137 27.97538924145285 
Si 0.890645976 11.85965757 31.231495683415517 
Si 2.4931845 10.10812419 31.369579304437085 
Si 3.87798111 14.714431199999998 1.3466072255501342 
Si 3.0284739 12.888468809999999 0.07832143058649138 
Si 1.356627942 14.938467569999998 4.074762325712503 
Si 5.47329339e-05 13.575369239999999 8.145482674027075 
Si 2.71388142 13.57476651 5.429653877587624 
Si 1.3575760199999998 12.217092749999999 6.787792830107234 
Si 4.0718483999999995 12.21696243 9.50258522208568 
Si 4.05796932 14.9403735 12.250784384523932 
Si 1.358372601 14.93242398 9.503137971131551 
Si 2.7111446999999997 13.57670502 10.860827815051392 
Si 2.56020156 16.26512517 13.87804302875183 
Si 1.286864388 14.89070529 15.624108171026553 
Si 3.06680427 13.48947207 17.019626777773166 
Si 0.285291657 16.28084502 17.372522496746225 
Si 2.75019183 13.269996899999999 21.251922581558812 
Si 2.98010889 15.56879283 21.771886699646284 
Si 3.71128554 16.2375462 23.971344246796427 
Si 2.02773033 13.17571038 24.935165848718043 
Si 0.07922217959999998 14.569824869999998 25.014139868646815 
Si 3.8821676399999996 14.47063506 25.54581535714367 
Si 3.1866497999999996 15.227712809999998 27.798336812697396 
Si 0.923379102 15.150840299999999 28.759152841682095 
Si 0.339214815 15.16400262 32.51383892302011 
Si 2.01666942 13.4824185 32.54182184346731 
Si 4.0749435 1.356082227 4.069269382069163 
Si 4.93280748 0.0713332584 0.05792326345309519 
Si 5.43732507 2.71091664 2.718924191096328 
Si 6.65216811 1.2569315129999998 1.3010883416226844 
Si 8.14359906 2.7152497799999997 5.431415765171336 
Si 5.430711329999999 -0.000980817642 5.42993025211056 
Si 5.43012489 2.7150380100000002 8.144964471796573 
Si 6.787423979999999 1.357330041 6.787551002399667 
Si 8.14772043 2.71221984 10.85951503606745 
Si 4.07121309 1.3562483849999998 9.501237896286371 
Si 6.7868049599999996 1.364012199 12.245498721772796 
Si 4.07800602 1.4986962899999998 14.990035921782155 
Si 5.51553336 2.8950913799999998 13.650655890006782 
Si 4.897246409999999 0.06864133589999999 20.568793854493393 
Si 5.23850562 0.29118374999999996 18.1509313405936 
Si 7.562257829999999 1.243795257 18.106953244631516 
Si 5.60126763 2.24073837 21.04384711260387 
Si 6.8722623 3.4317328499999995 18.81633755137579 
Si 6.844943969999999 2.11250349 23.00541528913742 
Si 6.119778329999999 0.13395723119999997 23.976249894578526 
Si 6.150028859999999 3.96492084 24.26924143570535 
Si 4.32458775 3.1844995199999997 25.46894869295228 
Si 8.006551289999999 3.1734060299999998 29.75627757361742 
Si 7.0042113 0.39980546999999994 26.109101181701252 
Si 5.53796469 1.9220571 27.116831785954226 
Si 6.50500425 3.79187217 28.089773747132707 
Si 4.881363659999999 0.5002691579999999 30.819559456980397 
Si 7.19755731 1.184066343 30.854866302285387 
Si 5.24888235 3.8791377 32.814845325312056 
Si 7.40157327 2.90066256 32.7099611938581 
Si 6.7899978 4.07126196 4.073276812651725 
Si 5.06558727 5.61126969 0.0476182938972975 
Si 6.78919959 6.70900392 1.2651181974626502 
Si 5.44154418 8.150831819999999 2.683351335313014 
Si 8.13415086 5.422256819999999 2.7085843292570098 
Si 4.07238597 4.0723696799999995 6.787343721507465 
Si 5.429489579999999 5.42769768 5.430344813894962 
Si 6.787684619999999 6.787489139999999 6.787378268322832 
Si 8.14462533 8.145309509999999 5.430310267079595 
Si 6.78584385 4.0716040499999995 9.503103424316183 
Si 4.0732819199999994 6.78809187 9.502170660301278 
Si 4.05891414 4.086607139999999 12.240351246283126 
Si 5.43032037 5.43087423 10.858996833836946 
Si 6.77499471 6.78959055 12.231299980656992 
Si 5.7265866 5.879403089999999 16.5549030174574 
Si 5.28053382 8.110660679999999 13.6304805498325 
Si 6.900069329999999 4.30484427 15.110362479705127 
Si 7.213570379999999 6.27792165 21.57545350746999 
Si 6.69660723 8.01578772 20.017979430283265 
Si 7.414914779999999 6.972364349999999 17.901848801798128 
Si 5.28248862 5.4881335799999995 22.716880287192932 
Si 7.3259713799999995 4.86393336 26.106199249210434 
Si 6.55473762 7.0424928 26.4833122857557 
Si 4.397143409999999 6.551007209999999 27.450519475583274 
Si 7.816805369999999 8.01342567 28.185088410730035 
Si 4.43930193 4.68427095 28.93537614686874 
Si 6.9203829599999995 6.537405059999999 31.937321668177 
Si 4.8498588 5.58818676 31.17991728807271 
Si 8.13859803 10.858588199999998 2.6667239530769167 
Si 6.787684619999999 9.503504549999999 4.068785726654026 
Si 4.07691459 12.21295509 4.069096647992328 
Si 4.07276064 9.502250219999999 6.787412815138199 
Si 5.4300760200000004 8.144674199999999 8.145068112242674 
Si 5.42992941 10.85963076 5.430517547971797 
Si 8.139852359999999 8.145472409999998 10.862900623973406 
Si 6.7879615499999995 9.50371632 9.50179064533224 
Si 4.06026621 9.513799829999998 12.219415876170773 
Si 5.43460464 10.858409009999999 10.861035095943594 
Si 6.802997219999999 12.20482638 12.225150647521682 
Si 7.87869108 10.91278503 16.922101117992362 
Si 6.9530118299999994 9.33646689 14.804726804154013 
Si 5.50815399 10.57411593 16.255658502749164 
Si 4.2218793 8.82652473 17.295655832554836 
Si 4.84669854 12.120362729999998 21.03141025907178 
Si 7.737749999999999 10.047036689999999 20.788787974749923 
Si 4.31926092 8.26129431 19.626149450391694 
Si 6.36230385 11.12662386 22.5005481293653 
Si 5.45397345 9.89070156 24.31695058772706 
Si 7.28803197 8.49275892 24.680348538571664 
Si 5.63635629 11.08316214 26.436812272271826 
Si 7.5948378299999995 11.7413433 29.458933133754364 
Si 7.690394969999999 10.34595819 27.50361793080223 
Si 4.8812007600000005 11.225699639999998 34.4717105903094 
Si 6.0610203 10.22114421 30.420785567200074 
Si 7.32481479 8.28035361 30.457025176519966 
Si 4.6614486600000005 11.17122588 32.06348663789698 
Si 5.43960567 13.573349279999999 2.691307466892015 
Si 6.74041104 12.28371885 1.0838752400031932 
Si 6.78996522 14.93227737 4.071791299590948 
Si 4.07293983 14.932603169999998 6.7877582832918675 
Si 5.430206339999999 13.575108599999998 8.144999018611939 
Si 6.787831229999999 12.21746742 6.7875164555843 
Si 8.14366422 13.57709598 10.855714886377088 
Si 6.788841209999999 14.93129997 9.502447034824213 
Si 5.428381859999999 16.2908145 10.861656938620198 
Si 5.34707847 13.44379491 13.598973854217872 
Si 7.04172717 14.250035879999999 15.22319237869348 
Si 8.00806626 16.089323489999998 13.64181190527285 
Si 5.60069748 16.02918081 14.624737896092375 
Si 5.5182375 14.352402239999998 17.321462303633922 
Si 6.948857879999999 15.13358919 20.7672998555917 
Si 6.36914565 13.19301036 19.552702920921625 
Si 7.69274073 14.943859559999998 22.988003694192496 
Si 7.51817709 12.73838904 23.71821973060302 
Si 6.081219899999999 13.22607906 25.581398576971594 
Si 6.85592343 13.98867912 29.129321968338612 
Si 4.47658974 13.73647734 29.078710883826076 
Si 7.46764551 14.5132497 26.964100315217085 
Si 7.812341909999999 15.10076484 32.50122933541118 
Si 4.09831965 13.46420628 31.472010611999995 
Si 5.44082742 15.180944219999999 32.467822564951376 
Si 12.21888465 4.0710339 4.070858535576041 
Si 8.14003155 -0.0166747698 2.6788602493153144 
Si 8.45107281 2.3019399 0.19427505262031922 
Si 9.50124024 1.35726651 4.066540183655176 
Si 10.86096654 2.72119563 2.704162336890045 
Si 8.14508145 -0.000247886559 8.145344486765609 
Si 10.860233489999999 -0.00039990972599999997 5.430068439372026 
Si 10.86072219 2.71490769 8.144999018611939 
Si 9.50381406 1.3583465369999999 9.502239753932011 
Si 10.860347519999998 0.001174714254 10.86241696855827 
Si 9.55657737 0.20497706999999998 17.118948871953055 
Si 8.456546249999999 3.3172793099999995 16.749470681603874 
Si 10.761548669999998 2.37456072 16.95267504959208 
Si 10.018040489999999 0.457395507 14.809597905120748 
Si 10.801003049999998 2.55186108 13.707036292685588 
Si 10.26761958 1.288740996 20.973855264670497 
Si 11.34976428 2.5940195999999998 19.279195783661745 
Si 8.97903171 2.6935515 22.34919853124283 
Si 11.538744569999999 0.1369531251 22.651172244365053 
Si 10.087549919999999 2.8371478499999996 24.381034930232694 
Si 9.19855575 0.996346899 25.575007416128713 
Si 10.46309958 1.059556986 27.550014303839998 
Si 10.19369556 3.00037365 28.884903249617672 
Si 11.6919846 1.6989492599999998 32.92128406345753 
Si 11.723033339999999 3.56430087 30.61815152339127 
Si 10.871897129999999 8.148811859999999 2.685289411655098 
Si 9.5079843 4.122054179999999 1.2950702863857673 
Si 9.504237599999998 6.78815703 4.068889367100127 
Si 9.502413119999998 4.07287467 6.78717098743063 
Si 8.14431582 5.43038553 8.144929924981206 
Si 10.860233489999999 5.42906604 5.428962941280286 
Si 9.502380539999999 6.78688641 9.502896143423982 
Si 9.525447179999999 4.04738082 12.223423306753336 
Si 10.86251409 5.428414439999999 10.861449657727997 
Si 11.04703092 6.33775482 16.543018912971178 
Si 8.26916238 5.50509147 13.549710095504649 
Si 9.55068039 7.0670907 14.849050368269767 
Si 8.43953949 4.37090022 20.778285742878378 
Si 10.603144709999999 4.79527101 19.8655934276998 
Si 9.312357689999999 5.31443331 17.846781178103264 
Si 8.644060439999999 7.50556863 22.978814241304896 
Si 10.33492986 6.672107069999999 24.362103275411624 
Si 9.60609897 4.776228 25.53023474341319 
Si 10.871897129999999 7.59030921 30.092659914845093 
Si 10.75120452 4.899510719999999 27.510596387506347 
Si 10.013300099999999 7.13831058 27.986996971416133 
Si 10.79306982 5.485592339999999 31.703059713173936 
Si 8.418753449999999 4.74558651 31.525212707665045 
Si 8.54636931 7.41999726 34.30381306762619 
Si 10.48839795 5.80704291 34.2954527383074 
Si 9.595021769999999 9.48097548 1.1617506712032977 
Si 9.502413119999998 9.50288553 6.787481908768933 
Si 10.860217200000001 8.14506516 8.144826284535105 
Si 8.145 10.86042897 8.145033565427306 
Si 10.859614469999999 10.85995656 5.431346671540602 
Si 9.523476089999999 9.51305049 12.221730512800356 
Si 10.859044319999999 10.85902803 10.858271350714238 
Si 12.194645129999998 12.224700180000001 12.228018033197136 
Si 9.502168769999999 12.21740226 9.502792502977881 
Si 12.215773259999999 9.502380539999999 9.50234339437811 
Si 8.584243559999999 8.558130689999999 16.507677520850823 
Si 11.020983209999999 8.30255688 13.593031801974764 
Si 8.2893294 10.937138580000001 13.638426317366891 
Si 9.74860389 9.013354739999999 21.48345533814789 
Si 12.09480372 11.726112149999999 20.76571070208482 
Si 11.458548899999998 8.251650629999999 19.88725428093485 
Si 8.19556416 11.715849449999999 19.144635937807603 
Si 10.831188419999998 8.452555199999999 17.57621052014957 
Si 11.08058832 10.58669181 22.595517324808952 
Si 9.67684644 11.75124762 24.218733991638917 
Si 9.00532377 9.93382119 25.600744793577068 
Si 10.65354597 8.31223314 26.062601168217384 
Si 9.99528336 11.48782203 27.92346537795637 
Si 11.236467329999998 10.78630947 34.32519754633831 
Si 9.42798411 9.08450946 31.214084088470592 
Si 9.83958354 11.30895783 30.39079893146159 
Si 9.57739599 11.4497523 32.85184496457003 
Si 12.215708099999999 14.935926330000001 4.067783869008386 
Si 9.50298327 12.21908013 4.071514925068013 
Si 9.486057959999998 14.77090863 1.1339646676036863 
Si 10.84782051 13.57012386 2.7025800927462393 
Si 8.14355019 13.57370766 5.430793922494733 
Si 9.502038449999999 14.93252172 6.78717098743063 
Si 10.859744789999999 13.575043439999998 8.144653550458269 
Si 12.21679953 14.93309187 9.501963379409077 
Si 9.48752406 14.925728789999999 12.206495367223544 
Si 11.08335762 12.27651867 16.864822498114012 
Si 11.90917917 15.277625369999999 14.72060530873557 
Si 9.11125764 12.549930029999999 15.284651163231226 
Si 10.68995412 13.54213764 13.635628025322172 
Si 8.75162331 16.26277941 19.774078913792835 
Si 10.459841579999999 12.615937109999999 19.14491231233054 
Si 10.44599508 14.96148534 18.691139892486085 
Si 9.807606269999999 15.55159059 24.005165579040636 
Si 10.69933716 13.675096619999998 25.16165477026355 
Si 9.71667549 13.78142145 27.30214090358237 
Si 10.441824839999999 15.42542454 28.944151037971935 
Si 8.414029349999998 13.30653537 33.9650469961382 
Si 8.3965176 15.442643069999999 30.289093107021383 
Si 11.36447415 15.821108639999999 34.538385943967555 
Si 16.2958644 2.7186869700000003 2.6834342476698945 
Si 13.589704439999998 -0.000817062417 2.7222165026007956 
Si 12.241560329999999 1.330967934 1.3752949010308222 
Si 14.932033019999999 1.3554289979999998 4.071756752775581 
Si 14.94630306 4.0120641 1.133764296074558 
Si 13.574847959999998 0.00031768106399999996 8.145068112242674 
Si 13.575857939999999 2.7157384799999997 5.430759375679365 
Si 12.21785838 1.357589052 6.7872400810613644 
Si 16.28889228 0.000401603886 10.861898766327766 
Si 14.930273699999999 1.357597197 9.501134255840268 
Si 13.574880539999999 2.71588509 10.855300324592685 
Si 12.21748371 1.362630807 12.219657703878342 
Si 12.434661989999999 3.43101609 15.209339105731345 
Si 16.15539573 2.7052477199999996 13.607645104874969 
Si 13.63986135 0.1542641823 13.66613286329116 
Si 14.318763389999999 2.01332997 15.016740610060783 
Si 15.13740105 1.93051161 17.28080070194706 
Si 14.818279949999999 3.33925452 21.137745356771152 
Si 13.71582162 2.18800764 19.405049832043424 
Si 14.113085850000001 3.1542001199999996 23.419217043602355 
Si 12.23960553 1.86311988 24.140520001648216 
Si 15.86579211 1.7893750499999999 24.22170501776047 
Si 12.525218099999998 1.1256569189999999 26.424720886893407 
Si 13.88259864 2.98304109 29.81334891260357 
Si 15.72302655 1.72439424 26.56847018563515 
Si 13.84206912 2.7922037399999997 27.453421408074096 
Si 16.06925421 0.0823917249 34.43674921315808 
Si 13.34103759 2.72477943 34.46994870272569 
Si 14.163535979999999 0.779083911 30.66758801618133 
Si 14.204619359999999 1.101244725 33.01718602291609 
Si 13.585143239999999 5.42075814 2.678566601384696 
Si 12.28847553 6.81062094 1.1689260447550063 
Si 14.93675712 6.78512709 4.069614850222832 
Si 14.932880099999998 4.07240226 6.787723736476501 
Si 13.575157469999999 5.429733929999999 8.145068112242674 
Si 12.21727194 6.7878801 6.787585549215033 
Si 16.28944614 5.43186792 10.861449657727997 
Si 12.21950367 4.0726629 9.50234339437811 
Si 14.932994129999999 6.787831229999999 9.502274300747377 
Si 14.926119749999998 4.06733607 12.199586004150163 
Si 12.21826563 6.786430289999999 12.232163651041164 
Si 16.20591102 8.043171209999999 13.607817838951803 
Si 13.293552239999999 5.40595053 16.39094383172601 
Si 13.45361778 5.24112831 13.577727562767219 
Si 15.23999547 6.18699087 14.831120571094337 
Si 14.69747331 5.568166349999999 20.368422325365277 
Si 12.35796867 6.27187806 20.85121407011794 
Si 15.153870239999998 5.6631044699999995 18.035924992237135 
Si 12.401332649999999 6.77426166 23.228622263223073 
Si 13.866487829999999 5.293826459999999 24.47465679987704 
Si 16.13912202 6.06080853 24.720664672104856 
Si 13.041187560000001 4.89884283 26.72355083981724 
Si 13.187797559999998 7.53348969 29.936024653971494 
Si 14.108638679999999 6.577608779999999 27.946508103806107 
Si 16.28229483 5.880136139999999 28.506235606380894 
Si 15.483319199999999 4.68585108 30.42779857071956 
Si 13.92817806 6.019806599999999 31.64001177512931 
Si 15.68164995 7.107310709999999 32.75190102771354 
Si 13.882061069999999 8.08559037 34.1354664363432 
Si 12.21160302 9.50171265 4.073104078574891 
Si 14.8382352 9.392814 1.4207757834613686 
Si 13.571166419999999 10.86523452 2.720616985049307 
Si 13.57562988 8.14675932 5.429826611664459 
Si 14.932309949999999 9.50233167 6.787792830107234 
Si 13.574880539999999 10.85998914 8.144964471796573 
Si 14.92950807 9.50345568 12.230159935749885 
Si 14.9323914 12.215219399999999 9.503241611577652 
Si 13.57644438 8.14563531 10.862969717604141 
Si 12.638433599999999 9.35880048 14.947474245250113 
Si 13.648511339999999 10.98185463 13.586951562470185 
Si 12.29041404 10.24101801 17.14206069143352 
Si 13.12260498 9.941184269999999 19.480258249097204 
Si 15.5237184 9.40846869 19.323933909561905 
Si 15.15240414 9.5219937 23.229624120868714 
Si 12.820620959999998 9.17457687 23.57011753312505 
Si 15.39479934 11.87550774 23.127192813305804 
Si 16.20516168 8.427501179999998 25.12078588768449 
Si 13.85356986 9.77369049 30.15926617487251 
Si 12.46367448 11.58341175 29.615153832843564 
Si 12.644933309999999 9.521537579999999 25.937299868881574 
Si 14.561223749999998 8.520207569999998 26.78307500269444 
Si 16.04824011 11.76455655 27.41099791880352 
Si 12.29215707 11.50223868 27.235327362662748 
Si 15.583111739999998 9.7086771 28.507721119441673 
Si 13.541339429999999 9.98194185 32.680665494426954 
Si 15.40041939 11.47084785 32.81629629155747 
Si 12.24576315 12.247359569999999 1.3252987498318198 
Si 14.93377605 12.21650631 4.071860393221682 
Si 14.91025329 14.90535 1.3593169989236231 
Si 16.28400528 13.582031849999998 2.724911154199415 
Si 16.28899002 16.28905518 5.431346671540602 
Si 13.57439184 13.574310389999999 5.429308409433954 
Si 12.216913559999998 12.21738597 6.787723736476501 
Si 14.932033019999999 14.933303639999998 6.787689189661134 
Si 13.57118271 13.57685163 10.868151739909177 
Si 14.944120199999999 14.944625189999998 12.2551027364448 
Si 14.58240075 12.51606312 15.18754006523482 
Si 12.8392893 13.81804137 16.249440075983117 
Si 16.22312955 13.668417719999999 13.931176030786146 
Si 13.963022370000001 12.99645522 21.49205749517425 
Si 13.90182084 16.20328833 19.872951899372946 
Si 16.047555929999998 15.27000165 19.45227532865 
Si 14.934118139999999 13.17831678 19.303862209833724 
Si 12.917611619999999 14.489319689999999 18.488730101251313 
Si 13.55404563 15.301278449999998 22.034304309173383 
Si 15.58573443 15.958531079999998 23.204508586096967 
Si 14.992257149999999 12.689877419999998 25.339294494880242 
Si 12.85856037 15.36697602 29.489334331277252 
Si 16.18751961 13.0782636 29.37363704661345 
Si 12.871641239999999 13.434216389999998 26.02173228563832 
Si 15.816759209999999 15.728532569999999 26.981926471946412 
Si 13.488364349999998 15.39748719 27.20527163329353 
Si 13.180190129999998 14.089758569999999 34.492162305006616 
Si 13.916449259999998 13.388131979999999 30.25565178974621 
Si 14.59183266 13.685750279999999 32.5220956118928 
