&CONTROL
  dt          = 30.D0,
  prefix = 'x1.33_y.66_z3.17_struc9-scf',
  pseudo_dir = './',
  outdir='./',
  wf_collect= .true.,
  verbosity= 'high',
/

&SYSTEM
ibrav= 6, celldm(1) =30.783621515, celldm(3) =2.1156629530688646, nat=  432, ntyp= 1,
  ecutwfc     = 12.D0, nbnd= 1728,
  degauss     = 0.05D0,
  occupations = "smearing",
  smearing    = "methfessel-paxton",
/
&ELECTRONS
  electron_maxstep=200,
  conv_thr    = 1.D-8,
  mixing_beta = 0.3D0,
  scf_must_converge=.false.,
/
ATOMIC_SPECIES
Si  28.08  Si.pbe-hgh.UPF
K_POINTS {automatic}
1 1 1 0 0 0
ATOMIC_POSITIONS (angstrom)
Si 1.259407593 1.306384695 1.3459111985632186 
Si 1.35488817 4.0725 4.069630166056989 
Si 0.000271202436 0.0011509552889999999 5.430447109281333 
Si 0.000230892831 2.71497285 8.144981380931888 
Si 2.71409319 0.00032742574199999997 8.145153701679416 
Si 2.71547784 2.71639008 5.4297578262912225 
Si 1.357532037 1.357670502 6.7875419243590835 
Si 2.7146959199999996 2.71296918 10.860377256320081 
Si 1.3685131259999999 1.34482095 12.216782788407723 
Si 2.6280657 0.165548754 13.867443228973253 
Si 1.546631244 3.73361913 14.955614285459653 
Si 3.4505478 1.9875428999999998 15.282575671818252 
Si 3.76856118 2.54457945 17.780744012873335 
Si 2.3907366899999998 2.4881997599999996 19.86082775627729 
Si 0.5583299759999999 0.968890104 19.576257273810445 
Si 3.85190082 0.0591263469 22.86320660459771 
Si 3.33347157 2.9245599899999997 25.30902390255395 
Si 3.3183544499999997 0.728257482 26.0931522321029 
Si 1.263902004 3.4531541999999997 26.47670375194952 
Si 3.5026920899999996 1.229196159 28.416277157819586 
Si 1.9497175199999999 2.9877163199999996 28.69174910481698 
Si 2.61874782 2.68025886 34.450639558885655 
Si 3.8567389499999996 1.381763412 32.95013941771555 
Si 1.6170219629999998 3.92659047 32.665637863547715 
Si 0.29873905199999995 3.40030944 30.37477138176817 
Si 2.71966437 5.43554946 2.6909918111233546 
Si 1.3707676619999998 6.84471591 1.2456343091620397 
Si -0.0180144594 8.14094379 2.6875005927784485 
Si 5.96961711e-05 5.43079278 5.43168781866353 
Si 2.71487511 5.42953845 8.145084773380406 
Si 1.357183431 6.78753801 6.787576388508589 
Si 1.357328412 4.07427561 9.501800482813595 
Si 0.00212962428 5.428170089999999 10.858343871499258 
Si 1.345951476 6.772942169999999 12.212164592373988 
Si 2.71388142 8.14364793 10.863858135420138 
Si 3.4673916599999997 7.24737213 14.877690843427736 
Si 0.566057952 5.44204917 16.439916276362172 
Si 2.8054638 6.16004721 16.903493551360544 
Si 2.6617534199999997 5.382574379999999 13.562228720952618 
Si 0.0349018137 8.09599968 13.638945917751844 
Si 1.3597377029999997 4.62448665 20.287769640351325 
Si 2.60609049 6.71542218 20.16693833218507 
Si 2.5230114899999996 8.07777117 18.190384893895608 
Si 2.78405874 4.32380583 23.488351812477827 
Si 3.24249192 8.130567059999999 23.784846890673574 
Si 0.5893803449999999 4.302677699999999 22.49337181625428 
Si 2.7784386899999998 6.17987214 24.926540771342 
Si 0.911355453 5.76734418 26.230181690536735 
Si 1.561692978 6.47900541 28.35010599076904 
Si 3.2631965099999998 4.91413914 28.58932165248666 
Si 0.22573541699999997 5.5210393799999995 33.94928957602926 
Si 3.74515245 5.17622895 32.413256896719 
Si 4.0490424 9.51292017 1.3546754317824654 
Si 1.356841341 9.50413986 4.068665169870835 
Si 2.7120406499999996 10.87290711 2.7111085351897106 
Si 1.4288415119999998 12.10827555 1.1477768030561464 
Si 9.83674908e-05 8.1448371 8.145222629978427 
Si 2.71487511 8.144185499999999 5.429447648945674 
Si -0.001064360907 10.86008688 5.429895682889245 
Si 2.7152660699999998 10.85992398 8.145257094127933 
Si 4.09783095 9.505166130000001 12.233532365067393 
Si 1.3579946729999999 9.50290182 9.503351369541342 
Si 0.000585351828 10.85713839 10.86482313160629 
Si 1.379606616 12.225644999999998 12.258346552711346 
Si 0.562974255 10.433679839999998 16.020349720282315 
Si 1.88753859 9.01483713 14.724118593231264 
Si 2.9933037899999997 10.89216189 13.757985090143812 
Si 4.06228617 11.28699891 15.997637845758195 
Si 0.5956536239999999 9.36031545 18.210236244010773 
Si 3.7373984099999995 10.19595987 21.152371758995596 
Si 2.7976446 12.19542705 20.478218530518667 
Si 1.2759435719999999 11.48492241 18.88359679704907 
Si 2.11229172 9.94662513 24.766902830832567 
Si 2.19893823 8.38206837 21.729198229269013 
Si 3.03357267 11.97130923 23.941693235073068 
Si 2.98638054 8.361037979999999 28.42534122913953 
Si 2.59240689 10.204251479999998 27.044948648996066 
Si 0.291187008 10.48062762 27.451901326356914 
Si 2.29312701 8.60351463 34.46180594332543 
Si 0.50428953 10.244943899999999 34.153799839194846 
Si 0.621645948 9.264123 31.548206744131154 
Si 2.80319949 8.88094962 30.738368159051106 
Si 2.7141746399999995 16.27628382 2.68882746253441 
Si 4.05283797 14.933938949999998 1.1259403179294667 
Si 0.00366233409 13.56188112 2.674817785760428 
Si 1.35886293 14.932049309999998 4.069354452860945 
Si -0.0001174697964 13.57558101 8.144946916782384 
Si 2.7150380100000002 13.573723949999998 5.4302403243843 
Si 1.357613487 12.217304519999999 6.7875419243590835 
Si 4.05293571 14.95022895 12.244457500460634 
Si 1.3570954649999998 14.93045289 9.501972803561124 
Si 2.71296918 13.57691679 10.86337563732706 
Si 2.1375575099999997 12.328809569999999 16.856760164631094 
Si 0.0654517539 13.663612169999999 13.709631888387605 
Si 0.694188576 15.64766901 15.232464798437267 
Si 0.8590580369999999 15.369729029999998 17.843916798916897 
Si 3.0405285 14.49143739 17.731529207379488 
Si 1.6670534399999999 15.53629428 23.01195387386342 
Si 1.7750724299999998 13.23298602 22.365027323495827 
Si 1.435885308 15.72724566 25.414277415143722 
Si 3.8874781799999996 13.381518239999998 25.567849665340194 
Si 0.6515837099999999 12.856475249999999 30.04701731997094 
Si 2.15208819 16.05214971 29.579132026284384 
Si 1.8094606199999999 13.74090822 26.555592190167587 
Si 2.42789418 13.8054492 28.88685065516757 
Si 2.40042924 16.05517965 31.896260189987114 
Si 3.00433212 13.29281919 34.02435249365222 
Si 1.422574749 13.63026654 32.27378048367027 
Si 0.294233238 15.667770869999998 32.64258134752854 
Si 4.08950676 4.02333678 1.3068633171734965 
Si 8.14179087 -0.009382241789999999 2.7015343944570853 
Si 4.07463399 1.356746859 4.069526773608472 
Si 5.44651263 2.70448209 2.702978442321365 
Si 6.8494400099999995 1.348463394 1.2578346180869837 
Si 5.429522159999999 -0.001506232044 5.429826754590233 
Si 5.42944071 2.71533123 8.145601735622988 
Si 6.787342529999999 1.357424523 6.787300675312545 
Si 4.0713597 1.3562630459999998 9.502524229953211 
Si 5.43015747 0.00210484719 10.86506438065283 
Si 6.77323539 1.3608633419999998 12.257278164076677 
Si 5.369900759999999 2.7815500799999997 13.843180467721387 
Si 7.06761198 3.68069292 15.474127414769777 
Si 5.62158126 1.0333203119999999 18.034124440037704 
Si 4.1076863999999995 2.01771198 21.4523821804409 
Si 7.8071128199999995 1.3488022259999999 21.2138902658629 
Si 5.74256709 0.804315492 20.306380281084287 
Si 7.61893074 2.23036164 17.58167908532961 
Si 6.6210216299999995 3.9995370899999996 23.64299245130897 
Si 7.72225821 1.84388139 23.530673788070573 
Si 5.553260999999999 3.8754724499999997 25.806927470459794 
Si 5.554238399999999 1.9918760399999997 29.394990075476542 
Si 6.75907938 3.4588556999999995 27.83631444994117 
Si 7.24750245 0.48682176299999996 30.104882626990662 
Si 7.11941418 3.7520594099999998 32.83792414692567 
Si 5.49645777 0.11922911639999999 34.15610893721172 
Si 5.1115413599999995 2.96776107 31.612241133912356 
Si 6.78830364 4.07186469 4.070009271701549 
Si 4.0734774 6.78628368 4.071663550877813 
Si 6.76517184 6.71819148 1.116076678340995 
Si 4.07272806 4.07214162 6.7876453168076 
Si 5.429212649999999 5.4299457 5.43061943002886 
Si 6.787619459999999 6.787586879999999 6.7875419243590835 
Si 6.7862511 4.07238597 9.502317445056178 
Si 4.07372175 6.788043 9.501662626215575 
Si 4.09250412 4.078527299999999 12.233601293366403 
Si 5.43098826 5.4281212199999995 10.860446184619093 
Si 6.792897419999999 6.774131339999999 12.247662666364645 
Si 5.59009269 7.71952149 16.10568295445791 
Si 5.47739847 8.140113 13.656005671757061 
Si 6.58212111 5.61912147 16.918933490339004 
Si 6.3423486 7.543638359999999 20.134197390154853 
Si 4.73361336 5.787951029999999 20.31468614111511 
Si 8.053792289999999 6.5425527 18.80591460406369 
Si 4.52228319 4.8509991 18.00476098465903 
Si 7.14700944 7.8489944099999995 22.294651530205613 
Si 8.112191939999999 5.724273419999999 22.749509375379095 
Si 4.73584509 4.186986119999999 22.14500819305277 
Si 4.3409917799999995 5.646814469999999 26.619936757294344 
Si 6.9370476299999995 5.27172093 29.453372344738842 
Si 6.973814159999999 7.6149559799999995 29.068683507958543 
Si 5.13038889 7.600294979999999 27.593238803478936 
Si 5.530275809999999 5.1849441 34.13667115689062 
Si 4.74750873 5.25244986 30.345580247137015 
Si 5.437504259999999 8.12954079 2.687462682213993 
Si 6.79047021 9.50089815 4.068113743478747 
Si 4.06979586 12.21764661 4.073145509306549 
Si 6.7628423699999995 12.18799881 1.2861193455861408 
Si 4.07207646 9.50299956 6.787610852658094 
Si 5.43110229 8.145097739999999 8.144740131885351 
Si 5.429326679999999 10.860380099999999 5.431032999822926 
Si 6.78703302 9.50345568 9.501042271524476 
Si 5.43504447 10.8532125 10.859377795984424 
Si 7.58090988 10.69492257 17.110278448393494 
Si 7.38862272 9.12381723 15.263620389590232 
Si 5.413671989999999 9.6430284 19.59324809951665 
Si 7.234568189999999 11.134459349999998 19.47124501026721 
Si 4.3925985 9.30854583 17.398915700501988 
Si 5.494144589999999 8.81025102 23.74007796046594 
Si 4.944829499999999 10.991644919999999 23.020638839538798 
Si 8.14346874 11.705081759999999 25.13167138919869 
Si 7.51219866 11.019093569999999 28.96163785959449 
Si 6.36412833 8.61745887 25.887608044452147 
Si 6.668930519999999 10.77917445 26.754829438458838 
Si 4.50589545 11.70763929 27.110464997206005 
Si 5.6208645 10.648414619999999 34.29941087085555 
Si 6.42197412 9.530269019999999 30.43904702059591 
Si 4.32908379 10.67716647 30.80112737530061 
Si 7.0525926 9.484233479999999 32.73242938528936 
Si 5.4183798 13.58502921 2.6875695210774597 
Si 6.787358819999999 14.93208189 4.071181052784736 
Si 4.07246742 14.93274978 6.787300675312545 
Si 5.43009231 13.57496199 8.144326562091285 
Si 6.78719592 12.217809509999999 6.787886565854138 
Si 4.07385207 12.21888465 9.501559233767058 
Si 6.7875054299999995 14.93072982 9.502179588458157 
Si 6.7870167299999995 12.21406281 12.239322342184316 
Si 4.7013102899999994 15.861491549999998 16.475310957904313 
Si 6.13523754 12.48924978 16.46655706392992 
Si 5.24205684 13.42910133 13.565330494408112 
Si 6.39455805 14.624559269999999 15.197828328184249 
Si 8.01730269 16.10947422 13.657591022634314 
Si 5.18320107 15.13153665 21.379421575937773 
Si 4.392777689999999 13.71062511 19.686577016377523 
Si 6.4780443 13.229825759999999 18.704348755471006 
Si 7.1286669 14.60849733 22.63391661793768 
Si 6.9196173299999995 12.29060952 23.14495102680511 
Si 7.08070914 16.00832961 24.581416778194008 
Si 4.774077719999999 15.599727539999998 24.953870841899857 
Si 6.75951921 13.173397199999998 29.56386440805345 
Si 4.44223413 12.560274179999999 29.29607796639578 
Si 7.976903489999999 14.994440009999998 28.645808393526163 
Si 4.810616189999999 12.205592009999998 32.68276654585195 
Si 6.962899859999999 13.49618355 32.00606297031161 
Si 7.21270701 15.82221636 32.44761765377597 
Si 9.505948049999999 1.357305606 4.071973728223362 
Si 10.856258729999999 2.7043191899999997 2.7014378948384694 
Si 9.55312389 3.97256085 1.188051608168264 
Si 8.14480452 -8.3210949e-05 8.144912452632878 
Si 8.14372938 2.7134253 5.430136931935784 
Si 10.857789989999999 -0.0012639997439999999 5.430447109281333 
Si 10.86011946 2.7150868799999994 8.144946916782384 
Si 12.238823609999999 1.3432196429999999 12.20968317360959 
Si 9.50295069 1.3576314059999999 9.502317445056178 
Si 8.1430452 2.7179050499999997 10.86537455799838 
Si 10.86202539 -0.000606668922 10.862893139233982 
Si 9.4820832 0.808427088 17.157666653963545 
Si 9.97009902 0.5738852969999999 14.894991846479492 
Si 10.86899751 2.57930973 13.608686394486021 
Si 11.04093846 0.211799322 20.983083856624617 
Si 8.79042609 2.9089053 19.710184958788783 
Si 11.06141499 2.14171146 19.666415488916808 
Si 11.62328967 1.99153395 17.42545309562122 
Si 11.737287089999999 0.987110469 23.106144394461925 
Si 9.95864715 2.04377598 24.376182767888803 
Si 9.992676959999999 0.959645529 26.4747048312782 
Si 9.002929139999999 2.0981031299999997 30.081722718522972 
Si 9.04544604 2.6839403999999996 27.838278906462982 
Si 8.43401718 2.3674256999999996 34.2463360806171 
Si 11.08835865 1.319239134 30.786721360807313 
Si 9.65682603 0.63521226 32.895892846393906 
Si 10.84940064 8.13341781 2.702458033663832 
Si 8.147117699999999 5.42672028 2.6742525737085376 
Si 9.50576886 6.78688641 4.071353373532263 
Si 9.50288553 4.07207646 6.787231747013534 
Si 8.14482081 5.430304079999999 8.145567271473482 
Si 10.85899545 5.4310534200000005 5.430378180982322 
Si 12.206276189999999 6.79037247 12.236634138522886 
Si 9.5021199 6.787391399999999 9.50338583369085 
Si 9.50275521 4.08404961 12.253487107631072 
Si 10.86158556 5.42688318 10.861962607197334 
Si 8.24197437 5.594784209999999 13.800686171381116 
Si 9.1033407 7.40748654 15.146683530318098 
Si 9.02562111 5.16011814 20.545285765456356 
Si 11.42797257 5.586655499999999 20.46322662548378 
Si 11.81305188 6.34353777 18.100640248583304 
Si 9.849243509999999 7.586285579999999 17.52029843506033 
Si 11.903640569999999 7.4228643 23.852465552003352 
Si 9.78286176 6.3201616199999995 24.323280298397876 
Si 10.55062575 4.2504845399999995 25.102170077221988 
Si 8.62159653 7.9039405799999995 25.728073496391225 
Si 10.593501029999999 4.446176309999999 27.461827001414495 
Si 10.52441514 6.50909304 28.669450800086928 
Si 10.27592748 5.78922165 30.964039410013065 
Si 9.13515507 7.88717817 31.91066620448041 
Si 8.463844169999998 4.24683558 30.95590587072977 
Si 8.25725439 8.032599 34.19057308671721 
Si 11.45926566 4.860512459999999 34.45391365308868 
Si 9.44440443 9.419904269999998 1.2616256745325878 
Si 8.14441356 10.86398019 2.697664070467618 
Si 12.10619043 12.05875395 1.3294924777388024 
Si 12.21932448 9.501223949999998 4.067769101983692 
Si 8.14495113 8.14431582 5.430447109281333 
Si 9.50291811 9.502282799999998 6.787886565854138 
Si 10.8597285 8.14542354 8.144740131885351 
Si 8.1453258 10.85922351 8.144498882838812 
Si 10.85806692 10.86046155 5.430757286626882 
Si 8.14478823 8.14856751 10.860204935572556 
Si 9.49677678 9.5058666 12.209097283068 
Si 10.85866965 10.858620779999999 10.860894218562667 
Si 12.030050969999998 9.81659835 14.858390919704659 
Si 10.79580654 8.16893001 13.643460721337062 
Si 8.23044105 10.84169547 13.668137052382994 
Si 9.773250659999999 11.43334827 17.211947689434695 
Si 10.185452819999998 11.499892919999999 14.904814129088557 
Si 8.3766438 11.453026589999999 21.53878380325117 
Si 10.895859719999999 9.28803672 20.822653240676555 
Si 10.89700002 9.56975598 18.404545118922734 
Si 11.79720171 9.59591772 24.805502678278717 
Si 9.01483713 9.33692301 22.279142662928145 
Si 9.45961929 9.77636205 24.581864812137578 
Si 9.04525056 8.185985639999998 28.023282461008463 
Si 9.72117153 10.315723949999999 28.91032074098081 
Si 11.251991699999998 10.31655474 34.382503935313295 
Si 10.68954687 9.629540279999999 31.001191763179985 
Si 10.88373996 11.52432792 32.366178868494494 
Si 9.507625919999999 12.2165226 4.075213358276878 
Si 9.385353180000001 14.7738897 1.288466354167465 
Si 10.842493679999999 13.55388273 2.704567239613568 
Si 11.17261053 15.829888949999999 0.05487071706918856 
Si 8.14444614 13.572958319999998 5.430068003636772 
Si 9.502413119999998 14.93270091 6.78771424510661 
Si 10.86020091 13.57483167 8.144912452632878 
Si 12.231558269999999 12.22443954 12.214921724334427 
Si 9.500523479999998 12.216490019999998 9.502110660159145 
Si 8.15003361 13.57665615 10.859033154489367 
Si 9.49017933 14.906131919999998 12.233980399010964 
Si 11.830498469999998 15.17314131 14.979291156169925 
Si 10.857333869999998 13.47282369 13.652834970002557 
Si 8.850422159999999 15.447546359999999 21.015997119402364 
Si 11.483814689999999 13.1540121 20.320097012587475 
Si 8.28193374 14.835759119999999 18.769313677288856 
Si 10.21746267 13.48293978 18.344129464839607 
Si 9.86328549 13.30544394 21.95855714422806 
Si 11.25094914 13.385199779999999 23.954134793044553 
Si 9.78105357 13.25935953 25.876338267563852 
Si 11.89352448 15.886773629999999 29.38261744580407 
Si 10.15609824 14.2353423 29.384823151372423 
Si 8.60867856 15.318431819999999 26.346911764911834 
Si 10.658742479999999 12.3474942 27.96652000677292 
Si 8.17401249 13.41940878 34.211217112271 
Si 9.83728665 13.570465949999999 31.879958647271017 
Si 15.64535583 0.414950283 0.04750434975388474 
Si 16.279737299999997 2.73528648 2.69497586680619 
Si 13.578382889999999 -0.0017910529199999998 2.7182943103616055 
Si 13.16776086 3.20686569 0.22761054865463434 
Si 12.22826769 1.321886259 1.3275383604618411 
Si 14.93172351 1.3583530529999999 4.069630166056989 
Si 13.57505973 -1.6535164499999997e-05 8.144809060184361 
Si 13.57492941 2.71399545 5.430964071523915 
Si 12.21725565 1.357281171 6.7873351394620505 
Si 14.932440269999999 1.358445906 9.501972803561124 
Si 13.575108599999998 2.71539639 10.861411180805248 
Si 16.23015054 2.5814111399999997 13.5941080592452 
Si 13.753532969999998 0.896393088 16.993134804224326 
Si 15.11070174 0.837120294 14.972915288511407 
Si 12.49065072 3.8426806799999995 14.874106571879164 
Si 12.734283959999999 3.6256164299999996 20.51175214798751 
Si 14.20543386 3.95270334 18.629975120838154 
Si 15.38212572 2.05022682 18.11390894614292 
Si 16.170170759999998 0.39115547999999994 21.869157140410813 
Si 13.313963609999998 2.73465117 22.650907443643884 
Si 15.61694607 2.36247354 23.10810885098374 
Si 12.78924642 3.97062234 24.574799661488953 
Si 15.686260019999999 2.3190932699999998 25.54358690408833 
Si 13.49672112 2.63476089 26.41590899222183 
Si 15.760249199999999 0.173628594 26.373655944928096 
Si 12.28696056 0.5798930489999999 27.133521513225183 
Si 12.810244229999999 3.97723608 28.185436284431802 
Si 16.12767015 0.123139368 28.75244047209615 
Si 12.827853719999998 2.94603021 30.33396582875367 
Si 14.544998909999999 0.16117912439999998 31.986177156046946 
Si 14.919668909999999 1.6944858 30.189319793279118 
Si 12.21824934 4.0694374799999995 4.067183211442099 
Si 15.028388369999998 4.29924051 1.1658842672063316 
Si 13.5879777 5.44648005 2.6988565300405085 
Si 12.22952202 6.7780409399999995 1.2894382431835198 
Si 14.929964189999998 6.7899978 4.074179433791714 
Si 14.93261946 4.07272806 6.787128354565017 
Si 13.57512489 5.4296199 8.144809060184361 
Si 12.21785838 6.787521719999999 6.787438531910567 
Si 12.217744349999998 4.07207646 9.502110660159145 
Si 14.932228499999999 6.785729819999999 9.50207619600964 
Si 14.932049309999998 4.07189727 12.232498440582228 
Si 15.092033399999998 6.76008936 15.236083534135345 
Si 12.33631926 4.2687945 17.133748534206735 
Si 13.623864569999999 5.47692606 13.642530189300414 
Si 12.2572476 7.52625693 21.53754309386897 
Si 16.05416967 5.3647857 18.74026039925573 
Si 15.400403099999998 7.5901626 19.006909523979722 
Si 13.79269413 7.56533664 17.285632041077438 
Si 13.798721429999999 6.07172283 24.381076677118582 
Si 15.29313345 6.05448801 22.55161622891856 
Si 15.05836197 6.59687985 26.27984452997415 
Si 16.07344074 5.69731347 29.75034992102767 
Si 14.13278046 5.94151686 28.33015124820536 
Si 12.58065297 7.7134616099999995 28.50740036911211 
Si 12.240077939999999 5.072119559999999 32.128376236906604 
Si 15.91119234 7.0418737799999995 31.920867592734034 
Si 13.539954779999999 7.286647319999999 32.22415210838236 
Si 14.93421588 9.430362449999999 1.0761913181182894 
Si 13.59991827 10.851241409999998 2.688775766310152 
Si 13.57589052 8.14382712 5.430929607374409 
Si 14.93252172 9.502217639999998 6.7875419243590835 
Si 13.574847959999998 10.85982624 8.144636739436834 
Si 12.21785838 9.50317875 9.502248516757168 
Si 13.575434399999999 8.14428324 10.862962067532994 
Si 14.951027159999999 9.48218094 12.21757546384635 
Si 14.07452742 12.07742229 16.88519308797313 
Si 15.2445078 11.885314319999999 14.858563240452186 
Si 13.633654859999998 10.863051659999998 13.512841594711247 
Si 12.267852389999998 11.152133999999998 21.26875719187564 
Si 14.433917399999999 8.32096458 20.98466920750187 
Si 13.98206538 10.39580559 19.86923700875663 
Si 15.548495489999999 12.136278059999999 19.915901467187066 
Si 12.9819897 9.805227930000001 17.270295494547494 
Si 16.234320779999997 8.21936385 22.468523164460823 
Si 12.69847854 11.46519522 23.633239096998913 
Si 15.07271346 11.74839687 24.013654379240535 
Si 16.088085449999998 9.66334203 24.272514606176284 
Si 15.195556349999999 8.942590979999999 26.314205287031122 
Si 13.778179739999999 10.967959259999999 30.098437831033138 
Si 16.08657048 10.67530941 29.753072588838602 
Si 12.94299144 9.49601115 26.87986537286476 
Si 12.896809289999998 11.626173 27.962453237131268 
Si 12.865907159999999 8.82237078 30.55960261556612 
Si 13.065475949999998 8.470718549999999 34.34400748031566 
Si 12.2163597 14.936382449999998 4.070009271701549 
Si 14.934004109999998 12.217109039999999 4.069078739664901 
Si 14.7616722 14.854867289999998 1.291058058210278 
Si 13.574847959999998 13.5742941 5.42993014703875 
Si 12.21706017 12.21736968 6.7878176375551265 
Si 14.93226108 14.932977839999998 6.7876453168076 
Si 16.292606399999997 16.29 10.859653509180466 
Si 12.21763032 14.931039329999999 9.501697090365079 
Si 14.93053434 12.218575139999999 9.501283520571013 
Si 13.574750219999999 13.57512489 10.85696530551904 
Si 14.929654679999999 14.91494481 12.22812149359503 
Si 12.22382052 13.79932416 16.903424623061532 
Si 13.507260749999999 16.19737506 13.594314844142232 
Si 13.64393385 15.15440781 18.13896438283341 
Si 12.81133566 15.07676967 20.316374884440883 
Si 15.49312578 13.692103379999999 18.152853435084126 
Si 15.73464132 12.968631899999998 22.12098668084744 
Si 12.812508539999998 15.24454038 23.825962621033625 
Si 14.44559733 15.010615979999999 22.050404102660195 
Si 13.68713493 15.319474379999999 26.031737117684113 
Si 15.217824779999999 14.27710986 29.22735645228183 
Si 16.106134769999997 12.426989399999998 26.136714917077843 
Si 14.3024571 13.389402599999999 27.25369800255083 
Si 13.00372056 13.82905341 34.39435960274318 
Si 13.50722817 14.733197279999999 30.7596670034455 
Si 12.94738974 12.72382578 32.03125626360013 
