&CONTROL
  dt          = 30.D0,
  prefix = 'x1.33_y2.00_z3.17_struc34-scf',
  pseudo_dir = './',
  outdir='./',
  wf_collect= .true.,
  verbosity= 'high',
/

&SYSTEM
ibrav= 6, celldm(1) =30.783621515, celldm(3) =2.117028552714252, nat=  432, ntyp= 1,
  ecutwfc     = 12.D0, nbnd= 1728,
  degauss     = 0.05D0,
  occupations = "smearing",
  smearing    = "methfessel-paxton",
/
&ELECTRONS
  electron_maxstep=200,
  conv_thr    = 1.D-8,  mixing_beta = 0.3D0,  scf_must_converge=.false.,
/
&IONS
/
ATOMIC_SPECIES
Si  28.08  Si.pbe-hgh.UPF
K_POINTS {automatic}
1 1 1 0 0 0
ATOMIC_POSITIONS (angstrom)
Si 2.7380069099999997 -0.011676118139999999 2.695060049325654 
Si 2.06439912 3.17177703 0.0079791517261691 
Si 1.338112728 1.342123326 1.4041515124966988 
Si 4.07482947 1.3572762839999999 4.07218802260341 
Si -0.00071425134 0.0012908261159999999 5.430434694550931 
Si 0.00012079181609999999 2.7147610799999997 8.144893341133676 
Si 2.71539639 -4.16245338e-05 8.145445123455655 
Si 2.7143049599999998 2.71401174 5.430089830599695 
Si 1.357295832 1.357655841 6.787612288249618 
Si 2.7142560899999997 2.7181494 10.865111215702079 
Si 1.353790224 1.3529007899999999 12.248119119348429 
Si 1.6792383599999998 3.1469184899999996 16.768319901004023 
Si 2.72691342 0.0224945352 13.752105297088772 
Si 3.7744092899999995 1.86059493 15.42017774282775 
Si 1.8546816599999998 3.36082248 20.315142180292757 
Si 3.82614633 2.02121433 19.77736133473354 
Si 2.5976359799999997 0.034911261900000004 19.236580172798565 
Si 0.870306282 0.9110084759999999 17.81749949985281 
Si 1.7986603499999998 1.0964994479999999 24.49927304146775 
Si 0.737961435 0.34829974799999996 22.491337171784554 
Si 3.76279452 2.26606932 25.212520665416424 
Si 2.6531034300000003 0.8338525199999999 29.23573800694416 
Si 0.757613691 1.2378021659999998 30.597329859218682 
Si 1.027667682 2.90771613 32.27674832895336 
Si 4.07142486 6.78638142 4.073877855964472 
Si 1.355412708 4.07219049 4.067532359261708 
Si 0.356584842 5.1290694 0.0056128332383602614 
Si 2.7282166199999995 5.44871178 2.691342415931318 
Si 1.361286882 6.86211363 1.2967194944073015 
Si -0.018625985999999997 8.13877722 2.708906336967826 
Si 2.71498914 5.42988054 8.1449278275288 
Si 1.3571296739999998 6.787586879999999 6.787267424298381 
Si 4.071571469999999 4.0746177 12.249360629572884 
Si 1.357427781 4.07186469 9.501795043671374 
Si 1.37121075 6.7853388599999995 12.22463388426918 
Si 3.9998466 6.98968062 15.143700313120926 
Si 0.760513311 4.34784987 14.926539483026891 
Si 2.6627634 5.4568242 13.71441166721855 
Si 2.49618186 7.0522505099999995 18.456980724631862 
Si 1.36858806 4.903322579999999 18.573406794569525 
Si 2.3272708499999997 4.60883196 22.27390045052953 
Si 0.239761107 5.65355853 22.838063388358385 
Si 3.30188526 7.402941629999999 23.988460556895276 
Si 1.0315805399999998 7.02644715 24.60169763498518 
Si 3.4554348 6.66093213 21.72139391425249 
Si 3.2994906299999998 4.36853817 26.24214647823006 
Si 3.19458303 6.004493999999999 29.91429231739838 
Si 1.4568326189999998 5.76916866 26.53145284692291 
Si 2.3851818 7.289726129999999 28.13434600587807 
Si 1.4328749159999998 4.969916099999999 31.102624520571357 
Si 2.23072002 8.85923505 0.1760026969696853 
Si 1.3561604189999998 9.5027715 4.064325124515203 
Si 0.360999432 10.33168815 0.043873936740341665 
Si 2.7274347 10.886492969999999 2.694570342514898 
Si 1.4862328109999998e-05 8.14482081 8.1449278275288 
Si 2.7170091 8.144136629999998 5.430331235365561 
Si -0.001082885895 10.861422659999999 5.432745283024221 
Si 2.71459818 10.860038009999998 8.14503128671417 
Si 1.35707103 9.501126209999999 9.502036448437238 
Si 2.71454931 8.14521177 10.859834797248153 
Si 1.354526532 12.221882009999998 12.214598343288179 
Si 2.7595422899999997 9.12474576 16.22998727312283 
Si 0.882209385 9.80529309 14.8484622844668 
Si 2.68064982 10.87912989 13.614297662174405 
Si 0.7556458589999999 8.35688403 17.33117235581818 
Si 2.85470847 11.21532291 17.60254579904669 
Si 0.380508336 9.237260789999999 20.949278013827634 
Si 2.49686604 8.38193805 20.434396134630564 
Si 0.8307753389999999 11.904145559999998 18.581545583818716 
Si 3.6469237499999996 11.16138672 24.818099764386492 
Si 0.460591605 11.35587303 22.277107685276036 
Si 2.8553111999999996 11.446787519999999 22.59555505784842 
Si 0.935619408 9.0056007 28.804175258365987 
Si 1.7945389799999998 11.86428393 26.095717244534768 
Si 0.174276936 10.26926487 26.947393258510036 
Si 2.73838158 9.08441172 32.31713189764323 
Si 1.4847390179999997 10.36338849 30.687580755257443 
Si 4.0812966 14.913038879999998 1.0741787866739674 
Si 0.015935887979999997 13.561180649999999 2.6949979738144316 
Si 1.4964303509999999 12.272641649999999 1.1047026949979677 
Si 1.357747065 14.932114469999998 4.068773869486162 
Si 0.00036564696899999994 13.57444071 8.145376150665408 
Si 2.7174163499999997 13.57388685 5.430227776180189 
Si 1.357520634 12.21657147 6.787853693015484 
Si 1.3576933079999998 14.932538009999998 9.502415798783598 
Si 2.7137673899999997 13.572648809999999 10.862386790487307 
Si 3.21364233 13.25181726 16.377726989832826 
Si 1.5797651039999998 14.57534718 14.996133028386549 
Si 4.06075491 14.83761618 18.079492643607672 
Si 1.81859931 15.01126758 21.13615978900304 
Si 0.504035406 13.0785894 20.627864811274605 
Si 3.55004712 13.658073569999999 21.979869445704736 
Si 1.222268022 13.387512959999999 24.37205272985636 
Si 2.60185509 15.25449357 25.068746884145657 
Si 2.01217338 12.55677183 29.96091792360564 
Si 2.3426649 15.41328849 27.466172100356086 
Si 0.0542119797 14.94149751 27.580425527400955 
Si 2.8317558599999995 13.09183317 27.838763113272705 
Si 1.153128375 15.331284629999999 33.193707088897824 
Si 2.67116904 13.684968360000001 33.89471204257758 
Si 3.5208717299999996 13.60175904 31.431348838890607 
Si 6.78621852 4.07175066 4.0674289000763375 
Si 5.41222218 2.7121058099999997 2.6889007791565587 
Si 6.817674509999999 1.375859916 1.2879978850805138 
Si 5.43012489 0.000345354516 5.430745072107046 
Si 5.42996199 2.71533123 8.1449278275288 
Si 6.787440269999999 1.3575010859999999 6.7875088290642465 
Si 4.07385207 1.3579458029999998 9.503691795403176 
Si 5.42805606 -0.001107786789 10.861248739448223 
Si 6.786609479999999 1.3632840359999998 12.255809585461018 
Si 5.36775048 2.73952188 13.80517985918417 
Si 7.76493801 2.3232798 20.75515409567624 
Si 5.17095099 2.05804602 17.56550741068382 
Si 7.16015547 3.4940746799999998 17.477153266376867 
Si 5.46922089 1.9614463199999999 21.556031649634278 
Si 5.07342276 3.36678462 23.49865028695315 
Si 7.35775317 3.24804681 24.247177493113387 
Si 5.254486109999999 1.3616257139999999 26.947945040832018 
Si 7.27656381 2.5609671899999995 26.502829138970224 
Si 4.48043418 2.3756032799999995 28.97305513528682 
Si 7.933506929999999 2.9424952799999997 34.41845692532144 
Si 7.885402559999999 3.2106123899999996 30.33723346719562 
Si 5.7039435 2.4526223999999996 31.03285854323608 
Si 5.8165888500000005 0.14870603429999998 31.879016733991556 
Si 4.079537279999999 4.13834418 1.1764930237270055 
Si 6.85256769 6.75994275 1.2585671954819355 
Si 4.07256516 4.07259774 6.7873363970886285 
Si 5.4296199 5.43188421 5.430296748970437 
Si 6.78753801 6.787440269999999 6.7875778018544946 
Si 6.786642059999999 4.07186469 9.501277747744517 
Si 4.07194614 6.7877171999999995 9.50213990762261 
Si 5.43276387 5.427567359999999 10.86214538572144 
Si 6.78781494 6.778220129999999 12.237807687206438 
Si 6.03309924 6.14747133 16.535053924387213 
Si 6.64140042 4.24369161 15.231675107081523 
Si 5.34015522 8.09161767 13.572534637679588 
Si 8.12639682 5.3993367899999996 13.760657923079453 
Si 5.57386785 7.07460039 20.61148377359084 
Si 7.75244358 6.23964015 20.631865233108957 
Si 4.9075416899999995 7.450817939999999 18.222369778605227 
Si 4.57884207 5.48513622 24.590972366101706 
Si 6.567867359999999 6.4798362 25.431164410500777 
Si 7.233411599999999 7.04752641 29.751826909970557 
Si 6.11531487 6.18197355 27.80551822837344 
Si 7.8729244199999995 4.18545486 28.168315105074928 
Si 4.3129404 4.6246006799999995 28.3440922610205 
Si 6.05551428 4.8032042399999995 34.39569590453979 
Si 5.06518002 6.90805143 31.075518214004113 
Si 6.01316028 4.909920029999999 32.06558813161085 
Si 7.76415609 8.640769859999999 0.20859303008949856 
Si 8.15661477 10.880221319999999 2.7157311945628093 
Si 4.20760926 9.62525601 1.332954349763789 
Si 5.42966877 8.12535426 2.699398437832218 
Si 6.786674639999999 9.502185059999999 4.067566845656832 
Si 6.1057200599999994 10.50587712 0.14367101181329986 
Si 4.07134341 12.2173371 4.075257311769421 
Si 4.07214162 9.5029344 6.787405369878876 
Si 5.42988054 8.145097739999999 8.145100259504419 
Si 5.429489579999999 10.8610317 5.43115890884853 
Si 6.787863809999999 9.502347959999998 9.50279514912996 
Si 4.05339183 9.515249639999999 12.220219625693344 
Si 5.42673657 10.86238377 10.863283436760524 
Si 8.04950802 10.839219389999998 13.661681969074392 
Si 4.494883409999999 12.146214959999998 14.706205904581475 
Si 7.16898465 9.03746394 15.150804510516412 
Si 4.09023981 10.06306605 21.051288770603584 
Si 4.615771499999999 11.342710709999999 19.115050116382594 
Si 7.298245799999999 11.52027171 17.52046817865225 
Si 5.84428185 9.72837171 17.597545271753756 
Si 6.098894549999999 9.0416016 21.980662632792583 
Si 6.51327957 8.64792117 24.40695296172156 
Si 4.429267289999999 9.01208412 25.33587850077395 
Si 7.37412462 9.864833039999999 29.411170298938497 
Si 4.95680265 9.828017639999999 29.315160174914073 
Si 6.0903423 11.88506997 29.05896074553999 
Si 4.508664749999999 8.20015794 27.608566425821905 
Si 4.9311459 9.18879804 31.56474221522914 
Si 6.36199434 10.86935589 32.35592909215741 
Si 5.4160992 13.57764984 2.6883800345901907 
Si 6.93519057 12.36397968 1.3077551408468904 
Si 6.7853388599999995 14.9348349 4.06894630146178 
Si 8.147329469999999 13.57663986 5.428986265955736 
Si 4.0723696799999995 14.932880099999998 6.7871639651130105 
Si 5.43002715 13.5755973 8.144858854738553 
Si 6.787407689999999 12.21741855 6.787957152200856 
Si 4.072304519999999 12.21741855 9.502105421227487 
Si 6.7870167299999995 14.93123481 9.502381312388476 
Si 4.06055943 14.96200662 12.226841013557097 
Si 6.78696786 12.22051365 12.211425594936797 
Si 5.81088735 16.15109517 17.084663603473864 
Si 5.6304430199999995 13.79254752 13.476283108889296 
Si 6.93043389 14.94338715 15.171806725146753 
Si 6.76562796 14.74547994 20.558650616261307 
Si 4.83804855 13.53659904 19.971761144045924 
Si 7.54808553 15.546068279999998 18.49401911299473 
Si 6.0611832 16.07239818 22.494509920135936 
Si 4.583370690000001 14.71912272 23.831306054316507 
Si 5.341686479999999 12.847548329999999 25.119165993816527 
Si 7.647796619999999 12.387632759999999 25.021224631665177 
Si 5.12594172 13.30383123 27.42258129691971 
Si 5.50579194 15.557797079999999 28.104066950959446 
Si 7.80856263 15.256252889999999 28.469105443343967 
Si 7.83047268 14.18547861 34.41483585383345 
Si 7.32849633 14.797265849999999 30.77852137919868 
Si 5.756690519999999 12.838735439999999 31.151112392115298 
Si 4.2390978299999995 15.68321379 30.2384644315613 
Si 6.044714009999999 15.94988109 34.29237466474914 
Si 9.50106105 1.3558769729999998 4.071739699466802 
Si 10.86095025 2.71813311 2.703391962387544 
Si 8.14498371 4.4109410399999995e-05 8.144755395553181 
Si 8.14661271 2.71448415 5.430227776180189 
Si 10.85994027 -0.00061141257 5.432710796629097 
Si 10.85971221 2.71533123 8.144789881948304 
Si 9.502103609999999 1.356662151 9.502450285178723 
Si 8.14410405 2.71810053 10.86204192653607 
Si 10.85870223 0.000540279027 10.86176603537508 
Si 12.049012529999999 0.407157147 16.22498674582989 
Si 8.2450206 0.097930593 13.75655404205973 
Si 9.85584096 1.2431159639999998 15.096798815752674 
Si 10.83982212 2.81188206 13.68478785380728 
Si 9.18000144 2.20910319 17.15639530533119 
Si 11.18574027 3.62011041 17.36193422026853 
Si 11.23311159 0.468314694 19.99690172609111 
Si 9.028292669999999 0.9709849979999999 19.210577430875283 
Si 10.86046155 2.80966662 23.074019303794845 
Si 8.72823087 1.95422985 22.82016494928918 
Si 10.87228809 3.0421737899999997 25.431509274452015 
Si 9.363101039999998 1.521613062 26.506450210458215 
Si 9.67709079 0.44070966 28.596877537277337 
Si 10.72478214 0.196573059 34.41793962939459 
Si 11.72870226 3.16131885 30.63964466603548 
Si 9.12298644 1.0593191519999998 32.76807600028093 
Si 9.78432786 1.79149275 30.556911804133684 
Si 9.53935884 4.08486411 1.2512698742737574 
Si 8.16058953 5.43471867 2.7001433439668903 
Si 9.5013054 6.786006749999999 4.074636556657194 
Si 9.50272263 4.0725814499999995 6.787474342669123 
Si 8.14480452 5.4299457 8.14503128671417 
Si 10.86098283 5.43146067 5.431193395243653 
Si 8.14648239 8.14438098 10.864145596638616 
Si 12.2145678 6.8015474099999995 12.233669319791593 
Si 9.50143572 6.78687012 9.502381312388476 
Si 9.484608149999998 4.07403126 12.232669214333006 
Si 10.859467859999999 5.4293103899999995 10.863628300711762 
Si 8.21332026 7.41304143 16.778631333146013 
Si 10.83371337 8.1096507 13.716687769296716 
Si 11.492969669999999 4.64779764 15.184325286576662 
Si 9.766881269999999 6.48794862 15.092143152410973 
Si 11.112777359999999 7.24163805 19.28472318039127 
Si 8.799141239999999 7.83490356 19.16791776010725 
Si 11.13204843 4.871149829999999 19.624965954681844 
Si 8.49222135 4.25610459 19.656693438195664 
Si 10.3285116 5.282472329999999 25.819412246803562 
Si 9.09573327 6.41739663 22.54727410467522 
Si 8.37376047 5.378322689999999 24.501100820409302 
Si 10.93132305 4.95813843 22.07108596080696 
Si 11.432338289999999 7.90682391 30.008198771320252 
Si 10.0416447 5.33293875 28.10465321967655 
Si 9.45191412 7.595701199999999 28.682472769974396 
Si 8.388633239999999 5.40904563 31.056343778315327 
Si 10.27615554 6.606572399999999 32.071312873201386 
Si 10.979981279999999 5.37796431 34.161188417698526 
Si 9.614716379999999 9.577314539999998 1.447687137700877 
Si 10.88439156 8.11189872 2.7079821015785104 
Si 8.14667787 8.14653126 5.429641507463086 
Si 9.50282037 9.50257602 6.787646774644742 
Si 10.8600543 8.14482081 8.144996800319047 
Si 8.14482081 10.860445259999999 8.145065773109295 
Si 10.859809949999999 10.86187878 5.429779453043581 
Si 9.49689081 9.507414149999999 12.244429075070192 
Si 10.86277473 10.85774112 10.861490144214091 
Si 12.194808029999999 9.42405822 15.189360300264724 
Si 10.94823207 11.09564028 16.26461161382704 
Si 11.720508389999999 8.544235319999999 21.13822897271047 
Si 12.21096771 10.613000159999999 20.201268103594252 
Si 10.49553297 10.94788998 18.603961740649133 
Si 8.3733858 10.43866458 19.327106959998318 
Si 8.14987071 10.26445932 21.673388852240276 
Si 9.79504668 8.69439654 22.493371869096855 
Si 10.9190241 11.944349279999999 23.554104410312085 
Si 10.28806353 9.86517513 24.428265553908016 
Si 8.15940036 10.08787572 25.42823306691526 
Si 12.14103474 8.948585699999999 25.424853400193136 
Si 8.847701729999999 9.66456378 27.638466130394168 
Si 10.67063418 11.086387559999999 28.22701094957549 
Si 11.5958736 9.65534364 33.57095376515614 
Si 11.977059599999999 9.9149085 31.20211777050327 
Si 8.48972898 10.25711253 31.452420026311195 
Si 9.30519009 8.569093859999999 32.91881603336669 
Si 10.33765029 11.414663639999999 30.55442878368478 
Si 12.208931459999999 14.94076446 4.076222930832885 
Si 9.50278779 12.21121206 4.073050182481503 
Si 9.52305255 14.98942269 1.2975402706112458 
Si 10.8781362 13.579409159999999 2.6805826606527186 
Si 8.1503757 16.2968418 2.7092822386746747 
Si 9.502217639999998 14.93374347 6.7879226658057314 
Si 10.85998914 13.574978279999998 8.144962313923923 
Si 9.50352084 12.218803199999998 9.501898502856744 
Si 8.148583799999999 13.572730259999998 10.859696851667657 
Si 9.49144995 14.947199009999999 12.230600030625583 
Si 12.17082915 14.767373699999998 14.931746928690572 
Si 12.14310357 13.180450769999998 16.71369345112806 
Si 9.35984304 12.22354359 15.012996875602045 
Si 10.75084614 13.5156501 13.574362416621144 
Si 8.33520204 13.583221019999998 16.740006570607452 
Si 10.8349677 14.46824043 20.326902041029943 
Si 10.370279159999999 13.25864277 18.33555412740126 
Si 11.820805919999998 15.558839639999999 24.879830411657945 
Si 8.69649795 12.32724573 22.864410994232905 
Si 8.3580732 15.985197809999999 23.191617911166716 
Si 8.83727613 14.289848639999999 21.613106633564023 
Si 9.4392405 15.8035806 25.252559370155055 
Si 11.88928908 13.250090519999999 25.24693808774989 
Si 11.52141201 15.27418818 28.280809725968485 
Si 8.6493384 13.965921989999998 26.577595643598443 
Si 10.75102533 13.236162569999998 27.255908549286794 
Si 9.06040026 14.69726154 32.45293932164042 
Si 11.00858652 13.42237356 31.774488470371576 
Si 16.2927693 2.70272277 2.7295154066937584 
Si 16.00951878 0.163237203 0.1694923552982303 
Si 13.575434399999999 -0.01042872768 2.7220732426260605 
Si 12.29266206 1.411290666 1.3592398801270846 
Si 14.93491635 1.358744013 4.074222719915709 
Si 15.0583131 4.00680243 1.263233204742174 
Si 13.57499457 -0.000168836076 8.145065773109295 
Si 13.574538449999999 2.7150380100000002 5.431055449663159 
Si 12.216408569999999 1.357292574 6.788302016152092 
Si 16.2930951 -2.99164221e-05 10.86390419187275 
Si 14.930159669999998 1.357737291 9.502381312388476 
Si 13.57602084 2.7171882899999997 10.857903559121224 
Si 12.220448489999999 1.360228032 12.245877503665389 
Si 16.08782481 2.57109957 13.685305149734136 
Si 14.800474979999999 1.061938584 15.230192192091204 
Si 13.406311619999999 2.8494630899999995 17.752389185859236 
Si 14.24184201 2.92543965 21.506302267865877 
Si 16.23642219 1.8466344 20.83619712421697 
Si 15.30828315 0.256424148 19.279446761937344 
Si 13.05703773 0.590755221 18.476051701135276 
Si 12.360314429999999 1.4999212979999998 21.836647446755947 
Si 15.933802859999998 1.432562148 25.484514863757166 
Si 14.707068119999999 3.39710031 25.503378921889837 
Si 15.233055929999999 2.12100687 29.34026627056414 
Si 12.86142741 0.27829510199999996 26.814068854961757 
Si 12.736678589999999 2.68949529 26.71850705407394 
Si 15.10596135 0.589924431 27.527523397281175 
Si 13.57556472 2.83268439 34.40362777541825 
Si 13.643754659999999 1.8179314199999999 31.019477821928078 
Si 15.24540375 1.83326031 33.02372364733303 
Si 12.21557778 4.0739661 4.070946512378956 
Si 13.58929719 5.4220776299999995 2.6881248352662754 
Si 12.25379412 6.7368923999999994 1.1854146541455106 
Si 14.93178867 6.787391399999999 4.071981104232668 
Si 16.28845245 5.4307764899999995 5.430779558502169 
Si 14.933010419999999 4.0723370999999995 6.7873363970886285 
Si 13.57486425 5.429733929999999 8.144962313923923 
Si 12.21714162 6.7872936600000005 6.7875088290642465 
Si 16.2913032 5.43032037 10.864766351750845 
Si 12.217581449999999 4.06999134 9.502760662734836 
Si 14.930061929999999 6.78773349 9.502105421227487 
Si 14.913152909999999 4.056454349999999 12.231427704108551 
Si 15.326772299999998 6.1536778199999995 14.989442667732547 
Si 16.245316529999997 8.00845722 13.616642737042818 
Si 13.48575795 5.37473889 13.64488709464914 
Si 14.90741883 7.0384528799999995 17.150774022926026 
Si 15.63375735 7.12451295 21.160679615936004 
Si 13.672213289999998 4.23730593 19.64024342772165 
Si 15.41485233 5.7967802100000005 19.148777810813584 
Si 13.6257705 7.73364492 22.198651136369584 
Si 14.59422729 4.33874376 23.353807427433548 
Si 12.80222955 5.8334978699999995 23.211378615572603 
Si 12.227599799999998 6.59508795 25.347190038374528 
Si 15.35669703 8.07713586 29.93957084502406 
Si 14.76230751 4.416170129999999 29.015163023732875 
Si 14.19974865 6.86040318 26.680847910598843 
Si 15.58467558 5.00808357 26.95511821101775 
Si 13.39891596 7.93508706 28.64788291566531 
Si 12.309554789999998 4.190830559999999 28.5937737617162 
Si 12.540449249999998 4.26648132 32.801251912389944 
Si 15.60827979 5.8654914300000005 30.69692656833597 
Si 14.544445049999998 5.90603724 32.8856746076528 
Si 13.45891203 8.10189666 34.21167650015965 
Si 12.213313470000001 9.5037489 4.070153325291111 
Si 14.870652299999998 9.387389429999999 1.2494041602975643 
Si 13.58779851 10.871001179999999 2.686645368915468 
Si 13.57743807 8.14534209 5.429641507463086 
Si 14.933368799999998 9.50249457 6.787853693015484 
Si 13.57499457 10.85977737 8.145134745899542 
Si 12.21789096 9.50153346 9.501450179720136 
Si 13.576900499999999 8.1456516 10.857041399243132 
Si 14.926641029999999 9.477587159999999 12.221426649522673 
Si 16.2930951 10.859353829999998 10.861007334682359 
Si 14.14059966 12.01543884 16.87446902519482 
Si 13.521025799999999 10.70582058 13.629368216843469 
Si 15.355752209999999 11.50816824 14.868809257589792 
Si 16.002432629999998 9.87620346 18.811431893713404 
Si 13.734994949999999 10.26069633 18.472361656857036 
Si 12.80887587 8.357193539999999 17.40049001001685 
Si 14.61092454 11.3257854 23.419504010144223 
Si 14.046182819999999 9.16721379 24.01780847914556 
Si 12.76800426 11.95062093 22.057084484386735 
Si 15.66387756 8.45582949 25.549314800194622 
Si 14.412284279999998 11.40588333 27.444238753057405 
Si 12.63204792 9.88351767 27.54621502343823 
Si 15.90379668 10.16856009 32.175220381709146 
Si 13.94230149 11.438495909999999 31.649578747233477 
Si 12.38883822 12.000549779999998 33.502946593972176 
Si 12.83269185 12.761960669999999 1.3180079461171708 
Si 14.9429799 12.20792148 4.0747745022376884 
Si 14.631058979999999 14.63245992 1.4445661189421808 
Si 13.57406604 13.57463619 5.427986160497149 
Si 12.21763032 12.21689727 6.787784720225237 
Si 14.93274978 14.93270091 6.7875088290642465 
Si 12.21743484 14.93261946 9.503243472266568 
Si 14.93120223 12.216815819999999 9.503002067500704 
Si 13.57778016 13.57370766 10.86093836189211 
Si 12.21878691 12.209859989999998 12.23549709873315 
Si 14.94622161 14.91183342 12.225668476122891 
Si 13.56675183 16.16083659 13.613711393457303 
Si 16.26185088 15.62139324 16.347999717236185 
Si 16.24525137 13.416362549999999 13.671683023660266 
Si 15.619405859999999 13.612314959999999 17.64206720785847 
Si 12.98857086 14.11306956 21.2373083859009 
Si 14.91188229 14.24664756 19.797811767041907 
Si 13.08127725 15.842432249999998 22.907312069766807 
Si 15.19462782 16.095350789999998 23.91355610668657 
Si 15.64520922 14.294491289999998 25.388090902991255 
Si 14.120595539999998 12.565731329999998 25.398678226294237 
Si 16.27864587 13.74646311 29.61926120711499 
Si 12.64784922 14.35562766 30.108692126710757 
Si 14.23356669 12.6219807 29.54711566851618 
Si 13.859010719999999 15.8278527 31.525082860836868 
Si 16.16920965 15.38145783 31.263020744291754 
