&CONTROL
  dt          = 30.D0,
  prefix = 'x1.33_y.66_z3.16_struc22-scf',
  pseudo_dir = './',
  outdir='./',
  wf_collect= .true.,
  verbosity= 'high',
/

&SYSTEM
ibrav= 6, celldm(1) =30.783621515, celldm(3) =2.1107125888071807, nat=  432, ntyp= 1,
  ecutwfc     = 12.D0, nbnd= 1728,
  degauss     = 0.05D0,
  occupations = "smearing",
  smearing    = "methfessel-paxton",
/
&ELECTRONS
  electron_maxstep=200,
  conv_thr    = 1.D-8,
  mixing_beta = 0.3D0,
  scf_must_converge=.false.,
/
ATOMIC_SPECIES
Si  28.08  Si.pbe-hgh.UPF
K_POINTS {automatic}
1 1 1 0 0 0
ATOMIC_POSITIONS (angstrom)
Si 0.013784483969999999 2.71858923 2.684911871494029 
Si 1.3879764179999998 1.533879432 1.0264783732699911 
Si 7.998748379999999e-05 2.7151846199999996 8.144902926049232 
Si 2.71557558 -5.52512817e-05 8.14466224149273 
Si 2.71298547 2.7141909299999996 5.429946745202179 
Si 1.3575124889999999 1.357225785 6.787063808790953 
Si 2.7171882899999997 2.7120243599999996 10.858414999557276 
Si 1.3787986319999999 1.370831193 12.221996162663524 
Si 4.074226739999999 1.36127385 9.502604509275224 
Si 2.83709898 3.5601143399999997 17.01983649547614 
Si 0.22794759899999997 2.92332195 13.570035980121377 
Si 2.68462458 0.0283379211 13.706572890673975 
Si 3.9499177499999996 2.16801981 19.995213366458014 
Si 1.82426823 2.7595422899999997 18.917771757524196 
Si 0.281098611 1.02858318 18.609523607661682 
Si 1.63233945 3.30629985 24.803506285724417 
Si 2.33895078 3.86274996 22.630331041562656 
Si 2.11610358 0.1007091783 22.67685192798362 
Si 3.58350678 1.93412799 22.286461577337892 
Si 1.3746772619999998 1.63429425 27.953998363315304 
Si 2.11618503 3.5194707899999997 29.131771048802253 
Si 2.71707426 1.6214284079999999 26.031582043520217 
Si 2.71321353 3.15661104 34.09994728060192 
Si 0.56514897 3.60968481 30.912699232882417 
Si 0.0759692295 1.319516064 31.581699149432882 
Si 4.07028456 6.78814074 4.0680847574995145 
Si 1.357059627 4.07061036 4.072417079516545 
Si 2.7164878199999998 5.43317112 2.6947352397501048 
Si 1.291094901 6.845709599999999 1.325078510767593 
Si -0.006869378969999999 8.15174406 2.7381134735333226 
Si 0.000435381201 5.431216319999999 5.433969615646564 
Si 2.7147610799999997 5.430206339999999 8.144559090968515 
Si 1.3574489579999998 6.786511739999999 6.788095314033103 
Si 2.713914 8.14441356 5.43163153709769 
Si 1.358657676 4.07276064 9.502673276291368 
Si 1.363241682 6.791040359999999 12.246305302870192 
Si 0.800681193 6.26296743 16.501780179360303 
Si 1.5484508369999999 4.2891895799999995 15.200192481307276 
Si 2.81761614 5.488768889999999 13.653656671751676 
Si 2.30588208 8.06455998 15.987746733688851 
Si 3.1746114899999998 6.607305449999999 19.846332776507687 
Si 0.233482941 4.39408089 19.611424649362046 
Si 0.9278409329999999 6.56197038 19.042962110413143 
Si 0.1601303742 4.24637946 21.93719390234588 
Si 0.47093738399999996 8.035205399999999 23.630547291367503 
Si 2.67374286 7.163967329999999 23.89588482315657 
Si 3.5179884 5.79554217 22.115713076253982 
Si 1.96415046 5.58041643 25.539794727571138 
Si 2.53640187 5.52688749 27.793496147636752 
Si 1.6692851699999998 7.499981159999999 28.801964439378803 
Si 1.5465628259999997 4.84176267 32.75586156657231 
Si 3.50443512 6.4890889199999995 32.57730800915613 
Si 2.68245801 8.09490825 34.23620912308994 
Si 4.06440387 9.523231739999998 1.2385627277576596 
Si 1.359944586 9.50501952 4.075064609638063 
Si 2.70456354 10.84641957 2.7056244967564025 
Si 4.07491092 12.216604049999999 4.072176394960043 
Si 1.108894509 11.92946022 1.3154923887172119 
Si -0.000415274454 8.14493484 8.14507484358959 
Si -0.000633148317 10.85816466 5.429946745202179 
Si 2.7153801 10.85982624 8.145624979718738 
Si 1.35812988 9.50368374 9.50229505770258 
Si 2.7114867899999995 8.14618917 10.862541020525876 
Si -0.00176362056 10.856389049999999 10.863847593832599 
Si 1.395567558 12.21302025 12.226844237301629 
Si 0.1118451852 8.277551729999999 13.68896853454128 
Si 3.01132053 10.89499635 13.868725514739966 
Si 1.113721236 10.052493839999999 15.055575446357835 
Si 3.32570124 9.70488153 17.39066263002909 
Si 3.2397226199999998 10.569603599999999 21.2293750051825 
Si 0.9449584649999999 11.02762953 21.15937018274858 
Si 3.79612386 8.883751499999999 19.62510928557457 
Si 0.373689342 11.59056306 18.927846125389195 
Si 2.0303204399999997 11.67277869 17.252784762661697 
Si 3.0656476799999997 11.935292039999998 24.921269800869883 
Si 3.07516104 10.7442324 27.009861615175346 
Si 1.141169886 9.51876828 27.604421236750643 
Si 3.0867595199999998 8.14457646 30.646123894802766 
Si 0.11692962 10.337601419999999 31.48360300090441 
Si 1.78166988 12.148870229999998 32.19568545306868 
Si 2.0243094299999997 9.351714329999998 32.33205044608091 
Si 3.5978745599999997 12.11436801 30.630169947057514 
Si 2.6902772099999996 16.2966789 2.6821233689894166 
Si 3.7265655599999996 14.596703369999998 1.4264926678249807 
Si 1.354148604 14.94066672 4.070319685524173 
Si 3.36655656e-05 13.574847959999998 8.145109227097661 
Si 2.7155267100000002 13.574538449999999 5.428055652258237 
Si 1.357108497 12.217043879999999 6.787992163508888 
Si 1.360110744 14.93366202 9.50184807209765 
Si 2.7161783099999997 13.57238817 10.861750199840229 
Si 0.1164304944 13.580907839999998 13.607135785330708 
Si 0.6816534209999999 15.514954379999999 14.8360711308283 
Si 3.47942997 15.359433749999999 17.637433067459458 
Si 2.07969543 14.68082493 21.117834904998006 
Si 1.388776257 15.245941319999998 18.86629964594091 
Si 3.9454217099999997 13.015791449999998 17.85937861206208 
Si 0.636052824 13.09738806 22.151128089567802 
Si 0.868760361 12.68362206 24.45633600472478 
Si 2.5588983599999997 15.8003226 24.914874468368552 
Si 2.19188466 16.06392738 29.135587618198205 
Si 0.785655297 14.56464465 25.856638754451566 
Si 1.3745583449999998 14.13996435 28.09280458540063 
Si 3.20368914 12.63167325 28.36147731747265 
Si 3.7871154899999997 16.27144569 32.48237514337025 
Si 2.93684265 12.72235968 34.35558866311477 
Si 1.68300135 15.88597542 31.465895494247498 
Si 0.1436950674 13.937740289999999 31.7887222515324 
Si 6.78929733 4.07204388 4.070594753588746 
Si 8.13072996 -0.01512006849 2.726154889425996 
Si 4.0718809799999995 1.3595014979999998 4.068497359596375 
Si 5.42647593 2.71350675 2.697991357964492 
Si 6.6040800299999995 1.122962553 1.3610746053678233 
Si 8.1453258 2.71547784 5.430049895726394 
Si 5.4319982399999995 -0.0008394839729999999 5.430703182379756 
Si 5.43009231 2.71482624 8.144731008508874 
Si 6.787619459999999 1.3572762839999999 6.787476410887813 
Si 5.4307602 -0.0024679349999999997 10.863778826816455 
Si 6.795129149999999 1.370761146 12.245548865692617 
Si 4.35514779 0.8826475859999999 15.327755296253168 
Si 5.44100661 2.65916331 13.780325515487705 
Si 6.91471404 4.02698574 15.113030288345595 
Si 7.036546949999999 0.464696685 19.1966563914935 
Si 5.5815404399999995 3.86742519 19.444527101182164 
Si 5.8463180999999995 2.40458319 23.004767444463127 
Si 7.33208013 0.9310484339999999 21.52555454371186 
Si 6.61647672 2.17616481 25.283878276993708 
Si 7.63181613 1.1092870979999998 29.25527660979569 
Si 4.78315125 2.6583813899999997 26.69624963805365 
Si 5.3973657 1.576197594 28.672510531488967 
Si 4.24722654 2.2459837499999997 32.51001948385987 
Si 6.670738709999999 2.3029173 32.73571283084231 
Si 4.202217269999999 2.92589577 30.216089359350406 
Si 7.21534599 0.37854539099999995 31.4436837480332 
Si 4.18449375 4.174100729999999 1.2376378113905318 
Si 6.89348817 6.842549339999999 1.2332779825670441 
Si 5.4390681 8.15275404 2.683729078816364 
Si 8.14438098 5.41852641 2.695636087661583 
Si 4.0725 4.07232081 6.787063808790953 
Si 5.4289683 5.42960361 5.429706060645677 
Si 6.7879615499999995 6.7865606099999995 6.787270109839382 
Si 6.789786029999999 4.07421045 9.501573004033075 
Si 4.0734774 6.78757059 9.501985606129935 
Si 4.0792114800000006 4.06398033 12.245514482184545 
Si 5.43080907 5.4281538 10.863091156655024 
Si 6.805571039999999 6.7654650599999995 12.22192739564738 
Si 5.78084859 6.046896869999999 16.23881510962818 
Si 7.57952523 7.70156991 16.45594696310077 
Si 4.13133948 7.074013949999999 14.852403297162343 
Si 4.40996364 5.1678396 17.922128514292876 
Si 7.50490074 7.390642679999999 20.833414526229163 
Si 6.950959289999999 5.096245049999999 20.906582631405673 
Si 5.62760856 4.94585577 22.818168146158182 
Si 8.06617269 7.75270422 23.163344183689667 
Si 6.1495238699999994 6.868303829999999 24.226860471854458 
Si 7.78960107 4.1952940199999995 25.74695536370294 
Si 5.1984159299999995 4.9745750399999995 29.75614117187569 
Si 6.55561728 6.08568336 26.388895459401002 
Si 7.98444576 7.6401403199999995 27.49821058031726 
Si 4.77950229 4.989773609999999 27.457809958333048 
Si 5.480460989999999 5.59958976 34.07797621894412 
Si 7.45360353 5.093003339999999 30.272272011539513 
Si 7.223979689999999 4.6076590799999995 32.594981132304966 
Si 8.141970059999998 10.850475779999998 2.6669774336838468 
Si 6.78867831 9.50169636 4.068875578185162 
Si 4.0721253299999995 9.50270634 6.7876827119362435 
Si 5.42986425 8.14495113 8.145212377621878 
Si 5.42883798 10.85806692 5.431184551492758 
Si 6.78809187 9.50282037 9.50332656294473 
Si 4.05041076 9.525430889999999 12.208896046088219 
Si 5.423071319999999 10.86264441 10.861578282299869 
Si 4.84145316 10.70614638 15.651097806159141 
Si 5.52178872 8.26109883 13.433567836584922 
Si 6.80702085 9.42602931 14.998670740499223 
Si 6.09369804 9.09597762 20.05318396106685 
Si 6.490880819999999 11.2767525 20.828944670179844 
Si 8.11685088 8.485754219999999 18.73412944091341 
Si 4.47033438 8.495609669999999 24.67284895505208 
Si 6.246921779999999 11.825399699999998 23.117407816905917 
Si 4.2642333 10.534172850000001 23.425552816244213 
Si 6.766572779999999 9.67924107 27.580696616181193 
Si 6.7855506299999995 10.29264102 29.888586444967757 
Si 8.021228579999999 11.54666151 26.846608718851062 
Si 4.566868919999999 8.898347339999999 27.05098429082906 
Si 4.5760239 9.998199269999999 30.77079849507064 
Si 4.88584341 11.36843262 34.33011048363367 
Si 7.9089579 8.425187999999999 31.722740299542867 
Si 5.422875840000001 13.58296038 2.7121883084472844 
Si 6.675918929999999 12.243010139999999 1.250253120502027 
Si 6.78753801 14.93322219 4.075924197339854 
Si 5.03333307 15.972670799999998 0.1026681235967614 
Si 4.07256516 14.93263575 6.787751478952386 
Si 5.42981538 13.574750219999999 8.144971693065376 
Si 6.78696786 12.21764661 6.787579561412028 
Si 4.07215791 12.2197806 9.500025746169849 
Si 6.787521719999999 14.93177238 9.501951222621862 
Si 4.05819738 14.93354799 12.246339686378265 
Si 6.80369769 12.221491050000001 12.252563101339238 
Si 5.7115183499999995 12.86576055 16.12796267960512 
Si 5.628455639999999 13.805286299999999 13.646814353645414 
Si 6.4063031399999995 15.611472629999998 14.982510491705538 
Si 7.925850629999999 13.09997817 17.13292385352386 
Si 4.41449226 14.46402132 21.159438949764727 
Si 4.48843257 12.333696569999999 20.19821359811315 
Si 4.76704044 16.23158406 19.49328291562779 
Si 7.74242523 15.10353414 22.52150723851582 
Si 5.65013763 14.097366 23.166885685021047 
Si 4.235823539999999 14.09966289 25.146413011723173 
Si 4.486624379999999 15.777923849999999 28.91849014823369 
Si 4.91703876 13.992409529999998 27.455575030308392 
Si 7.171835399999999 13.486800509999998 27.929861140648992 
Si 7.33434444 12.65175882 30.13549441643041 
Si 5.35698279 15.310775519999998 31.050542716741738 
Si 5.55075234 13.042637369999998 31.669308327999495 
Si 8.396256959999999 2.12444406 0.1633608605396293 
Si 9.502478279999998 1.359457515 4.066812567700862 
Si 10.34959086 0.63418599 0.16815598457530428 
Si 10.867792049999998 2.73422763 2.6897049325192195 
Si 9.400144499999998 4.0202905499999995 1.2128232336152083 
Si 8.14456017 4.581367019999999e-05 8.145109227097661 
Si 10.85992398 2.7151520399999995 8.145109227097661 
Si 9.50303214 1.358916687 9.503498480485089 
Si 8.14107411 2.7137673899999997 10.859205820242924 
Si 10.862172 -0.0043150581 10.86243787000166 
Si 8.322218909999998 0.21214141199999997 13.676384170587049 
Si 10.225461059999999 1.105035408 15.188192636990262 
Si 10.904314229999999 2.80183113 13.640075186063367 
Si 11.06833824 2.1777286499999997 17.598889154911117 
Si 9.478483109999999 1.83847311 21.34593509754546 
Si 11.04289326 1.109578689 19.721933244304388 
Si 8.52475248 1.8948853799999998 17.32636546993507 
Si 10.59767127 0.8429651459999999 23.189097431235346 
Si 10.738368 2.80451898 24.454891897385764 
Si 8.32461354 0.531839178 25.93871218821864 
Si 12.21015321 1.78036668 29.543066572355556 
Si 8.63055603 3.22745625 29.451572057376847 
Si 10.180256309999999 1.91785428 26.48565065111468 
Si 9.43655265 3.9082316399999995 27.412389344170375 
Si 11.84669073 0.638789544 27.493809491284086 
Si 10.524268529999999 2.8797950699999997 30.772723971522655 
Si 10.5622731 0.718172343 32.16474029580417 
Si 12.20958306 4.07763135 4.068978728709378 
Si 9.50803317 6.7818528 4.0673970873380805 
Si 9.502738919999999 4.072548869999999 6.78720134282324 
Si 8.14464162 5.4300760200000004 8.144937309557305 
Si 10.86215571 5.430678749999999 5.431047017460473 
Si 10.8620091 5.427290429999999 10.86243787000166 
Si 8.144332109999999 8.14441356 10.862403486493589 
Si 9.503504549999999 6.78924846 9.50229505770258 
Si 9.49759128 4.0769797500000005 12.216494801372056 
Si 8.212798979999999 5.38223229 13.663834190140891 
Si 9.422412929999998 6.849944999999999 15.064446391440327 
Si 10.852756379999999 5.61188871 16.411385936639885 
Si 10.74511206 4.78618119 20.1566439368545 
Si 11.45858148 6.94454103 19.513569185390075 
Si 11.45449269 7.886428829999999 17.39540755414298 
Si 9.40364685 4.24152504 17.840433299114594 
Si 12.021905969999999 7.255028429999999 23.106955230452126 
Si 9.20767815 4.4271658799999996 23.89096798150232 
Si 9.93033513 6.603037469999999 24.02661092084506 
Si 9.00317349 4.134695219999999 21.58345637130455 
Si 10.00697958 7.32680217 26.27742412623265 
Si 10.88347932 6.5614653899999995 29.871050855851205 
Si 8.57611485 7.109232929999999 29.77405497958103 
Si 10.98916884 5.6915631 27.679239750314597 
Si 11.03722434 4.98723237 31.750247106000202 
Si 8.544007259999999 7.67013021 34.040360661113716 
Si 9.33508224 5.39743086 33.57638960319461 
Si 9.656581679999999 9.34656669 1.0608309361843955 
Si 10.88590653 8.14377825 2.6815422877030053 
Si 9.50223393 12.21846111 4.0669157182250775 
Si 12.20669973 9.509645879999999 4.075098993146135 
Si 8.14355019 8.145716760000001 5.429706060645677 
Si 9.5030973 9.50299956 6.787717095444315 
Si 10.860347519999998 8.14469049 8.145177994113805 
Si 8.14486968 10.860282360000001 8.14507484358959 
Si 10.86139008 10.8598914 5.4322504402429805 
Si 12.218575139999999 9.502673759999999 9.501916839113791 
Si 9.50734899 9.508570739999998 12.231176559318659 
Si 10.858294979999998 10.85896287 10.862403486493589 
Si 9.50400954 12.219992369999998 9.502982727864014 
Si 11.57995827 11.45889099 16.271307524755905 
Si 10.89950868 8.195596740000001 13.607479620411425 
Si 8.26520391 10.86062445 13.763855815121376 
Si 11.868405300000001 8.58290778 21.15699772069164 
Si 9.42567093 10.30702509 19.58625592145358 
Si 11.431800719999998 10.537381980000001 18.4137439127016 
Si 10.22166549 10.19055159 21.82702914248425 
Si 9.148203359999998 9.72974007 23.86139816456069 
Si 8.18471502 11.74383567 24.514237832317466 
Si 10.74257082 9.460531529999999 25.66673863937174 
Si 11.09313162 10.49919822 29.72519601461119 
Si 10.33517421 11.05719588 27.4267960340524 
Si 11.19491154 10.58291253 34.087019081566964 
Si 9.09843741 10.33986573 31.171366364105584 
Si 9.460906199999998 11.841722279999999 32.98908490182244 
Si 9.49040739 14.95972602 1.3230567604929788 
Si 10.871294399999998 13.568022449999999 2.6925450102859396 
Si 8.14211667 13.574717639999998 5.431150167984687 
Si 9.502038449999999 14.933140739999999 6.7876139449201 
Si 10.860217200000001 13.574978279999998 8.145006076573447 
Si 10.8592398 16.28758908 5.430668798871684 
Si 12.217516289999999 12.23048313 12.241422844724017 
Si 8.14382712 13.575874229999998 10.860615544073863 
Si 9.495115199999999 14.935030379999999 12.235440114319546 
Si 11.88594963 15.66586494 14.687603142974833 
Si 9.567149579999999 12.296718269999998 15.337141993956733 
Si 10.85876739 13.64465061 13.705300700875323 
Si 9.350329679999998 13.879943369999998 21.06894155652009 
Si 8.24287032 12.29381865 19.708179841075722 
Si 10.326703409999999 15.214469039999999 19.343026985354598 
Si 8.42588847 15.38592129 17.851642322745956 
Si 10.872890819999999 12.46942485 22.29938977637284 
Si 9.27391329 15.477454799999999 24.23593771798538 
Si 10.13094648 13.220898839999998 24.446399170892064 
Si 11.39710302 12.97218312 26.4924242022048 
Si 8.426572649999999 15.535935899999998 27.89705927394862 
Si 10.768146119999999 14.867703809999998 27.890148188826213 
Si 8.236484639999999 13.50366066 34.19828411368689 
Si 9.407475 13.38155082 31.14623201970519 
Si 8.86024503 15.32781486 32.35708163995709 
Si 11.37243996 14.272402049999998 30.09526571198656 
Si 12.293460269999999 1.496379852 1.2491941084534197 
Si 14.93463942 1.3556342519999998 4.068738044152876 
Si 13.57455474 4.22617986e-05 8.14504046008152 
Si 13.57597197 2.71627605 5.4289496234681005 
Si 12.216604049999999 1.3572828000000001 6.787132575807096 
Si 16.28977194 -0.000675129276 10.863366224719595 
Si 14.9323914 1.3584801149999999 9.502157523670293 
Si 13.57230672 2.71388142 10.859033902702567 
Si 12.21288993 1.3855084829999997 12.215394529113764 
Si 14.926787639999999 4.09784724 12.247680643193062 
Si 14.78815974 1.2508439399999998 16.90839954581586 
Si 13.73470173 0.17010018 13.45574519929115 
Si 15.48454095 1.1212439579999998 14.656348534137686 
Si 12.835037609999999 3.9661100099999995 21.030569561512113 
Si 13.03291224 1.613636901 20.933848753306506 
Si 15.102133199999999 0.6650571689999999 20.382543584885365 
Si 13.30852275 3.0574375199999997 17.293597986742768 
Si 12.71366082 3.96729918 24.843047320006836 
Si 16.11054936 0.492260994 22.544578572431913 
Si 12.88726335 0.6119827199999999 23.028182613459936 
Si 15.919907489999998 2.5945082999999998 23.54843947409236 
Si 13.92364944 2.0453723999999998 24.57798485628234 
Si 13.87302012 3.25029483 28.76668696009727 
Si 14.85768546 0.0753669882 29.96983467454111 
Si 13.97792772 0.629303877 26.439989352395504 
Si 15.300724589999998 1.50069996 28.109205518750816 
Si 15.75303273 1.2289648409999998 33.809062802315594 
Si 13.840912529999999 2.70954828 34.09320811301987 
Si 14.97340962 4.12180983 1.2687033109332846 
Si 13.58783109 5.4327312899999995 2.701825119114483 
Si 12.934080809999998 7.270194419999999 1.37589733569752 
Si 14.941904759999998 6.77766627 4.080634737945673 
Si 14.93345025 4.07297241 6.78782024596853 
Si 13.57486425 5.43056472 8.14507484358959 
Si 12.21714162 6.787684619999999 6.7876827119362435 
Si 16.28547138 5.43113487 10.861647049316012 
Si 12.21966657 4.07287467 9.501916839113791 
Si 14.933303639999998 6.78919959 9.501469853508858 
Si 12.22699707 6.78406824 12.239600518796218 
Si 12.34498554 4.148248499999999 15.197269883121184 
Si 13.63137426 5.584554089999999 13.803740684484511 
Si 15.105146849999999 7.10949357 15.246128848091024 
Si 15.496155719999999 8.044278929999999 19.798711617828427 
Si 14.196115979999998 4.3854960599999995 19.129127181640744 
Si 13.747554539999998 6.69245328 18.851892956058876 
Si 15.590409659999999 5.96117889 23.27739427996339 
Si 13.31999091 5.32336023 22.983518436474835 
Si 16.0666641 4.91136984 25.29501853360893 
Si 15.68002095 6.63090966 29.15377649396812 
Si 14.24760867 8.10693027 26.362145090121242 
Si 14.89386555 5.94223362 26.999202727673126 
Si 12.978487349999998 4.65089274 27.07917876744783 
Si 16.084648259999998 5.7325813199999995 34.24064459563119 
Si 14.83279434 4.71214314 30.37748554623882 
Si 13.34494719 4.80199878 32.40425581303142 
Si 13.920212249999999 6.81334137 33.64137443345007 
Si 12.293199629999998 12.173761349999998 1.2575630543180638 
Si 14.93589375 12.21732081 4.073723652823268 
Si 16.10593929 10.240627049999999 0.06936838369951143 
Si 14.57619426 9.13157127 1.5035873696232769 
Si 13.58138025 10.857219839999999 2.722651209953493 
Si 14.932847519999997 9.502380539999999 6.787751478952386 
Si 13.57525521 10.85964705 8.144971693065376 
Si 13.57597197 8.14488597 5.428158802782453 
Si 13.5772263 8.14394115 10.86099376266265 
Si 14.94630306 9.49162914 12.219554933590436 
Si 12.40814187 9.640145069999999 14.993719515336903 
Si 13.695622019999998 10.93106241 13.560889966974313 
Si 15.5046591 11.850991289999998 14.90384102523756 
Si 13.79955222 8.5136427 16.6706032039922 
Si 15.014753639999999 9.93598776 18.487015168402326 
Si 13.1564556 10.28775402 19.974376960566584 
Si 12.787666289999999 8.851220369999998 24.656826240290677 
Si 15.782827139999998 9.285674669999999 21.8951772554823 
Si 14.06340135 10.34006121 23.275228118954878 
Si 13.10292666 11.87244522 21.76826772718977 
Si 15.278684219999999 11.341293480000001 25.021772794963372 
Si 16.15187709 9.21570912 25.65680180553903 
Si 14.26557654 8.51486445 28.712979920489325 
Si 12.315973049999998 8.48436957 30.02787403616609 
Si 15.756567659999998 10.31297094 29.15219485259682 
Si 12.91909401 8.9311554 32.50462127309262 
Si 14.524750439999998 10.673566379999999 32.80478929855829 
Si 12.216457440000001 14.93359686 4.07272653108919 
Si 14.812562159999999 14.71513167 1.3915315168177076 
Si 13.5698958 16.2906516 2.6903203973137026 
Si 16.3036836 13.5462753 2.719707981662558 
Si 16.28814294 16.28749134 5.42956852661339 
Si 13.573837979999999 13.574457 5.429396609073032 
Si 12.216473729999999 12.21732081 6.787957780000816 
Si 14.93252172 14.932847519999997 6.78782024596853 
Si 12.219259319999999 14.93333622 9.50208875665415 
Si 14.93257059 12.21862401 9.502054373146079 
Si 13.57232301 13.574945699999999 10.858861985162207 
Si 14.940259469999999 14.90653917 12.220345754276083 
Si 13.402874429999999 15.545009429999999 16.48565431407469 
Si 15.38523711 14.06745756 16.197933118530965 
Si 14.27263011 14.77338471 19.771239194879165 
Si 15.912984239999998 13.740794189999999 18.456035627629753 
Si 12.35832705 14.557248989999998 18.362546869182886 
Si 14.470504739999999 15.227680229999999 23.40155312761019 
Si 14.64415614 13.60244322 21.7581589758167 
Si 14.748216659999999 14.836589909999999 25.69706489349095 
Si 15.758864549999998 14.15247507 29.475434211978584 
Si 13.85148474 12.74241267 26.4495823511475 
Si 14.475261419999999 12.32488368 28.741483848680737 
Si 13.9991373 12.85233759 32.18358245822745 
Si 13.29702201 13.80018753 34.24521760220472 
Si 12.63644622 12.290870159999999 30.218117986326636 
Si 12.536246429999998 16.21403973 30.972629687451338 
Si 15.90764112 15.21785736 33.80411157715328 
