&CONTROL
  dt          = 30.D0,
  prefix = 'x1.33_y.66_z3.18_struc39-scf',
  pseudo_dir = './',
  outdir='./',
  wf_collect= .true.,
  verbosity= 'high',
/

&SYSTEM
ibrav= 6, celldm(1) =30.783621515, celldm(3) =2.1207375915848425, nat=  432, ntyp= 1,
  ecutwfc     = 12.D0, nbnd= 1728,
  degauss     = 0.05D0,
  occupations = "smearing",
  smearing    = "methfessel-paxton",
/
&ELECTRONS
  electron_maxstep=200,
  conv_thr    = 1.D-8,
  mixing_beta = 0.3D0,
  scf_must_converge=.false.,
/
ATOMIC_SPECIES
Si  28.08  Si.pbe-hgh.UPF
K_POINTS {automatic}
1 1 1 0 0 0
ATOMIC_POSITIONS (angstrom)
Si 2.69633709 -0.01011677418 2.6966173124139097 
Si 1.394347437 1.39339773 1.2035177709819005 
Si 4.03431624 3.9640411799999997 1.3655077882373745 
Si -0.000265839768 2.7147284999999997 8.145379033580975 
Si 2.7146796299999996 0.000181630242 8.144999018611939 
Si 2.71264338 2.71450044 5.4298611584798255 
Si 1.357191576 1.357422894 6.787723736476501 
Si 2.71639008 2.71585251 10.864731605187854 
Si 1.352799792 1.349206218 12.251026212231503 
Si 1.355974713 4.07222307 9.502792502977881 
Si 0.31032124199999994 3.8462970599999995 17.29102655929567 
Si 0.7588403279999999 0.01593494316 21.332002099579324 
Si 4.0585394699999995 3.8764498499999998 21.525740640156997 
Si 0.7266806100000001 2.371824 20.875327747244047 
Si 1.8809737199999998 2.9412246599999996 18.7718412531832 
Si 3.86802792 2.04082749 17.316280281328886 
Si 2.0531916 3.30030513 22.62108196818047 
Si 2.4876459 1.9891556099999999 24.569038699459455 
Si 1.4746994909999998 2.7424215 26.694807889431964 
Si 4.05433665 0.951283872 28.614263498033242 
Si 2.72393235 2.89891953 28.72885528460531 
Si 3.35194443 2.09220615 34.505531922553615 
Si 1.6945183799999999 2.33204382 30.82878345668336 
Si 3.6366121799999997 2.1058571699999997 32.170858140057355 
Si 0.282817206 0.318050847 30.578664513426883 
Si 4.07269548 6.78827106 4.06930392888453 
Si 1.3573658789999998 4.07455254 4.074416857558834 
Si 2.7042703199999996 5.4124665300000006 2.7097658303425582 
Si 1.3646458799999999 6.58580265 1.174173706009241 
Si 0.0183335805 8.12395332 2.702552455293946 
Si -0.0006442075979999999 5.42937555 5.430828469310099 
Si 2.7152171999999997 5.43032037 8.145275393134876 
Si 1.357672131 6.78714705 6.787551002399667 
Si 1.367861526 6.787684619999999 12.23299277460997 
Si 3.99082194 6.892803989999999 15.204882566549013 
Si 0.6252069419999999 4.45798656 14.94750879206548 
Si 2.6508717 5.42937555 13.7683223431465 
Si 0.550470051 6.57360144 21.046403576941024 
Si 2.5032028499999996 6.62814036 19.607217795570623 
Si 3.47183883 4.53373506 19.38245621479346 
Si 0.547876683 7.52964525 18.212666499654283 
Si 1.352491911 5.5428353999999995 22.981612533349615 
Si 3.40164522 6.491727899999999 23.753630216354114 
Si 3.2848296299999995 5.34323403 25.83770140017875 
Si 0.9236755799999999 7.993698479999999 29.050866150640342 
Si 1.010967174 5.03009136 26.50749505651254 
Si 0.0615222801 5.32122624 34.15930373894637 
Si 1.371337812 7.945708139999999 31.3812561280311 
Si 0.98173314 4.391898029999999 32.00513706674226 
Si 2.73719241 6.19448427 32.11699965490033 
Si 3.2536668599999996 7.24642731 34.47450888235412 
Si 3.99763116 9.32384214 1.1594740360706177 
Si 1.361656665 9.50106105 4.072274955006084 
Si -0.0009398091959999999 10.73942685 0.2627330219514021 
Si 2.71922454 10.82876121 2.7088019741938214 
Si 1.304806194 12.1731912 1.4506967802506554 
Si 0.000383756562 8.14488597 8.144584456827536 
Si 2.71248048 8.145114029999998 5.429377503064688 
Si 3.85587558e-05 10.85894658 5.42993025211056 
Si 2.71531494 10.8595656 8.144826284535105 
Si 1.358898768 9.50290182 9.501306989917104 
Si 2.71349046 8.145228059999999 10.861000549128228 
Si 0.001079373771 10.85889771 10.861207830020428 
Si 1.3462056 12.22763238 12.250197088662695 
Si 2.072088 8.323033409999999 16.598190177112148 
Si 1.1156027309999998 9.535009409999999 14.903185227949727 
Si 2.6823439799999997 10.8447417 13.647823051146693 
Si 4.03182387 12.162439799999998 15.200736948704984 
Si 0.00423776205 11.45416689 18.42571671002206 
Si 0.20064393 8.86055454 21.436368028802782 
Si 3.4911424799999997 10.34458983 20.311903735424995 
Si 2.15388009 12.03588279 19.215560549755885 
Si 2.1953544299999996 9.943171649999998 22.223379029676522 
Si 1.5006119939999998 12.1285566 22.881323128339456 
Si 3.35689659 8.84431341 23.979290014330815 
Si 2.06014743 9.287759789999999 25.88703425252271 
Si 3.8983924799999996 9.91482705 29.448223620990625 
Si 1.9490985 11.55073401 26.608579038276137 
Si 2.97119826 8.35470117 27.916037812652483 
Si 3.88687545 11.70008073 27.97570016279115 
Si 0.891183546 11.859820469999999 31.23077020029281 
Si 2.49290757 10.10814048 31.37006295985222 
Si 3.8775738599999996 14.71382847 1.3457331911213513 
Si 3.0284739 12.888501389999998 0.07851765649777546 
Si 1.3566654089999999 14.938206929999998 4.074658685266402 
Si 5.22993708e-05 13.57535295 8.14544812721171 
Si 2.71393029 13.574782799999998 5.429653877587624 
Si 1.357572762 12.217109039999999 6.787792830107234 
Si 4.07191356 12.21663663 9.502239753932011 
Si 4.057464329999999 14.94113913 12.250024354585863 
Si 1.357791048 14.932440269999999 9.50203247303981 
Si 2.71296918 13.57737291 10.864489777480285 
Si 2.56978008 16.26976782 13.885401500424983 
Si 1.2807605249999998 14.896960649999999 15.635197698759331 
Si 3.0673581299999997 13.48857612 17.01793398382019 
Si 0.26368134299999996 16.281317429999998 17.387792189138402 
Si 2.74967055 13.27072995 21.251922581558812 
Si 2.98085823 15.56783172 21.7743740703527 
Si 3.7108782899999997 16.237334429999997 23.97168971495009 
Si 2.0277792 13.175677799999999 24.93506220827194 
Si 0.0793955052 14.57018325 25.013828947308514 
Si 3.8821676399999996 14.470716509999999 25.545746263512935 
Si 3.18653577 15.227631359999998 27.798094984989827 
Si 0.9233628119999999 15.150726269999998 28.759152841682095 
Si 0.339302781 15.164751959999998 32.51421893798915 
Si 2.0165228099999997 13.482402209999998 32.542374592513184 
Si 4.07482947 1.3561441289999998 4.069407569330631 
Si 4.9327260299999995 0.0706710699 0.05909163674880433 
Si 5.43701556 2.7110958299999997 2.718751457019494 
Si 6.65106039 1.2570162209999998 1.3006254142967677 
Si 8.14366422 2.7152497799999997 5.43138121835597 
Si 5.430678749999999 -0.000936179784 5.42993025211056 
Si 5.4300760200000004 2.7150543000000003 8.144722644089004 
Si 6.7875054299999995 1.3574017170000001 6.787447361953566 
Si 8.146857059999999 2.71173114 10.863557013465378 
Si 4.0718483999999995 1.3557596849999998 9.501652458070772 
Si 6.786674639999999 1.3625623889999998 12.247087875279673 
Si 4.09051674 1.51389486 14.973246169513834 
Si 5.51344824 2.8914587099999998 13.666996533675333 
Si 4.89441195 0.0704338875 20.56748107550945 
Si 5.2756468199999995 0.305636238 18.165510096678442 
Si 7.03291428 3.81119211 18.627159190426553 
Si 5.598416879999999 2.2372360199999997 21.05504028078275 
Si 7.81258626 1.65139875 17.89590674955502 
Si 6.84223983 2.11131432 23.00544983595279 
Si 6.11904528 0.13399991099999997 23.975904426424854 
Si 6.14988225 3.9641715 24.26855049939801 
Si 4.3242619499999995 3.18456468 25.46894869295228 
Si 8.00611146 3.1730965199999996 29.757037603555492 
Si 7.004162429999999 0.399570894 26.109308462593457 
Si 5.53816017 1.9222362899999998 27.11652086461592 
Si 6.505264889999999 3.79179072 28.089911934394177 
Si 4.88072835 0.49854893399999994 30.818661239780855 
Si 7.1975736 1.18307754 30.854555380947083 
Si 5.249990069999999 3.8785512599999996 32.8157435425116 
Si 7.40015604 2.9010698099999996 32.70958117888906 
Si 6.78990006 4.07131083 4.073242265836358 
Si 5.065750169999999 5.611660649999999 0.04740133989679326 
Si 6.78889008 6.708808439999999 1.2646449060921234 
Si 5.44103919 8.15055489 2.684753936016911 
Si 8.13460698 5.42259891 2.7088676131430183 
Si 4.07240226 4.0723696799999995 6.787378268322832 
Si 5.429522159999999 5.42779542 5.430344813894962 
Si 6.787684619999999 6.787489139999999 6.787378268322832 
Si 8.14464162 8.14529322 5.430310267079595 
Si 6.78577869 4.0721253299999995 9.502723409347146 
Si 4.0733144999999995 6.78812445 9.502205207116644 
Si 4.06047798 4.0853691 12.240731261252161 
Si 5.43085794 5.43056472 10.861138736389693 
Si 6.77690064 6.790616819999999 12.228018033197136 
Si 5.2783020899999995 8.11123083 13.628235006833652 
Si 5.637724649999999 6.24788289 16.649146729778348 
Si 6.8523722099999995 4.43731455 15.230585397181999 
Si 7.21218573 6.2791434 21.576489911930995 
Si 6.69629772 8.0172864 20.016701198114692 
Si 7.42556844 6.9995034899999995 17.92972808179923 
Si 4.93471341 4.177586789999999 17.46379518294562 
Si 5.2831728 5.48753085 22.715463867762885 
Si 7.325841059999999 4.86401481 26.106268342841165 
Si 6.55472133 7.0423299 26.483346832571065 
Si 4.396964219999999 6.55121898 27.450554022398645 
Si 7.816723919999999 8.01331164 28.184950223468565 
Si 4.4385525900000005 4.6834238699999995 28.934754304192133 
Si 6.9198616799999995 6.5375027999999995 31.93663073186966 
Si 4.85065701 5.589099 31.180297303041744 
Si 8.138874959999999 10.858653359999998 2.668879674355812 
Si 6.787684619999999 9.50345568 4.068958460730861 
Si 4.07671911 12.21316686 4.069234835253796 
Si 4.07276064 9.50226651 6.787412815138199 
Si 5.43005973 8.14469049 8.14510265905804 
Si 5.42992941 10.85964705 5.430517547971797 
Si 8.13952656 8.14596111 10.862451515373637 
Si 6.78779865 9.503504549999999 9.501617911255407 
Si 4.0602173399999995 9.51350661 12.218966767571002 
Si 5.43528882 10.85805063 10.860413253266987 
Si 6.79822425 12.20288787 12.224459711214342 
Si 7.87909833 10.911172319999999 16.923655724683872 
Si 6.95384262 9.33420258 14.805452287276717 
Si 5.50865898 10.57403448 16.255623955933796 
Si 4.2274667699999995 8.823315599999999 17.30083785485987 
Si 4.8470406299999995 12.11928759 21.034139457485768 
Si 7.73711469 10.046743470000001 20.78882252156529 
Si 4.31935866 8.26474779 19.630813270466227 
Si 6.36228756 11.12680305 22.500237208026995 
Si 5.4540549 9.890750429999999 24.316985134542428 
Si 7.28788536 8.49254715 24.68003761723336 
Si 5.6361771 11.08321101 26.437088646794763 
Si 7.594707509999999 11.741196689999999 29.45865675923143 
Si 7.6904764199999995 10.346267699999999 27.50403249258663 
Si 4.88212929 11.225943990000001 34.4721251520938 
Si 6.061443839999999 10.221486299999999 30.420301911784936 
Si 7.324195769999999 8.279376209999999 30.456714255181666 
Si 4.66198623 11.17085121 32.06196657802084 
Si 5.43918213 13.57343073 2.6923645994422425 
Si 6.739498799999999 12.283898039999999 1.0832983081865657 
Si 6.789851189999999 14.93229366 4.071791299590948 
Si 4.0728909600000005 14.93252172 6.787654642845768 
Si 5.430190049999999 13.57505973 8.144895378165838 
Si 6.78781494 12.21746742 6.7875164555843 
Si 8.144609039999999 13.57729146 10.856751290838096 
Si 6.788596859999999 14.93143029 9.502067019855176 
Si 5.42808864 16.2929322 10.864731605187854 
Si 5.35830228 13.443534269999999 13.602670363462131 
Si 7.03820853 14.27023548 15.201635165904522 
Si 8.012790359999999 16.07184432 13.655630631419616 
Si 5.520941639999999 14.362713809999999 17.320184071465345 
Si 6.9473592 15.13264437 20.766678012915094 
Si 6.368836139999999 13.195844819999998 19.549835535246174 
Si 7.69329459 14.94403875 22.988832817761303 
Si 7.518030479999999 12.738340169999999 23.717943356080085 
Si 6.081480539999999 13.2260139 25.58153676423306 
Si 6.85559763 13.988760569999998 29.12921832789251 
Si 4.47702957 13.736819429999999 29.07777811981117 
Si 7.467971309999999 14.5132497 26.96403122158635 
Si 7.81286319 15.100911449999998 32.50053839910385 
Si 4.0977495 13.46448321 31.47249426741513 
Si 5.44045275 15.18071616 32.46723526909014 
Si 12.21881949 4.07109906 4.070927629206775 
Si 8.14025961 -0.01593074034 2.6804735855929493 
Si 8.45188731 2.30220054 0.19512628615096006 
Si 9.5013054 1.3572697679999999 4.066816558178112 
Si 10.860933959999999 2.7209187 2.7046529016682546 
Si 8.145032579999999 -0.00035743029299999997 8.14510265905804 
Si 10.860217200000001 -0.000381068712 5.4300338925566605 
Si 10.860787349999999 2.71485882 8.144895378165838 
Si 9.5040747 1.358082639 9.502136113485909 
Si 10.86132492 0.000612258021 10.861276923651161 
Si 9.554313059999998 0.208748205 17.12198899170534 
Si 10.80307188 2.55300138 13.707692682177562 
Si 10.77593274 2.3761082699999996 16.950705881116168 
Si 10.019034179999998 0.45975104099999997 14.805555927722818 
Si 8.760859739999999 3.6785589299999994 16.563505174483762 
Si 10.26827118 1.288532484 20.975513511808106 
Si 11.34969912 2.59242318 19.27895395595418 
Si 8.9769303 2.6911568699999995 22.346123864675175 
Si 11.539102949999998 0.136972836 22.65131043162652 
Si 10.08798975 2.8372292999999997 24.381691319724666 
Si 9.19826253 0.9965749589999999 25.574558307528946 
Si 10.46321361 1.059268653 27.550048850655365 
Si 10.193662980000001 3.0000967199999997 28.884695968725474 
Si 11.69170767 1.69929135 32.92135315708827 
Si 11.72295189 3.56535972 30.617736961606866 
Si 10.87137585 8.14863267 2.6866056453205776 
Si 9.507625919999999 4.12213563 1.2955366683932206 
Si 9.50415615 6.78812445 4.069027554361594 
Si 9.502413119999998 4.0728583800000004 6.787205534245997 
Si 8.144332109999999 5.43035295 8.144999018611939 
Si 10.860217200000001 5.42909862 5.428997488095653 
Si 9.502250219999999 6.78688641 9.503137971131551 
Si 9.52207515 4.04664777 12.225668849752186 
Si 10.8626607 5.4289683 10.861449657727997 
Si 11.042681489999998 6.34021461 16.547993654384015 
Si 8.26339572 5.50698111 13.551057421303959 
Si 9.550142819999998 7.06795407 14.848428525593164 
Si 8.441038169999999 4.38013665 20.785160559136393 
Si 10.60987248 4.798594169999999 19.880033996523167 
Si 9.283670999999998 5.48161758 18.009462131666076 
Si 8.644125599999999 7.505177669999999 22.9792288030893 
Si 10.3351905 6.672237389999999 24.36231055630382 
Si 9.605805749999998 4.776244289999999 25.53013110296709 
Si 10.87204374 7.59115629 30.091105308153583 
Si 10.751318549999999 4.89952701 27.510734574767813 
Si 10.01320236 7.13852235 27.986858784154663 
Si 10.794079799999999 5.48505477 31.702679698204896 
Si 8.418460229999999 4.74563538 31.52497087995748 
Si 8.54586432 7.41936195 34.303778520810816 
Si 10.48857714 5.8068963 34.295383644676654 
Si 9.59520096 9.481464179999998 1.1617299431140775 
Si 9.502413119999998 9.502869239999999 6.787481908768933 
Si 10.86020091 8.14506516 8.144860831350472 
Si 8.14498371 10.860412679999998 8.144999018611939 
Si 10.85963076 10.85995656 5.431312124725236 
Si 9.52241724 9.51218712 12.221695965984988 
Si 10.859044319999999 10.859109479999999 10.85837499116034 
Si 12.19568769 12.22430922 12.227638018228099 
Si 9.502152480000001 12.2175 9.502723409347146 
Si 12.215838419999999 9.502380539999999 9.50237794119348 
Si 8.586540450000001 8.55935244 16.507297505881787 
Si 11.02124385 8.30309445 13.594240940512606 
Si 8.29100727 10.936389239999999 13.637320819275152 
Si 9.74848986 9.01353393 21.48331715088642 
Si 12.09488517 11.7261936 20.765952529792386 
Si 11.459363399999999 8.25028227 19.886252423289214 
Si 8.195352389999998 11.715849449999999 19.145326874114943 
Si 10.831514219999999 8.45363034 17.57507047524246 
Si 11.08065348 10.586577779999999 22.59517185665528 
Si 9.67681386 11.75131278 24.218872178900387 
Si 9.005388929999999 9.93383748 25.600641153130965 
Si 10.65354597 8.31223314 26.06287754274032 
Si 9.99559287 11.48720301 27.923983580186874 
Si 11.236451039999999 10.7875638 34.325646654938076 
Si 9.42795153 9.084053339999999 31.214049541655225 
Si 9.83909484 11.308843799999998 30.390384369677186 
Si 9.577379699999998 11.449866329999999 32.852466807246635 
Si 12.215789549999998 14.93577972 4.067991149900587 
Si 9.50295069 12.21901497 4.07154947188338 
Si 9.48571587 14.770501379999999 1.133408463876279 
Si 10.84837437 13.57035192 2.7031328417921103 
Si 8.14361535 13.57377282 5.430759375679365 
Si 9.50205474 14.93252172 6.78717098743063 
Si 10.859744789999999 13.575043439999998 8.144653550458269 
Si 12.216913559999998 14.93322219 9.501859738962974 
Si 9.486253439999999 14.92947549 12.209431846529734 
Si 11.08184265 12.27739833 16.864200655437408 
Si 11.91066156 15.278276969999999 14.720639855550937 
Si 9.10092978 12.556918439999999 15.284996631384892 
Si 10.69027992 13.54062267 13.635213463537768 
Si 8.752616999999999 16.2784341 19.754318135402958 
Si 10.460542049999999 12.61500858 19.145499608191777 
Si 10.44210177 14.96440125 18.693178154592733 
Si 9.807443369999998 15.551997839999999 24.005061938594537 
Si 10.699353449999998 13.67511291 25.161689317078917 
Si 9.716724359999999 13.781535479999999 27.3022099972131 
Si 10.441792259999998 15.425245349999999 28.943771023002903 
Si 8.41495788 13.30624215 33.96390695123109 
Si 8.39633841 15.44290371 30.289093107021383 
Si 11.36392029 15.82058736 34.53852413122902 
Si 16.2957015 2.71850778 2.6848299390107178 
Si 13.58905284 -0.0007770525480000001 2.721895217217883 
Si 12.242944979999999 1.3321815389999998 1.3742584965698146 
Si 14.9320656 1.3555169639999998 4.071791299590948 
Si 14.946368219999998 4.01136363 1.1330457223149262 
Si 13.57486425 0.00030355600499999994 8.145033565427306 
Si 13.575809069999998 2.7157058999999997 5.430724828863998 
Si 12.21784209 1.3575841649999998 6.7872400810613644 
Si 16.28861535 0.000415276083 10.862036953589234 
Si 14.930355149999999 1.3575760199999998 9.501203349471004 
Si 13.574799089999999 2.71581993 10.855645792746355 
Si 12.21771177 1.362029706 12.219070408017105 
Si 12.43868562 3.42906129 15.209650027069648 
Si 16.156698929999997 2.70547578 13.606539606783226 
Si 13.64111568 0.1547809011 13.666892893229232 
Si 14.31763938 2.01383496 15.016395141907113 
Si 15.143363189999999 1.9258526699999998 17.279280642070916 
Si 14.81979492 3.3391567799999997 21.13660531186404 
Si 13.71591936 2.18939229 19.407709936826677 
Si 14.112971819999999 3.1542001199999996 23.419182496786988 
Si 12.23970327 1.86333165 24.14034726757138 
Si 15.86634597 1.78919586 24.22163592412974 
Si 12.52533213 1.1256422579999998 26.424651793262672 
Si 13.8826638 2.98344834 29.813141631711368 
Si 15.72284736 1.7242476299999998 26.568297451558312 
Si 13.8424275 2.79204084 27.453386861258732 
Si 16.069303079999997 0.0818774496 34.43640374500441 
Si 13.34061405 2.72430702 34.47164149667867 
Si 14.16312873 0.7779599009999999 30.668002577965733 
Si 14.205108059999999 1.101133953 33.01625325890119 
Si 13.58468712 5.42116539 2.680176482980794 
Si 12.28920858 6.81016482 1.169748258960739 
Si 14.936561639999999 6.78524112 4.0697530374843 
Si 14.932863809999999 4.07241855 6.787723736476501 
Si 13.575157469999999 5.42975022 8.145068112242674 
Si 12.21728823 6.787863809999999 6.787585549215033 
Si 16.28938098 5.43154212 10.86141511091263 
Si 12.219259319999999 4.07245113 9.50258522208568 
Si 14.93296155 6.78781494 9.502274300747377 
Si 14.926689899999998 4.06758042 12.20041512771897 
Si 12.21785838 6.786397709999999 12.232060010595065 
Si 16.20656262 8.044148609999999 13.608577868889876 
Si 13.29710346 5.40523377 16.39008016134184 
Si 13.45312908 5.2401672 13.578349405443824 
Si 15.240549329999999 6.1872678 14.830844196571402 
Si 14.69691945 5.56762878 20.368802340334312 
Si 12.357805769999999 6.2713242 20.85266503636335 
Si 15.15359331 5.6631044699999995 18.03761778619011 
Si 12.401560709999998 6.774066179999999 23.228069514177204 
Si 13.866341219999999 5.293859039999999 24.474380425354102 
Si 16.13895912 6.06088998 24.720733765735588 
Si 13.04115498 4.89874509 26.723654480263342 
Si 13.1874066 7.53358743 29.935540998556355 
Si 14.108443199999998 6.57734814 27.94654265062147 
Si 16.28252289 5.87989179 28.50640834045773 
Si 15.48314001 4.68593253 30.427384008935157 
Si 13.92834096 6.019301609999999 31.640944539144215 
Si 15.681992039999999 7.106675399999999 32.7507955296218 
Si 13.881393179999998 8.0853786 34.13487914048196 
Si 12.21186366 9.50174523 4.073069531759524 
Si 14.838202619999999 9.39323754 1.4221092905345314 
Si 13.57134561 10.865006459999998 2.7203751573417385 
Si 13.57561359 8.14667787 5.429826611664459 
Si 14.932309949999999 9.502347959999998 6.7877582832918675 
Si 13.57489683 10.85998914 8.144964471796573 
Si 14.92963839 9.50340681 12.229607186704014 
Si 14.9323914 12.21531714 9.503207064762284 
Si 13.57637922 8.145602729999998 10.862831530342673 
Si 12.638743109999998 9.35875161 14.946541481235206 
Si 13.648022639999999 10.98175689 13.586087892086013 
Si 12.290756129999998 10.24176735 17.142717080925493 
Si 13.123093679999998 9.941119109999999 19.480983732219908 
Si 15.522382619999998 9.4086153 19.32421028408484 
Si 15.15225753 9.52207515 23.229382293161144 
Si 12.820490640000001 9.174609449999998 23.570082986309682 
Si 15.394815629999998 11.87544258 23.127123719675073 
Si 16.20530829 8.42755005 25.12088952813059 
Si 13.85387937 9.77427693 30.158091583150036 
Si 12.46356045 11.583656099999999 29.61456653698233 
Si 12.64517766 9.52152129 25.93733441569694 
Si 14.561060849999999 8.520272729999999 26.783144096325174 
Si 16.04801205 11.764328489999999 27.41082518472669 
Si 12.29218965 11.5025319 27.23512008177055 
Si 15.583209479999999 9.70885629 28.507790213072404 
Si 13.541762969999999 9.98181153 32.68121824347283 
Si 15.40025649 11.47058721 32.81664175971114 
Si 12.24548622 12.24628443 1.326069143814502 
Si 14.933727179999998 12.216538889999999 4.0718949400370485 
Si 14.91062796 14.9045355 1.359921568192544 
Si 16.28426592 13.581722339999999 2.724486228370402 
Si 16.289038889999997 16.28908776 5.431277577909869 
Si 13.574408129999998 13.574342969999998 5.429342956249322 
Si 12.21692985 12.21738597 6.787689189661134 
Si 14.932049309999998 14.93327106 6.787654642845768 
Si 13.57137819 13.576753889999999 10.867737178124775 
Si 14.94195363 14.943794399999998 12.251060759046869 
Si 14.582791709999999 12.51735003 15.18788553338849 
Si 12.840478469999999 13.818481199999999 16.248818233306512 
Si 16.22270601 13.66770096 13.93079601581711 
Si 13.96326672 12.99639006 21.49174657383595 
Si 13.89998007 16.203695579999998 19.87533562963327 
Si 16.0463016 15.27117453 19.44926975571308 
Si 14.93444394 13.17720906 19.303620382126155 
Si 12.91674825 14.487511499999998 18.48869555443595 
Si 13.553915309999999 15.300920069999998 22.034062481465813 
Si 15.58549008 15.959150099999999 23.20399038386646 
Si 14.99263182 12.68986113 25.33950177577244 
Si 12.858674399999998 15.36715521 29.48919614401579 
Si 16.18763364 13.078377629999999 29.373844327505648 
Si 12.871706399999999 13.43433042 26.021870472899785 
Si 15.816580019999998 15.72863031 26.98203011239251 
Si 13.488315479999999 15.39737316 27.20527163329353 
Si 13.180385609999998 14.09016582 34.49198957092978 
Si 13.91714973 13.388131979999999 30.255928164269143 
Si 14.591995559999999 13.68540819 32.52092102017033 
