&CONTROL
  dt          = 30.D0,
  prefix = 'x1.33_y.66_z3.16_struc1-scf',
  pseudo_dir = './',
  outdir='./',
  wf_collect= .true.,
  verbosity= 'high',
/

&SYSTEM
ibrav= 6, celldm(1) =30.783621515, celldm(3) =2.107444715732142, nat=  432, ntyp= 1,
  ecutwfc     = 12.D0, nbnd= 1728,
  degauss     = 0.05D0,
  occupations = "smearing",
  smearing    = "methfessel-paxton",
/
&ELECTRONS
  electron_maxstep=200,
  conv_thr    = 1.D-8,
  mixing_beta = 0.3D0,
  scf_must_converge=.false.,
/
ATOMIC_SPECIES
Si  28.08  Si.pbe-hgh.UPF
K_POINTS {automatic}
1 1 1 0 0 0
ATOMIC_POSITIONS (angstrom)
Si 3.4775566199999997 3.46361238 1.5694084950772293 
Si 1.7247363299999998 1.6208028719999998 1.3720197162487149 
Si 1.347868809 4.082713829999999 4.073870674512295 
Si -0.0010216371239999999 0.001031640813 5.429916514073721 
Si -0.000195178635 2.7152009099999996 8.14578452338269 
Si 2.71497285 0.00019806522299999998 8.145269569266402 
Si 2.71656927 2.7160317 5.427753706785306 
Si 1.356913017 1.357354476 6.787369894886337 
Si 2.7110632499999996 2.7160317 10.85852847771951 
Si 1.362917511 1.377023022 12.234863509462727 
Si 4.07267919 1.358294409 9.501315408827828 
Si 1.527705522 1.105827102 16.71266419279223 
Si 3.0786470999999995 2.91501405 16.639231735809396 
Si 0.0252591111 2.7182471399999995 13.796238720325846 
Si 2.88987858 0.1551148461 13.587888284875255 
Si 2.05395723 1.88299368 20.371447519301054 
Si 3.72788505 3.30134769 19.358635763383553 
Si 0.44553149999999997 1.67387895 18.64418842244399 
Si 1.4766819839999998 1.5356501550000001 24.40487713054744 
Si 1.3184881649999998 2.80176597 22.445545378616064 
Si 2.3402214 3.13950654 25.97033764406645 
Si 0.934154937 3.7230143399999998 29.64491289680814 
Si 3.00500001 2.61004896 29.906715569529545 
Si 0.1509157728 0.0366999039 29.54810152294578 
Si 0.46058834699999995 3.27629367 27.390993060084956 
Si 3.75015348 0.720975852 28.69780928612914 
Si 1.5760135169999998 0.802942245 33.20286820734755 
Si 3.4202321099999997 3.94278273 33.603983133662375 
Si 3.42893097 2.07027981 32.22229257910975 
Si 2.71595025 5.42364147 2.7111990919879494 
Si 1.573798077 6.91424163 1.280653123909252 
Si 0.00054149589 5.43097197 5.43372717453426 
Si 2.7146959199999996 5.43012489 8.145578541736176 
Si 1.356699618 6.78678867 6.787816188453787 
Si 4.075220429999999 4.08921354 12.252062976946783 
Si 1.359138231 4.073216759999999 9.501658711572022 
Si 0.0027416069999999996 5.42808864 10.861583872142825 
Si 1.3555739789999999 6.786299969999999 12.239772738704684 
Si 3.61696644 7.46318205 15.200072301878903 
Si 0.25456382999999994 5.150360429999999 17.098811119460255 
Si 1.436295816 4.13282187 15.264201254494113 
Si 2.72888451 5.60651301 13.820956517907725 
Si 3.32276904 5.16031362 20.92340967141418 
Si 1.1334696029999998 6.05355948 20.663083200492807 
Si 1.5212367629999999 6.894628469999999 18.497083196557387 
Si 3.61968687 7.824966659999999 17.700998463048784 
Si 0.7408089269999999 7.3899585 22.76897089392007 
Si 3.0994494299999995 4.26778452 23.06599642819565 
Si 1.453976982 7.4094576299999995 25.162134323687845 
Si 3.0020515199999998 5.50615032 25.31270690729079 
Si 1.7539280099999999 5.89440618 29.53436941317807 
Si 3.51907983 5.93548956 27.945770294700463 
Si 1.457274078 5.377068359999999 33.681775535496456 
Si 1.9607295599999999 6.7165950599999995 31.749290058160955 
Si 0.011205874709999999 8.13318975 2.695414031809966 
Si 1.3558183289999999 9.50159862 4.068789793898242 
Si 2.7074142899999996 10.877549759999999 2.6921663878499027 
Si 0.000416056374 8.14478823 8.145200908717564 
Si 2.7146796299999996 8.14594482 5.427959688431822 
Si 0.001130633514 10.86121089 5.430328477366752 
Si 2.7152497799999997 10.85985882 8.145097917894306 
Si 1.358525727 9.50415615 9.502036344590632 
Si 2.71686249 8.14226328 10.861858514338177 
Si -0.0018792469799999998 10.857219839999999 10.85945539512883 
Si 1.372880475 12.20679747 12.249179233895566 
Si 0.09748669049999999 8.27437518 13.636053659885501 
Si 1.8489801599999998 9.15437727 15.135119422677631 
Si 2.84354982 10.875138839999998 13.781064739032525 
Si 2.73355974 10.08227196 17.832655065446712 
Si 1.5127610759999999 10.47031605 21.428030375103127 
Si 0.755357526 10.307187990000001 19.180770611617284 
Si 2.8942931699999996 8.71990668 22.3738294353542 
Si 0.1227384711 11.5759998 23.105819546522014 
Si 3.8812391099999997 10.17175293 24.106547045843925 
Si 0.650995641 11.261391029999999 25.40903765731128 
Si 2.26468467 9.58158252 25.744581759485293 
Si 0.932648112 9.22294188 29.31458699634586 
Si 3.8408073299999996 11.667419279999999 28.8106528981453 
Si 2.9963174399999994 9.6096339 28.00148833008295 
Si 3.8241589499999997 10.92063681 31.13700961389316 
Si 2.92281696 8.433593639999998 34.25941673287521 
Si 0.267245595 11.40855489 33.56869161155936 
Si 0.48969694799999997 8.70335604 31.64111536346582 
Si 2.0271764699999997 10.08004023 32.76443627273897 
Si 2.73686661 16.27445934 2.7054213068031854 
Si 0.00498060234 13.566637799999999 2.678211131298467 
Si 1.5015633299999998 12.3199641 1.1023073483011103 
Si 1.35505107 14.93063208 4.068000197586599 
Si -0.0005028413489999999 13.575157469999999 8.14492626652221 
Si 2.71682991 13.57647696 5.429676202152786 
Si 1.3571036099999998 12.21740226 6.787266904063078 
Si 4.07813634 14.928318899999999 12.230812537081253 
Si 1.357359363 14.932668329999998 9.503203573920887 
Si 2.7148914 13.57401717 10.86281976202192 
Si 0.08622166679999999 13.599836819999998 13.678211236872373 
Si 1.3219155809999998 15.265570769999998 14.866485025346794 
Si 2.11862853 15.082438589999999 17.213474236020637 
Si 2.8478178 12.32507916 20.96762706486621 
Si 2.92281696 16.167368879999998 21.342239019329355 
Si 1.535215212 14.310080819999998 21.04353130160723 
Si 0.573383565 14.315554259999999 18.88951256344414 
Si 3.9271769099999996 12.29914548 23.004716888357244 
Si 3.0886817399999997 16.21654839 23.689399881375294 
Si 3.4108816499999994 14.000701139999999 24.552222668354972 
Si -0.00373363542 14.580641429999998 25.28222162360647 
Si 0.35076605399999994 12.621752639999999 29.754838435498666 
Si 2.3440169699999998 15.321608369999998 29.590430751304748 
Si 1.7597109599999998 13.280341049999999 26.07198958662193 
Si 2.1793413599999996 13.2577794 28.436315585877512 
Si 3.0772135799999996 13.74151095 34.048388536019914 
Si 2.0695630499999997 14.894419409999998 32.212027827058385 
Si 0.254699037 13.3548678 32.147315259778054 
Si 6.781070879999999 4.07867391 4.066318014140054 
Si 4.08183417 1.350483354 4.078230619363543 
Si 5.42372292 2.6989272 2.70129824084543 
Si 6.84443898 1.4409580139999998 1.2428074293894413 
Si 5.42997828 0.000979390638 5.4325256149295855 
Si 5.42971764 2.71495656 8.145166578443146 
Si 6.78626739 1.3572713969999999 6.788056500374721 
Si 5.42867508 -0.000839918916 10.861652532691663 
Si 6.80576652 1.358664192 12.244716298221059 
Si 5.680274129999999 0.164493162 16.468884914140947 
Si 4.29871923 1.503104364 15.05365368148069 
Si 5.60460708 2.89351125 13.667603182076816 
Si 5.64956748 1.8925722 19.80486067028531 
Si 7.24083984 1.504669833 17.907220421485377 
Si 5.20657722 3.13046559 23.393953539723 
Si 4.985798849999999 1.021770702 24.48404274335829 
Si 6.73075107 3.0637091699999996 21.496450612020745 
Si 5.94485631 0.46990459799999995 29.48699363447947 
Si 5.82680268 3.1897937699999996 27.207635064411598 
Si 7.405482869999999 1.71343107 28.000389761301534 
Si 4.12588233 1.7357646599999998 26.578086492110906 
Si 5.60586141 1.063984608 31.908960164485013 
Si 7.880026859999999 3.05826831 34.21169765143241 
Si 7.522705709999999 2.61011412 31.828798973716005 
Si 4.079504699999999 6.77867625 4.069751041581982 
Si 7.14427272 7.0375080599999995 1.1938867883419724 
Si 4.07246742 4.07238597 6.78719824351424 
Si 5.430206339999999 5.4317376 5.431427046148168 
Si 6.78801042 6.78713076 6.78716391323982 
Si 6.78955797 4.07401497 9.503031922548791 
Si 4.07424303 6.78898782 9.501384069376666 
Si 5.42466774 5.42909862 10.861858514338177 
Si 6.78193425 6.80278545 12.23472618836505 
Si 6.141704669999999 6.767990009999999 15.383086994808068 
Si 5.852475719999999 4.47790923 15.606542751003138 
Si 4.477404239999999 7.210703339999999 21.2945885984354 
Si 8.02769571 4.85388243 20.463246673098197 
Si 5.466630779999999 7.97724558 19.3222113422247 
Si 7.499476169999999 6.7471551 19.041595679121535 
Si 7.318624589999999 4.298100209999999 17.602745217660814 
Si 6.24785031 7.017992639999999 22.844634818740154 
Si 5.26616604 6.35647203 24.896623981329157 
Si 6.25869945 4.27540824 25.167215204301897 
Si 7.5464565299999995 6.11943624 29.916259385818105 
Si 4.62541518 4.11832377 28.993598930525625 
Si 6.23920032 8.0143542 26.253116114458035 
Si 4.751793 7.95947319 28.11203181371302 
Si 7.137903329999999 5.30983953 33.91539305291963 
Si 6.154280549999999 4.45700916 30.737645531573715 
Si 4.1252796 7.373945429999999 32.526149837994765 
Si 5.15394423 5.26913082 32.67981214629545 
Si 4.2226938 9.69673653 1.3416545885248645 
Si 5.44636602 8.149007339999999 2.681681922042255 
Si 6.7894276499999995 9.4972329 4.071604876400623 
Si 4.07300499 9.50285295 6.787816188453787 
Si 5.4298316699999996 8.14540725 8.144857605973371 
Si 5.4325521 10.86147153 5.430431468190009 
Si 6.78926475 9.50428647 9.50207067486505 
Si 4.06914426 9.51218712 12.233902261778987 
Si 5.42843073 10.859044319999999 10.860691285007924 
Si 8.113169339999999 10.83400659 13.630938448997028 
Si 5.46120621 8.342337059999998 13.779657197781335 
Si 6.53403303 10.00772892 15.138964413412591 
Si 4.77143874 11.817564209999999 15.018602471298607 
Si 7.81318899 10.13220081 17.46902879879773 
Si 4.26623697 11.53340145 19.14389989689098 
Si 7.24344624 10.71119628 21.4351024116335 
Si 6.21843057 10.19260413 19.38963600118416 
Si 7.222741649999999 9.14791014 23.22566653451971 
Si 6.10821243 10.118891879999998 25.066661830527835 
Si 6.559233659999999 8.27634627 29.57807185251381 
Si 8.04664098 10.035079829999999 28.83406614529925 
Si 7.30888317 11.42347653 27.116110552809808 
Si 5.646814469999999 11.06700246 34.22247735760006 
Si 5.327563049999999 9.101467349999998 31.397748048107566 
Si 7.1081740799999995 10.049121809999999 32.52203020506445 
Si 4.06868814 12.21846111 4.0713988947541075 
Si 4.24738944 15.042690989999999 1.234578462611141 
Si 5.42654109 13.5909099 2.7092594314832605 
Si 6.883372079999999 12.30963624 1.430951065316845 
Si 6.78514338 14.93123481 4.071089922284334 
Si 4.073493689999999 14.932733489999999 6.78812516092356 
Si 5.43012489 13.575043439999998 8.14489193624779 
Si 6.787342529999999 12.21769548 6.787816188453787 
Si 4.07398239 12.21727194 9.501761702395278 
Si 6.7887271799999995 14.932309949999999 9.501246748278989 
Si 6.796008809999999 12.223201499999998 12.221337381341531 
Si 5.5177488 13.61633859 13.642816723946098 
Si 6.900378839999999 14.935942619999999 15.114040634184196 
Si 7.60265703 13.35709953 16.956924095285384 
Si 6.756635879999999 14.66155386 21.24003779238317 
Si 4.9902948899999995 15.949571579999999 20.284969558038895 
Si 4.450574609999999 15.033894389999999 17.90467998117835 
Si 5.20284681 12.822592049999999 17.284194601324348 
Si 6.77209509 15.82887897 24.847874991653786 
Si 6.13935891 12.603084299999999 22.259303639891492 
Si 8.071466939999999 15.788414609999998 22.84302129584245 
Si 6.892592219999999 12.399312689999999 24.44198815719468 
Si 5.52581235 13.90993326 25.57457824056103 
Si 5.59727658 12.90410721 27.73738552897546 
Si 6.58467864 14.51973312 29.127521331035226 
Si 6.6028257 13.40269524 31.249406932341873 
Si 4.655763449999999 12.599940329999999 32.613692037763926 
Si 7.730240309999999 14.628126779999999 32.94439557124481 
Si 5.961406949999999 16.069856939999998 33.961258299543786 
Si 12.0063816 1.212554295 1.2703849388304462 
Si 9.50239683 1.3591968749999999 4.076170802898387 
Si 10.84215159 2.7094179599999997 2.6974704152476807 
Si 8.14493484 -0.0001256568246 8.14492626652221 
Si 8.14671045 2.7118940400000002 5.427788037059726 
Si 10.85971221 -1.227387969e-05 5.430019504896979 
Si 10.860510419999999 2.71438641 8.1443769821315 
Si 9.50298327 1.357805709 9.502757280353437 
Si 8.141888609999999 2.7151194599999995 10.861103248300955 
Si 10.571493239999999 0.32755117499999997 16.55519122403101 
Si 8.23821138 0.0512335161 13.695513695179688 
Si 9.26176095 1.77173298 15.264613217787144 
Si 10.809376109999999 2.7697561200000003 13.723527199105817 
Si 10.14656859 1.66887792 20.260904035670983 
Si 9.72944685 3.77150967 19.126116814741792 
Si 9.16338564 0.1051723125 18.778625777069877 
Si 11.75670477 3.84800751 23.548439774609747 
Si 9.7559181 2.61785187 23.826514997405887 
Si 8.58919572 1.67536134 22.05139949800835 
Si 10.290295259999999 0.9804951 25.49352446265712 
Si 8.29595943 0.182172699 26.482648329225317 
Si 11.281997879999999 2.37490281 27.129671011205424 
Si 9.40472199 2.79397935 28.570409637759205 
Si 11.57850846 2.87684658 31.84071157893949 
Si 9.5825925 1.83265758 30.655184212418614 
Si 12.217581449999999 4.073184179999999 4.06700461962844 
Si 9.51516819 4.1386699799999995 1.2692039773904233 
Si 8.15747814 5.44970547 2.7056684847790042 
Si 9.499953329999999 6.78284649 4.0719138488703965 
Si 11.337269849999998 5.1536347199999994 0.08848353589373187 
Si 9.50159862 4.07360772 6.787404225160755 
Si 8.14486968 5.43012489 8.145132248168725 
Si 10.860217200000001 5.430401819999999 5.430637449836525 
Si 10.85839272 5.42944071 10.85986735842186 
Si 9.50290182 6.7865606099999995 9.503787188586017 
Si 9.510590699999998 4.0815246599999995 12.230743876532413 
Si 9.217207799999999 7.31075652 15.069685919634491 
Si 10.67877918 7.623834029999999 16.98469728729058 
Si 8.316598860000001 5.6650592699999995 13.597981385554522 
Si 11.88997326 4.77676557 18.71054884289645 
Si 12.0767544 5.956633979999999 22.470400497295625 
Si 8.379071009999999 5.91214599 22.51846288148261 
Si 8.466059609999999 4.47898437 24.468628450144035 
Si 10.21866813 7.4387633399999995 22.381622407647374 
Si 11.582124839999999 4.3504074 25.858798582478222 
Si 10.609269750000001 7.96813947 29.94451320166517 
Si 10.976136839999999 5.68938024 29.687963060929913 
Si 8.711452170000001 7.77855645 26.169281584326157 
Si 9.55406871 5.57862453 26.216554372201504 
Si 9.08605701 5.069855249999999 28.45907655781749 
Si 10.74014361 5.10395022 32.0482037575296 
Si 8.545750289999999 5.91322113 32.00127427239845 
Si 9.68401404 9.79366203 1.2606797702521169 
Si 10.855411649999999 8.17191108 2.6980643289951347 
Si 8.150538599999999 10.854255059999998 2.7192426752843857 
Si 9.50189184 12.21676695 4.074694601098358 
Si 12.21420942 9.50137056 4.070609298442464 
Si 8.14594482 8.14752495 5.430637449836525 
Si 9.502673759999999 9.50236425 6.787850518728207 
Si 10.86008688 8.14454388 8.144651624326857 
Si 8.14447872 10.860298649999999 8.144685954601275 
Si 10.860168329999999 10.86174846 5.430706110385364 
Si 8.14284972 8.14618917 10.861034587752115 
Si 9.50094702 9.51031377 12.223088225336916 
Si 10.858588199999998 10.86171588 10.861549541868404 
Si 10.369301759999999 11.447211059999999 17.00924343350036 
Si 10.879113599999998 8.221204619999998 13.610786577912913 
Si 11.887660079999998 9.64268631 17.05816407454783 
Si 9.57920418 11.07869868 21.440457934442904 
Si 10.52900892 9.104106329999999 20.59088663338907 
Si 9.215187839999999 8.45306019 18.68888643973789 
Si 10.25058024 10.92637089 23.69149402811487 
Si 9.39121758 8.79444972 24.132672384676997 
Si 12.204077039999998 9.00061596 27.171382294624845 
Si 9.876007979999999 8.83509327 27.889846277671463 
Si 8.377099920000001 8.56383219 34.05213053593161 
Si 10.36055403 11.6866089 34.28581671390363 
Si 9.075387059999999 8.22539115 31.830584147985803 
Si 8.18012124 11.49801957 30.769023402392932 
Si 10.33919784 12.22028559 31.68797618804813 
Si 8.14356648 16.310199599999997 2.703629266478499 
Si 12.2175 14.929524359999998 4.072154160791332 
Si 8.598090059999999 13.28923539 0.28771070091739875 
Si 9.5952987 15.00238953 1.4105073869001659 
Si 10.885401539999998 13.563282059999999 2.7095375067060563 
Si 8.14716657 13.576102289999998 5.430465798464429 
Si 9.502543439999998 14.932472849999998 6.787987839825884 
Si 10.86020091 13.575010859999999 8.14444564268034 
Si 12.20467977 12.222272969999999 12.230091601318447 
Si 9.50345568 12.21932448 9.501452729925505 
Si 8.14286601 13.575434399999999 10.859524055677669 
Si 9.50096331 14.936072939999999 12.224873399606718 
Si 10.8626607 16.28894115 10.862785431747499 
Si 11.87112573 15.052823369999999 14.957082619539264 
Si 9.268276949999999 12.27855492 15.116169111198191 
Si 10.711065959999999 13.49703063 13.63413116451802 
Si 10.16712657 13.272831359999998 20.783033179313758 
Si 8.39915658 14.26389867 19.562626253982895 
Si 11.52662481 13.408315289999999 17.666839840001604 
Si 9.96439752 14.283625859999999 22.905365074187856 
Si 9.190899449999998 12.80569932 24.599220814034965 
Si 12.09558564 15.7597605 25.17528281879043 
Si 12.02970888 12.2929227 29.890443019454807 
Si 9.95630139 15.90265638 29.839771534411955 
Si 9.28031526 12.82343913 26.956783749229945 
Si 11.52157491 12.50785296 27.55512610208352 
Si 8.68015908 14.82012072 28.097029483791797 
Si 9.93240396 14.785748819999998 32.01761548302203 
Si 11.11333122 15.73750836 34.107264956648976 
Si 16.2768051 2.71370223 2.6772567496696107 
Si 13.56929307 0.016316226899999998 2.705242789376205 
Si 12.608492579999998 3.1537114199999996 0.12646964123591722 
Si 14.93120223 1.3563966239999998 4.069716711307563 
Si 14.63104269 3.94037181 1.19466608557129 
Si 13.574913119999998 -0.000299444409 8.144994927071048 
Si 13.576835339999999 2.7152009099999996 5.430122495720236 
Si 12.217092749999999 1.357468506 6.787369894886337 
Si 14.933303639999998 1.358177121 9.501933353767376 
Si 13.5752715 2.71371852 10.863437706961466 
Si 12.21240123 1.366138044 12.242862463402417 
Si 12.52774305 1.7049928499999998 16.61338103917168 
Si 15.889168259999998 0.69875955 15.043869553271195 
Si 12.42887904 3.99074049 15.153863752510556 
Si 12.52070577 1.5336546299999998 20.63259791680849 
Si 13.024913849999999 2.7300248099999997 18.620672184466788 
Si 15.281860769999998 3.47377734 18.38025727270859 
Si 15.421743 3.6401959799999997 22.287454464915296 
Si 13.43174031 2.39839299 22.717544142839994 
Si 13.94352324 0.518557941 24.084781651862105 
Si 15.88880988 0.562801581 25.429361179767493 
Si 15.5238813 1.287027288 27.65983343906231 
Si 13.215034439999998 1.5783446159999999 28.387532265927717 
Si 15.49491768 3.22401906 31.443269991987524 
Si 15.81794838 0.9227568239999999 31.78293372709185 
Si 13.387382639999998 3.0801783599999997 30.206933819326117 
Si 13.572860579999999 5.45480424 2.6948853455839092 
Si 12.345995519999999 7.0292653199999995 1.2540917905910578 
Si 14.934883769999999 6.781543289999999 4.073355720396006 
Si 14.93268462 4.07386836 6.788296812295656 
Si 13.575222629999999 5.42944071 8.14496059679663 
Si 12.2178258 6.78700044 6.7875072159840135 
Si 12.217614029999998 4.07492721 9.502757280353437 
Si 14.9327172 6.78776607 9.502207995962728 
Si 14.94666144 4.05764352 12.232632041625475 
Si 12.204402839999998 6.78079395 12.222676262043883 
Si 14.68680336 6.650034119999999 16.92053400440095 
Si 13.595161589999998 5.42272923 13.572473991660999 
Si 14.435041409999998 7.38068949 14.729610221237136 
Si 12.34482264 5.8686354000000005 16.726911256676228 
Si 14.165507069999999 8.05020849 20.014927619456863 
Si 13.19525838 5.90369148 20.348995519830844 
Si 15.352477919999998 4.82693877 20.301551080583405 
Si 15.59096352 5.437699739999999 23.760978503539487 
Si 13.779922769999999 7.00803945 23.701758780166237 
Si 13.571866889999999 7.482339089999999 25.99224035914595 
Si 13.14739836 5.116688999999999 29.0754766350156 
Si 16.25614938 7.190634059999999 28.84985807153212 
Si 15.58964403 4.81077909 26.033265037076987 
Si 15.87473532 7.09030395 26.574275831650368 
Si 13.441449149999999 5.2805664 26.76772692800299 
Si 14.998398479999999 7.07521941 32.423879950499746 
Si 14.276376809999999 6.88306257 30.096905289812337 
Si 15.47108541 4.74737841 33.3126564249404 
Si 14.93219592 12.217239359999999 4.070437647070368 
Si 15.01685505 9.46945845 1.2347363818734698 
Si 13.588938809999998 10.851290279999999 2.6782591936826536 
Si 13.57509231 10.86002172 8.14496059679663 
Si 13.57602084 8.14589595 5.42902392693882 
Si 14.93312445 9.50187555 6.787541546258432 
Si 12.21642486 9.502250219999999 9.50310058309763 
Si 13.57395201 8.14382712 10.865360202328946 
Si 14.94320796 9.5303016 12.231087179276606 
Si 12.762384209999999 9.13759857 14.861301153909482 
Si 13.61060451 10.977407459999998 13.650094742122985 
Si 15.947356139999998 8.33810166 18.477240297943048 
Si 13.80057849 11.80399464 20.308108162997488 
Si 12.640502429999998 9.802996199999999 19.568290749262076 
Si 14.27142465 10.87359129 22.50232765250555 
Si 12.48784884 11.610550889999999 23.956558076906106 
Si 14.877526679999999 8.541140219999999 22.259612612361263 
Si 12.807800729999999 11.046134969999999 26.23807945426239 
Si 12.80441241 8.626450949999999 29.487439928046918 
Si 15.51653451 10.77546033 28.958582050617963 
Si 15.020341109999999 11.507402609999998 26.801370596933882 
Si 13.603306589999999 10.611615509999998 30.32887495406339 
Si 14.641272809999998 10.34473644 32.56157868119546 
Si 13.71787416 8.432583659999999 33.92033661243601 
Si 13.123957049999998 14.343801119999998 0.043485128698665075 
Si 12.343519439999998 12.28467996 1.1356454777896696 
Si 14.931544319999999 15.00590817 1.3398694142550622 
Si 13.57408233 13.57672131 5.42902392693882 
Si 12.2175 12.217679189999998 6.787884849002626 
Si 14.93281494 14.932049309999998 6.787404225160755 
Si 16.28584605 16.2919548 10.861446551045148 
Si 12.217614029999998 14.932847519999997 9.502448307883665 
Si 14.9323914 12.21702759 9.501178087730151 
Si 13.57678647 13.57654212 10.86134356022189 
Si 14.933303639999998 14.925810239999999 12.236236720439498 
Si 13.40562744 14.04536832 16.3647955221017 
Si 14.271717869999998 16.258544009999998 16.650663717191016 
Si 14.730330239999999 12.58047378 15.023031076698695 
Si 13.46306598 16.190142299999998 13.611301532029202 
Si 13.56906501 15.703576289999999 20.32983922670489 
Si 12.3538473 13.66524117 19.88289338404033 
Si 15.316753949999999 16.07728518 18.73530097075275 
Si 15.706801709999999 12.217809509999999 18.836815592210552 
Si 16.26266538 13.943914199999998 22.9081114961414 
Si 12.240452609999998 14.019581249999998 23.579199700489415 
Si 14.164611119999998 15.00724395 22.51224910181272 
Si 14.738507819999999 13.858456859999999 26.94950573105306 
Si 15.22924407 14.343849989999999 29.2206250352603 
Si 12.220725419999999 15.87437694 29.16082169722192 
Si 12.489543 14.62481991 27.168601542396882 
Si 13.25349513 14.2364826 30.456789556549616 
Si 14.483732219999998 14.57472816 32.43376706953249 
