&CONTROL
  dt          = 30.D0,
  prefix = 'x1.33_y1.66_z3.17_struc45-scf',
  pseudo_dir = './',
  outdir='./',
  wf_collect= .true.,
  verbosity= 'high',
/

&SYSTEM
ibrav= 6, celldm(1) =30.783621515, celldm(3) =2.119710052438847, nat=  432, ntyp= 1,
  ecutwfc     = 12.D0, nbnd= 1728,
  degauss     = 0.05D0,
  occupations = "smearing",
  smearing    = "methfessel-paxton",
/
&ELECTRONS
  electron_maxstep=200,
  conv_thr    = 1.D-8,
  mixing_beta = 0.3D0,
  scf_must_converge=.false.,
/
&IONS
/
ATOMIC_SPECIES
Si  28.08  Si.pbe-hgh.UPF
K_POINTS {automatic}
1 1 1 0 0 0
ATOMIC_POSITIONS (angstrom)
Si 3.26078559 2.44955988 0.20906891042306167 
Si 1.4045808149999999 1.292140719 1.2217017396260188 
Si 4.0674826799999995 1.360128663 4.0737203351568985 
Si 0.000227814021 2.7153801 8.145714166476086 
Si 2.7151357499999995 2.7147610799999997 5.430925001981863 
Si 1.3576232609999999 1.356947226 6.787300946964724 
Si 2.7115193699999995 2.71769328 10.863093086726877 
Si 1.3476374909999997 1.364153922 12.242707773365334 
Si 1.357846434 4.07359143 9.503264134068592 
Si 4.072548869999999 1.3582211039999998 9.50267712276377 
Si 0.336629592 0.830596149 16.064220427909348 
Si 0.00545480424 2.80810278 13.738447108128264 
Si 2.36486817 2.14176033 16.417048752184055 
Si 3.9635687699999997 2.75701734 20.379098819117782 
Si 3.2816205 1.415029221 18.581290372908857 
Si 0.902578401 1.220225256 23.84571134478183 
Si 3.6849446099999996 3.9541042799999997 23.979273681667184 
Si 3.22794495 1.64344923 23.782245063707556 
Si 4.004994239999999 0.22468308299999998 25.459405421737205 
Si 1.4179630499999998 2.89150758 29.673352398593025 
Si 0.683793927 1.230284331 26.245033728049417 
Si 2.58059664 0.29983862699999997 27.309492404152028 
Si 0.36534723299999994 3.23149617 27.486597167824467 
Si 3.37738941 1.96633332 28.829851683640722 
Si 0.396876528 1.2262069439999999 31.08145439855372 
Si 1.3607607149999998 4.06803654 4.069852966560425 
Si 2.71772586 5.428447019999999 2.6927348044712978 
Si 1.427683293 6.8238321299999996 1.2594293014876894 
Si 4.0726140299999996 4.072548869999999 6.786817525890165 
Si 2.7146796299999996 5.430206339999999 8.144781854403721 
Si 1.357574391 6.78770091 6.786990176273936 
Si -0.0019821672 5.42986425 10.863231207033893 
Si 1.356974919 6.79094262 12.255207661150367 
Si 3.91119642 6.97493817 15.026073670293458 
Si 0.30896102699999994 6.24736161 16.737522394540054 
Si 1.425459708 4.19376276 15.328211841892958 
Si 2.74919814 5.4048916799999995 13.710857576801635 
Si 1.87812297 4.14606564 20.328443196519327 
Si 2.24560908 8.11232226 20.106173092452355 
Si 1.95403437 6.08653044 18.83536267766647 
Si 3.7759731299999997 6.1231503599999995 17.323256086522036 
Si 2.16029835 5.14070046 22.572621944930166 
Si 0.366617853 4.94730558 24.17554263793822 
Si 2.52628578 7.4591258400000005 22.355634942606592 
Si 2.29345281 8.11162179 25.985436611011124 
Si 1.3195633049999997 7.859485169999999 29.599941455413536 
Si 3.658734 4.90977342 26.084883232063305 
Si 1.332911331 5.006307959999999 26.384569768213254 
Si 0.7650745109999999 7.0464512699999995 27.427723386958505 
Si 3.7337657399999995 4.189787999999999 33.11745131421331 
Si 2.5876176299999996 4.6776246299999995 30.90314108219488 
Si 0.842440608 6.3133524 31.342467248738938 
Si 3.1351082399999997 7.973710649999999 34.49737677154256 
Si 0.008495723699999999 8.14583079 2.686312210195011 
Si 1.3572632519999999 9.500148809999999 4.06785022210868 
Si 2.7198598499999997 10.874503529999998 2.6921857762509056 
Si 1.3009878179999999 12.17444553 1.2521089252157926 
Si 2.71710684 8.14644981 5.429785509448973 
Si 0.000178038297 10.862123129999999 5.429992689909498 
Si 2.71490769 10.860347519999998 8.144919974710739 
Si 1.3573952009999999 12.2181516 6.787680777809021 
Si 1.3563575279999998 9.50037687 9.502055581382193 
Si 2.7110469599999996 8.14550499 10.862471545345302 
Si 1.379943819 12.22619886 12.2375282618522 
Si 3.21606954 8.402903279999999 17.011104192663808 
Si 0.8122731569999999 8.79734934 16.969495450174964 
Si 0.707942223 10.133813519999999 14.926765169548295 
Si 2.7626048099999996 10.890989009999998 13.763930304772884 
Si 0.532692774 9.660393540000001 19.361462927093903 
Si 0.796421358 12.05393211 19.317471609309013 
Si 1.029868461 8.282862269999999 23.9704339820181 
Si 0.6228400049999999 10.581479009999999 23.954377496327385 
Si 2.40028263 11.71762506 22.961465139259534 
Si 0.837910359 11.13366114 26.280703297336533 
Si 3.35342682 9.03190905 29.14165827673141 
Si 2.85689133 10.100777399999998 27.023203537782717 
Si 0.48875701499999996 10.588206779999998 34.18059784739926 
Si 1.10162754 11.67082389 30.555285088972784 
Si 3.27099942 10.74107214 30.825517469651377 
Si 2.84343579 10.07774334 33.2034657354081 
Si 2.7198435599999997 16.282848689999998 2.712299545960244 
Si 4.07067552 12.22000866 4.069611256023146 
Si 3.9517911 14.83988049 1.307022106278043 
Si 2.19352995 13.94935506 0.02742344165744098 
Si 1.360190565 14.931479159999999 4.070267327481476 
Si 2.7146470499999995 16.290488699999997 8.144540143866442 
Si 0.000394737651 13.574913119999998 8.144643734096706 
Si 2.71438641 13.575727619999999 5.429647389141956 
Si 4.091771069999999 14.896390499999999 12.22723829897944 
Si 1.358623467 14.932472849999998 9.502297291919474 
Si 2.71748151 13.572730259999998 10.857222973678658 
Si 2.69197137 16.19361207 13.55388384787691 
Si 1.393878285 14.656878629999998 17.125813107641356 
Si 1.072320201 15.175682549999998 14.875626125875282 
Si 1.91319534 12.41032473 17.265141967344668 
Si 2.67779907 12.22821882 20.678370994346682 
Si 0.14101405919999999 15.735260339999998 20.570326384182696 
Si 3.75184764 14.30982018 20.31476928612465 
Si 2.1495958199999996 15.798204899999998 19.336014260526035 
Si 0.264396474 15.39334953 22.901348275630422 
Si 1.70276112 13.78485864 24.021089604616556 
Si 3.8892537899999997 14.427808649999998 24.405927310042436 
Si 0.9880927559999999 13.45573548 26.281773729715916 
Si 0.940592745 14.000261309999999 30.033362978832617 
Si 2.25201105 14.386301729999998 28.077337720935816 
Si 0.6189190019999999 15.69805398 34.356321408001534 
Si 1.50641775 15.57775233 31.91594276347317 
Si 3.92953896 15.911110889999998 32.20015982523723 
Si 5.44876065 2.7043191899999997 2.716643429615926 
Si 6.60688191 1.2647686319999998 1.2154794197949068 
Si 8.14284972 2.7179865 5.4307868816748455 
Si 5.42900088 -0.000170158824 5.430441580907303 
Si 5.430255209999999 2.7151357499999995 8.144816384480476 
Si 6.787896389999999 1.3577600969999999 6.7879224883463 
Si 4.072923540000001 4.07712636 12.2326249909531 
Si 6.77867625 1.3637629619999998 12.239634596534207 
Si 5.6911884299999995 0.0592931565 16.51929230945333 
Si 6.69867606 3.8640368699999996 15.346616372802963 
Si 7.29186012 1.92194307 16.69190816314772 
Si 4.07709378 1.1609622359999998 14.959499682311304 
Si 5.3421914699999995 2.7084405599999997 13.670043026078138 
Si 7.61575419 2.8539102599999997 18.916819128729696 
Si 7.42125159 3.52784385 25.118041082944895 
Si 5.898299489999999 3.50917551 23.35220748781039 
Si 5.03123166 1.599723612 22.23837080194923 
Si 6.67984482 0.446502384 29.85670710615798 
Si 6.1360031699999995 0.35876770199999997 26.366096177149743 
Si 6.56271972 2.56218894 27.051380080414166 
Si 4.67943282 3.7621754999999997 27.912663784894896 
Si 7.94585475 2.1292821899999996 28.850845970307297 
Si 4.71613419 1.352195433 30.713709081121184 
Si 5.6092986 2.94673068 32.370565754019346 
Si 7.664396129999999 2.8953031499999997 34.43349612954724 
Si 4.641672600000001 0.41500078199999996 34.46923475898787 
Si 4.3233171299999995 4.27472406 1.3874150309772384 
Si 6.78908556 4.06963296 4.076413681143729 
Si 4.06772703 6.78952539 4.071061519246824 
Si 6.71595975 6.701103269999999 1.3254577142571256 
Si 8.115124139999999 5.43089052 2.7348822161575095 
Si 8.14486968 5.42981538 8.14460920401995 
Si 5.4307602 5.42789316 5.429163968067397 
Si 6.78773349 6.787391399999999 6.787611717655512 
Si 6.78571353 4.06935603 9.50267712276377 
Si 4.07162034 6.786674639999999 9.503609434836134 
Si 5.43079278 5.4305321399999995 10.857637334599708 
Si 6.78602304 6.77030319 12.24291495382586 
Si 7.9927047899999994 5.2328204099999995 13.712135189641542 
Si 7.511563349999999 5.866599149999999 16.824745368421237 
Si 5.86324341 4.12197273 19.929586279931225 
Si 5.83261821 5.95752993 18.504460952130696 
Si 6.32995191 7.80110181 19.865222216861344 
Si 6.5182806 7.3618093799999995 22.1630261744715 
Si 4.582621349999999 8.10228762 23.31325756123162 
Si 6.7969699199999996 5.04085905 21.866999826457498 
Si 4.37772573 7.10742474 25.515758507000104 
Si 8.0151687 5.77891008 25.672973946462108 
Si 4.7173070699999995 5.312820599999999 29.808572179162585 
Si 5.3015805 7.547808599999999 29.095077203189955 
Si 6.315567839999999 7.4552814 26.852590428540072 
Si 4.98364857 6.32455992 34.13035658572186 
Si 6.4145784599999995 4.87031904 31.35434559514239 
Si 8.11900116 10.851078509999999 2.7041469948385704 
Si 4.26143142 9.60741846 1.4007229225583182 
Si 5.4524259 8.137767239999999 2.729937509166304 
Si 6.79105665 9.500914439999999 4.073098793775323 
Si 6.74089974 11.938224239999998 1.04888906449413 
Si 4.07228823 9.502445699999999 6.7878534281927925 
Si 5.43002715 8.1448371 8.145023564941003 
Si 5.42904975 10.85738274 5.430199870370024 
Si 6.7874728499999994 9.501484589999999 9.504714397292268 
Si 4.04475813 9.51878457 12.228446851665838 
Si 5.427094949999999 10.86367068 10.861297522735656 
Si 6.7969699199999996 12.213899909999999 12.215083711961952 
Si 4.788689849999999 11.72756196 15.261154432836246 
Si 8.09539695 10.80356058 13.562827137756257 
Si 5.37486921 8.143273259999999 13.533442042438407 
Si 7.09333389 10.91493531 15.746889022537983 
Si 6.67942128 11.660170229999999 20.21532266507247 
Si 4.31536761 8.86050567 19.20649194262092 
Si 4.438813229999999 11.16005094 19.492470038299444 
Si 8.13579615 11.943599939999999 23.920572551184993 
Si 4.4729244900000005 10.536127650000001 23.487289148072932 
Si 6.17926941 11.950115939999998 22.49779526860375 
Si 4.74783453 10.7786043 25.796349910704965 
Si 6.79126842 9.75915981 26.451558117116456 
Si 7.9002753299999995 11.155212809999998 28.102475616812892 
Si 5.51968731 10.345697549999999 34.100315418945684 
Si 6.9065853299999995 8.53596 30.646996972832014 
Si 6.64148187 8.37670896 33.094868644016046 
Si 7.0752356999999995 10.944713429999998 30.266302876616642 
Si 5.44113693 13.55103198 2.670531965118329 
Si 6.78858057 14.93626842 4.068057402569205 
Si 8.12600586 16.27304211 2.67695110638694 
Si 4.071082769999999 14.933303639999998 6.787957018423055 
Si 5.4304995599999994 13.57457103 8.145576046169069 
Si 6.78791268 12.217109039999999 6.787611717655512 
Si 4.07238597 12.218640299999999 9.502435412226491 
Si 6.786918989999999 14.93283123 9.503264134068592 
Si 5.42919636 16.290325799999998 10.864888650718097 
Si 5.5195407 13.515031079999998 13.712238779871806 
Si 6.91471404 14.81994153 15.123206776203101 
Si 8.09015157 16.211172689999998 13.624946745837114 
Si 4.26584601 12.4763481 17.503019666104553 
Si 7.452186299999999 13.922932679999999 19.60510714867174 
Si 5.37767109 14.46100767 18.53243031430162 
Si 6.502137209999999 15.985311839999998 22.51585449874621 
Si 7.46819937 15.720990299999999 24.675469089185945 
Si 5.05600875 14.13690183 22.362264717343404 
Si 7.29347283 13.51524285 25.4585766998951 
Si 5.01244929 13.05263943 25.994828791888274 
Si 7.97631705 13.59105651 27.685524940005582 
Si 6.20168445 15.14403108 28.21210861050757 
Si 4.4765245799999995 13.554289979999998 28.26690784231653 
Si 7.73191818 15.637634369999999 31.662837300864673 
Si 5.6212228799999995 14.234250869999999 31.71622079952671 
Si 5.05144755 12.27475935 30.283636975147264 
Si 9.503292779999999 1.3570189019999999 4.06874800410429 
Si 10.85857191 2.71533123 2.6966781392366306 
Si 9.353375909999999 4.032589499999999 1.360636956454334 
Si 8.14527693 0.000304075656 8.145230745401527 
Si 10.85994027 2.71461447 8.145576046169069 
Si 9.4885992 4.04946594 12.248474296183291 
Si 12.193716599999998 1.349326764 12.236941250547378 
Si 9.50198958 1.356075711 9.502918833301049 
Si 8.14690593 2.7169113599999997 10.861470173119429 
Si 9.20064087 1.0562045039999999 15.429108726168815 
Si 10.63893384 2.4715025099999997 13.72328840443316 
Si 8.9886591 1.4189762879999999 20.2368003728136 
Si 10.92145131 0.8649745649999999 18.880044596986444 
Si 11.549105009999998 2.9556901799999995 17.953291866979693 
Si 9.81907443 2.72590344 22.094794742805146 
Si 9.71711532 0.025841804399999998 24.38106565477939 
Si 9.42855426 2.39510241 24.39435973432977 
Si 12.12296913 2.6104724999999998 21.66530964813605 
Si 10.89530586 3.3635917799999997 26.032880936471436 
Si 11.51957124 1.520712225 27.312876351673943 
Si 9.90446661 0.8650478699999999 28.790107565296605 
Si 8.22032496 3.8240937899999996 30.418718635409807 
Si 9.62957286 3.0380198399999996 32.07664574068735 
Si 8.78443137 1.154785068 33.27597889659198 
Si 11.08329246 2.03843286 30.536535257295235 
Si 8.49982878 7.699110119999999 0.04574958929321284 
Si 12.128670629999998 6.813683459999999 1.315644266443574 
Si 9.50110992 6.7889389499999995 4.07054356809551 
Si 10.246686930000001 5.867983799999999 0.10455396470489697 
Si 9.50290182 4.07186469 6.787784368039284 
Si 10.86026607 5.43015747 5.43033799067704 
Si 9.50031171 6.788499119999999 9.503402254375608 
Si 10.860542999999998 5.4307764899999995 10.867754647088697 
Si 12.230320229999998 6.7974912 12.228205141128559 
Si 9.383610149999999 6.814791179999999 14.810916762037857 
Si 10.816022429999999 5.498982719999999 16.158556597601898 
Si 12.06689895 4.07797344 14.792719411588378 
Si 9.373412609999999 4.67021268 17.903637616607117 
Si 11.28411558 7.735420529999999 19.990290154865164 
Si 10.26385659 5.6229007499999994 19.870090957683693 
Si 12.21481215 4.15696365 19.863737423560913 
Si 8.382329010000001 7.61669901 18.63577883402703 
Si 9.59433759 6.19016742 23.805103974518854 
Si 11.956224689999999 6.1631097299999995 24.485208366270143 
Si 9.14051448 4.9363587 21.84389920510892 
Si 11.30146443 7.02647973 26.55860135505457 
Si 9.03568833 7.735892939999999 29.81996710449148 
Si 11.64814821 4.3843394700000005 30.158361856682923 
Si 9.59241537 5.39026326 29.348458906412485 
Si 9.82231614 5.251065209999999 27.055523689624675 
Si 10.801198529999999 7.57660932 31.646711755020448 
Si 11.048366699999999 5.19532083 32.40609720299945 
Si 12.22061139 9.50138685 4.071406820014365 
Si 9.41992056 9.40846869 1.4173836845922336 
Si 12.100505219999999 12.13720659 1.3189487947889533 
Si 10.86191136 8.15518125 2.734471308244134 
Si 10.441824839999999 10.97818938 0.0708218780244584 
Si 9.505329029999999 12.21785838 4.072373662163484 
Si 8.14395744 8.14599369 5.431408423056421 
Si 9.50296698 9.502168769999999 6.787784368039284 
Si 10.860380099999999 8.14477194 8.14526527547828 
Si 8.14501629 10.86000543 8.145196215324773 
Si 10.85998914 10.858343849999999 5.429612859065202 
Si 8.14930056 8.14364793 10.860365210663293 
Si 12.221018639999999 12.226606109999999 12.235111156479404 
Si 9.47413368 9.50721867 12.194538316293185 
Si 10.856405339999998 10.86417567 10.859536488821192 
Si 9.502250219999999 12.217939829999999 9.501399509923862 
Si 11.589878879999999 9.94403502 15.006805887464598 
Si 10.85171382 8.220634469999998 13.519353771122683 
Si 9.89677773 11.850681779999999 14.701974369878267 
Si 8.88845931 8.649077759999999 16.551336220681254 
Si 11.04940926 11.232557729999998 21.515794415790236 
Si 9.8091864 9.201781169999999 21.183304306723766 
Si 10.33344747 11.71475802 19.20818391638188 
Si 11.69468874 8.66224008 17.755779827945506 
Si 8.389969019999999 10.096623450000001 19.529279100119453 
Si 8.45696979 9.73884618 24.788209789788503 
Si 8.61973947 8.18671869 22.995511794939205 
Si 9.74226708 9.67969719 28.502333905626863 
Si 11.73280734 10.38120975 29.62041779092879 
Si 12.07405026 10.56057894 25.963613602502452 
Si 10.26799425 9.14417973 26.293375835505337 
Si 8.794221659999998 12.13868898 31.689874350963233 
Si 11.05652799 11.24438427 31.828961500129267 
Si 11.601363329999998 9.31911804 33.15305182334693 
Si 9.36551196 14.68994733 1.2664803431609026 
Si 10.85863707 13.5752715 2.7096752601269225 
Si 8.14355019 13.57317009 5.4288531973766085 
Si 9.502869239999999 14.932033019999999 6.787300946964724 
Si 10.86002172 13.574945699999999 8.144747324326968 
Si 10.85943528 16.28846874 5.4311667125191425 
Si 8.14789962 13.57237188 10.859743669281716 
Si 9.49640211 14.93788113 12.224406832685593 
Si 10.86187878 16.2906516 10.860468800893557 
Si 10.93190949 13.66962318 13.62467050522308 
Si 10.562501159999998 15.795272699999998 16.871844393114007 
Si 8.314090199999999 13.01008995 16.17302469976192 
Si 8.307688229999998 15.591533669999999 21.0806809186102 
Si 9.3972123 13.695312509999999 18.142965578590676 
Si 10.23746679 15.007814100000001 22.40822424950328 
Si 10.23324768 12.77101791 23.208389718129023 
Si 11.64251187 12.72986937 25.188689619984046 
Si 11.58523623 16.1160228 25.75515552913717 
Si 11.66398209 14.203853729999999 27.1149499517187 
Si 9.856525139999999 14.745007529999999 28.537071162841617 
Si 8.6905521 12.728696489999999 34.1780771517962 
Si 11.27619864 15.222548879999998 32.34076629778045 
Si 9.545239529999998 14.250329099999998 30.847789369157855 
Si 10.51592805 16.24701069 34.40031272578642 
Si 16.28579718 2.72318301 2.6702971605964 
Si 12.22196346 1.412268066 1.1994954472653745 
Si 14.93200044 1.357880643 4.066883379959561 
Si 13.574717639999998 0.000232244901 8.145437925862051 
Si 13.574945699999999 2.7157547699999998 5.429060377837134 
Si 12.2179887 1.3577324039999998 6.786817525890165 
Si 14.932179629999998 1.3555756079999999 9.502953363377804 
Si 13.574652480000001 2.71655298 10.865095831178621 
Si 13.44524472 3.2087553300000002 16.520431801986216 
Si 14.536756169999999 1.69297083 14.978456694449376 
Si 14.800149179999998 0.6409105019999999 17.55861308967886 
Si 15.87605481 3.4421258699999995 20.73334287653941 
Si 12.76104843 0.7321703399999999 20.4106938393479 
Si 15.05168307 1.294375707 19.88614744337441 
Si 15.79548447 3.01081554 23.089191893173428 
Si 13.5303111 2.60227863 23.583282761449688 
Si 13.50157554 0.453199203 24.542770004219445 
Si 14.89181301 0.18022604399999997 26.41730428097626 
Si 14.53566474 0.534538431 30.220308814380008 
Si 14.327706599999999 3.58726977 27.319816897101543 
Si 13.754787299999998 1.4048105039999998 28.06677151744902 
Si 13.66924851 2.70956457 34.105046039461016 
Si 12.628610729999998 0.7747947539999999 31.76635847097385 
Si 14.930143379999999 6.78851541 4.0667107295757905 
Si 12.218770619999999 4.07502495 4.068886124411306 
Si 14.97810114 4.13857224 1.1457079467053122 
Si 13.574603609999999 5.42556369 2.6809911253671843 
Si 14.932244789999999 4.07235339 6.786817525890165 
Si 13.572844289999999 8.1448371 5.430096280139761 
Si 16.290325799999998 5.42991312 5.4287496071463455 
Si 13.57540182 5.43038553 8.145437925862051 
Si 12.21785838 6.787928969999999 6.787300946964724 
Si 13.57597197 8.14501629 10.85487492845937 
Si 12.21694614 4.07166921 9.502642592687017 
Si 14.933287349999999 6.78833622 9.502090111458948 
Si 14.94631935 4.07085471 12.217259106797469 
Si 12.73765599 6.92116488 16.566633044683375 
Si 13.63982877 5.446936169999999 13.606335034466584 
Si 14.840727569999999 6.84461817 15.139953863428904 
Si 13.54034574 7.374010589999999 20.840731415245063 
Si 14.325735509999998 5.216791049999999 19.89212114665289 
Si 14.372797319999998 5.32730241 17.42107979396677 
Si 13.43589426 7.5162059999999995 23.248893498161735 
Si 15.4139238 6.95964186 24.386003455755244 
Si 12.975734339999999 4.1045098499999995 25.281817236990204 
Si 13.639258619999998 5.0454854099999995 29.017419060569694 
Si 14.94270297 7.92119169 26.62441568134813 
Si 13.14588339 7.14223647 28.068498021286732 
Si 16.230541499999998 5.69421837 34.33159787304551 
Si 13.34263401 4.678194779999999 32.68275217795433 
Si 15.082161659999999 5.210519399999999 30.917919955045694 
Si 14.79136887 7.013692079999999 32.771321824828924 
Si 15.096480569999999 9.52437204 1.1448654128325089 
Si 13.588303499999999 10.85168124 2.6833322645711215 
Si 14.932033019999999 9.50242941 6.786921116120428 
Si 13.57512489 10.86008688 8.144816384480476 
Si 16.2901629 8.14462533 8.144954504787494 
Si 12.219194159999999 9.501354269999998 9.501951991151932 
Si 14.900935409999999 9.50037687 12.218053298562815 
Si 16.2908145 10.858294979999998 10.866856865093089 
Si 15.179054579999999 11.85379317 14.855667741511338 
Si 13.472774819999998 10.77966315 13.652812517777777 
Si 16.17570936 8.19905022 13.656403645760216 
Si 13.51196856 11.136479309999999 21.476395598213664 
Si 14.558112359999999 9.41835672 20.114253130412845 
Si 13.556733479999998 10.08178326 18.022282960334646 
Si 14.691283109999999 11.24980884 23.562115824399346 
Si 13.64351031 9.44372025 24.62871536526072 
Si 15.346320299999999 10.11491712 27.489601284502086 
Si 12.56058369 8.256733109999999 30.13146292689138 
Si 16.26022188 9.78445818 29.5988364929574 
Si 13.26960594 11.1754287 27.951579181396912 
Si 14.525646389999999 9.308887919999998 31.15258635666743 
Si 15.659169749999998 11.27393433 32.19684493786882 
Si 13.442019299999998 8.325623519999999 34.3918873870584 
Si 13.66854804 13.37672898 0.0664175667344565 
Si 12.218933519999998 14.93139771 4.068022872492451 
Si 14.92911711 12.22167024 4.070474507942001 
Si 15.038911709999999 14.94830673 1.2304620200985668 
Si 13.58485002 16.2917919 2.6783357624647843 
Si 16.2820179 13.563901079999999 2.701336246590776 
Si 16.290488699999997 16.28899002 5.429750979372218 
Si 13.575434399999999 13.574114909999999 5.431960904284489 
Si 12.217043879999999 12.217516289999999 6.787266416887971 
Si 14.932179629999998 14.93312445 6.787300946964724 
Si 16.28915292 16.293257999999998 10.863818218338714 
Si 12.21582213 14.93032257 9.50267712276377 
Si 14.93144658 12.2194548 9.503056953608066 
Si 13.57253478 13.57219269 10.860641451277326 
Si 14.915107710000001 14.942540069999998 12.230518656271093 
Si 12.25954449 14.874561899999998 15.292300562068561 
Si 13.74364494 13.24015362 16.34277455708571 
Si 13.47300288 16.26732432 13.684683778621931 
Si 16.22617578 13.555446569999999 13.579884995672845 
Si 12.47550102 12.24639846 18.20408381444566 
Si 15.29881866 14.636255489999998 17.41130778224532 
Si 12.502640159999999 14.96391255 21.470870785932984 
Si 13.36097655 13.133421539999999 20.199231649305002 
Si 15.46665453 13.837182119999998 19.542918480437375 
Si 14.181715619999999 15.00950826 23.160116670826614 
Si 13.90703364 13.21092936 24.604509781456006 
Si 15.043733549999999 14.11978104 26.465335617741395 
Si 14.86988667 14.44115016 30.07203666479735 
Si 13.66594164 13.490547209999999 28.22453943813909 
Si 14.60455515 13.362784739999999 32.29418522423899 
Si 12.27555756 13.17212658 32.618249994577425 
