&CONTROL
  dt          = 30.D0,
  prefix = 'x1.33_y.66_z3.18_struc7-scf',
  pseudo_dir = './',
  outdir='./',
  wf_collect= .true.,
  verbosity= 'high',
/

&SYSTEM
ibrav= 6, celldm(1) =30.783621515, celldm(3) =2.1265850812889053, nat=  432, ntyp= 1,
  ecutwfc     = 12.D0, nbnd= 1728,
  degauss     = 0.05D0,
  occupations = "smearing",
  smearing    = "methfessel-paxton",
/
&ELECTRONS
  electron_maxstep=200,
  conv_thr    = 1.D-8,
  mixing_beta = 0.3D0,
  scf_must_converge=.false.,
/
ATOMIC_SPECIES
Si  28.08  Si.pbe-hgh.UPF
K_POINTS {automatic}
1 1 1 0 0 0
ATOMIC_POSITIONS (angstrom)
Si 0.0028782800999999996 2.71901277 2.7345272996617407 
Si 2.71528236 0.016259423670000002 2.6880133909646875 
Si 1.3623620220000001 1.4767080479999999 1.2973732716404294 
Si 0.00042370127099999996 0.000771052941 5.4307335404118255 
Si -0.00042797413799999996 2.7150705900000003 8.144628022601337 
Si 2.7150380100000002 0.00014478112169999998 8.145286221949846 
Si 2.71386513 2.71580364 5.430837466624748 
Si 1.3575043439999999 1.3578187409999998 6.7878020287549905 
Si 2.71951776 2.7092224799999998 10.86524306655984 
Si 1.3531353659999998 1.340378667 12.22012910443163 
Si 1.3573479599999998 4.0726140299999996 9.503393972422236 
Si 2.79163359 3.6111997799999997 17.061116028578738 
Si 0.289654119 2.94640488 13.564068247875573 
Si 2.31625881 3.64500153 14.703965593281502 
Si 3.61903527 1.5624602369999998 14.558295684835006 
Si 3.19200921 0.9203882579999999 19.732262195186088 
Si 1.436167125 2.598255 19.951823641020543 
Si 0.56350368 3.30726096 17.822583390662547 
Si 3.60134433 1.408884633 17.405943203055887 
Si 0.519424569 1.2875273909999998 23.107889517124693 
Si 1.9127880899999998 2.84794812 24.197244080979274 
Si 3.54644703 4.047543719999999 22.931249597227268 
Si 3.0320739899999998 1.88090856 26.115375550820517 
Si 3.7624361399999997 2.6690024699999997 30.18969880223769 
Si 0.301161375 2.60258814 28.126139918446768 
Si 0.1457876808 0.242548326 28.20682130174567 
Si 2.65406454 3.19873698 28.089800385994835 
Si 2.2544056799999996 3.28054536 34.49304078486527 
Si 3.15809343 0.428710446 30.871281548655002 
Si 1.0770280110000001 0.45178523099999995 32.6048747064167 
Si 2.7401571899999997 3.82086837 32.02940062339336 
Si 3.9787999199999997 4.17949272 1.2540083271949307 
Si 4.06971441 6.787407689999999 4.070997612603648 
Si 1.358454051 4.070985029999999 4.078341731650178 
Si 0.46240468199999996 4.99560543 0.1220048705018926 
Si 2.7137510999999996 5.4266551199999995 2.7456508686515555 
Si 1.3555821239999999 6.72571746 1.421225603787376 
Si 3.0954583799999997 7.71728976 0.23920038229043755 
Si 0.0026431991099999997 5.42890314 5.430317835560135 
Si 2.715543 5.42981538 8.144766590885231 
Si 1.357647696 6.787375109999999 6.78804452325181 
Si 2.7141746399999995 8.143419869999999 5.430629614198903 
Si -0.00418486842 5.429294099999999 10.858868925500587 
Si 1.3435340399999998 6.8009121 12.232704176195263 
Si 3.79825785 7.1473678199999995 15.157776723043472 
Si 2.88087021 5.59859607 13.5230866779131 
Si 1.5794360459999999 7.89525801 18.182826286723216 
Si 0.7052348249999999 6.1387236 21.330716634077454 
Si 2.47256136 4.51547397 20.824699903357367 
Si 3.7500883199999997 7.36526286 19.057503936750695 
Si 3.8324016899999997 4.96752147 18.88325431975049 
Si 1.83358611 7.87647564 22.525764156474303 
Si 2.78010027 7.40375613 24.66508524948579 
Si 0.299160963 4.48830225 24.779508009913563 
Si 1.405341558 6.1146144 26.040860456155023 
Si 1.6693503299999999 6.4954094399999995 29.72674216573853 
Si 2.79417483 5.56210647 27.874084210038514 
Si 0.6602418449999999 4.8131248499999995 31.019584254495534 
Si 3.91895046 5.899977359999999 32.38822319454408 
Si 1.9716275699999999 7.602885089999999 32.72283095808385 
Si -0.00596554461 8.150831819999999 2.6947235601123896 
Si 1.357958835 9.50301585 4.071274749171442 
Si 2.6843313600000003 10.866325949999998 2.70602726787127 
Si 1.2747446279999999 12.18578337 1.219463254019462 
Si -0.000265010607 8.14514661 8.145078369524 
Si -0.000576804465 10.85982624 5.430421761773059 
Si 2.71536381 10.859598179999999 8.144801232956207 
Si 4.081606109999999 9.496255499999998 12.218015938102203 
Si 1.3579995599999999 9.50285295 9.502216142009113 
Si 2.71904535 8.14366422 10.859527124849096 
Si -0.0016509752099999999 10.8595656 10.863545605082104 
Si 1.3495874039999998 12.211456409999998 12.232669534124287 
Si 2.7893204099999998 10.630283849999998 16.922790239178774 
Si 0.247782303 8.159009399999999 13.93314487203466 
Si 2.17961829 9.03852279 15.16650652492897 
Si 2.67478542 10.73989926 13.568537075031246 
Si 3.77059743 8.35075899 21.23229851043976 
Si 3.3810546599999998 10.71147321 20.864469000835747 
Si 1.135566126 11.43258264 20.265646161975788 
Si 0.904098258 10.14348978 18.25793029659527 
Si 3.5765835299999997 12.03526377 22.756445707091476 
Si 0.557546427 9.656940059999998 23.42649264387438 
Si 2.17777752 11.04616755 24.37464612643813 
Si 3.09466017 9.48459186 25.853412210113646 
Si 3.20302125 10.05547491 29.99438680608517 
Si 0.763828326 11.85595974 27.74809099790536 
Si 1.9677505499999999 9.781656299999998 27.96238684895174 
Si 0.377440929 8.254159289999999 28.777410852761655 
Si 1.9934398799999997 9.82588365 31.980174240539025 
Si -0.0039018459599999998 13.58791254 2.685051493896394 
Si 1.356127839 14.92955694 4.067775900003048 
Si -0.000733985046 13.57505973 8.145043727453025 
Si 2.71580364 13.575727619999999 5.430387119702084 
Si 1.357484796 12.217597739999999 6.787386323903299 
Si -0.0019674410399999997 16.2927693 10.860323892481503 
Si 1.35778779 14.933727179999998 9.503740393131977 
Si 2.71899648 13.57455474 10.861605649107547 
Si 2.43528984 16.016246549999998 13.64693208164585 
Si 3.05354421 13.046237459999999 16.505491852223603 
Si 1.220437026 14.32378071 15.543689393696019 
Si 2.8932994799999996 14.87003328 20.0313618359773 
Si 0.809663499 13.76907363 19.65972169856612 
Si 0.7831270889999999 15.250209299999998 22.829852255485797 
Si 4.06153683 15.26346936 24.127994581101852 
Si 2.8833462899999995 14.30330418 22.336999511735907 
Si 1.455759108 12.78737307 25.72135663556001 
Si 3.66577128 12.333321899999998 29.777007810722093 
Si 1.607632407 13.33919682 29.38402815759081 
Si 3.5308249199999997 13.903531289999998 26.029428572733536 
Si 3.5213441399999996 16.0018299 27.07870226047097 
Si 2.18362563 15.61922667 28.987722865646003 
Si 2.88712557 13.35612213 34.61058133168072 
Si 0.210429333 13.1421204 31.257263503449497 
Si 1.84575474 14.33306601 32.71344295684984 
Si 6.790730849999999 4.07269548 4.0709629705326735 
Si 4.07165292 1.359027459 4.069577287693706 
Si 5.42077443 2.7157221899999997 2.671797437541666 
Si 6.70146165 1.2377940209999998 1.150743777827949 
Si 5.43056472 2.71495656 8.144558738459388 
Si 6.788043 1.3571052389999998 6.7878713128969395 
Si 4.07373804 1.358496405 9.50145401644768 
Si 6.7652207099999995 1.375941366 12.180325364882277 
Si 5.502126689999999 2.7387236699999997 13.58616988915711 
Si 8.134330049999999 0.1018209708 13.472959601213438 
Si 5.079450059999999 0.325889595 16.01236197190592 
Si 7.292625749999999 3.66173136 14.890720997903394 
Si 6.85084095 0.9997466219999999 17.318402689704094 
Si 5.3093508300000005 1.2847613489999998 20.865127200184258 
Si 6.9307434 2.0641384799999996 19.379709838881695 
Si 7.64722647 3.1993071299999998 23.27638855034319 
Si 5.213761109999999 1.78585641 25.230339921571755 
Si 5.391028889999999 2.58260031 22.912750731327048 
Si 6.41250963 3.3843452399999996 26.515560754714432 
Si 5.923988819999999 0.00958602969 26.663898102625943 
Si 7.47518778 2.76276771 28.583484539448104 
Si 7.50493332 0.428238036 28.385782240398367 
Si 7.71618204 2.97535221 32.08108659328686 
Si 6.07656096 3.47258817 30.346523457537874 
Si 4.744853459999999 5.993172449999999 0.007189650052055667 
Si 6.6524613299999995 6.73935219 1.271364004753003 
Si 4.0720113 4.072548869999999 6.787732744613042 
Si 5.429489579999999 5.42901717 5.430213909347213 
Si 6.78757059 6.787440269999999 6.787559534258171 
Si 6.78926475 4.0735588499999995 9.501627226802553 
Si 4.07245113 6.78833622 9.501315448163783 
Si 4.09838481 4.08074274 12.217219170469797 
Si 5.42957103 5.42900088 10.86021996626858 
Si 6.783253739999999 6.81159834 12.252276946295684 
Si 6.03278973 6.989517719999999 16.193713213455837 
Si 6.89765841 4.84156719 16.908309853511557 
Si 6.99438843 5.97844629 20.7102771429296 
Si 7.853930279999999 7.927072379999999 19.652966494726154 
Si 6.09739587 4.3069131 19.156095270743258 
Si 5.62692438 7.20697293 22.33686094345201 
Si 4.501236509999999 5.95280583 24.004253103582027 
Si 7.8389109 7.04724948 25.425825128079143 
Si 5.96391561 5.62438314 25.826495320966696 
Si 6.299245259999999 5.75693487 29.65257349178278 
Si 4.99122342 6.492737879999999 27.768841598418906 
Si 5.77620594 7.146813959999999 31.4985108857138 
Si 8.14193748 10.87435692 2.6823667333958934 
Si 4.08496185 9.61470009 1.320368678353101 
Si 5.4332037 8.168148089999999 2.7052131792033762 
Si 6.78828735 9.49856868 4.0697504980485775 
Si 4.78464993 11.57161779 0.13333040276548658 
Si 4.07248371 12.21943851 4.069126940771041 
Si 4.0723370999999995 9.50239683 6.787420965974274 
Si 5.42937555 8.1453258 8.145078369524 
Si 5.4304995599999994 10.86000543 5.430802824553774 
Si 6.78703302 9.502543439999998 9.501904363370345 
Si 5.4305321399999995 10.857301289999999 10.863407036798206 
Si 4.07129454 12.21727194 9.501315448163783 
Si 6.81640389 12.20713956 12.232704176195263 
Si 5.46246054 8.35173639 13.89070833509127 
Si 6.139652129999999 10.30930569 15.165397978657795 
Si 4.43602764 11.98355931 14.863596256330599 
Si 5.06203605 11.652334739999999 19.483982472514025 
Si 5.14006515 10.227269249999999 17.478345131391958 
Si 5.826134789999999 8.1578691 18.240193556256482 
Si 6.647949 10.54648809 24.57175951028131 
Si 7.28729892 8.4711258 23.508767562438095 
Si 5.15104461 10.42170669 26.443505247088105 
Si 5.3558262 9.15304149 30.203659556840293 
Si 8.06172552 8.27033526 27.448575652262463 
Si 5.82360984 8.75209572 27.938449177908574 
Si 6.97659975 10.42173927 31.450081270491875 
Si 7.8266934 8.359083179999999 32.45806160962806 
Si 5.94848898 12.09154572 32.78487490719863 
Si 4.10143104 15.01973838 1.2024678539995213 
Si 5.42173554 13.59385839 2.699178530439671 
Si 6.764846039999999 12.3421185 1.2062715533924881 
Si 6.78757059 14.934069269999998 4.073595767926713 
Si 8.14408776 13.575711329999999 5.430456403844032 
Si 4.0728583800000004 14.93258688 6.787698102542068 
Si 5.42988054 13.574668769999999 8.144628022601337 
Si 6.7872285 12.21820047 6.787455608045248 
Si 5.431379219999999 16.28899002 5.430317835560135 
Si 8.14350132 13.57274655 10.859007493784484 
Si 6.78812445 14.932440269999999 9.50193900544132 
Si 4.04536086 14.937001469999998 12.22012910443163 
Si 5.428381859999999 16.2960273 10.860843523546118 
Si 8.03137725 14.33710593 16.217962663137776 
Si 5.4097135199999995 13.5682668 13.479576236769509 
Si 6.49785294 15.21075492 14.68331891898088 
Si 6.95144799 12.304032479999998 20.838071742753407 
Si 7.67752587 14.481272429999999 20.085472750838996 
Si 4.34091033 13.69633878 18.546013758816684 
Si 6.46449102 14.662922219999999 18.042837677916484 
Si 6.71613894 15.878677499999998 21.689435279015257 
Si 5.92066566 12.226671269999999 23.007392869228553 
Si 6.14885598 14.506978049999999 23.503675178004887 
Si 7.4328012 15.091284059999998 25.31846935013011 
Si 7.036612109999999 15.15057966 30.13977957796387 
Si 4.82773698 12.52891593 27.64447656362154 
Si 6.93033615 13.2237333 28.593045751036986 
Si 7.8182551799999995 13.986642869999999 34.25865253265386 
Si 5.11365906 15.54281028 31.74038182525564 
Si 4.130378369999999 13.377576059999999 31.89956214138207 
Si 5.82339807 15.748227179999999 34.25387192685942 
Si 12.11084937 1.373743845 1.3024033003458828 
Si 9.49943205 1.3574652479999998 4.07051262361001 
Si 10.851567209999999 2.7480904199999996 2.7083309655910535 
Si 12.21624567 4.07178324 4.0730761368621 
Si 8.14478823 0.00044782839 8.145009085382052 
Si 8.144120339999999 2.7151357499999995 5.430872108695723 
Si 10.86049413 -0.000903396159 5.430317835560135 
Si 10.86008688 2.7150868799999994 8.14483587502718 
Si 9.50145201 1.35791811 9.502805057215674 
Si 8.14358277 2.7179213399999997 10.858037515797207 
Si 8.97279264 0.25223436 16.66792852302161 
Si 9.0391581 1.82224827 14.9356864060279 
Si 10.893432509999998 2.7079192799999996 13.672567214166756 
Si 11.444979329999999 3.9192925499999998 18.564408698503986 
Si 8.940147479999998 2.3672465099999997 20.548186892841336 
Si 10.974866220000001 1.7903524499999999 19.515749251597363 
Si 11.86255719 2.9553155099999997 24.9471409913577 
Si 8.35893657 1.075864905 22.45928602227482 
Si 8.4774789 3.2948805599999997 25.494866775530717 
Si 10.09255095 1.562795811 25.824347512566295 
Si 9.8207523 3.45740589 28.97116395572034 
Si 10.87385193 0.237351816 29.940864806430035 
Si 9.78610347 0.122290659 27.78446517242827 
Si 12.172800239999999 2.79094941 28.62661391781098 
Si 8.311662989999999 2.4768293399999997 34.46459964459546 
Si 10.24986348 0.823495338 34.40085823400293 
Si 9.86752089 3.44448792 31.397737101249863 
Si 11.23188984 1.4982466859999999 32.14070559743345 
Si 8.43269769 7.80890472 0.07557340993375786 
Si 10.855476809999999 8.15112504 2.725478790723281 
Si 12.07229094 6.784345169999999 1.2748074266078382 
Si 9.43585218 4.09799385 1.2655233515867534 
Si 8.11983195 5.42481435 2.7017697573485413 
Si 9.50299956 6.79003038 4.070374055326113 
Si 9.502168769999999 4.07219049 6.7875248921871965 
Si 8.145537569999998 5.42950587 8.144766590885231 
Si 10.86013575 5.430173759999999 5.429902130708445 
Si 10.86042897 5.42572659 10.860497102836375 
Si 12.21820047 4.075220429999999 9.50193900544132 
Si 12.22639434 6.79755636 12.232253829272597 
Si 9.504270179999999 6.787863809999999 9.502735773073725 
Si 9.516780899999999 4.062628259999999 12.217530949108566 
Si 10.17939294 6.00053553 14.994924347393775 
Si 9.647019449999998 5.431216319999999 17.302536621197913 
Si 10.903271669999999 7.97012685 13.831089330944677 
Si 12.057092369999998 4.42384272 14.864531592246902 
Si 8.28208035 5.4750364199999995 13.597151425655932 
Si 8.6301162 4.51588122 21.58938897804178 
Si 11.941303049999998 7.196954579999999 19.754848825461266 
Si 9.949850549999999 7.5875562 18.43200670324061 
Si 10.64760012 5.51747187 22.170994707627557 
Si 11.18971503 5.13732843 24.376447514128788 
Si 10.824183719999999 7.84335807 21.743165131096234 
Si 9.467585099999999 5.402659949999999 25.857084269636914 
Si 8.50179987 6.72319251 29.170633000389756 
Si 10.262406780000001 5.60512836 28.112560226624883 
Si 9.64180665 7.520799779999999 31.087794492243727 
Si 10.44522945 5.57608329 32.34703377215576 
Si 10.09277901 5.984685359999999 34.632579046749335 
Si 9.621297539999999 9.55035459 1.2938224593655745 
Si 9.500148809999999 12.21878691 4.068919088345197 
Si 12.21908013 9.501680069999999 4.075327871475423 
Si 8.14534209 8.1453258 5.4307681824828 
Si 9.50306472 9.50200587 6.787836670825965 
Si 10.86046155 8.14495113 8.144870517098155 
Si 8.14456017 10.860510419999999 8.145147653665948 
Si 10.86140637 10.858685939999999 5.430698898340851 
Si 8.14170942 8.14688964 10.865554845198606 
Si 9.50666481 9.49024449 12.265198438769058 
Si 10.862253449999999 10.86137379 10.863718815436975 
Si 11.031881219999999 9.508310100000001 17.154303199499324 
Si 8.254208160000001 10.92169566 13.856100906188047 
Si 10.73260134 11.81899773 17.287363394111214 
Si 8.73916146 8.99851455 21.621813956473623 
Si 9.053281529999998 11.33171496 21.358395648785837 
Si 10.5891516 12.216815819999999 19.69727370350215 
Si 9.871919189999998 12.07348011 23.499691339842855 
Si 11.67598782 10.5578748 23.90074259551113 
Si 8.66022012 11.38452714 25.462892144021534 
Si 11.69139816 9.12283983 25.80993641104103 
Si 8.15210244 11.58782634 29.79169604881515 
Si 10.27982079 10.81001142 29.115344255114945 
Si 9.75854079 9.86173794 26.994348817648802 
Si 11.5461891 10.265567039999999 34.501874512963695 
Si 11.24956449 9.28490904 30.684526144033107 
Si 11.52561483 11.16961317 32.25983967951371 
Si 9.46442484 15.00445836 1.1261929421285362 
Si 10.85106222 13.58128251 2.6779810472105607 
Si 8.13918447 16.2872307 2.6854290924700126 
Si 9.501842969999998 14.932782360000001 6.787628818400119 
Si 10.85994027 13.574847959999998 8.145147653665948 
Si 9.50194071 12.21790725 9.501835079228396 
Si 9.50334165 14.93854902 12.222346196973978 
Si 10.859533019999999 16.28973936 10.861086018042936 
Si 9.362237669999999 12.47229189 15.354716896531778 
Si 10.810858499999998 13.638378959999999 13.70668965407634 
Si 10.631098349999998 16.18561368 18.22235288970477 
Si 11.625716879999999 15.038634779999999 21.64966618153688 
Si 10.0910034 14.530272749999998 19.86906373346319 
Si 10.675879559999998 14.396499269999998 23.705846304210297 
Si 9.274972140000001 16.223194709999998 24.306228036264095 
Si 11.99328444 13.95616428 25.61254589063006 
Si 11.24521506 12.96014481 29.081880014553867 
Si 8.233552439999999 13.35345057 26.646334572642026 
Si 10.31728779 14.11895025 27.257940335691462 
Si 10.72417941 14.37309054 30.88780581650969 
Si 8.46715104 13.869061649999999 31.596547946570773 
Si 14.15006415 2.18515689 0.2029322125047125 
Si 14.93454168 1.3588205759999998 4.069577287693706 
Si 13.574978279999998 0.0001410841062 8.144939801240103 
Si 13.57507602 2.7144027 5.430491045915007 
Si 12.2173371 1.357431039 6.787143829406481 
Si 14.933205899999999 1.355350806 9.50242399443496 
Si 13.57457103 2.71389771 10.866178402476143 
Si 12.217679189999998 1.351568268 12.231699556137011 
Si 14.94755739 4.0870795499999995 12.236618730215346 
Si 13.266575999999999 3.92843124 16.95999582340506 
Si 15.01957548 2.02000887 16.945965784660512 
Si 13.65826905 0.07851291299999999 13.623444757525345 
Si 15.223900949999999 1.479400785 14.705663054759238 
Si 12.46053051 0.914756805 21.22523152796103 
Si 15.809216939999999 2.2436217 21.18234464409497 
Si 14.58937287 0.511650981 20.210634553268765 
Si 14.135354279999998 3.87170946 21.85038234076137 
Si 13.20368031 2.10380463 23.20956399543396 
Si 15.020357399999998 1.2656417759999998 24.624034395381372 
Si 15.37126029 3.0262258799999997 26.14204994547065 
Si 15.391443599999999 3.41425368 30.006511530926144 
Si 14.83445592 0.00441445968 29.962446816646963 
Si 13.2335073 3.7183553999999996 26.711184529505722 
Si 12.8764305 0.5101180919999999 28.776094454064637 
Si 15.95875914 0.48404105999999997 34.64553518129368 
Si 15.3210708 1.5929078759999997 31.546698006438906 
Si 13.439706119999999 2.63445138 32.65430894169688 
Si 14.962918859999998 4.07263032 1.3904530521409975 
Si 13.55288904 5.4411532199999995 2.698076912582692 
Si 14.930355149999999 6.79068198 4.067741257932074 
Si 14.93315703 4.07186469 6.7878020287549905 
Si 13.575369239999999 5.42989683 8.144766590885231 
Si 12.21712533 6.78809187 6.787732744613042 
Si 13.57339815 8.14612401 5.430248551418187 
Si 14.93312445 6.78827106 9.501835079228396 
Si 13.727957669999999 5.59633176 13.644992125671296 
Si 15.16980186 6.715796849999999 15.333862369805312 
Si 15.40931373 5.25663639 17.346809187902934 
Si 12.29587119 4.93951896 20.549364723254456 
Si 15.95317167 6.74282196 19.20663805229461 
Si 15.376065839999999 5.54254218 22.967623771750176 
Si 14.114421629999999 7.511318999999999 23.637982487171847 
Si 12.45385161 6.934506389999999 25.158284413945424 
Si 13.205472209999998 4.3724314799999995 30.060864940284652 
Si 15.821304119999999 7.264704689999999 26.815942152131694 
Si 13.729831019999999 6.050040839999999 26.866935280605706 
Si 12.549180689999998 6.29023689 28.830032158571463 
Si 13.9553172 7.144679969999999 32.385070766085434 
Si 12.750117839999998 5.08746474 32.27504754867138 
Si 16.25396652 6.25066848 32.748673943030596 
Si 12.24760392 12.13596855 1.3357774715224235 
Si 14.898915449999999 9.515054159999998 1.2209944335565215 
Si 13.58799399 10.84462767 2.720590794508822 
Si 14.93229366 9.50264118 6.787732744613042 
Si 13.574799089999999 10.86033123 8.144697306743284 
Si 12.218493689999999 9.503227619999999 9.501765795086447 
Si 13.575792779999999 8.143696799999999 10.860531744907348 
Si 14.941611539999998 9.4915314 12.254736533334851 
Si 14.93270091 12.21692985 9.501904363370345 
Si 12.205021859999999 12.21601761 12.247427056359296 
Si 13.94902926 8.46728136 16.642951589849215 
Si 15.26969214 10.44816165 16.850804015694393 
Si 12.274107749999999 9.288558 15.199970765490043 
Si 13.45242861 10.71427509 13.688675777169758 
Si 14.86874637 11.987534069999999 14.96779960582098 
Si 13.91949549 10.0131372 20.69673209317869 
Si 12.98661606 12.01377726 19.92088827164059 
Si 13.998518279999999 8.210013389999999 19.102988975939816 
Si 13.16582235 11.999360609999998 24.951367324016548 
Si 15.71292675 10.981317059999999 21.910867396682317 
Si 12.71802654 9.030768749999998 22.439921104600245 
Si 15.36836067 8.847571409999999 25.111586902272208 
Si 14.780161349999998 11.27650815 28.16133626255655 
Si 13.259587589999999 8.17577181 30.161881219245412 
Si 15.08755365 9.66692583 29.87476773501127 
Si 13.818481199999999 10.21760928 26.282038554277378 
Si 16.16516973 10.859484149999998 32.00681399311818 
Si 15.73319151 11.33743275 34.53208239885319 
Si 13.23968121 8.376057359999999 34.530211727020585 
Si 12.2199435 14.93289639 4.070304771184165 
Si 14.932994129999999 12.216473729999999 4.070131560829293 
Si 14.83781166 14.97472911 1.182635268366794 
Si 13.548637349999998 16.28428221 2.69319238057533 
Si 13.57388685 13.574049749999999 5.430179267276239 
Si 12.21824934 12.21699501 6.787975239109862 
Si 14.932668329999998 14.931967859999999 6.7875248921871965 
Si 12.2170113 14.932179629999998 9.502874341357623 
Si 13.576753889999999 13.573414439999999 10.863788099578924 
Si 14.93589375 14.933694599999999 12.230556367794863 
Si 12.519679499999999 15.35743008 17.164730462862558 
Si 12.38160546 14.87542527 14.889058178496631 
Si 12.763768859999999 13.02341517 16.428170749809198 
Si 16.22586627 13.48135965 13.687047599833969 
Si 13.559502779999999 13.6603053 21.51421568402777 
Si 15.549684659999999 14.847846299999999 21.07485029786204 
Si 14.571844829999998 16.21592937 17.93925788570364 
Si 16.02033534 14.29312293 17.558299031200402 
Si 14.496992279999999 12.41589591 17.948472676582774 
Si 14.687568989999999 12.693282029999999 23.346434817853012 
Si 16.1644041 14.093423819999998 24.635223784306035 
Si 15.354139499999999 15.74503434 26.141807450973833 
Si 13.36921929 15.089980859999999 27.147189634786955 
Si 13.56543234 13.24401435 28.698496215082436 
Si 13.913354159999999 13.16727216 34.55311013593453 
Si 12.733111079999999 13.26797694 32.23157174959877 
Si 14.4028035 14.11199442 30.7269626809765 
