&CONTROL
  dt          = 30.D0,
  prefix = 'x1.33_y.66_z3.15_struc18-scf',
  pseudo_dir = './',
  outdir='./',
  wf_collect= .true.,
  verbosity= 'high',
/

&SYSTEM
ibrav= 6, celldm(1) =30.783621515, celldm(3) =2.1064596431380656, nat=  432, ntyp= 1,
  ecutwfc     = 12.D0, nbnd= 1728,
  degauss     = 0.05D0,
  occupations = "smearing",
  smearing    = "methfessel-paxton",
/
&ELECTRONS
  electron_maxstep=200,
  conv_thr    = 1.D-8,
  mixing_beta = 0.3D0,
  scf_must_converge=.false.,
/
ATOMIC_SPECIES
Si  28.08  Si.pbe-hgh.UPF
K_POINTS {automatic}
1 1 1 0 0 0
ATOMIC_POSITIONS (angstrom)
Si 0.017957444399999998 2.6938610099999996 2.7117264435363384 
Si 1.372346163 1.3639584419999997 1.1769505548423953 
Si -0.00146466648 -0.0011713764329999998 5.43111868551555 
Si -6.54592473e-05 2.71495656 8.144825059983642 
Si 2.71497285 -0.00040232879099999996 8.145168202259509 
Si 2.71300176 2.71484253 5.43060397210175 
Si 1.3572225269999998 1.357432668 6.787354216653035 
Si 2.71709055 2.71365336 10.86371288281733 
Si 1.349004222 1.3610213549999999 12.22125235460311 
Si 4.087046969999999 4.06324728 12.237277098886107 
Si 1.4743785779999998 2.11390443 16.79640263296795 
Si 2.71347417 0.0535844889 13.618184559658443 
Si 1.290322755 3.81624201 15.011513770817173 
Si 3.8205099899999997 1.407770397 16.911595494976567 
Si 3.7931916599999997 0.757817316 20.774965750510095 
Si 2.21276844 2.50971885 20.701121532743475 
Si 2.26590642 3.47838741 18.59007593738093 
Si 2.1271319099999997 3.54230937 24.662699107630196 
Si 2.9986631999999998 3.87369684 22.470534678252648 
Si 0.865258011 1.59229863 24.333968807349425 
Si 3.9832145099999994 3.2634734399999994 26.047861532623287 
Si 2.9551688999999994 3.4995644099999996 29.90419737150153 
Si 2.9466981 2.16569034 27.948663855562 
Si 0.9812753909999999 0.829586169 28.0282385493356 
Si 2.20910319 3.1947785099999995 34.086724257819135 
Si 0.340109136 0.750107259 30.34362536997706 
Si 2.0282679 2.06705439 31.772607063598386 
Si 4.05666612 0.8129361599999999 32.267898624585094 
Si 4.02288066 4.23544887 1.0836021301154846 
Si 1.3574831669999998 4.06953522 4.072412529991821 
Si 2.7174978 5.43603816 2.6933580375091677 
Si 1.290788649 6.7088410199999995 1.2707484959506918 
Si -0.001518757425 5.4299457 5.430638286329336 
Si 2.7151846199999996 5.43012489 8.144619174618121 
Si 1.357694937 6.7870656 6.787868930066836 
Si 1.3562467559999998 4.0730701499999995 9.502673359817702 
Si 1.358577855 6.76911402 12.216619933878903 
Si 3.5655551999999995 6.93307287 14.964366022113019 
Si 0.240249807 5.35488138 16.441799405086797 
Si 2.58250257 5.25054393 13.605625552361703 
Si 0.0057242082599999996 8.04559842 13.63160142264485 
Si 1.5044189669999999 5.686513199999999 18.925874968544562 
Si 3.2229602099999997 7.01238888 19.917350260435224 
Si 2.4219972 7.27765524 23.839535102052388 
Si 0.190368198 6.446800079999999 24.073352248828293 
Si 3.6724175999999997 6.11759547 22.114627509723196 
Si 0.598186719 4.97377683 25.91468801535923 
Si 1.7711139599999999 5.556339809999999 29.79054864973432 
Si 3.23690445 7.18156053 26.117073329665697 
Si 1.461268386 6.47030655 27.565305304963175 
Si 0.42429585599999997 4.89244086 34.237260774242074 
Si 3.28412916 7.510276439999999 30.47885774089632 
Si 1.3609073250000001 9.503634869999999 4.068363451136588 
Si 0.438590331 10.094131079999999 0.14518452634623605 
Si 2.72476314 10.85489037 2.7213344272606195 
Si 1.3962175289999998 12.08084319 1.2461211748117036 
Si 0.00024195048299999997 8.14501629 8.145065259576748 
Si 2.71541268 8.1448371 5.431152999743136 
Si 2.71536381 10.859598179999999 8.145099573804336 
Si 1.3566393449999998 9.50174523 9.503085130548744 
Si 2.72039742 8.1415791 10.859492232824161 
Si -0.00046795142699999995 10.860868799999999 10.860864801927631 
Si 1.353101157 12.20204079 12.245958598465547 
Si 1.6429605299999999 8.970903 15.36440128731899 
Si 2.54521476 10.629159839999998 13.742607948887885 
Si 2.4386455799999998 9.14274621 20.59649745283157 
Si 3.8427784199999997 10.74038796 19.554992017119474 
Si 0.22691969999999997 9.41658111 19.706935416873467 
Si 3.92155686 9.5548995 17.36828354992821 
Si 1.3201269389999999 11.270041019999999 23.47796608597113 
Si 2.63498895 9.42226632 22.926227620604276 
Si 2.03989896 12.18242763 25.516951803401568 
Si 2.95081947 9.76451922 29.09578848378602 
Si 0.274401792 11.841885179999998 27.06908725983163 
Si 0.6726206159999999 10.162369889999999 28.711846591318217 
Si 4.05889785 9.170390339999999 27.119563488611693 
Si 2.44625301 8.47197288 34.30300683429823 
Si 0.29433423599999997 11.286265859999999 30.820009791563482 
Si 2.71029762 16.27454079 2.6798931346041392 
Si 3.90969774 14.67900045 1.2489109215145038 
Si 1.356134355 14.936186969999998 4.069221306826256 
Si -0.00019007334899999998 13.575369239999999 8.144722117300882 
Si 2.71611315 13.575108599999998 5.4305010294189895 
Si 1.358043543 12.21732081 6.787216959742688 
Si 0.0010108238219999999 16.28737731 10.85794809258276 
Si 1.3550543279999998 14.93032257 9.501403733396993 
Si 2.71676475 13.57551585 10.859252033231055 
Si 0.1498831497 16.28056809 16.627302119420598 
Si 3.3169209299999998 13.76834058 16.266796844394527 
Si 0.0423728964 13.65582555 13.632253392968998 
Si 1.465958277 14.972497379999998 15.091088464590772 
Si 0.22516037999999997 14.916785579999999 18.69051368152726 
Si 3.0791195099999995 12.920136569999999 20.21495755629484 
Si 2.53482174 14.31379494 18.40604873483336 
Si 3.8349266399999995 15.63509313 22.71073427135968 
Si 0.1553126067 14.625960209999999 22.572001849226574 
Si 1.7653635899999998 15.730780589999998 23.830682031335016 
Si 1.1787639479999998 12.7014759 21.62362522718483 
Si 2.23941888 14.514666929999999 25.808039396019705 
Si 2.74108572 13.73673798 29.657272189787502 
Si 1.3451842170000001 14.82028362 27.942315723458456 
Si 3.09707109 12.800258459999998 34.01648303394912 
Si 1.63308879 13.22785467 31.78176896236404 
Si 0.0283449258 15.265375289999998 31.977257116925582 
Si 4.074096419999999 1.358924832 4.0655153702468905 
Si 5.42053008 2.73393441 2.6835029913462622 
Si 6.72561972 1.36767582 1.2618165025098687 
Si 8.14407147 2.71541268 5.430672600556922 
Si 5.4307439099999995 -0.000734659452 5.430809857467269 
Si 5.43001086 2.7151194599999995 8.145305459169856 
Si 6.787831229999999 1.357317009 6.787594416246142 
Si 6.7867723799999995 4.07034972 9.502124332176317 
Si 8.14366422 2.7152334899999997 10.857982406810345 
Si 4.071017609999999 1.355249808 9.50270767404529 
Si 6.7957481699999995 1.3701779639999998 12.225473004596275 
Si 8.10893394 0.023446685699999997 13.707058409108045 
Si 4.57662663 0.9117350099999999 14.755117862289206 
Si 5.61449511 2.78919009 13.721436070466881 
Si 7.413416099999999 3.6694853999999997 15.309601465862999 
Si 4.730339069999999 3.4262594099999997 17.857295607266547 
Si 5.90188329 1.74786813 21.028753777741468 
Si 6.845693309999999 2.84004747 19.17056972546546 
Si 7.56219267 0.834282576 18.103054105242627 
Si 5.61008052 2.02487958 24.86594227762633 
Si 7.42820742 0.024218343 21.688307546185797 
Si 5.246178209999999 3.10702428 22.806882737057666 
Si 7.8482613599999995 1.94794191 25.624286707292825 
Si 5.31198981 3.92152428 29.832755149665985 
Si 6.04225422 1.69158618 29.426131552763366 
Si 7.7374241999999995 1.3259326949999999 27.91541336903047 
Si 4.40719434 0.366226893 28.39327330240312 
Si 6.3746028 1.217413602 31.648904273148265 
Si 7.65256959 3.13189911 32.24483946364682 
Si 5.18825097 -0.00282595662 34.294325334718785 
Si 6.78662577 4.0732819199999994 4.0708683897504185 
Si 4.06860669 6.78724479 4.06980464869523 
Si 6.74404371 6.789606839999999 1.2133270675070762 
Si 4.07246742 4.07243484 6.786908131694407 
Si 5.431248899999999 5.43015747 5.430672600556922 
Si 6.787407689999999 6.78757059 6.787422845108209 
Si 4.07158776 6.78760317 9.50154099030734 
Si 5.43372498 5.4276651 10.8622373710311 
Si 6.7932558 6.77320281 12.247434110251776 
Si 5.3266671 8.04662469 13.605797123499638 
Si 4.84145316 5.53486959 16.545050915895235 
Si 4.746058919999999 7.35071589 18.098284427608075 
Si 6.910853309999999 5.148226439999999 20.357807685738354 
Si 6.82572177 7.22231811 19.20581043719702 
Si 6.63467265 6.25677723 24.49469664936562 
Si 5.88823227 5.33230344 22.481103460349356 
Si 4.9053751199999995 5.509734119999999 26.094906338644673 
Si 5.5633608 7.34763708 29.664889948311757 
Si 5.8961329199999994 5.55361938 28.19895183157953 
Si 5.25590334 5.910810209999999 33.86141703948474 
Si 6.21712737 4.923033479999999 31.891231348365675 
Si 7.41828681 6.7588839 30.94783028932401 
Si 4.132675259999999 7.787353049999999 32.71552772345384 
Si 4.12987338 9.583162649999998 1.3258537140322042 
Si 5.437634579999999 8.14392486 2.700800793472727 
Si 6.789655709999999 9.50027913 4.069015421460736 
Si 4.07295612 12.216115349999999 4.077491035674655 
Si 4.0726140299999996 9.50257602 6.787628730473729 
Si 5.4299457 8.14478823 8.144825059983642 
Si 5.428414439999999 10.860298649999999 5.430295144053469 
Si 8.14482081 8.14472307 10.867624704762216 
Si 6.786479159999999 9.502152480000001 9.502947873638396 
Si 4.061585699999999 9.50339052 12.232919191982594 
Si 5.4305321399999995 10.860477839999998 10.863026598265595 
Si 6.81930351 12.19562253 12.22269355216175 
Si 7.10688717 9.05339556 14.855349721070013 
Si 7.38362169 12.109546169999998 16.803951763037027 
Si 5.71309848 10.508271749999999 16.034043438673812 
Si 4.183776989999999 11.965868369999999 14.926277229491761 
Si 6.937748099999999 8.57777643 21.23415874407557 
Si 6.125251769999999 10.63440522 20.38347472797322 
Si 7.980080039999999 11.266082549999998 18.959571540034723 
Si 5.7146949 11.792640509999998 22.417416253948407 
Si 4.73227758 10.11490083 23.724239297361017 
Si 6.51401262 8.534151810000001 23.68505244945698 
Si 8.10277632 9.547569 25.187844046617343 
Si 4.1265827999999996 11.88076941 29.141975434117743 
Si 4.10851719 11.08158201 25.786146918819377 
Si 8.11118196 11.599946099999999 29.074067577723625 
Si 6.089837309999999 10.86285618 29.988919199413143 
Si 6.06686841 9.14465214 28.318880056995113 
Si 8.046445499999999 8.43804081 27.307811341152433 
Si 5.89199526 9.83363769 32.16049509223866 
Si 8.08057305 8.72933859 32.088366585851375 
Si 5.069952989999999 11.164270049999999 34.05066000462549 
Si 5.4335295 13.57162254 2.694408052873321 
Si 6.731793629999999 12.254901839999999 1.1545776784558544 
Si 6.7872285 14.93472087 4.070387990564205 
Si 4.072304519999999 14.93261946 6.787525787790969 
Si 5.42984796 13.575238919999999 8.145202516487096 
Si 6.78753801 12.2175 6.787663044701316 
Si 4.07223936 12.21868917 9.501849818355621 
Si 6.78709818 14.931821249999999 9.501506676079755 
Si 4.047087599999999 14.93501409 12.213840481444379 
Si 5.43056472 16.28843616 10.861551086479365 
Si 5.86409049 13.92470829 16.57854160201987 
Si 5.32034658 13.44161205 13.459309685931935 
Si 6.157636289999999 15.2924004 14.637591632804693 
Si 6.85631439 14.36791032 20.495613623726616 
Si 4.09004433 16.10540172 18.643777703554147 
Si 6.246758879999999 15.18578235 18.436965853888992 
Si 4.76534628 13.74217884 21.597855242267208 
Si 7.26719706 15.165159209999999 23.780446002148057 
Si 7.51399056 12.806106569999999 23.50452529812325 
Si 5.249175569999999 16.00642368 24.56359961835975 
Si 7.33843323 12.95828775 27.321296832594015 
Si 5.04173871 12.784180229999999 27.11479381097714 
Si 7.96708062 15.230156309999998 27.657130177985238 
Si 4.42024263 15.035376779999998 26.55506013058258 
Si 7.24918032 15.62320143 32.91379533044991 
Si 4.1228361 15.48779895 30.383326931294892 
Si 12.20443542 1.280745864 1.298525863182141 
Si 8.13907044 0.00035649198899999996 2.696484063642318 
Si 8.35207848 2.48484402 0.0027216020782357964 
Si 9.49987188 1.357688421 4.068775221867629 
Si 10.867775759999999 2.72575683 2.6952899285222998 
Si 8.14480452 0.000564873669 8.144859374211228 
Si 10.8595656 2.71536381 8.144756431528469 
Si 12.224081159999999 1.336625451 12.235767272872291 
Si 9.500979599999999 1.358273232 9.501849818355621 
Si 9.49912254 4.07039859 12.24101734969306 
Si 9.634997429999999 1.373910003 15.154775670991723 
Si 10.88395173 2.66577705 13.641998633603626 
Si 9.61944048 1.6864711199999998 17.53072710332374 
Si 10.271561759999999 0.1476553293 19.34217517762664 
Si 9.899709929999998 3.82642326 18.724141624562243 
Si 9.4817574 3.41065359 24.793024544004552 
Si 12.14903313 3.24983871 21.930119907989408 
Si 9.85328343 2.95411005 22.429048777100302 
Si 9.68634351 0.69239016 21.62160068775722 
Si 11.57363775 2.73838158 25.775681079405427 
Si 9.582168959999999 1.88636571 29.220589329518916 
Si 11.60033706 2.18246904 28.091513985005513 
Si 9.30431043 0.628029999 33.024630285555006 
Si 11.739746879999998 3.80099457 31.473421313269785 
Si 9.461720699999999 3.5645940899999995 30.826460866349784 
Si 9.708839999999999 0.0443281851 30.6582182084921 
Si 10.86474582 8.16998886 2.6996546982713303 
Si 12.17662839 6.78131523 1.3136103976292626 
Si 9.51653655 4.09734225 1.2641018300671443 
Si 8.12871 5.42434194 2.6915256577560367 
Si 9.50040945 6.7893462 4.065755569839998 
Si 10.26333531 5.99136426 0.036409797465440014 
Si 9.50205474 4.0728258 6.7874914735633824 
Si 8.14488597 5.4300760200000004 8.14568291567331 
Si 10.860787349999999 5.430173759999999 5.429231402998281 
Si 10.858620779999999 5.42883798 10.862923655582835 
Si 12.222191519999999 6.797865869999999 12.239884980182698 
Si 9.50298327 6.78659319 9.5016439329901 
Si 10.96266501 8.13465585 13.830761199558166 
Si 11.96515161 4.212838349999999 14.979910367209804 
Si 8.27562951 5.426247869999999 13.848364398310155 
Si 10.234697489999999 6.184303019999999 15.123549723887809 
Si 9.88364799 5.989898159999999 17.515663157413172 
Si 9.10110897 4.54779333 20.852687475994014 
Si 10.377544499999999 6.50464587 21.15520170639853 
Si 11.74310262 6.0844453199999995 19.270080985466944 
Si 8.495235 7.90692165 17.64986610150483 
Si 11.872689569999999 6.593931359999999 22.938615056763084 
Si 8.853859349999999 5.637887549999999 25.362366208123397 
Si 10.796832809999998 7.02188595 24.98844407011092 
Si 8.16107823 6.0365201399999995 27.62068846828814 
Si 9.123475139999998 5.66564571 29.747072523381945 
Si 11.54752488 5.93814483 32.38535622561443 
Si 10.890760949999999 7.015549139999999 30.389606434943264 
Si 8.5779882 7.899868079999999 34.29820284243609 
Si 9.63775044 9.61442316 1.184640373244579 
Si 8.14368051 10.86694497 2.672344004535061 
Si 12.17320749 12.199076009999999 1.2139824692539825 
Si 9.50422131 12.21650631 4.070319362109031 
Si 8.144462429999999 8.14486968 5.430809857467269 
Si 9.502608599999999 9.50275521 6.788074815432356 
Si 10.86020091 8.14513032 8.145236830714683 
Si 8.144739359999999 10.86011946 8.145271144942269 
Si 10.860477839999998 10.858490459999999 5.430432400963816 
Si 9.51862167 9.4944636 12.245615456189679 
Si 10.86419196 10.85485779 10.85877163404484 
Si 8.27960427 10.821951989999999 13.751049248874219 
Si 9.60499125 9.50104476 18.96139019409682 
Si 9.287841239999999 8.62838946 21.115294259715174 
Si 11.950946729999998 9.83539701 18.838236431288085 
Si 10.36259028 9.2895354 24.694988795789296 
Si 10.43369613 10.16000784 22.477946551411378 
Si 8.25363801 11.93341869 25.495230897339173 
Si 11.089596689999999 10.51082928 26.562197489920614 
Si 9.57495249 9.877441499999998 28.40216068734808 
Si 10.99190556 10.929612599999999 33.83303917327052 
Si 12.172767659999998 10.251606509999998 31.630168704885918 
Si 10.17463626 9.203605649999998 30.670880158471597 
Si 12.22052994 14.931853829999998 4.072858614950449 
Si 9.49720032 14.84590779 1.3878663861269227 
Si 10.867661729999998 13.55688009 2.7201334292950845 
Si 11.003650649999999 15.974316089999999 0.014371347540959341 
Si 8.14527693 13.574782799999998 5.430363772508643 
Si 9.50220135 14.932928969999999 6.787319902425448 
Si 10.860363809999999 13.57483167 8.145236830714683 
Si 10.859907689999998 16.28887599 5.430295144053469 
Si 12.20871969 12.20378382 12.228424028168734 
Si 9.50288553 12.21720678 9.503496901279785 
Si 8.14495113 13.57564617 10.862786398672489 
Si 9.49628808 14.92825374 12.251002789920795 
Si 10.86220458 16.290325799999998 10.862477570624206 
Si 11.25710676 13.32824994 16.84715337556871 
Si 9.40319073 12.257622269999999 15.477329410306883 
Si 10.67960997 13.35833757 13.691960148969889 
Si 8.864187209999999 13.04859951 20.18465809333577 
Si 10.824004529999998 14.11090299 19.294169573232818 
Si 11.04465258 13.529496599999998 23.49268688960583 
Si 10.666854899999999 15.8946417 23.52243732492352 
Si 9.45364086 12.30496101 22.30743915453297 
Si 10.55578968 12.61078947 25.6439830739276 
Si 8.93319165 16.196430239999998 25.05182244846359 
Si 11.41727004 13.26745566 29.434675795432454 
Si 8.14107411 14.741277119999998 29.93960965437103 
Si 11.39412195 14.08013118 27.26968823430359 
Si 10.11439584 16.01544834 27.096229813852723 
Si 8.22413682 13.69163097 34.10353822933663 
Si 11.929427639999998 14.409954809999999 32.794416132675714 
Si 11.82870657 15.343241489999999 30.49927470631042 
Si 9.396495539999998 12.84813477 30.482597991703273 
Si 10.039282649999999 12.848932979999999 32.743425190481844 
Si 12.220806869999999 4.070072789999999 4.070285047881445 
Si 13.5736425 -0.01168354638 2.711616638008061 
Si 14.099402249999999 1.9484468999999998 0.023151020125524873 
Si 14.93346654 1.359522675 4.070285047881445 
Si 14.99124717 3.9069447299999998 1.2366195651929413 
Si 13.57520634 3.4329708900000004e-05 8.144756431528469 
Si 13.57562988 2.7146307599999995 5.430775543239682 
Si 12.218102729999998 1.3571133839999998 6.787216959742688 
Si 14.933205899999999 1.357523892 9.50198707526597 
Si 13.57678647 2.71722087 10.861859914527646 
Si 16.102665 2.48526756 13.63191025069313 
Si 15.210152189999999 3.4841051999999997 17.068926228461674 
Si 13.18027158 2.49411303 16.5433352045159 
Si 14.776854479999999 1.16515854 15.245982887917224 
Si 13.55326371 0.057300889499999993 20.651503159653082 
Si 16.21063512 2.03581017 20.580026623589944 
Si 12.319752329999998 3.63547188 19.610409494672023 
Si 12.382029 1.257557049 18.944027194937938 
Si 14.76471843 3.5852661 19.309816861012365 
Si 13.477564079999999 1.4691657779999998 22.57045770898517 
Si 15.618835709999999 2.49461802 22.77116162613989 
Si 12.40257069 0.851813874 24.531001102152366 
Si 15.787974779999999 1.330993998 26.22097681079828 
Si 14.77590966 3.71543949 29.078253913489206 
Si 13.025614319999999 0.421371801 28.947001992970005 
Si 15.121632329999999 3.58248051 26.705493704322755 
Si 15.95027205 0.24316897499999998 34.14962223698559 
Si 13.82454108 2.87003736 32.19477500559779 
Si 14.53327011 1.7034452999999998 30.222873603099394 
Si 13.579018199999998 5.414714549999999 2.685709396180088 
Si 14.93620326 6.788466539999999 4.071726245440087 
Si 14.93331993 4.07179953 6.787765987384075 
Si 13.574815379999999 5.430206339999999 8.144893688438815 
Si 12.21735339 6.78802671 6.787422845108209 
Si 14.931951569999999 6.7869027 9.501678247217688 
Si 16.292606399999997 5.432470649999999 10.859663803962096 
Si 12.216652919999998 4.07134341 9.502158646403903 
Si 14.933108159999998 4.05205605 12.22993385418255 
Si 13.53475827 5.34759975 13.601645101961644 
Si 15.057987299999999 6.5324040299999995 14.947483422140353 
Si 13.209153749999999 7.815371849999999 18.58190915121529 
Si 15.80143032 5.51967102 20.222849828639784 
Si 14.88860388 7.71453675 20.25620325785408 
Si 15.59933658 4.88392119 22.518952053377507 
Si 13.331133269999999 4.81415112 23.216972070946543 
Si 13.48432443 8.13309201 22.17910394335864 
Si 13.2191721 4.46359032 25.583658661830146 
Si 14.598983969999999 7.34789772 29.70520916572615 
Si 12.550369859999998 6.43143861 28.86965772398954 
Si 12.49130232 4.101202979999999 29.258472236774654 
Si 12.587853149999999 6.61852926 26.5157360257682 
Si 15.99083415 8.10670221 27.935246992575593 
Si 15.759711629999998 5.424048719999999 30.4127685385643 
Si 14.946058709999999 4.97889189 32.62685975936976 
Si 13.52521233 6.79561785 33.33071319562854 
Si 14.817563189999998 9.34236387 1.3207443255445417 
Si 13.56702876 10.86668433 2.6929805810057137 
Si 14.93358057 12.21805386 4.069941905605577 
Si 16.2748503 8.13110463 2.6997610723768495 
Si 12.21852627 9.50124024 4.073236071453902 
Si 13.573837979999999 8.14490226 5.4309471143776165 
Si 14.93257059 9.502087320000001 6.787045388604755 
Si 13.574733929999999 10.859907689999998 8.144207403887082 
Si 16.289983709999998 10.85920722 5.4293686599086275 
Si 12.216783239999998 9.503586 9.501266476486649 
Si 13.571834309999998 8.144332109999999 10.86055597387935 
Si 14.945309369999999 9.50150088 12.235183931003318 
Si 14.9304366 12.21448635 9.502776302500463 
Si 12.382110449999999 11.17094895 16.956409876204823 
Si 14.70516219 11.66929263 17.061720240668464 
Si 12.54320226 9.58920624 15.163422856343576 
Si 13.666674689999999 10.94396409 13.608610890161748 
Si 14.113102139999999 8.197567829999999 16.37293075032025 
Si 12.42669618 10.06352217 21.21597220345461 
Si 15.81268671 11.60131446 20.38807283446984 
Si 16.01468271 9.47579526 17.216992120498368 
Si 15.408971639999999 10.54655325 23.813765117134764 
Si 14.91716025 8.29087695 24.10759784795984 
Si 14.16840669 11.36033649 22.01257699688029 
Si 14.729792669999998 11.89974726 25.611967899589192 
Si 12.966872579999999 11.46485313 29.44527889175675 
Si 14.197011929999999 8.39312928 26.371959412179844 
Si 13.3389036 10.57001085 27.124504737384182 
Si 13.97517471 8.52436152 31.781460134315765 
Si 15.853884119999998 9.714199409999999 32.37238544758665 
Si 14.96055681 14.931039329999999 1.2910384987227188 
Si 16.3015659 13.565855879999999 2.688104529265641 
Si 13.572828 13.574799089999999 5.430638286329336 
Si 12.217174199999999 12.21771177 6.787697358928902 
Si 14.93214705 14.932945259999999 6.787971872749596 
Si 12.217972409999998 14.93261946 9.503016502093569 
Si 13.57525521 13.575369239999999 10.862614827534554 
Si 14.933205899999999 14.94206766 12.22554163305145 
Si 12.60821565 14.17120857 14.838673006462868 
Si 14.551856999999998 12.7446444 14.920924209988232 
Si 13.44998511 16.098282989999998 13.67981291240419 
Si 14.875588169999999 13.17483072 18.91794838197203 
Si 15.881723730000001 16.020351629999997 20.665983763694676 
Si 13.01406471 14.086826369999999 20.30774322768933 
Si 13.18796046 13.38391287 22.5758107284887 
Si 14.74829811 14.06563308 24.19983449171294 
Si 14.19173397 15.990035939999999 25.50092705911857 
Si 13.624923419999998 14.93828838 27.451004612871813 
Si 15.57905553 13.73432706 28.16305914952382 
Si 13.72929345 13.485448439999999 34.2410696535042 
Si 14.31723213 14.026113539999999 31.96922758767029 
Si 14.8429593 12.664465019999998 30.118215208959903 
