&CONTROL
  dt          = 30.D0,
  prefix = 'x1.33_y1.66_z3.15_struc30-scf',
  pseudo_dir = './',
  outdir='./',
  wf_collect= .true.,
  verbosity= 'high',
/

&SYSTEM
ibrav= 6, celldm(1) =30.783621515, celldm(3) =2.1043587689124634, nat=  432, ntyp= 1,
  ecutwfc     = 12.D0, nbnd= 1728,
  degauss     = 0.05D0,
  occupations = "smearing",
  smearing    = "methfessel-paxton",
/
&ELECTRONS
  electron_maxstep=200,
  conv_thr    = 1.D-8,
  mixing_beta = 0.3D0,
  scf_must_converge=.false.,
/
&IONS
/
ATOMIC_SPECIES
Si  28.08  Si.pbe-hgh.UPF
K_POINTS {automatic}
1 1 1 0 0 0
ATOMIC_POSITIONS (angstrom)
Si 2.7203485499999998 -0.0153360576 2.7307965661757416 
Si 1.434124359 1.359876168 1.4059566702293487 
Si 3.9837683699999995 3.94431399 1.2627039600695875 
Si 0.00035146163699999996 -0.000633213477 5.430809688449149 
Si -0.000168658515 2.71492398 8.145443232575948 
Si 2.71487511 -8.14921911e-06 8.14434627243689 
Si 2.71601541 2.71322982 5.429918408336165 
Si 1.3572567359999999 1.357779645 6.787612260447364 
Si 2.7146796299999996 2.71541268 10.861825056924372 
Si 1.365172047 1.357833402 12.245743112359945 
Si 4.0716855 1.356574185 9.502348644587201 
Si 3.7387504799999998 1.388663856 17.10990432897659 
Si 0.006077489489999999 2.5247708099999997 13.89690808167369 
Si 1.2677871689999998 4.04881434 15.360938507264892 
Si 1.97804583 3.22748883 19.604631645226466 
Si 1.042599096 1.058975433 19.56603236033334 
Si 2.7031625999999997 3.4744778099999998 17.18374345833698 
Si 0.638085816 0.08702476379999999 21.65591282526187 
Si 2.4357296699999997 0.381386367 25.207492675486105 
Si 3.35696175 3.3005820599999995 29.60781115330265 
Si 0.686579517 1.549082889 26.36386006207569 
Si 0.752123961 3.9071890799999998 26.755680511745712 
Si 0.7389730439999999 0.8237787839999999 28.67364675488114 
Si 3.22094025 1.9659260699999999 34.241165100660474 
Si 1.227246246 2.55186108 30.250218434738898 
Si 2.11918239 1.3939206389999999 32.133287633450514 
Si 1.354495581 4.0746177 4.069207915842552 
Si 2.70448209 5.435500589999999 2.6734838269103602 
Si 1.3982749559999998 6.82047639 1.0586145261977185 
Si 2.7152009099999996 5.430141180000001 8.145306112558565 
Si 1.3574571029999998 6.787684619999999 6.787166620390872 
Si 4.07091987 4.07072439 12.239504151569049 
Si 1.3585517909999998 4.07256516 9.502314364582856 
Si -0.0016513824599999997 5.432910479999999 10.865732977419768 
Si 1.361164707 6.78134781 12.24639443244251 
Si 2.71432125 8.14364793 10.86292201706343 
Si 4.02936408 6.72995286 15.032021865569014 
Si 2.65769721 5.35199805 13.68553757487882 
Si 0.08887351589999999 8.10404694 13.816590031491987 
Si 0.38072987999999997 4.66902351 20.67773290126063 
Si 3.65611131 7.0728247799999995 20.851395403275358 
Si 1.321115742 6.81749532 20.57736104853676 
Si 1.4708860019999999 6.99288975 18.01983276432577 
Si 0.881308548 5.049199529999999 24.641838323779623 
Si 0.20551464 8.11261548 22.322213269726987 
Si 3.22620192 5.33526822 24.56073183349797 
Si 2.29877964 4.99327596 28.29485270686244 
Si 3.2079245399999996 6.451165799999999 26.699701264649374 
Si 0.21305365199999998 5.33173329 33.939603902432374 
Si 3.4796743199999995 6.670673549999999 31.783220229073414 
Si 1.75462848 6.550502219999999 30.139699700728734 
Si 2.84056875 8.13793014 33.77063776101299 
Si -0.0013133763629999998 8.15187438 2.6602894532377444 
Si 1.36001952 9.49987188 4.067631035642655 
Si 2.72904741 10.84410639 2.6851835923935075 
Si 1.341330003 12.214095389999999 1.3207091554227504 
Si 9.625435199999999e-05 8.14506516 8.145374672567257 
Si 2.71450044 8.14477194 5.430192648370928 
Si -0.000991008666 10.86020091 5.429849848327473 
Si 2.71497285 10.85992398 8.145100432532493 
Si 4.07671911 9.49667904 12.229460110295793 
Si 1.356851115 9.503309069999998 9.502691444630656 
Si -0.00291749013 10.863051659999998 10.861653656902643 
Si 0.508770909 11.40392853 16.77354892633772 
Si 2.84646573 8.20781424 16.518505694006574 
Si 1.365088968 9.566954099999998 15.26478309507553 
Si 2.63624328 10.74902166 13.633431968273532 
Si 1.8668665799999997 10.720172069999998 20.5859653296275 
Si 3.73780566 9.38176938 20.117391950227713 
Si 1.6713214199999997 9.88038999 22.75808352498109 
Si 3.8563642799999998 9.2007549 23.599897591695594 
Si 0.763873938 11.223321299999999 24.41075681448604 
Si 0.452251125 9.29023587 25.71202577944441 
Si 1.9636291799999999 8.705669219999999 29.08010476640673 
Si 2.4682933799999995 8.70405651 26.78389295532213 
Si 2.11377411 10.211761169999999 32.612007894136596 
Si 0.1068566985 11.186261550000001 33.79909016461983 
Si 2.69695611 10.75568427 30.159856343283934 
Si 3.9073519799999996 11.71547478 33.06474391152872 
Si 0.202774662 16.083459089999998 0.26507561840292376 
Si -0.00250748712 13.568934689999999 2.7113632317122303 
Si 1.358108703 14.933727179999998 4.072807316298838 
Si 0.000241347753 13.57499457 8.144860472502073 
Si 2.71384884 13.57582536 5.4308439684534955 
Si 1.3575173759999999 12.21743484 6.787612260447364 
Si 0.00176578713 16.285943789999997 10.860419576746203 
Si 1.357186689 14.933287349999999 9.50173160450898 
Si 2.71757925 13.572078659999999 10.86285345705474 
Si 1.35513252 12.2165226 12.239127071521247 
Si 2.75506254 16.23295242 13.603642644497219 
Si 3.65976027 12.44135718 14.960925136556273 
Si 1.88240724 13.44048804 16.41333464067432 
Si 0.011164595849999999 13.620769469999999 13.687217295091752 
Si 1.080846387 15.308071379999998 15.069832710362194 
Si 0.041332291199999996 14.23653147 20.723942347118477 
Si 2.07969543 13.04522748 20.512708960340987 
Si 2.7580598999999997 16.09328196 18.577534155024075 
Si 3.03595101 13.756188239999998 18.469826381370254 
Si 2.52894105 12.75275682 24.61290600011195 
Si 3.03283962 13.714485839999998 22.529812976043843 
Si 2.6370903599999997 16.05258954 22.869116459056436 
Si 2.62552446 14.05962207 28.006797830346493 
Si 1.4521068899999998 12.661011539999999 29.509496100839513 
Si 2.8234153799999997 16.134397919999998 29.019497718723738 
Si 1.74154761 14.533221239999998 25.896726442858416 
Si 2.7329733 13.44400668 34.176615852477745 
Si 3.23931537 15.69943863 31.280949605401915 
Si 1.65071457 13.971688649999999 31.80227991148956 
Si 6.7887271799999995 4.07337966 4.07263591627711 
Si 8.16169725 -0.010599365429999999 2.6849470603635233 
Si 7.578091709999999 3.1744648799999995 0.16587614182767274 
Si 4.07295612 1.3586772239999998 4.075686836663867 
Si 5.41720692 2.7192571199999995 2.7169268764175185 
Si 6.7173444 1.32102126 1.351640003343771 
Si 8.14309407 2.71555929 5.430981088470877 
Si 5.42911491 0.001101037842 5.4313581685186785 
Si 5.4297828 2.71490769 8.144826192497728 
Si 6.78703302 1.357577649 6.788092180508203 
Si 5.42727414 0.0033114149099999998 10.861722216911335 
Si 6.776020979999999 1.365808986 12.22575786982647 
Si 7.22549466 0.906748641 16.05253759493705 
Si 4.399407719999999 1.0736478360000001 14.93206137289729 
Si 5.460896699999999 2.76283287 13.68444061473976 
Si 4.29609654 3.28367304 20.284472691408087 
Si 4.90092795 0.05699789549999999 19.60326044505264 
Si 5.53902354 2.10872421 18.65545260490159 
Si 7.720955009999999 2.32666812 17.917952591410696 
Si 5.26096953 2.4713396100000002 22.303085027302153 
Si 7.68198933 2.13324066 22.36139531469399 
Si 4.60761021 3.37098744 24.477739942977312 
Si 4.78520379 0.175208724 22.051366955392524 
Si 4.26688857 1.57633443 26.053557462739462 
Si 8.109764729999998 1.413326916 26.11862091098738 
Si 4.52575296 1.5341889419999999 28.463098968190565 
Si 6.36867324 3.3156503099999997 28.481781570558905 
Si 6.109336439999999 0.189270252 25.788950109195902 
Si 7.90482024 0.37950650099999994 30.6778957689544 
Si 5.09220513 0.30943017899999997 34.16112129051354 
Si 4.07580687 6.78693528 4.067459635620927 
Si 6.772877009999999 6.670820159999999 1.1846141101703471 
Si 8.14570047 5.42600352 2.6971096059053363 
Si 4.07248371 4.07227194 6.787509420434328 
Si 5.43093939 5.42859363 5.430981088470877 
Si 6.787489139999999 6.78779865 6.7875437004386745 
Si 6.786609479999999 4.071082769999999 9.502348644587201 
Si 4.0721742 6.78724479 9.502211524569818 
Si 5.4301086000000005 5.42966877 10.862510657011283 
Si 6.78540402 6.79967406 12.223872469587462 
Si 7.91084754 4.44430296 17.057558762340882 
Si 6.80933403 4.21065549 14.964216016973449 
Si 4.67798301 4.74561909 16.094084960203897 
Si 7.10143002 5.73930909 21.142535480182403 
Si 7.4327197499999995 7.74205056 19.906364243476297 
Si 5.10248412 5.4203345999999994 19.94715744864754 
Si 5.9709203099999995 5.4912775499999995 17.81970609895625 
Si 6.5793681 7.90568361 17.60151387129661 
Si 4.25892276 6.93779697 23.13728893305194 
Si 6.556334039999999 6.35756346 23.355206920676814 
Si 6.57231453 4.57066449 24.899521116445378 
Si 6.46825401 5.235622289999999 27.151991641985013 
Si 5.1037873199999995 6.9473592 27.951675583358796 
Si 5.798327759999999 4.78789164 34.24401034102116 
Si 6.49769004 4.550448599999999 30.47437538315467 
Si 5.41311813 6.7254894 30.320252483616926 
Si 4.590798929999999 4.38248241 31.885340362018905 
Si 4.192736490000001 9.40657905 1.1241270425025642 
Si 5.43475125 8.12760228 2.685745784464775 
Si 6.78672351 9.50255973 4.069550715886008 
Si 4.07241855 9.502608599999999 6.787303740408255 
Si 5.430173759999999 8.14496742 8.145306112558565 
Si 5.42947329 10.859598179999999 5.429884128331818 
Si 8.14058541 8.146971090000001 10.860796656794005 
Si 6.7875054299999995 9.50288553 9.50142308446987 
Si 5.431444379999999 10.861927649999998 10.859562576637565 
Si 5.41194525 8.140064129999999 13.64625268989878 
Si 4.967782109999999 9.241300709999999 16.393177998119118 
Si 7.6836671999999995 10.949404949999998 16.07241999745749 
Si 7.17198201 11.271116159999998 19.334402370970228 
Si 7.14533157 9.706820039999998 21.092349553820466 
Si 5.095055879999999 10.448666639999999 18.398695372353167 
Si 5.01215607 10.27423332 21.860427331187623 
Si 4.5938940299999995 12.105115289999999 25.537163477277584 
Si 4.90503303 11.8369656 29.672120441454968 
Si 6.64856802 10.23064128 29.26624519000325 
Si 4.35293235 9.80617275 25.83228003468872 
Si 8.1204021 8.36520822 26.476572716363968 
Si 6.02661582 8.998270199999999 27.291442699662845 
Si 5.75680455 10.66208193 34.12793824630702 
Si 7.05153375 8.418264749999999 30.713135613421663 
Si 7.604106839999999 9.57573441 32.84264376337369 
Si 4.0716855 12.21618051 4.069859235925118 
Si 4.10421663 14.97008646 1.3149398306913884 
Si 5.439801149999999 13.57242075 2.6991389821625953 
Si 6.8417185499999995 12.242830949999998 1.2803821583106052 
Si 6.78827106 14.92981758 4.070064915951192 
Si 4.07269548 14.93258688 6.78788650048213 
Si 5.4299457 13.57505973 8.145168992541183 
Si 6.7879615499999995 12.2173371 6.78757798044302 
Si 4.07280951 12.21707646 9.50173160450898 
Si 6.78773349 14.932603169999998 9.502554324613275 
Si 4.08986514 14.919766649999998 12.220684429183322 
Si 6.774277949999999 12.21430716 12.231139830508726 
Si 4.62171735 12.45473127 17.123753450732206 
Si 5.3894487600000005 13.54647078 13.678510173987975 
Si 7.28037567 14.34974697 14.99688486111479 
Si 8.028493919999999 16.153603829999998 13.567820039956082 
Si 7.4034140399999995 15.13153665 17.302009473329242 
Si 6.4758451500000005 13.30330995 20.267709769283098 
Si 5.47754508 14.32547487 18.457862659853646 
Si 8.06770395 16.13531016 22.682804635438185 
Si 6.17171085 15.335764379999999 23.73509792883458 
Si 6.22854666 12.951918359999999 24.000116642430285 
Si 5.07252681 12.63227598 22.030284752719993 
Si 6.3499234499999995 14.79094533 27.41810731571978 
Si 6.01482186 15.945319889999999 29.467605935529214 
Si 4.7280096 13.09238703 27.643429784283306 
Si 7.07549634 14.774003729999999 32.33008913839851 
Si 5.20783155 14.01128964 30.900270157144206 
Si 9.50164749 1.359620415 4.068762275786059 
Si 10.86818301 2.6994159 2.674789895075927 
Si 8.145 -3.29642811e-05 8.145100432532493 
Si 10.85977737 -9.59054202e-05 5.429335648262289 
Si 10.860233489999999 2.71547784 8.145066152528146 
Si 9.50413986 1.3586071769999999 9.501080284426413 
Si 8.147622689999999 2.71187775 10.861345136863534 
Si 10.85943528 -0.001602774729 10.861756496915682 
Si 9.445951979999998 1.104522273 15.084264592191685 
Si 10.70152002 2.6610529499999998 13.794136628645628 
Si 12.16437831 3.7618985699999996 15.363886587638612 
Si 11.692505879999999 1.6901200799999998 17.472621054957216 
Si 9.634932269999998 2.4646769999999996 21.05546426914462 
Si 9.68741865 1.526346936 18.885882794112607 
Si 11.308355099999998 1.6920423 22.633749949219652 
Si 12.16294479 3.11064066 24.324028403491713 
Si 8.32720365 3.07025775 24.461525500921848 
Si 11.670009389999999 0.07427474369999999 27.069753911559953 
Si 9.56249064 1.81045431 29.830254101501147 
Si 11.41534782 0.503139456 29.376763924013414 
Si 8.56792098 2.7612201599999997 27.975157386335518 
Si 10.47277584 3.70913526 30.917478719325686 
Si 11.274325289999998 4.01830317 33.16360744406139 
Si 8.533109249999999 7.81636554 0.013324946209167621 
Si 10.87181568 8.14915395 2.727968465817231 
Si 12.218982389999999 6.85351251 1.2915300157237892 
Si 9.55617012 4.1089896 1.2034441165573764 
Si 9.50295069 6.78489903 4.072601636272765 
Si 9.502380539999999 4.0725814499999995 6.78757798044302 
Si 8.14506516 5.430222629999999 8.144551952462963 
Si 10.858490459999999 5.430613589999999 5.430329768388311 
Si 9.501289109999998 6.7868049599999996 9.503068524678458 
Si 9.501468299999999 4.06857411 12.23521915102585 
Si 10.86308424 5.43045069 10.863779017172071 
Si 8.211137399999998 5.5156962599999995 13.584205882033274 
Si 9.64747557 6.7026834 15.173598283516275 
Si 11.33332767 5.731408439999999 16.54517553738744 
Si 9.18505134 4.69964871 20.64352145692374 
Si 9.55621899 7.68492153 18.936342960509304 
Si 9.64871361 5.39695845 18.40651121334396 
Si 10.992557159999999 7.97680575 20.74176794937818 
Si 10.20697191 6.45158934 24.089724573789642 
Si 8.23275423 7.79893524 24.205762388499448 
Si 10.26460593 4.3131033 25.058134696552393 
Si 11.9909061 7.708085909999999 25.023203372124243 
Si 10.66996629 5.97108321 21.875304853073608 
Si 10.98799596 7.8784956 29.24728834760014 
Si 8.85420144 7.01507673 29.960072477957873 
Si 11.720817899999998 4.35579939 28.961255991340593 
Si 9.974318129999999 4.5834521399999995 27.381496271078696 
Si 8.45615529 6.35148729 27.733243395668733 
Si 8.6130117 5.12035425 31.34114529303276 
Si 10.430470709999998 6.02591535 34.22769305895266 
Si 9.459016559999998 9.43179597 1.4356808619974046 
Si 8.13564954 10.87197858 2.7166080723771047 
Si 10.859744789999999 10.726720649999999 0.04063928795173332 
Si 12.18500145 12.171692519999999 1.3515165953281265 
Si 9.505117259999999 12.21872175 4.073390076372713 
Si 8.14700367 8.14514661 5.430604008423076 
Si 9.502478279999998 9.50257602 6.787509420434328 
Si 10.86039639 8.14436469 8.145031872523802 
Si 8.145032579999999 10.86002172 8.14496331251511 
Si 10.860412679999998 10.860542999999998 5.431392448523024 
Si 9.49961124 9.50723496 12.242315111925386 
Si 10.86127605 10.86059187 10.862613497024322 
Si 10.83314322 8.195042879999999 13.693627655904377 
Si 8.14848606 10.91778606 13.627021607460907 
Si 9.36754821 9.19041075 17.054919202006275 
Si 10.693765979999998 11.450371319999999 20.621308014107797 
Si 9.38701476 11.11333122 18.711226171971855 
Si 10.797647309999999 9.75793806 22.188452692770518 
Si 8.58883734 9.76303683 22.93291154714357 
Si 8.36439372 11.980138409999999 23.683643642311853 
Si 9.46377324 12.188748149999999 25.71805906020923 
Si 8.94658203 10.91483757 29.21705338376734 
Si 9.5249259 10.18069614 27.012232064268066 
Si 11.388404159999999 8.75647773 27.048260348835274 
Si 10.87109892 9.879233399999999 30.453635980525593 
Si 11.977157339999998 9.51539625 32.667781461206864 
Si 9.10720143 11.506246019999999 32.95401949749249 
Si 12.21582213 14.933499119999999 4.072498796259728 
Si 9.573633 14.88930435 1.1380652922694787 
Si 10.84674537 13.576086 2.699670322229952 
Si 8.14438098 13.573854269999998 5.4307411284404585 
Si 9.50242941 14.93213076 6.787509420434328 
Si 10.859972849999998 13.57492941 8.144929032510765 
Si 9.50132169 12.216620339999999 9.50265716462631 
Si 8.14783446 13.57670502 10.861722216911335 
Si 9.50785398 14.93672454 12.212045868088236 
Si 11.020983209999999 16.07503716 16.215676135617684 
Si 9.126553949999998 12.696035039999998 14.947898734904951 
Si 10.890826109999999 13.6133901 13.59051340283286 
Si 10.20692304 12.50259129 17.089233486356203 
Si 8.308437569999999 14.620226129999999 20.923280572388048 
Si 9.15730947 15.524956439999999 18.971411404954836 
Si 10.98100755 14.54866416 18.004543882387644 
Si 9.67671612 13.06884798 22.003272109295672 
Si 11.31415434 14.212796939999999 23.20889986212986 
Si 10.161408779999999 16.15687812 23.711890365892618 
Si 11.62097649 13.04778501 25.241875519844722 
Si 11.56368456 13.45368294 29.133067373120657 
Si 9.24421662 13.244226119999999 28.948195309684923 
Si 9.65716812 15.993505709999999 25.998435215751766 
Si 8.54690688 14.050662569999998 26.86571932569504 
Si 8.15931891 13.46389677 34.07696387984513 
Si 8.96733549 14.599782179999998 30.82159754717109 
Si 11.26385082 15.02330589 30.896910716718335 
Si 11.47798287 15.638839829999998 33.97899162742545 
Si 16.27921602 2.73083931 2.6855812404439163 
Si 13.57317009 0.013112342279999998 2.7136428520012115 
Si 12.243759479999998 1.212145416 1.1413116086810053 
Si 14.93270091 1.3564243169999999 4.069962075938155 
Si 12.21746742 4.0720927499999995 4.068933675807787 
Si 13.575010859999999 6.144425099999999e-05 8.14520327254553 
Si 13.57556472 2.7145656000000002 5.4308439684534955 
Si 12.217597739999999 1.357421265 6.787200900395218 
Si 14.931185939999999 1.3565171699999998 9.502520044608929 
Si 13.57595568 2.71673217 10.862819177050392 
Si 12.22160508 1.36407573 12.261820434398023 
Si 14.926152329999999 4.05559098 12.267202395080279 
Si 13.823026109999999 0.1029757689 13.701306376877788 
Si 15.535186559999998 0.712788498 15.461207519975726 
Si 15.29313345 0.71469117 18.37895008985011 
Si 13.35882627 1.7273101499999999 19.33803605143086 
Si 15.341205239999999 1.4151090419999999 22.853553337083536 
Si 15.938901629999998 3.8367348299999997 22.903499303415053 
Si 13.29995421 0.8480313359999999 21.614399739999367 
Si 15.08950845 0.6993068939999999 25.1656025101758 
Si 13.54326165 1.3598175239999999 29.696562084553367 
Si 13.0484529 1.67557311 26.008205016990257 
Si 13.39935579 2.9478709800000003 27.97361478613997 
Si 13.27099059 2.8245068099999995 33.94999074374908 
Si 15.657980579999998 3.9901377599999996 30.466148182111727 
Si 14.37211314 2.3142225599999997 31.776604188234717 
Si 16.095644009999997 0.6831097469999999 32.448080913356016 
Si 14.85421569 4.11847038 1.1165031695361063 
Si 13.57240446 5.43432771 2.6942335135407416 
Si 14.93333622 6.7877171999999995 4.067116835577471 
Si 16.290488699999997 5.429701349999999 5.430364048392657 
Si 14.932538009999998 4.0726140299999996 6.787269460403909 
Si 13.57437555 5.42997828 8.145168992541183 
Si 12.21741855 6.7874728499999994 6.787303740408255 
Si 12.21186366 6.78564837 12.253044753285554 
Si 13.57721001 8.14175829 10.865321617367622 
Si 12.218428529999999 4.0728583800000004 9.50180016451767 
Si 14.93242398 6.78797784 9.501525924482905 
Si 14.85516051 6.7488003899999995 15.098490793995103 
Si 16.26121557 5.55573708 16.77814244692003 
Si 12.96695403 7.564701329999999 16.477198288770147 
Si 13.442622029999999 5.27556537 13.795747788849871 
Si 13.261004819999998 7.53704091 20.636288376006817 
Si 13.158442979999998 4.11871473 19.44231582465013 
Si 15.14616507 5.17922631 18.865966111587824 
Si 14.17935357 7.36949826 18.53523262966163 
Si 13.82872761 4.67949798 23.639011076653908 
Si 12.90285288 5.34243582 21.52126096819242 
Si 16.12165914 7.258530779999999 24.501153185945345 
Si 14.01387975 6.50976093 25.29716916685415 
Si 12.8184381 6.4118906099999995 29.400451407016213 
Si 14.5461555 6.593084279999999 27.741230636681255 
Si 15.217580429999998 4.38965001 28.1317141661818 
Si 13.947888959999998 7.039511729999999 31.64174665113919 
Si 16.071388199999998 5.947886249999999 31.683362576414726 
Si 13.482369629999999 8.08601391 33.88811533590531 
Si 12.217548869999998 9.49998591 4.072293116233654 
Si 14.966339759999999 9.58765869 1.0060907035394147 
Si 13.59131715 10.84532814 2.6865685045690695 
Si 13.57395201 8.145863369999999 5.430295488383965 
Si 14.932798649999999 9.502380539999999 6.78702950037349 
Si 13.574978279999998 10.86018462 8.145374672567257 
Si 12.21608277 9.502038449999999 9.50265716462631 
Si 14.95654947 9.4830606 12.245811672368637 
Si 12.228919289999999 12.199939379999998 12.24399483213832 
Si 12.423470759999999 11.53550286 17.068665483748852 
Si 12.23287776 9.629475119999999 15.283088617396071 
Si 13.724797409999999 10.811884769999999 13.760542224386956 
Si 15.15180141 12.18920427 15.21308884852239 
Si 14.406110369999999 11.11772952 20.886429567716544 
Si 12.681276299999999 11.700259919999999 19.435082743733208 
Si 16.17649128 10.728675449999999 19.372795975837285 
Si 16.215717599999998 8.42808762 19.00298328895712 
Si 14.32971027 9.066883679999998 22.029976232680884 
Si 12.653273789999998 9.529210169999999 23.656870958917956 
Si 13.18991526 11.371071599999999 25.06475073739109 
Si 12.34764081 11.29291218 29.313277355965393 
Si 15.89506524 8.366560289999999 28.82201061368883 
Si 13.063586309999998 10.36794969 27.21798065035026 
Si 15.346255139999998 10.0861164 27.41958135590664 
Si 15.63680358 12.110621309999999 28.62380362856266 
Si 14.340266189999998 11.345219369999999 30.484042344380125 
Si 14.848644509999998 9.0394839 30.79379646364682 
Si 14.935111829999999 12.21626196 4.070750516038103 
Si 14.84488152 14.88446622 1.3780116106868285 
Si 13.57584165 13.57509231 5.429884128331818 
Si 12.2173371 12.217662899999999 6.78788650048213 
Si 14.93245656 14.93242398 6.787509420434328 
Si 12.216604049999999 14.93242398 9.500223284317775 
Si 14.93276607 12.21769548 9.501628764495944 
Si 13.571866889999999 13.576362929999998 10.86192789693741 
Si 14.94050382 14.92585911 12.227266190017675 
Si 13.752897659999999 13.503025349999998 16.54291305710063 
Si 12.5027379 14.8470318 14.937066253531746 
Si 12.84784155 14.054930549999998 19.480092389438962 
Si 14.98640904 14.632101539999999 18.662000085731595 
Si 14.78131794 13.13052192 22.10450096212818 
Si 15.139274399999998 12.62367486 24.380281890622815 
Si 13.05413811 14.72793561 21.730300434691785 
Si 15.67252755 14.64205473 25.632256209332233 
Si 15.118765289999999 15.88162599 29.344095079872073 
Si 12.49667802 14.197207409999999 27.131834999429806 
Si 14.75528652 14.154543899999998 27.736020076020726 
Si 14.75126289 12.79051704 32.45020627362544 
Si 13.295002049999999 13.77541044 34.17339353206926 
Si 15.720697079999999 14.82515433 31.483887231127774 
