&CONTROL
  dt          = 30.D0,
  prefix = 'x1.33_y.66_z3.16_struc14-scf',
  pseudo_dir = './',
  outdir='./',
  wf_collect= .true.,
  verbosity= 'high',
/

&SYSTEM
ibrav= 6, celldm(1) =30.783621515, celldm(3) =2.1114449815674807, nat=  432, ntyp= 1,
  ecutwfc     = 12.D0, nbnd= 1728,
  degauss     = 0.05D0,
  occupations = "smearing",
  smearing    = "methfessel-paxton",
/
&ELECTRONS
  electron_maxstep=200,
  conv_thr    = 1.D-8,
  mixing_beta = 0.3D0,
  scf_must_converge=.false.,
/
ATOMIC_SPECIES
Si  28.08  Si.pbe-hgh.UPF
K_POINTS {automatic}
1 1 1 0 0 0
ATOMIC_POSITIONS (angstrom)
Si 1.481932251 1.431941499 1.300013442528831 
Si 4.07144115 1.355907924 4.071835225509791 
Si -0.0001369365093 -3.8436417899999994e-05 5.431865269113033 
Si 0.000479517327 2.71480995 8.145011873130821 
Si 2.71494027 0.000139815441 8.144805500498324 
Si 2.7140606099999998 2.71433754 5.430351869808045 
Si 1.357892046 1.357421265 6.787664673750058 
Si -0.001047665286 -0.0005834442689999999 10.862836256818573 
Si 2.71182888 2.71591767 10.856817055037371 
Si 1.358755416 1.372087152 12.240167206112933 
Si 2.6844290999999996 2.8077444000000003 16.689801930849807 
Si 0.035025291900000005 2.71221984 13.819915312449478 
Si 2.72013678 0.046188991799999995 13.653750947849511 
Si 4.00012353 1.489914351 15.106304721689538 
Si 3.5635352399999998 2.018331 20.461433766951913 
Si 1.69836282 0.8029601639999999 19.635908841519544 
Si 3.54685428 3.8783232 18.915943517610103 
Si 1.9751136299999998 0.36593856 17.291790899847655 
Si 1.5052546439999999 0.7391913299999999 23.512825115634588 
Si 3.24143307 2.02009032 24.49780729511073 
Si 3.5786686499999996 3.2169166199999997 22.49035190792124 
Si 2.06221626 3.38183658 26.033322867215116 
Si 0.0716777919 3.33027873 30.04665145141161 
Si 2.3602581 2.7718575299999997 29.947695774128626 
Si 2.16026577e-05 2.1163968 26.29476259715185 
Si 3.48469164 3.6245249999999998 27.978797673777585 
Si 3.24045567 2.3084396099999998 34.187346345298366 
Si 2.49103422 0.396470907 30.167689000371922 
Si 3.2666499899999994 3.7936477799999997 32.0213279854726 
Si 1.360423512 4.07359143 4.072763902356034 
Si 2.71487511 5.40793791 2.70580317784472 
Si 1.256069772 6.6001704299999995 1.3315299830552125 
Si 3.05227359 7.393574879999999 0.015699763621877454 
Si 2.71492398 5.4297828 8.145011873130821 
Si 1.357377282 6.787554299999999 6.787630278311308 
Si 1.3582129589999998 4.07091987 9.502152699879087 
Si 1.358563194 6.77784546 12.237312384696706 
Si 1.322361927 4.20824457 15.291730531989355 
Si 2.7015987599999995 5.45166027 13.767359082039883 
Si 0.571397814 5.338672829999999 20.770476784118276 
Si 2.53373031 5.987552399999999 19.696685581790323 
Si 2.08477791 7.84716993 18.240382705126574 
Si 1.63217655 5.353317539999999 24.782188782693535 
Si 1.416746187 4.22885142 22.650393884423753 
Si 3.2140658699999998 7.172812799999999 24.929573237736143 
Si 3.26790432 7.12873206 29.28028668062878 
Si 1.3383896579999999 8.03598732 28.274460865270303 
Si 0.14896846619999998 4.90480497 34.03583443760579 
Si 1.9844477999999999 5.9582304 31.04339687094016 
Si 1.482525207 7.71621462 32.6109689919593 
Si 4.0321985399999996 9.35954982 1.2137290448812477 
Si 1.35814617 9.50229909 4.068774031461064 
Si 2.72070693 10.85822982 2.6824830703724003 
Si -0.0001139270472 8.14486968 8.144874291375823 
Si 2.7150543000000003 8.144397269999999 5.429870333665549 
Si -0.00243289521 10.85847417 5.429835938226799 
Si 2.7152009099999996 10.85984253 8.144805500498324 
Si 4.07287467 9.51246405 12.2250676085018 
Si 1.357585794 9.50278779 9.502565445144084 
Si 2.7156733199999996 8.1430452 10.863077024889822 
Si -0.000753257745 10.86187878 10.86455602875606 
Si 4.0721253299999995 12.21745113 9.502462258827833 
Si 1.3332827429999998 12.2448672 12.230742855895507 
Si 3.1984926299999996 8.52149448 16.22828393370587 
Si 1.445035401 9.52145613 14.955893468036951 
Si 2.72375316 10.952874719999999 13.53367647117419 
Si 0.577131894 11.23360029 18.681641788846918 
Si 2.35403532 9.84706065 19.399715363625116 
Si 3.66072138 8.26223913 22.863370441162107 
Si 2.1291355800000002 11.5175187 23.034694121574535 
Si 2.00197584 9.54786222 21.761340583620623 
Si 2.51025642 10.93423896 25.290484576537107 
Si 0.544905387 9.696932010000001 29.79140290044983 
Si 1.9283939099999998 8.820969839999998 26.088286778337192 
Si 3.74248089 11.1118977 28.45868283521388 
Si 1.432338975 11.537653139999998 28.61679866714641 
Si 0.011885688989999999 10.99579887 34.156528032178606 
Si 1.4971291919999998 10.083005009999999 32.15835941345154 
Si 3.9517096499999997 10.64642724 31.947205814966924 
Si 0.337820391 15.91119234 0.16329372128191338 
Si 2.72259657 16.2890226 2.7102264312679356 
Si 4.026790259999999 14.95252584 1.2386898147819299 
Si -0.007124154569999999 13.563021419999998 2.7158225691525173 
Si 2.0514322799999998 14.157264329999999 0.016144634226666517 
Si 1.363116249 12.29872194 1.2803461306517332 
Si 1.356329835 14.936284709999999 4.069943476378556 
Si -0.000221333859 13.575434399999999 8.14525264120207 
Si 2.7137510999999996 13.574668769999999 5.4303174743692955 
Si 1.357007499 12.21771177 6.787389510240061 
Si 1.358538759 14.93366202 9.502152699879087 
Si 2.71248048 13.57650954 10.86211395260483 
Si 4.01168943 12.270931199999998 14.913999823639774 
Si 1.021255938 15.49221354 15.0078649759878 
Si 3.4818897599999996 13.60356723 19.334467216316874 
Si 3.82173174 14.667385679999999 21.46798188652414 
Si 0.9804576329999999 13.486148909999999 19.39651658782139 
Si 0.0940229478 14.129522459999999 21.58592384599698 
Si 1.77005511 15.711623549999999 21.60852164925555 
Si 0.48060224099999993 16.18711236 25.404471060553725 
Si 0.536765274 13.28161167 29.831886331858268 
Si 1.124306478 12.41035731 26.458037744896835 
Si 1.91174553 14.695632539999998 26.569788525394724 
Si 1.2005697419999999 15.26847039 28.740209501380455 
Si 1.7773204499999997 13.53580083 31.926534156278336 
Si 4.05705708 13.07775861 31.73330058138233 
Si 1.5142206599999999 15.79975245 32.02452676127633 
Si 4.0964463 4.01577822 1.258092281780655 
Si 5.44771809 2.71182888 2.6894275094559714 
Si 6.79939713 1.2748163039999998 1.1584727725297996 
Si 5.429212649999999 0.00178220745 5.430111101736798 
Si 5.42991312 2.7146633399999995 8.145355827518319 
Si 6.787554299999999 1.357579278 6.7876990691888075 
Si 4.06033137 4.0760838 12.23648689416671 
Si 4.07227194 1.3584475349999998 9.500811277767847 
Si 6.78858057 1.3563037709999999 12.1991334476845 
Si 5.44271706 2.7051174000000002 13.555379993025271 
Si 8.13641517 0.165377709 13.632460171263427 
Si 5.39743086 0.1421038602 16.579805317728155 
Si 5.213581919999999 0.235709784 20.83345483246904 
Si 6.68624679 1.75107726 17.883495632659333 
Si 5.8317874199999995 3.84165441 18.492604457478375 
Si 7.125229709999999 0.986514255 22.1329832993115 
Si 6.87929958 1.2397699979999999 24.57949646214135 
Si 7.6150863 3.45036861 25.063749844298854 
Si 4.9171365 0.985618305 25.79217644614073 
Si 6.08737752 1.89122013 29.92895026001002 
Si 7.40805669 3.8317663799999995 27.41777367233067 
Si 5.49447039 2.4218994599999997 27.686952375986092 
Si 5.61405528 3.5322421499999996 31.618694979468216 
Si 5.02430841 0.338230899 34.125606532742594 
Si 6.78851541 4.0725814499999995 4.0734518111310285 
Si 4.07344482 6.787619459999999 4.069909080939806 
Si 6.69439179 6.72575004 1.2615627815505033 
Si 5.43142809 8.146857059999999 2.698865617848899 
Si 4.07245113 4.07228823 6.787767860066308 
Si 5.42960361 5.428512179999999 5.430799010511792 
Si 6.7875054299999995 6.787391399999999 6.787595882872559 
Si 6.7868049599999996 4.073119019999999 9.501464791104091 
Si 4.07359143 6.787456559999999 9.502703026899082 
Si 5.43120003 5.4286425 10.859878249086098 
Si 6.800065019999999 6.78682125 12.229607806416764 
Si 4.4344312200000005 6.70582737 15.074248172774787 
Si 6.1505338499999995 4.76461323 14.598524859427211 
Si 4.1432800499999995 6.6402927 21.26611505650195 
Si 7.00867476 4.68752895 20.28605142476702 
Si 5.82377274 6.851117879999999 19.689978471234127 
Si 5.32632501 4.79228994 22.11492569396789 
Si 6.58106226 5.289607349999999 24.037837092710536 
Si 5.32661823 6.40369674 25.823545086280486 
Si 6.988409999999999 5.679182699999999 28.99948231867595 
Si 7.074747 7.973824679999999 26.310515708099224 
Si 4.72496337 5.68362987 28.07899158685556 
Si 7.817668739999999 7.8938082 28.513715537213454 
Si 4.96335123 5.71967964 34.297790099123766 
Si 6.94820628 5.40410976 31.35914699866272 
Si 8.13200058 10.849954499999999 2.689238334542848 
Si 6.78827106 9.5034231 4.071904016387291 
Si 6.7754997 12.081087539999999 1.0946967500000424 
Si 4.0726629 9.50233167 6.787595882872559 
Si 5.42997828 8.145097739999999 8.145011873130821 
Si 5.43032037 10.85888142 5.4296983564718 
Si 8.14428324 8.14555386 10.858915176801103 
Si 6.7889715299999995 9.502804079999999 9.501396000226592 
Si 5.432568389999999 10.857920309999999 10.863627351909818 
Si 6.80017905 12.214535219999998 12.25485405845907 
Si 4.4163819 10.674625229999998 16.541041658257203 
Si 6.71162661 10.932626249999998 16.182950745433722 
Si 5.47974423 8.169744510000001 13.60349921183615 
Si 7.294824899999999 9.01416924 15.007521021600303 
Si 6.18901083 10.77083397 19.63872926749702 
Si 7.23254823 8.66698047 19.83296031011677 
Si 4.09105431 11.3399577 18.72171247499036 
Si 7.81302609 11.76167322 18.11298199999756 
Si 7.81094097 12.19783797 22.26485541147798 
Si 7.572716009999999 8.46270387 22.146500706740145 
Si 5.7011090399999995 9.443068649999999 23.184520652768377 
Si 5.69089521 11.383223939999999 21.86672820794981 
Si 6.27471252 9.97668018 25.439932757904703 
Si 8.11113309 11.40733314 25.72335117320251 
Si 4.28096313 9.23931333 29.800380109963513 
Si 6.603493589999999 9.29973294 29.919147559966344 
Si 6.98691132 11.6142813 29.534537763866815 
Si 4.579314479999999 11.353820489999999 26.229892799669848 
Si 5.4196992900000005 10.50429699 33.98413809316494 
Si 7.56447327 9.300286799999999 32.23320388817096 
Si 7.9574206499999995 11.812253669999999 31.634413694976843 
Si 4.0739661 12.21686469 4.0684988679510665 
Si 5.43494673 13.562728199999999 2.6735368167535944 
Si 6.78851541 14.930713529999998 4.066572723381082 
Si 4.072548869999999 14.93296155 6.78749269655631 
Si 5.429733929999999 13.575304079999999 8.145011873130821 
Si 6.787521719999999 12.21719049 6.787389510240061 
Si 6.787684619999999 14.93245656 9.503494121990327 
Si 4.076637659999999 14.92950807 12.247355852811626 
Si 5.4259872300000005 16.2913032 10.86066934417734 
Si 5.51673882 13.642728389999998 13.724949506061462 
Si 6.880537619999999 15.1739721 15.13849885235929 
Si 7.69533084 14.061772349999998 18.741524247710203 
Si 5.457247740000001 15.105179429999998 18.883886968695354 
Si 7.50211515 13.181069789999999 24.36063828537679 
Si 4.118177159999999 12.850399079999999 22.890095697070652 
Si 5.17991049 13.3213104 24.992448099770655 
Si 4.923473309999999 12.736043279999999 29.586268503746414 
Si 4.25815713 15.05088486 26.318289077256665 
Si 7.68474234 14.715261989999998 27.864088885547222 
Si 5.351281289999999 14.706221039999999 28.378851021875747 
Si 4.82185629 16.22352051 30.11867550015355 
Si 7.75164537 14.239968659999999 32.03388232061626 
Si 5.50872414 15.115686479999999 32.19024398517255 
Si 12.19102875 1.253036574 1.345700903820103 
Si 8.15456223 -0.0086716557 2.6796660839387965 
Si 9.50050719 1.36166481 4.068739636022315 
Si 10.85244687 2.71922454 2.6892245763673484 
Si 8.144462429999999 0.00024481915199999995 8.144839895937073 
Si 8.14379454 2.71494027 5.431452523848036 
Si 10.86046155 -0.00044833663799999997 5.429182424890554 
Si 10.859402699999999 2.7157058999999997 8.144805500498324 
Si 12.21820047 1.363821606 12.257055366539051 
Si 9.50223393 1.357839918 9.503184563041577 
Si 8.145863369999999 2.71487511 10.85791770907736 
Si 8.926740809999998 2.12970573 14.895288704959919 
Si 10.86544629 2.9032689599999997 13.69808666839792 
Si 8.853598709999998 1.3096817909999998 17.151663882381236 
Si 10.88950662 0.375883605 21.443801893083076 
Si 8.40414132 2.9036762099999995 21.28262486710182 
Si 12.07639602 4.0734774 17.552026789428144 
Si 11.4406299 1.5463689749999998 19.46788712322709 
Si 9.349661789999999 2.48938893 19.094662217353722 
Si 11.79404145 3.9785881499999998 22.398206527510702 
Si 10.9643103 1.9891393199999998 23.1558348568511 
Si 9.86607108 2.8869463799999995 25.00796044264679 
Si 9.987724799999999 1.233987048 26.69013816558004 
Si 11.285255880000001 3.96540954 28.228164604713157 
Si 9.27743193 2.7292917599999997 28.31632011422873 
Si 8.19592254 2.63896371 34.186830413717125 
Si 9.41226426 2.32117839 32.238741553809675 
Si 11.65492485 1.395911277 32.33363856932019 
Si 8.42921163 1.603805886 30.178007631996845 
Si 10.86523452 8.155164959999999 2.685193430945879 
Si 12.21846111 4.072923540000001 4.0661943735548345 
Si 12.1700961 6.844846229999999 1.1375672248577111 
Si 9.470468429999999 4.087926629999999 1.1577848637548052 
Si 8.1371808 5.41784223 2.688839347453351 
Si 9.50264118 6.787358819999999 4.067776563737322 
Si 9.502185059999999 4.07253258 6.78749269655631 
Si 8.14514661 5.430173759999999 8.145527804712067 
Si 10.85950044 5.42887056 5.42966396103305 
Si 10.8563076 5.4329756399999996 10.860187808034844 
Si 12.23462079 6.7984686 12.24573926719039 
Si 9.50272263 6.788401379999999 9.50167116373659 
Si 9.50282037 4.06606545 12.198789493297003 
Si 8.269390439999999 5.44113693 13.61113499923859 
Si 9.99028233 6.4257534 15.002980823685338 
Si 8.23257504 7.25177043 16.327480379060102 
Si 11.79016443 4.68102924 15.121335528423174 
Si 9.004558139999999 7.81393833 18.509458222465746 
Si 9.15944346 5.80697775 19.783155714807155 
Si 9.89141832 4.829414849999999 17.79478979612377 
Si 10.22873535 5.751249659999999 21.929499883668072 
Si 8.43668874 6.5938824899999995 23.281928535307625 
Si 11.77429797 7.55898354 22.14082545934644 
Si 9.173615759999999 7.822637189999999 25.16057300437936 
Si 11.59711164 5.8425714 29.574436472816508 
Si 11.13874362 6.82373439 25.93811629275585 
Si 11.406209129999999 4.477306499999999 25.899249446968653 
Si 11.71246113 7.647975809999999 28.09357525288545 
Si 10.64965266 6.35494077 31.737875174736043 
Si 9.06250167 4.68599769 32.09806420932326 
Si 8.3647521 7.84943424 34.2415191613292 
Si 10.13399271 6.03632466 34.18793106775711 
Si 9.420930539999999 9.45241911 1.244633346597884 
Si 10.25779671 11.28002679 -0.0006458156370527605 
Si 12.11475897 12.10711896 1.3235227249142745 
Si 9.50308101 12.22033446 4.069874685501056 
Si 12.216652919999998 9.50158233 4.071388084806045 
Si 8.14384341 8.1459774 5.430558242440544 
Si 9.50236425 9.502608599999999 6.78752709199506 
Si 10.85984253 8.14526064 8.144736709620824 
Si 8.14557015 10.8597285 8.145355827518319 
Si 10.860168329999999 10.860510419999999 5.430627033318043 
Si 9.51114456 9.49485456 12.238928970317941 
Si 10.85963076 10.85909319 10.862561093308575 
Si 12.04928946 9.90133893 15.029052566257635 
Si 10.996890299999999 8.21721357 13.720065353758999 
Si 8.28429579 10.829559419999999 13.840139830434321 
Si 10.26897165 11.488799429999998 15.27969212842695 
Si 10.13949873 11.297424509999999 17.72204344316808 
Si 10.93296834 9.59811687 21.349936740735053 
Si 10.923959969999999 9.2514168 18.99983399272071 
Si 9.80936559 10.135442519999998 24.772661246159856 
Si 9.04091742 10.220003909999999 22.55735422260572 
Si 11.62842102 11.667631049999999 24.405558728383944 
Si 10.4366772 11.32200612 28.730647569408028 
Si 9.959706 8.94902553 28.99428860742474 
Si 10.20962718 11.885037389999999 30.993420298436796 
Si 9.842597190000001 8.52815709 31.36303368324144 
Si 11.08588257 10.26217872 32.37869659408234 
Si 9.606701699999999 14.957901539999998 1.1579362036853038 
Si 10.858588199999998 13.576998239999998 2.698170829986154 
Si 8.14421808 13.57352847 5.431177360338038 
Si 9.50269005 14.9323914 6.787423905678811 
Si 10.86062445 13.574473289999998 8.14514945488582 
Si 12.22706223 12.20990886 12.207010003158189 
Si 9.503797769999998 12.218102729999998 9.502255886195336 
Si 8.1472806 13.571769149999998 10.8658974508673 
Si 9.510085709999998 14.930843849999999 12.259497442690284 
Si 10.859321249999999 16.28726328 10.86486558770481 
Si 11.13788025 14.90429115 16.932668123861678 
Si 8.68022424 15.26133537 16.85974979371224 
Si 10.994707439999999 13.37879781 13.77950067191854 
Si 11.249727389999999 13.14541098 20.796651713006824 
Si 8.86438269 13.72191408 20.83634404932402 
Si 11.574582569999999 13.021574399999999 18.453531239058677 
Si 8.8931997 15.68121012 22.09683369318553 
Si 9.14132898 14.842812689999999 24.314582792890896 
Si 11.13300954 13.9013973 25.156032806464395 
Si 8.66570985 15.583111739999998 29.852867549495606 
Si 10.956002400000001 15.17421645 29.578323157395225 
Si 8.27577612 16.14980826 25.991910758960437 
Si 11.753446769999998 14.164676279999998 27.525740954566086 
Si 8.4448989 12.38132853 27.833683317692458 
Si 8.501897609999999 13.22143641 34.25538052314534 
Si 11.338654499999999 13.882142519999999 31.52080556078647 
Si 11.46556989 15.87642948 34.095992059979075 
Si 14.941350899999998 4.04606133 1.3231890891584022 
Si 16.2970047 2.7119591999999995 2.70453742569873 
Si 13.59350001 -0.008950133249999999 2.7140202481620315 
Si 13.26879144 2.9621247299999998 0.1365815356400948 
Si 14.93494893 1.353560535 4.072316761652288 
Si 13.57567875 -0.0007382448809999999 8.144599127865824 
Si 13.575287789999999 2.7152171999999997 5.4297671473493 
Si 12.21740226 1.3572062369999998 6.787286323923811 
Si 14.93338509 1.357561359 9.502187095317835 
Si 13.574668769999999 2.71497285 10.865794264551052 
Si 15.51472632 0.7695526319999999 15.117552030160702 
Si 12.9121056 2.37022758 16.191584000559903 
Si 12.2833116 0.571461345 17.49028697687237 
Si 14.784559649999998 1.566130374 21.138336001546687 
Si 12.93253326 3.01060377 20.607614381638285 
Si 15.88392288 1.8388314899999998 19.107629297762376 
Si 14.743948679999999 0.4616928089999999 17.40398882104929 
Si 16.244909279999998 2.36656233 22.818897138858702 
Si 12.79763577 1.119447171 24.40205039363147 
Si 14.716141649999999 2.4834104999999997 24.556589099934023 
Si 12.32221212 0.9705125879999998 26.677790203068888 
Si 12.88714932 2.29140027 28.525547568143363 
Si 15.22702863 2.15210448 28.38837855840942 
Si 15.619356989999998 2.86808256 32.375704190911115 
Si 13.27261959 3.3062509799999997 32.23519882361845 
Si 15.802228529999999 0.488959011 32.40989325702835 
Si 12.37487769 0.658790406 30.19702830962545 
Si 16.283190779999998 8.14993587 2.6874738485349865 
Si 13.566230549999998 5.43900294 2.6851727936826295 
Si 14.92928001 6.78916701 4.071560061999793 
Si 16.2909774 5.430141180000001 5.429320006645553 
Si 14.93263575 4.07269548 6.787595882872559 
Si 13.57507602 5.430190049999999 8.144805500498324 
Si 12.21727194 6.7877171999999995 6.787423905678811 
Si 13.575157469999999 8.14491855 5.4304894515630435 
Si 14.93183754 4.06727091 12.264072036043999 
Si 13.571703989999998 8.14415292 10.860222203473596 
Si 16.292280599999998 5.42908233 10.862389116114828 
Si 12.217809509999999 4.0729887 9.50290939953158 
Si 14.932603169999998 6.788873789999999 9.502599840582832 
Si 13.62731805 5.542037189999999 13.780291767009784 
Si 16.148081519999998 5.35170483 16.79549911412774 
Si 16.2917919 8.09474535 13.659598172436965 
Si 14.951678759999998 6.99433956 15.280001687375696 
Si 16.15533057 7.569099629999999 17.603172806849 
Si 13.44620583 7.01287758 20.482586961783003 
Si 13.582031849999998 4.87323495 19.336874897029354 
Si 15.80877711 4.2236223299999995 18.913948582162618 
Si 15.33301137 6.797083949999999 21.853142009643662 
Si 14.368089509999999 6.13271259 23.962476686409865 
Si 12.7037565 7.72784568 24.389702431120316 
Si 13.16763054 4.22600067 24.311143249015924 
Si 15.96662721 6.33503439 25.60692261303466 
Si 15.66434997 5.560412309999999 29.98828239185331 
Si 15.634115729999998 6.809659829999999 27.954514494020273 
Si 13.47898131 5.325363899999999 30.885831366027624 
Si 15.420504959999999 6.72348573 32.677902515766284 
Si 13.814245799999998 8.07549057 34.006735896423514 
Si 14.97598344 9.498079979999998 1.1478549005877567 
Si 13.586267249999999 10.838714399999999 2.6906760638825866 
Si 14.932163339999999 9.502608599999999 6.787595882872559 
Si 13.57450587 10.860217200000001 8.144908686814572 
Si 12.21865659 9.50327649 9.501258418471593 
Si 14.93389008 9.49990446 12.240958301204177 
Si 14.234788439999999 8.93646594 16.599307531499253 
Si 13.589639279999998 10.93309866 13.628470300368456 
Si 15.964069679999998 10.573057079999998 16.321117222891402 
Si 14.691217949999999 10.7847945 19.545036092342745 
Si 13.34582685 8.84998233 18.90761982143267 
Si 12.30010659 11.34802125 22.11138296377667 
Si 16.09440597 8.92494891 22.54565977343081 
Si 14.70522735 10.83890988 21.907246034796994 
Si 16.19496414 8.60462235 24.92376040858744 
Si 14.073126479999999 9.19446696 25.74285338697361 
Si 14.47061877 9.990233459999999 29.88444256226786 
Si 13.46614479 11.414533319999999 25.823957831545485 
Si 13.92037515 8.49834639 28.01928110518602 
Si 12.625369019999999 12.060627299999998 27.943748721691605 
Si 13.414277429999999 9.84846159 32.23227521132472 
Si 14.31908919 11.96531451 33.07778388667069 
Si 12.21692985 14.931088199999998 4.073039065866031 
Si 14.93421588 12.21894981 4.071353689367295 
Si 14.85516051 14.810151239999998 1.3240592937587703 
Si 13.5742941 13.575010859999999 5.4304894515630435 
Si 12.21746742 12.21777693 6.787630278311308 
Si 14.93257059 14.932179629999998 6.787664673750058 
Si 12.21890094 14.93268462 9.502599840582832 
Si 14.93120223 12.21732081 9.501567977420342 
Si 13.574815379999999 13.5752715 10.859121549433603 
Si 14.931462869999999 14.926510709999999 12.232015487129244 
Si 12.65768838 14.377000139999998 15.045734354051257 
Si 14.71246011 12.43388007 15.254549062700892 
Si 13.63187925 16.230883589999998 13.727288395896444 
Si 16.2562797 13.667424029999998 13.797420695507151 
Si 13.88654082 12.654169739999999 18.318391560210973 
Si 14.554170179999998 15.46960302 20.930209201672042 
Si 15.17797944 14.61770118 18.77117311591247 
Si 12.43373346 14.94192105 21.720581988702186 
Si 16.17406407 12.33193725 23.03885596966325 
Si 12.832659269999999 15.089915699999999 24.012900399616978 
Si 14.81831253 14.85543744 25.215777683572686 
Si 15.405306389999998 12.63108681 25.26403448413856 
Si 14.46690465 12.34713582 29.470631038669808 
Si 13.70173077 15.39839943 27.18467578392372 
Si 15.315287849999999 16.12833804 28.728446261328042 
Si 13.15979505 13.738839389999999 34.379788825103134 
Si 14.343849989999999 15.770169809999999 30.80231924074327 
Si 13.68894312 13.516627499999998 31.334691841711656 
