&CONTROL
  dt          = 30.D0,
  prefix = 'x1.33_y.66_z3.17_struc6-scf',
  pseudo_dir = './',
  outdir='./',
  wf_collect= .true.,
  verbosity= 'high',
/

&SYSTEM
ibrav= 6, celldm(1) =30.783621515, celldm(3) =2.118483252460307, nat=  432, ntyp= 1,
  ecutwfc     = 12.D0, nbnd= 1728,
  degauss     = 0.05D0,
  occupations = "smearing",
  smearing    = "methfessel-paxton",
/
&ELECTRONS
  electron_maxstep=200,
  conv_thr    = 1.D-8,
  mixing_beta = 0.3D0,
  scf_must_converge=.false.,
/
ATOMIC_SPECIES
Si  28.08  Si.pbe-hgh.UPF
K_POINTS {automatic}
1 1 1 0 0 0
ATOMIC_POSITIONS (angstrom)
Si 1.0838877299999998 1.272716523 1.1809526095339242 
Si 1.360710216 4.07096874 4.072535978466077 
Si 4.06753155 1.363808574 4.068394767404168 
Si -0.0001002473568 2.71498914 8.145382547761798 
Si 2.71487511 0.000132963867 8.145209997300885 
Si 2.71461447 2.71484253 5.432095570090936 
Si 1.3569781769999998 1.35850455 6.788031602036625 
Si 2.7150380100000002 2.71371852 10.862362105296196 
Si 1.3426185419999999 1.368760734 12.223233080423991 
Si 3.9328458299999998 0.44385525899999995 16.67831343073395 
Si 2.70816363 0.08258622749999998 13.59214490703033 
Si 2.75975406 3.55244175 16.129741005399683 
Si 0.311407785 0.511810623 16.410791196134603 
Si 3.77724375 1.8558056699999999 14.776565780828603 
Si 3.5439057899999997 3.0885351299999995 20.180708176251652 
Si 1.1876143049999999 2.7083916899999996 19.696945704036267 
Si 2.0678525999999997 1.7654124599999999 17.440192735848733 
Si 3.06032085 2.30342229 23.644762209354504 
Si 0.792273924 2.0428963199999997 24.20241078893279 
Si 3.5683570799999997 1.248806061 21.627888891928077 
Si 0.11968637669999999 1.95471855 26.450605254259045 
Si 0.888313248 3.9983642099999996 27.359601082348156 
Si 1.0754364779999999 0.37836294299999995 27.95641861655367 
Si 3.13364214 1.406421585 28.734621195270815 
Si 2.01479607 3.1636320299999996 34.42381695212196 
Si 0.15186792329999999 1.322580213 31.757739780556864 
Si 2.52742608 1.97778519 32.45522325365896 
Si 3.1433021099999996 3.12186447 30.389311095241084 
Si 3.8991255299999996 4.079276640000001 1.1822950521198266 
Si 2.70552465 5.42789316 2.7038691735142364 
Si 1.3451760720000001 6.7063975199999994 1.2135370385727149 
Si 0.00392512437 8.140064129999999 2.678876964755613 
Si 3.18065508 7.75459386 0.03427224862725607 
Si 0.000303849225 5.42883798 5.4299559443756165 
Si 2.7151683299999996 5.4305321399999995 8.144933916563424 
Si 1.357745436 6.78700044 6.787617480930433 
Si 4.07372175 6.788841209999999 9.502250352196416 
Si 4.07854359 4.07893455 12.24997840186549 
Si 1.358261829 4.073428529999999 9.502768003579154 
Si 2.81497716e-05 5.42903346 10.864329180550602 
Si 1.364541624 6.7934187 12.220472273049387 
Si 0.906036768 4.57885836 15.050196301744268 
Si 2.70255987 5.52364578 13.68249232836432 
Si 0.029330470799999998 8.022091949999998 21.30511599974442 
Si 3.7436700599999995 5.1308613 21.563182469085742 
Si 0.21123568799999998 4.3117186499999995 21.17356352834443 
Si 2.8709496 6.83448579 20.189301189205114 
Si 0.615775032 6.23768535 19.790744134588515 
Si 0.66520215 4.271449769999999 23.521975301368894 
Si 0.294089886 7.63981452 23.645555941474704 
Si 2.9187118799999996 4.795922609999999 23.86483306720281 
Si 2.55267558 7.2519496199999995 24.079106229564438 
Si 2.5959092399999997 7.767446669999999 26.35915350997521 
Si 3.89003571 6.7134185099999995 29.54567738174577 
Si 1.610633025 6.546836969999999 30.10349851178497 
Si 1.1511605429999998 4.2705864 29.72074707938799 
Si 3.02094792 4.326135299999999 26.34283023637285 
Si 0.379715013 7.75882926 27.09342474134393 
Si 3.9911477399999997 6.218202509999999 27.270012883042185 
Si 0.324825858 4.9764972599999995 34.339025655629364 
Si 4.04216802 9.47706588 1.3566607438815221 
Si 1.357597197 9.50457969 4.070534393119488 
Si 4.0736403 12.21282477 4.069947721552384 
Si 2.7096623099999997 10.84448106 2.7151850327409037 
Si 2.13793218e-05 8.14513032 8.145279017485251 
Si 2.71536381 8.14550499 5.430784186587998 
Si -0.0005594393249999999 10.8587511 5.430301045297442 
Si 2.7151683299999996 10.860217200000001 8.14472685601033 
Si 1.358489889 9.50400954 9.50218133201205 
Si 2.7147936599999998 8.145114029999998 10.861913474097824 
Si -0.00401576193 10.86209055 10.859911888751233 
Si 3.5872534799999998 8.477381159999998 16.44257499103476 
Si 0.0882683424 8.225097929999999 13.590557442789931 
Si 1.580719698 9.280331549999998 15.225507570031768 
Si 2.6755836299999998 10.83491883 13.714379653541021 
Si 0.0275877666 12.20441913 17.118731227168016 
Si 0.453006981 9.747968579999998 17.487160971309226 
Si 0.023226282 11.73940479 20.85041102514677 
Si 3.2117364 9.15773301 20.569740445425857 
Si 1.0483429499999999 9.81526257 20.02341117608346 
Si 3.4480391399999997 9.06724206 22.88750725659219 
Si 2.73307104 11.12097123 23.820936229946568 
Si 1.4409987389999999 10.85474376 25.726410969807635 
Si 0.183562236 8.28338355 29.382410135629993 
Si 2.69617419 10.428336719999999 29.351523603126587 
Si 3.07260351 9.9344565 27.08807567705563 
Si 1.5068217419999999 10.92492108 32.61738617682489 
Si 3.00938202 8.96327928 32.51506375350355 
Si 0.627168258 10.33196508 30.504574803130897 
Si 2.7062576999999997 16.291466099999997 2.6761817265561536 
Si 1.485437859 12.317504309999999 1.3369209711530872 
Si 1.355960052 14.93338509 4.0709830243178615 
Si -0.00047993109299999996 13.575043439999998 8.144899406471243 
Si 2.7134253 13.575238919999999 5.429265742531965 
Si 1.3577438069999999 12.21696243 6.787686501114798 
Si -0.00544799502 16.2930951 10.859325217184129 
Si 4.08615102 14.93641503 12.247045044029973 
Si 1.3567941 14.93305929 9.502871533855703 
Si 2.71557558 13.57395201 10.863811529167863 
Si 1.3614611849999998 12.20580378 12.233344537433489 
Si 3.92514066 12.27625803 15.042811142017197 
Si 2.16028206 13.3535646 16.33442036213456 
Si 0.0173859912 13.64634477 13.579445193107142 
Si 1.3185370349999999 15.08735817 14.990942473466779 
Si 1.6166896469999998 16.16148819 21.511727921641516 
Si 1.230525423 15.16996476 19.414929230720237 
Si 3.08100915 14.83277805 17.94190045599906 
Si 2.64543084 14.41836045 22.686037338430296 
Si 1.242381285 12.56029047 22.705432010236905 
Si 3.13913187 15.12648675 24.93595730836568 
Si 3.6343804499999997 12.505718969999998 29.798256746430063 
Si 0.5493053159999999 12.9323052 26.333029370193 
Si 1.9590842699999997 14.6963493 26.93398811546042 
Si 4.030325189999999 14.0669037 28.01208339524417 
Si 3.19284 13.28420178 34.46785182974693 
Si 0.186989652 14.113721159999999 30.936744687533324 
Si 2.41158789 13.55725476 31.744418884974387 
Si 8.146075139999999 -0.0247269168 2.6919597407020284 
Si 5.414616809999999 2.71435383 2.678172958875088 
Si 6.579026009999999 1.114977195 1.295705568059434 
Si 5.43115116 -0.0017107106399999999 5.430439085666173 
Si 5.429766509999999 2.71529865 8.144899406471243 
Si 6.787358819999999 1.357571133 6.787824541483529 
Si 8.14959378 2.71217097 10.85987737865905 
Si 4.07243484 1.3567338269999998 9.501491130168398 
Si 6.780663629999999 1.347784101 12.228858225449754 
Si 5.6186327700000005 2.8152215099999998 13.699091682704141 
Si 7.30805238 3.72571848 15.239001016075154 
Si 7.52264055 0.229470714 21.007708025314958 
Si 4.79132883 2.4886558799999996 18.128496524430265 
Si 6.159900599999999 0.5504765669999999 24.254452007944117 
Si 4.09735854 0.9552895829999999 25.17466361599257 
Si 8.08150158 2.44472175 21.732868592347483 
Si 7.01172099 2.73759966 23.852167863371804 
Si 4.255452989999999 2.4013740599999998 26.958559301094414 
Si 6.54263415 2.4366093299999996 27.580569202593207 
Si 6.893748809999999 0.400533633 28.737554553106335 
Si 7.0508007 1.88871147 32.474479885096834 
Si 4.73204952 0.895795245 33.0216719067438 
Si 6.7904376300000004 4.071571469999999 4.069395560077463 
Si 4.07192985 6.7869027 4.070396352750757 
Si 4.91060421 5.9585887799999995 0.11904118258011691 
Si 6.76150659 6.773805539999999 1.3689635917446115 
Si 8.13134898 5.43041811 2.716744888907556 
Si 4.07176695 4.0725814499999995 6.787824541483529 
Si 5.42966877 5.43085794 5.430024964559982 
Si 6.78760317 6.787652039999999 6.787375910285155 
Si 6.78763575 4.07267919 9.503354675146257 
Si 5.42465145 5.43120003 10.860705620871434 
Si 6.77883915 6.805603619999999 12.222473858395977 
Si 8.14840461 8.14082976 10.86187896400564 
Si 8.098280279999999 5.34730653 13.527783585109821 
Si 4.5326273399999994 4.85349147 17.028901457216765 
Si 4.39574247 6.56113959 15.160559576544152 
Si 7.773767189999999 7.1490782699999995 16.195206650270038 
Si 7.678128599999999 5.82787782 20.749503515604907 
Si 8.10686511 7.727128919999999 19.397915755274227 
Si 4.23445518 6.7928159699999995 18.313470618528882 
Si 7.114445729999999 4.4678583 17.734667352442674 
Si 5.79611232 6.17246019 22.161242366609827 
Si 6.42567195 5.092938179999999 24.16427713707104 
Si 5.9714415899999995 6.43614642 26.099050945195117 
Si 6.816648239999999 4.274153909999999 29.04673046897005 
Si 7.642697849999999 5.960348099999999 27.683340257112928 
Si 4.94745219 4.800239459999999 30.42851455996049 
Si 5.80036401 5.75126595 32.47234025938152 
Si 7.658662049999999 4.25273256 32.41122288612617 
Si 6.62159178 8.119115189999999 32.74193309951182 
Si 8.12400219 10.85651937 2.71216194866571 
Si 5.4380418299999995 8.16091533 2.7216591260343552 
Si 6.786414 9.504921779999998 4.075469336301597 
Si 4.85411049 11.37178836 0.20773798620501444 
Si 6.856102619999999 12.194107559999999 1.2188377887319588 
Si 4.07269548 9.50246199 6.787341400192973 
Si 5.42957103 8.145 8.144761366102511 
Si 5.43133035 10.85886513 5.430266535205259 
Si 6.786299969999999 9.50332536 9.502629963210424 
Si 4.07178324 9.5037489 12.243939135733541 
Si 5.429212649999999 10.86109686 10.859635808013772 
Si 6.775923239999999 12.207253589999999 12.231653542916542 
Si 8.06685687 10.755782009999999 13.610159175149636 
Si 4.9518341999999995 10.56574287 16.347223606334296 
Si 5.51952441 8.16866937 13.700713657036722 
Si 6.78304197 9.507381569999998 15.213739628597507 
Si 6.5537113499999995 10.226014919999999 21.52584254934419 
Si 5.209607159999999 10.017910169999999 19.599765284450125 
Si 5.836723289999999 11.967595109999998 18.383319045106422 
Si 6.10286931 8.31071817 18.235891931302444 
Si 5.69988729 8.49288924 22.90493485314439 
Si 4.813059689999999 11.947232609999999 24.577190390035593 
Si 6.289568999999999 8.58193038 25.175146757283127 
Si 6.2925989399999995 10.19853369 29.996241145281516 
Si 5.27892111 10.430926829999999 26.310045648799402 
Si 6.708368609999999 11.374411049999999 27.988961633481843 
Si 4.2759132300000005 8.94633768 30.229046227145187 
Si 7.90871355 8.844069059999999 30.97191047146737 
Si 5.23731645 11.750905529999999 31.373366373827306 
Si 5.064039719999999 9.98045946 32.875556176442764 
Si 4.27454487 15.07683483 1.2785678562815657 
Si 5.4553581 13.581087029999999 2.6980645760091266 
Si 6.792587909999999 14.927276339999999 4.074779134457945 
Si 4.0728909600000005 14.93229366 6.787997091944442 
Si 5.42957103 13.574815379999999 8.144933916563424 
Si 6.78822219 12.21748371 6.788066112128807 
Si 8.145244349999999 13.574457 10.864915852117706 
Si 4.0728258 12.215919869999999 9.501974271458955 
Si 6.78721221 14.93325477 9.502768003579154 
Si 5.42645964 16.2919548 10.86001541902778 
Si 5.51460483 13.592522609999998 13.73615552170823 
Si 7.49475207 14.39816085 14.998638224023496 
Si 8.11215936 16.25443893 13.627310690964377 
Si 6.75762957 15.8649939 18.826946280113464 
Si 5.08119309 14.14582875 19.204762769328333 
Si 5.498933849999999 16.18905087 22.112548626540207 
Si 6.12205893 12.33019422 22.64486679845648 
Si 8.02284129 13.45532823 23.519214493994287 
Si 4.76598159 14.02564113 21.606182043945232 
Si 7.11263754 14.881305959999999 25.266909092396606 
Si 4.98615723 13.927428719999998 25.799710405603435 
Si 4.668974639999999 15.99643791 29.244438787084043 
Si 6.82777431 13.48263027 29.18325239364433 
Si 6.28546392 13.77436788 31.4961877919051 
Si 4.43412171 15.27873309 31.485938294526875 
Si 8.44618581 2.33421039 0.11169329375260231 
Si 9.503227619999999 1.358546904 4.067808095837065 
Si 10.36612521 0.6575735429999999 0.04890977324668107 
Si 10.853245079999999 2.7449790299999997 2.7036345048873947 
Si 8.145439829999999 -1.90011447e-05 8.14462332573378 
Si 8.1445113 2.71415835 5.430473595758355 
Si 10.86109686 -0.0016050927959999999 5.431025757233276 
Si 10.859598179999999 2.7147936599999998 8.14472685601033 
Si 9.501403139999999 1.3569081299999999 9.501180539338757 
Si 10.809669329999998 2.67346593 13.665237282273031 
Si 8.93397357 1.8247080599999999 14.835301957723352 
Si 9.51477723 0.789905358 16.803101924066155 
Si 11.29750596 2.59561602 19.921951505066676 
Si 10.64364165 2.5125370199999995 17.762102875727827 
Si 8.324906760000001 2.52626949 19.212424009792866 
Si 11.8693827 1.98350298 22.932059785599897 
Si 10.250156699999998 3.34407636 21.86469714448493 
Si 8.20137969 2.5682813999999996 25.855685775123575 
Si 9.91064052 2.41789212 29.962490275126953 
Si 9.75318138 0.783764028 26.35766957601136 
Si 11.22874587 4.04736453 26.605693608527552 
Si 10.96898553 2.09614833 27.89606046532634 
Si 8.331553079999999 0.785435382 30.63064016987385 
Si 11.85291351 2.93327514 31.383132729914976 
Si 11.94063516 1.0547449199999999 32.779514589898646 
Si 9.49794966 4.2141904199999995 1.245555502099711 
Si 9.50321133 6.78781494 4.070810473856948 
Si 9.502413119999998 4.07263032 6.787513950653886 
Si 8.145439829999999 5.4296199 8.144899406471243 
Si 10.86132492 5.42940813 5.429714373730339 
Si 9.513001619999999 4.06205811 12.213294173875411 
Si 10.857366449999999 5.43377385 10.859463257552859 
Si 9.503227619999999 6.78623481 9.501422109984034 
Si 10.043192249999999 5.97469959 14.769836312853 
Si 10.92988953 8.117013779999999 13.840721101021442 
Si 11.94548958 4.402209599999999 15.014512866427483 
Si 10.979557739999999 7.33405122 21.44885053368486 
Si 11.75101956 6.65663157 19.344942763773968 
Si 9.80179074 7.12542519 17.84282198134288 
Si 9.5558769 5.611448879999999 22.173838550256466 
Si 8.642170799999999 5.982355889999999 24.295484507549208 
Si 9.08112114 4.72911732 26.193263496853557 
Si 10.400676299999999 6.19314849 29.874075418955186 
Si 8.660904299999999 7.602152039999999 29.098219526506462 
Si 11.560947839999999 8.05268457 26.982647345437858 
Si 11.765647979999999 5.89398264 27.899615004821147 
Si 8.82080694 4.411592639999999 30.30427822810321 
Si 11.26738575 7.060476959999999 31.94454290954116 
Si 8.23681044 7.89439464 34.41667336304016 
Si 10.959341849999998 5.64938829 34.23632362129401 
Si 9.437839559999999 9.500718959999999 1.3234068190543895 
Si 10.85684517 8.15470884 2.7000627103464976 
Si 10.569880529999999 11.21423148 0.12229444897016857 
Si 8.14392486 8.146238039999998 5.430128494836529 
Si 9.502413119999998 9.502478279999998 6.787582970838251 
Si 10.860363809999999 8.14429953 8.145382547761798 
Si 8.14501629 10.86018462 8.144830386286877 
Si 10.862497799999998 10.85979366 5.4295763333616085 
Si 12.21706017 9.501842969999998 9.501732700813678 
Si 9.51891489 9.48721455 12.249633300943666 
Si 10.86492501 10.860298649999999 10.863777019075682 
Si 10.58905386 9.07056522 16.586482075436113 
Si 9.69945696 11.357860409999999 16.745124969199424 
Si 10.44174339 9.676211129999999 21.562699327795187 
Si 11.99533698 11.481876179999999 21.196616269922394 
Si 8.51154129 9.9328275 20.257113520343882 
Si 8.29727892 11.78166105 18.689734153595534 
Si 9.26936838 11.860309169999999 24.824041079417576 
Si 12.07103661 8.68936293 24.74325295361816 
Si 10.07515323 9.79268463 23.902932208972377 
Si 8.598318119999998 8.26360749 24.98040630709684 
Si 10.36879677 12.086870489999999 28.530286939457767 
Si 11.407968449999998 10.67037354 30.134108963550915 
Si 9.34871697 8.77286547 27.15347230174162 
Si 8.856644939999999 11.07799821 27.06730060156172 
Si 12.04875189 10.13923809 33.12668611725538 
Si 10.259327970000001 9.17275239 31.57911554341984 
Si 9.49969269 12.219357059999998 4.069188499524367 
Si 9.659595329999998 14.921525969999998 1.197275883136284 
Si 10.88114985 13.590828449999998 2.7163135127552738 
Si 8.142018929999999 13.57740549 5.43054261594272 
Si 9.502250219999999 14.9320656 6.787928071760077 
Si 10.860282360000001 13.574978279999998 8.144830386286877 
Si 9.50220135 12.2175 9.502388392565146 
Si 9.51884973 14.94045495 12.236657506283017 
Si 10.86007059 16.290488699999997 10.860567580502702 
Si 11.96423937 12.21981318 17.22022540827698 
Si 8.990890829999998 12.50438319 14.814595902413807 
Si 10.81256895 13.48671906 13.69146495233179 
Si 8.57446956 15.09695298 17.56857027876793 
Si 11.76206418 13.08839598 19.433530170406648 
Si 9.48319092 13.791260609999998 19.564116359225523 
Si 11.1138525 16.006081589999997 22.604904111709054 
Si 12.205396529999998 12.789865439999998 23.165934680321232 
Si 9.08814213 14.854427459999998 21.756887616506553 
Si 11.15632053 15.721788509999998 24.948346431459225 
Si 11.02070628 13.356561959999999 25.12027571071283 
Si 9.110508300000001 13.966948259999999 28.974880457045924 
Si 12.06157212 12.791852819999999 27.12886660601544 
Si 8.31058785 15.437511719999998 27.274464684933736 
Si 8.84431341 13.01614983 34.49525284293989 
Si 9.71359668 15.13095021 30.911862911069687 
Si 12.08268396 15.43094685 31.446700319715287 
Si 8.34986304 14.060713499999999 32.48776627058712 
Si 16.27862958 2.7125619299999997 2.7076480286082285 
Si 13.57219269 -0.026912546099999997 2.7223562298964437 
Si 13.76917137 2.1653808299999997 -0.012469428078054507 
Si 12.205461689999998 1.3407842879999998 1.4506110188393737 
Si 14.93579601 1.3618228229999998 4.072156367452069 
Si 12.21595245 4.07122938 4.07270852892699 
Si 14.92755327 4.01408406 1.2499693428898628 
Si 13.57533666 -0.00021167388899999998 8.145244507393068 
Si 13.57483167 2.7147122099999996 5.430301045297442 
Si 12.217304519999999 1.3580386559999997 6.78744493046952 
Si 14.933010419999999 1.356764778 9.501663680629314 
Si 13.575108599999998 2.7183611699999997 10.864639771380247 
Si 12.21497505 1.3406898059999999 12.246941513753423 
Si 16.26413148 2.71901277 13.72224795455865 
Si 14.840711279999999 1.330673085 15.130846387174953 
Si 13.49905059 4.0540923 17.194825980430604 
Si 13.951456469999998 0.583820568 19.570052095080925 
Si 16.28138259 0.780069456 18.845409179431147 
Si 14.09075226 1.7493179399999998 17.385977381029903 
Si 12.650879159999999 3.25889595 24.84740441182518 
Si 15.915834989999999 0.7223539859999999 22.659326527080978 
Si 13.935085019999999 1.7818816499999999 21.64669689216758 
Si 13.204185299999999 1.73729592 28.419613073828238 
Si 13.681156499999998 3.4746732899999997 29.911415338696735 
Si 14.064541649999999 1.8216455399999998 26.233812855168086 
Si 15.53376933 0.421067178 34.05314405198889 
Si 12.674418209999999 4.05822996 33.39500208397493 
Si 15.68652066 3.4589697299999997 31.07254190027177 
Si 13.5733167 5.43978486 2.679777678161578 
Si 12.26780352 6.97451463 1.2042986868954384 
Si 14.93221221 6.7851108 4.06815319675889 
Si 12.21712533 6.78760317 6.787479440561703 
Si 14.932863809999999 4.072060169999999 6.787651991022616 
Si 13.57509231 5.43004344 8.14514097711652 
Si 12.21608277 4.07293983 9.501836231090225 
Si 14.933140739999999 6.78882492 9.502491922841694 
Si 14.934362489999998 4.06259568 12.233931209000593 
Si 12.19935294 6.807395519999999 12.211775729819376 
Si 15.268616999999999 5.66211078 16.471425428099394 
Si 13.51219662 5.456254049999999 13.531407144788993 
Si 14.613384329999999 7.12457811 14.76890454036407 
Si 15.5527146 7.488447839999999 18.01885796156621 
Si 14.18790582 4.096511459999999 21.32637421652889 
Si 12.67886538 4.47266385 19.535093371699976 
Si 12.715729649999998 7.255386809999999 22.959978450175605 
Si 13.5006633 5.03999568 23.42182701385505 
Si 15.441942599999999 5.73707736 24.492709684372638 
Si 15.610804739999999 5.66232255 26.862621244826844 
Si 14.247445769999999 7.6670025299999995 29.573423495860563 
Si 13.935117599999998 5.53280076 28.608176217513847 
Si 13.71614742 7.205099579999999 31.984505596288585 
Si 14.86881153 5.068193669999999 32.605238624376625 
Si 13.591854719999999 10.83737862 2.705601580141802 
Si 12.23328501 12.19813119 1.4149172304949327 
Si 14.93156061 12.216685499999999 4.069257519708732 
Si 12.21808644 9.502152480000001 4.074088932614293 
Si 15.02506521 9.552553739999999 1.1718592002438148 
Si 13.57346331 8.14493484 5.430128494836529 
Si 14.93242398 9.50246199 6.787582970838251 
Si 13.57520634 10.860233489999999 8.145244507393068 
Si 13.57191576 8.14387599 10.86281073649457 
Si 14.93957529 9.52331319 12.237830849417223 
Si 12.22030188 12.196762829999999 12.255292956061608 
Si 12.919305779999998 8.9225217 15.179264046507111 
Si 13.74590925 10.829103299999998 13.885894811688438 
Si 12.64534056 9.82673073 17.356988903596537 
Si 14.06701773 8.52079401 21.38783669070606 
Si 13.451141699999999 8.30136771 19.074004030048545 
Si 14.25475998 10.84233078 21.65283968857608 
Si 14.17547655 11.74579047 23.806165910492425 
Si 13.908401999999999 10.019783519999999 25.254485459210876 
Si 16.07617746 9.199761209999998 25.333133959294972 
Si 15.493875119999998 12.14575884 30.029750444790796 
Si 13.5697329 10.98838692 27.292375422776495 
Si 12.71616948 9.283736159999998 28.667982207266256 
Si 13.35833757 11.657091419999999 31.116749328357653 
Si 16.15702473 11.28238884 34.40514699225118 
Si 13.46822991 8.43742179 34.106565674687516 
Si 12.216620339999999 14.932407689999998 4.076746209712352 
Si 14.82717429 14.825496419999999 1.3418973264458152 
Si 16.3058013 13.58494776 2.7055291089482183 
Si 16.290325799999998 16.2896742 5.430715166403633 
Si 13.574799089999999 13.57659099 5.4311983076941885 
Si 12.21776064 12.21763032 6.787651991022616 
Si 14.932375109999999 14.93270091 6.787582970838251 
Si 12.216652919999998 14.933075579999999 9.502146821919867 
Si 14.933205899999999 12.21702759 9.502422902657328 
Si 13.5755973 13.57670502 10.863673488799133 
Si 14.91978294 14.94741078 12.230480199782335 
Si 12.69018693 13.96474911 15.292526169050335 
Si 14.75621505 12.65324121 15.157902299446095 
Si 13.44583116 16.13811204 13.788369291180471 
Si 15.873138899999999 13.43771874 19.29169369153625 
Si 13.69493784 14.486175719999999 19.889891629429066 
Si 14.76887238 15.27091389 23.729657036123648 
Si 15.88610574 13.26416508 24.22183997083158 
Si 13.08016953 14.715359729999998 22.184157067819058 
Si 13.46836023 15.89615667 25.64027377971992 
Si 15.987967109999998 16.15228434 29.8665177087672 
Si 13.59336969 15.97190517 29.533046688006944 
Si 13.587749639999998 14.524734149999999 27.636510062021166 
Si 15.102459 12.6796473 27.82124258547451 
Si 14.10512004 12.977428499999998 34.508884329352014 
Si 12.98594817 13.50450774 32.50170834782889 
Si 15.174053549999998 14.597468999999998 32.87624637828641 
