&CONTROL
  dt          = 30.D0,
  prefix = 'x1.33_y2.00_z3.15_struc17-scf',
  pseudo_dir = './',
  outdir='./',
  wf_collect= .true.,
  verbosity= 'high',
/

&SYSTEM
ibrav= 6, celldm(1) =30.783621515, celldm(3) =2.1024929778250487, nat=  432, ntyp= 1,
  ecutwfc     = 12.D0, nbnd= 1728,
  degauss     = 0.05D0,
  occupations = "smearing",
  smearing    = "methfessel-paxton",
/
&ELECTRONS
  electron_maxstep=200,
  conv_thr    = 1.D-8,  mixing_beta = 0.3D0,  scf_must_converge=.false.,
/
&IONS
/
ATOMIC_SPECIES
Si  28.08  Si.pbe-hgh.UPF
K_POINTS {automatic}
1 1 1 0 0 0
ATOMIC_POSITIONS (angstrom)
Si 0.0025957789199999998 2.70454725 2.7045958508648655 
Si 1.3801409279999999 1.290990645 1.3052115607674957 
Si 4.07277693 1.35674523 4.069572982144665 
Si -0.001442280762 0.000356104287 5.430892255011448 
Si 0.000306766764 2.71495656 8.144831399650386 
Si 2.71539639 -0.000559411632 8.144728650818559 
Si 2.71590138 2.71547784 5.431063503064491 
Si 1.3573153799999997 1.3574896829999998 6.7874850816142205 
Si 2.71173114 2.71593396 10.862914747172985 
Si 1.363222134 1.365642828 12.24087933079563 
Si 4.07253258 1.356693102 9.502451714571421 
Si 1.7619589799999997 2.08653723 16.485707570425372 
Si 2.96676738 0.1380427632 13.589149502020472 
Si 0.282049947 0.1539212778 16.215957637270698 
Si 1.124822871 0.631869552 20.47719144038204 
Si 3.26283813 3.25091385 18.90838802644733 
Si 1.0856372760000002 2.2887612899999996 18.77745176509 
Si 0.6682695569999999 2.06873226 22.309408609508804 
Si 2.55389733 2.25479664 23.78974527924106 
Si 2.66449014 0.28395587699999997 25.000058018933775 
Si 2.20128399 3.93965505 25.40988885947832 
Si 1.071484524 3.35738529 29.95186672074975 
Si 3.8144989799999998 3.2699568599999997 26.99742681041603 
Si 3.8573090999999997 0.887143626 26.920193938493252 
Si 2.3819400899999996 2.92227939 34.10059055301128 
Si 1.427611617 1.0713167369999999 30.18349683729686 
Si 3.22458921 1.95225876 31.94697503793182 
Si 3.9848272199999997 4.08901806 1.1481222967493112 
Si 4.07469915 6.7816736099999995 4.072758195931281 
Si 1.3576933079999998 4.07030085 4.071045715400842 
Si 2.7241278299999996 5.43535398 2.692214616629795 
Si 1.403386758 6.79017699 1.2447404482766513 
Si 2.7143049599999998 5.430466979999999 8.144865649260995 
Si 1.35801585 6.78717963 6.787587830446046 
Si 2.71642266 8.145537569999998 5.43027576202049 
Si 4.06697769 4.080645 12.25088021709339 
Si 1.358128251 4.07316789 9.501424226253159 
Si 0.0007622563409999999 5.4319005 10.861236516253156 
Si 1.359736074 6.76600263 12.228343973312821 
Si 2.71453302 8.145716760000001 10.85996928066063 
Si 3.5448831899999997 7.416690389999999 15.05866329480036 
Si 0.0602511714 6.24356604 16.223869297321325 
Si 1.138045464 4.11345306 15.129114743822598 
Si 2.68793145 5.42675286 13.774816641130615 
Si 3.45126456 4.16232306 21.135400457061383 
Si 3.45590721 7.80141132 21.194104289644812 
Si 3.01182552 7.19351739 18.885680534613716 
Si 0.806620527 7.888367339999999 18.845882487086325 
Si 3.6270825299999996 5.15101203 17.653550792963213 
Si 1.0754038979999998 4.21590087 21.506597736839232 
Si 1.8302629499999998 7.27377822 22.890795749592673 
Si 2.57701284 6.2540730899999994 24.882650353766913 
Si 3.1762241999999996 4.15517175 29.12597161052987 
Si 2.30136975 7.53189327 26.844433799826653 
Si 0.0376004151 7.677998279999999 27.365884121345175 
Si 3.2895374399999997 6.45546636 28.68654910641935 
Si 0.695959299 4.80794463 34.18063189300398 
Si 2.41487847 7.316930429999999 30.691076066518836 
Si 0.39782134799999996 6.51419181 31.769151059651087 
Si 1.358074494 9.500490899999999 4.068237247330923 
Si 2.7060459299999997 10.87743573 2.702499774695609 
Si 0.000274365954 8.14488597 8.144899898871603 
Si -0.000503844813 10.86134121 5.430721006958405 
Si 2.71484253 10.859875109999999 8.145173895756473 
Si 4.06523466 9.50402583 12.222042044960807 
Si 1.3569016139999999 9.502038449999999 9.502348965739596 
Si 1.3454758079999998 12.204451709999999 12.237385870513537 
Si 0.256785786 8.86783617 16.761279937383534 
Si 4.01973669 10.7698077 17.09141193404147 
Si 1.6991121599999999 8.98341372 14.884641023297199 
Si 3.9423429 12.111191459999999 15.012837315805825 
Si 2.6157178799999996 10.768846589999999 13.6384689412971 
Si 0.30016442699999996 11.12983299 19.50573548507489 
Si 2.44231083 11.87536113 18.71621346132152 
Si 0.6702243569999999 9.242278109999999 22.850107212189457 
Si 2.00433789 11.06191998 23.24312149392509 
Si 3.7420736399999996 10.186821179999999 21.8458401299191 
Si 2.4620217299999996 11.396418839999999 25.517364137568638 
Si 3.14805879 10.73514258 29.02318852909295 
Si 3.3635429099999996 9.693722880000001 26.881902873832647 
Si 2.74466952 8.349390629999998 34.05911427456407 
Si 0.11006957519999999 10.996906589999998 33.92437630642916 
Si 1.67596407 9.44854209 30.21867118739207 
Si 1.84883355 10.1331945 32.59573116208314 
Si 0.43961497199999994 15.821108639999999 0.06937601124912458 
Si 2.73038319 16.28736102 2.712380787356239 
Si 4.00297428 14.891861879999999 1.2880079813587106 
Si -0.0009836292959999999 13.56043131 2.714333015160939 
Si 1.308906387 12.24015939 1.247761263932345 
Si 1.3572697679999999 14.933108159999998 4.068682492268837 
Si 0.000327126006 13.575010859999999 8.144797150039777 
Si 2.71531494 13.57359363 5.429762017861359 
Si 1.3572828000000001 12.217532579999999 6.787724828888482 
Si 4.09582728 14.91377193 12.230741446055434 
Si 1.355842764 14.93315703 9.501252978200114 
Si 2.71655298 13.57665615 10.86383948665942 
Si 2.20884255 13.304433959999999 15.97586786690322 
Si 1.480026321 15.076639349999999 14.78127569847993 
Si 0.1378093275 14.714496359999998 17.92145124714501 
Si 3.8447169299999997 12.24099018 20.598709058821957 
Si 3.2879898899999995 15.96345066 20.557883522976304 
Si 2.40819957 14.129066339999998 18.10170694777897 
Si 2.88310194 14.00477364 21.87508929737899 
Si 0.874755081 13.108123169999999 22.663583832814094 
Si 3.62408517 14.66352495 24.019046422266776 
Si 0.38501415 16.27203213 25.402251196312566 
Si 1.78838136 12.64319028 29.550632532468008 
Si 3.55859937 14.194486979999999 29.40301671074421 
Si 0.2489112 12.29756535 26.010353032671276 
Si 0.37600415099999995 15.8817726 27.670568657320796 
Si 2.55098142 16.13472372 28.561983272635253 
Si 2.22848829 14.03810298 34.077677563514015 
Si 1.057572864 12.86532072 31.980573905939025 
Si 6.783563249999999 4.07300499 4.067449506286922 
Si 5.41142397 2.73165381 2.6925673876190657 
Si 6.854506199999999 1.4845614569999999 1.3415880721950704 
Si 5.42887056 0.00038804897699999994 5.4309950038432735 
Si 5.430336659999999 2.71451673 8.14500264770343 
Si 6.78730995 1.357665615 6.787656329667264 
Si 8.14708512 2.7101672999999997 10.86133926508498 
Si 5.432503229999999 -0.00274133007 10.859387037280282 
Si 6.790095539999999 1.359884313 12.230501698781174 
Si 7.084358099999999 3.8829658499999997 15.149322014081774 
Si 8.05063203 0.06588229859999999 13.782968048455501 
Si 4.675262579999999 1.03081491 15.117264378551965 
Si 5.50970154 2.76793164 13.67497902620605 
Si 4.76226747 1.82498499 17.563851062778845 
Si 7.080481079999999 0.6702585659999999 20.43184495593603 
Si 7.094881439999999 2.1961363499999997 18.665215791125064 
Si 4.6004589 2.7558933299999997 22.70766308166758 
Si 6.617014289999999 3.3160901399999996 24.105492439443314 
Si 5.104455209999999 0.73132326 21.685038208110925 
Si 6.8138789399999995 3.6370682999999997 29.348902325982355 
Si 7.0322301 1.242351963 28.895197734247976 
Si 4.827346019999999 3.7863661499999997 30.772418891714665 
Si 6.87455919 0.599351454 31.255817895846842 
Si 4.784763959999999 0.210144258 32.32039854239924 
Si 8.02764684 3.0390623999999997 34.15295820763209 
Si 6.98572215 7.01095536 1.2421957022084198 
Si 4.073021279999999 4.0720927499999995 6.786800089402045 
Si 5.430190049999999 5.43217743 5.4308580054008395 
Si 6.787652039999999 6.78753801 6.78724533433996 
Si 6.78812445 4.07196243 9.502622962624464 
Si 4.0720927499999995 6.787896389999999 9.502383215350203 
Si 5.4285773399999995 5.43103713 10.864558728482207 
Si 6.77448972 6.80115645 12.24313980509581 
Si 6.03081864 5.1461739 17.199572204343966 
Si 6.86996541 5.54469246 21.101767339443573 
Si 7.30363779 7.6195660499999995 20.17874033353722 
Si 7.47148995 4.47452091 19.06627873135376 
Si 6.53207823 7.415012519999999 17.817743426221657 
Si 6.0701427 8.074610909999999 24.616393880894336 
Si 4.73198436 5.9663428199999995 21.936841345306604 
Si 8.04755322 4.9607774099999995 23.054097892975292 
Si 4.81823991 6.10161498 24.35280887764924 
Si 5.537785499999999 7.25910093 28.421457120307473 
Si 5.63515083 4.45275747 25.93363390490763 
Si 6.869216069999999 5.40520119 27.729614986010315 
Si 6.9457790699999995 5.3755371 33.7273040469863 
Si 4.8101112 5.23226655 32.82938200565617 
Si 4.12220079 7.476083729999999 32.288751902196736 
Si 4.10713254 9.53119755 1.3740121785583932 
Si 5.4358426799999995 8.12929644 2.7031196926476273 
Si 6.78814074 9.502038449999999 4.0701209759144055 
Si 4.07290725 9.502217639999998 6.787930326552135 
Si 5.42963619 8.14542354 8.145071146924648 
Si 5.429180069999999 10.86018462 5.4309265046220565 
Si 6.787342529999999 9.50314617 9.502588713013857 
Si 5.42825154 10.859321249999999 10.86222975496081 
Si 6.02672985 10.2721482 14.716304187155094 
Si 5.3380700999999995 8.19556416 13.717071797644227 
Si 7.45259355 10.28956221 16.58688092016368 
Si 7.13936943 9.70783002 21.25726057160739 
Si 5.70900969 11.86827498 18.291141544056078 
Si 4.34687247 8.30192157 17.270503147914727 
Si 7.3503738 10.498090499999998 19.053332378543644 
Si 5.71966335 9.944051309999999 23.09249170646772 
Si 6.113930219999999 12.057255269999999 24.092340588969545 
Si 7.96295925 11.90067579 25.496677372760942 
Si 6.396822359999999 12.1580415 28.761966748979862 
Si 5.6633814000000005 8.99170533 26.762029236701952 
Si 7.383784589999999 10.5766083 27.35975344104621 
Si 4.2490836 11.60978526 32.21651947342284 
Si 7.6330053 8.965543590000001 33.92858900853404 
Si 8.07307965 8.269455599999999 31.64708544744143 
Si 5.6773907999999995 10.607836229999998 34.04418144433864 
Si 5.20180425 10.72984833 30.226959593159393 
Si 5.96626137 8.45099136 30.44947931328457 
Si 4.07344482 12.21859143 4.073134941647977 
Si 5.419047689999999 13.56186483 2.689608221262468 
Si 6.748930709999999 12.26534373 1.1417552941371407 
Si 6.78766833 14.93149545 4.065086283154916 
Si 5.74538526 16.03480086 0.14839705534178493 
Si 4.0725 14.932603169999998 6.7874850816142205 
Si 5.430141180000001 13.57569504 8.145516391862563 
Si 6.78713076 12.21736968 6.787313833561176 
Si 4.07290725 12.217239359999999 9.501835221580462 
Si 6.7889389499999995 14.93472087 9.501287227810725 
Si 6.79754007 12.22473276 12.244886535236855 
Si 6.3141180299999995 15.406381529999999 15.054964336854612 
Si 7.72978419 14.885068949999999 16.970887554309208 
Si 5.47904376 13.545037259999999 13.811360975650171 
Si 6.013616399999999 13.10580999 20.270906035685417 
Si 6.52684914 15.02288235 18.998498751959 
Si 4.3983 15.90987285 18.442696070999883 
Si 5.6575169999999995 15.49278369 23.367447580434927 
Si 6.78931362 13.68223164 22.422329575685918 
Si 7.05738186 15.88784877 25.2059666779137 
Si 4.2751475999999995 12.950875799999999 25.473627384821242 
Si 7.98293079 13.552041959999999 29.716606145478107 
Si 5.904115019999999 16.08109704 27.26385453134165 
Si 5.07431871 13.78440252 27.61926274062886 
Si 7.565646149999999 14.21297613 34.09555586025179 
Si 6.9542335799999995 14.49368541 31.650270661228046 
Si 4.51726587 14.074950959999999 31.645201718857948 
Si 9.5008167 1.355694525 4.070052476693188 
Si 10.868753159999999 2.70998811 2.676093324916247 
Si 8.14475565 -6.288819659999999e-05 8.145105396535255 
Si 8.14700367 2.7151031699999995 5.4300702643568375 
Si 10.86072219 0.0021132202499999997 5.430618258126578 
Si 10.85971221 2.71544526 8.145242394977691 
Si 12.207172139999999 1.369039293 12.247626504085558 
Si 9.50233167 1.358641386 9.50138997664255 
Si 10.85552568 0.001466184708 10.865791714464121 
Si 8.98090506 1.92015117 15.15692542763692 
Si 10.86694497 2.78682804 13.88547713300755 
Si 9.167392979999999 1.5165045179999999 17.555459908179696 
Si 10.70572284 2.17153845 21.269282184931065 
Si 10.75143258 2.6881595099999998 18.852184415438337 
Si 8.827583579999999 0.859751991 22.11737104282543 
Si 8.16247917 1.504914183 24.415554164284508 
Si 11.78917074 0.533095137 25.90219276236878 
Si 9.740817269999999 1.72818981 26.290823093946493 
Si 10.22515155 3.96387828 27.013181631296064 
Si 9.29298888 0.6844960259999999 28.40272258330447 
Si 8.706451139999999 3.9468552299999997 30.760534276833422 
Si 8.78369832 1.9095138 32.05523805706615 
Si 10.6754886 0.97712307 30.424579846371994 
Si 12.219128999999999 4.068394919999999 4.068134498499097 
Si 12.16499733 6.85729179 1.3000980939036064 
Si 9.67050963 4.22875368 1.1873929002733268 
Si 8.162690940000001 5.44729455 2.6910124552974275 
Si 9.5011425 6.7875054299999995 4.074778922957198 
Si 9.502087320000001 4.073021279999999 6.787622080056655 
Si 8.14539096 5.4295873199999996 8.144797150039777 
Si 10.85984253 5.43276387 5.430378510852316 
Si 9.504058409999999 6.78683754 9.502177717686552 
Si 9.516308489999998 4.070561489999999 12.24118757729111 
Si 10.86064074 5.42865879 10.859352787669673 
Si 10.930231619999999 8.111849849999999 13.625796585371857 
Si 8.322267779999999 8.11606896 16.406179974591808 
Si 12.185539019999998 4.17172239 15.524149752584151 
Si 11.08410696 5.9363692200000004 16.985751885313412 
Si 8.16135516 5.441821109999999 13.630009287476735 
Si 9.62856288 6.71885937 15.080172050262668 
Si 10.80716067 5.84877789 20.70149214025888 
Si 9.67894785 7.818613559999999 20.131749867781984 
Si 9.839404349999999 4.81633398 18.834340368311167 
Si 11.96254521 5.07461193 23.892117365350675 
Si 11.84750523 7.47973269 24.054837265352944 
Si 8.16805035 6.8765791499999995 24.549367392932975 
Si 10.27353285 4.30909596 22.410410711194064 
Si 8.91413235 5.96803698 26.65547869809807 
Si 10.62135693 4.24333323 29.384898666732173 
Si 11.47869963 6.43469661 29.255298140188586 
Si 10.35087777 7.640808209999999 27.565319603920045 
Si 8.76509514 5.892255899999999 32.2835117117736 
Si 10.73046735 5.691660839999999 33.779568952775286 
Si 9.549898469999999 9.457306110000001 1.131613984435884 
Si 10.83589623 8.14628691 2.710298411031226 
Si 8.15759217 10.87147359 2.6705928374524786 
Si 8.1467919 8.14472307 5.430378510852316 
Si 9.50233167 9.502217639999998 6.787348083171785 
Si 10.86007059 8.14482081 8.144762900429168 
Si 8.14459275 10.86024978 8.145071146924648 
Si 10.859907689999998 10.86114573 5.430584008515969 
Si 8.14324068 8.14675932 10.862640750288115 
Si 9.513734669999998 9.49270428 12.231289439825174 
Si 10.861569269999999 10.86111315 10.86058577365159 
Si 9.502185059999999 12.215773259999999 9.503650450942729 
Si 8.22151413 10.90141461 13.621241387160888 
Si 11.75919714 9.79048548 17.10843399051403 
Si 10.730565089999999 11.12154138 21.3920327893529 
Si 9.52500735 12.125705850000001 19.64513140025258 
Si 10.1895579 8.248148279999999 17.817674927000436 
Si 10.64510775 11.86047207 17.357839654967094 
Si 9.36183042 9.36665226 21.857108251809386 
Si 11.066399729999999 12.092962949999999 23.499856575048433 
Si 9.75091707 8.514587520000001 23.98503655893227 
Si 9.91106406 10.71982998 24.959061235035083 
Si 10.99340424 11.201932529999999 27.008831930748748 
Si 9.51622704 9.770399909999998 28.179038376418596 
Si 11.58460092 10.208209949999999 34.150731982942524 
Si 9.49327443 12.19286952 30.838657638632025 
Si 11.81849274 9.8215668 31.630440136685568 
Si 9.714362309999999 9.81384534 30.528698662622656 
Si 12.218803199999998 14.932880099999998 4.068511244215793 
Si 9.501126209999999 12.2175 4.070326473578058 
Si 9.65627217 14.94082962 1.081130058398557 
Si 10.85893029 13.5558864 2.6747678649856876 
Si 8.17169931 16.295375699999997 2.6856352664318504 
Si 8.14519548 13.57401717 5.430892255011448 
Si 9.502413119999998 14.93274978 6.78693708784448 
Si 10.85984253 13.57505973 8.144728650818559 
Si 8.142295859999999 13.579018199999998 10.861990007686547 
Si 9.49350249 14.94311022 12.250674719429739 
Si 12.03946659 15.28813242 16.828409174176723 
Si 9.43117695 12.238611839999999 15.166378320164942 
Si 10.869942329999999 13.564340909999999 13.635660473227182 
Si 10.008738899999999 14.41375038 20.052051023895377 
Si 9.85217571 15.56488323 17.86110343325236 
Si 12.19109391 15.92039619 23.735151399930682 
Si 10.37076786 14.314413959999998 23.927976707658058 
Si 8.94881376 14.78434788 22.146072216515577 
Si 8.66214234 14.20367454 25.67001465205193 
Si 11.216137409999998 13.42227582 27.894766608365806 
Si 9.203312429999999 14.643667439999998 27.94117483074069 
Si 11.73730338 15.36836067 31.36055320508846 
Si 11.52952443 13.11586092 30.227267839654868 
Si 11.610485729999999 15.54515604 33.869987924782436 
Si 13.57602084 0.007396458209999999 2.695105283765175 
Si 12.26456181 1.255253643 1.098172664637481 
Si 14.933075579999999 1.3587782219999998 4.074059681134414 
Si 13.57532037 -0.000215163207 8.144899898871603 
Si 13.576753889999999 2.71531494 5.431029253453882 
Si 12.21784209 1.3572143819999998 6.787211084729351 
Si 16.2927693 -0.00486171792 10.859489786112109 
Si 14.93375976 1.357831773 9.502896959509336 
Si 13.571866889999999 2.72093499 10.862161255739593 
Si 16.1419239 2.6777501999999997 13.62737206745986 
Si 13.684072409999999 0.065708973 13.53681609701027 
Si 14.78309355 1.244977911 15.244330433910502 
Si 13.51506366 0.617415435 17.64077568820614 
Si 13.74633279 3.4282467899999998 20.05283876493938 
Si 16.00251408 3.9773501099999997 19.63184255133638 
Si 12.84127668 2.86549245 17.768560985387463 
Si 14.628077909999998 2.33432442 22.925113859422662 
Si 12.821565779999998 1.149559236 21.880740483129436 
Si 15.17032314 1.77306876 25.143529637773913 
Si 15.42017916 0.571627503 29.511793474037663 
Si 13.93834302 2.2656457800000003 28.79327089307628 
Si 16.275925439999998 3.6342012599999998 26.03066305176228 
Si 13.3198443 2.13995214 26.523275201148216 
Si 15.74659818 3.7103732999999997 28.335730344953717 
Si 13.947123329999998 2.4632109 34.14501229797086 
Si 12.24576315 2.8020917699999996 30.358889093224374 
Si 13.70427201 3.7364047199999995 32.06451970154112 
Si 16.28770311 8.14493484 2.684789301049814 
Si 15.02938206 4.10213151 1.2960532148907105 
Si 13.5713619 5.44025727 2.692772885282718 
Si 14.93159319 6.78828735 4.070052476693188 
Si 16.28973936 5.42944071 5.429145524870401 
Si 14.93283123 4.07207646 6.787690579277873 
Si 13.574668769999999 5.43001086 8.145071146924648 
Si 12.21732081 6.787391399999999 6.787827577720308 
Si 13.57540182 8.144120339999999 5.429522270587097 
Si 12.216978719999998 4.073086439999999 9.501526975084985 
Si 14.93283123 6.786707219999999 9.501835221580462 
Si 14.90878719 4.08867597 12.236769377522577 
Si 12.2228757 6.76720809 12.226494494339947 
Si 13.46454837 5.44501395 13.834410963589873 
Si 14.617570859999999 7.23241791 14.92163060275467 
Si 13.361823629999998 6.821991359999999 18.18637198520385 
Si 14.664111389999999 7.129253339999999 21.266850462577843 
Si 13.08766293 5.69848635 20.162540267719272 
Si 15.771701069999999 6.00231114 18.450950227156596 
Si 16.229987639999997 5.92332093 22.59970830902874 
Si 15.261905520000001 5.347892969999999 24.760379243893606 
Si 14.02270893 4.61015145 22.866786772555926 
Si 14.89005369 7.479195119999999 25.56805356126962 
Si 15.22054521 5.93664615 28.48807261294153 
Si 12.493338569999999 7.982132579999999 26.29483029838772 
Si 12.360167820000001 4.2943698 26.102518734819476 
Si 13.09009014 6.029710919999999 27.549975778367315 
Si 16.11261819 4.28798412 31.85179537005005 
Si 12.63004425 7.54547913 31.105701852548602 
Si 12.790500749999998 5.878670039999999 32.738620537542936 
Si 14.92726005 7.246720529999999 30.410640254854226 
Si 12.334967189999999 12.15292644 1.1664458384250032 
Si 13.29332418 8.52185286 0.10923673556392943 
Si 12.21564294 9.50413986 4.067860501614226 
Si 15.02138367 9.62809047 1.2531007782262522 
Si 13.589965079999999 10.86598386 2.7026949974760788 
Si 13.57514118 10.85977737 8.144831399650386 
Si 14.93208189 9.5030973 6.787793328109699 
Si 12.215985029999999 9.50298327 9.503102457172988 
Si 13.576232609999998 8.14236102 10.86332574250029 
Si 14.92796052 9.53325009 12.221254303916805 
Si 16.28819181 10.861764749999999 10.858770544289325 
Si 12.706199999999999 9.091530449999999 15.032017097746737 
Si 13.556049299999998 10.862758439999999 13.697994764535144 
Si 16.27050087 8.15757588 13.505751700188116 
Si 15.14634426 10.5384897 17.761026071053536 
Si 12.80692107 10.15544664 20.83198315667829 
Si 16.16637519 9.073220489999999 20.642548560401185 
Si 13.36873059 9.23017464 18.67439468676821 
Si 13.289968439999999 8.54760735 22.517954488505605 
Si 14.983851510000001 9.140025779999998 23.977672892651384 
Si 14.631971219999999 11.04587433 25.195554796288636 
Si 15.874442099999998 9.065482739999998 29.225261231684694 
Si 14.443414469999999 10.837394909999999 28.743506208861735 
Si 13.13632116 10.24953768 26.85624991548668 
Si 13.229434799999998 11.516166629999999 30.651826012761184 
Si 14.93113707 12.2183145 4.075361166337547 
Si 14.947068689999998 14.89906206 1.3436156491431095 
Si 13.576232609999998 13.574408129999998 5.4316457464448415 
Si 12.217793219999999 12.217809509999999 6.787587830446046 
Si 14.93221221 14.93252172 6.787793328109699 
Si 12.217597739999999 14.93219592 9.50252021379264 
Si 14.933287349999999 12.21719049 9.50221196729716 
Si 13.575434399999999 13.57439184 10.8633599921109 
Si 12.20845905 12.201307739999999 12.230433199559956 
Si 14.95472499 14.929524359999998 12.20385550172755 
Si 12.678002009999998 14.620584509999999 14.687877010349816 
Si 14.4140436 12.91562424 14.889127722286947 
Si 16.28845245 13.59216423 13.616891686613576 
Si 13.64323338 12.333452219999998 21.350351013242026 
Si 15.819528509999998 12.943903679999998 20.79769929645891 
Si 13.57644438 16.04446083 20.081163192912832 
Si 12.357724319999999 14.017398389999999 20.198605107690305 
Si 15.78831687 15.224487389999998 20.095000035598776 
Si 12.51322866 13.27221234 17.898024513488615 
Si 14.838609869999999 12.83311539 17.205052142041367 
Si 13.755227129999998 14.373123119999999 24.639238371170386 
Si 13.35569859 12.313953089999998 23.698059071641385 
Si 16.12100754 14.15532582 24.576013589986594 
Si 14.763627 14.623647029999999 28.38364555019539 
Si 12.86988192 14.80471038 26.86868252413766 
Si 16.0076943 12.59959824 28.293363576630668 
Si 13.459531049999999 13.871537729999998 34.058566280794324 
Si 14.802853319999999 13.25481462 31.985129104149994 
Si 14.07239343 15.187655699999999 30.69028832547483 
