&CONTROL
  dt          = 30.D0,
  prefix = 'x1.33_y2.00_z3.16_struc22-scf',
  pseudo_dir = './',
  outdir='./',
  wf_collect= .true.,
  verbosity= 'high',
/

&SYSTEM
ibrav= 6, celldm(1) =30.783621515, celldm(3) =2.1107125888071807, nat=  432, ntyp= 1,
  ecutwfc     = 12.D0, nbnd= 1728,
  degauss     = 0.05D0,
  occupations = "smearing",
  smearing    = "methfessel-paxton",
/
&ELECTRONS
  electron_maxstep=200,
  conv_thr    = 1.D-8,  mixing_beta = 0.3D0,  scf_must_converge=.false.,
/
&IONS
/
ATOMIC_SPECIES
Si  28.08  Si.pbe-hgh.UPF
K_POINTS {automatic}
1 1 1 0 0 0
ATOMIC_POSITIONS (angstrom)
Si 0.01365093855 2.71855665 2.685200692961831 
Si 1.388093706 1.533778434 1.026371784394969 
Si 7.921142819999999e-05 2.7151846199999996 8.144902926049232 
Si 2.7156896099999996 -1.9086830100000002e-05 8.144971693065376 
Si 2.71300176 2.7142072199999996 5.429946745202179 
Si 1.3575124889999999 1.3572290429999998 6.787063808790953 
Si 2.71715571 2.71241532 10.858036780968488 
Si 1.3785803460000001 1.370730195 12.221274108994018 
Si 4.07359143 1.3610914019999998 9.503051494880157 
Si 2.83825557 3.56026095 17.022243341041158 
Si 0.227960631 2.92335453 13.569520227500302 
Si 2.6849503799999996 0.028796810399999997 13.7060571380529 
Si 3.94985259 2.16295362 19.991706248634703 
Si 1.8257669099999998 2.7598843799999995 18.918218743129128 
Si 0.281155626 1.0285799219999998 18.60966114169397 
Si 1.6322905799999998 3.30616953 24.803609436248635 
Si 2.33934174 3.86323866 22.629746521925433 
Si 2.11598955 0.10064581019999999 22.676611243427118 
Si 3.58420725 1.9344700799999999 22.2858426741926 
Si 1.374722874 1.63429425 27.95396397980723 
Si 2.11616874 3.5194219199999996 29.131702281786108 
Si 2.71707426 1.6213078619999999 26.031650810536362 
Si 2.71322982 3.15664362 34.099912897093844 
Si 0.5650658909999999 3.6097011 30.912596082358203 
Si 0.07592622389999999 1.319525838 31.582008601005523 
Si 4.07031714 6.78814074 4.068119141007586 
Si 1.357064514 4.0706266499999995 4.072417079516545 
Si 2.7164715299999997 5.43313854 2.6949312257461138 
Si 1.2909515489999999 6.8458399199999995 1.3252091680982654 
Si -0.00680200353 8.1516789 2.7378934190816637 
Si 0.00043119141299999996 5.431216319999999 5.433900848630421 
Si 2.7147773699999997 5.430190049999999 8.144593474476588 
Si 1.3574489579999998 6.786511739999999 6.788095314033103 
Si 2.71393029 8.14441356 5.43163153709769 
Si 1.358572968 4.0725 9.502466975242937 
Si 1.3629403169999998 6.79068198 12.245308181136116 
Si 0.8007316919999999 6.26265792 16.501677028836088 
Si 1.548542061 4.288554270000001 15.199504811145841 
Si 2.81698083 5.4878892299999995 13.654206807880824 
Si 2.30876541 8.06451111 15.99032549679423 
Si 3.17464407 6.608331719999999 19.842791275176307 
Si 0.233284203 4.39434153 19.611390265853974 
Si 0.9277904339999999 6.56271972 19.043718547590718 
Si 0.15971937749999998 4.24652607 21.93753773742659 
Si 0.47098951199999994 8.03507508 23.630547291367503 
Si 2.67374286 7.16416281 23.89605674069693 
Si 3.5189169299999996 5.79422268 22.115231707140982 
Si 1.9640364299999997 5.58057933 25.539725960554993 
Si 2.536353 5.52688749 27.793530531144825 
Si 1.66936662 7.500078899999999 28.80189567236266 
Si 1.546551423 4.841713799999999 32.75575841604809 
Si 3.5044514099999997 6.48917037 32.577204858631916 
Si 2.68239285 8.094859379999999 34.23617473958187 
Si 4.06443645 9.52332948 1.2385249058987808 
Si 1.3599201509999999 9.50500323 4.075030226129991 
Si 2.7046775699999994 10.84654989 2.7057138938773893 
Si 4.07489463 12.216604049999999 4.072176394960043 
Si 1.108749528 11.929427639999998 1.3155680324349694 
Si -0.00041123453399999994 8.14493484 8.14507484358959 
Si -0.0006269336819999999 10.85818095 5.429946745202179 
Si 2.71539639 10.859875109999999 8.145212377621878 
Si 1.358419842 9.503162459999999 9.501985606129935 
Si 2.71096551 8.14833945 10.862472253509733 
Si -0.0016502747399999998 10.856389049999999 10.864122661897174 
Si 1.4028198659999997 12.20981112 12.233273953311032 
Si 0.1130612337 8.27903412 13.688899767525136 
Si 2.9824546499999998 10.8993132 13.842078295984424 
Si 1.1179322010000001 10.05049017 15.063689954262749 
Si 3.31431453 9.70097193 17.409779860516938 
Si 3.2411398499999997 10.57035294 21.228687335021068 
Si 0.94524354 11.027645819999998 21.159060731175938 
Si 3.78991737 8.881650089999999 19.627550514647655 
Si 0.37510005599999996 11.58927615 18.92812119345377 
Si 2.03633145 11.672876429999999 17.250377917096678 
Si 3.0656150999999996 11.93530833 24.92116665034567 
Si 3.07525878 10.744183529999999 27.009827231667273 
Si 1.141192692 9.51876828 27.604386853242573 
Si 3.08654775 8.14475565 30.64602074427855 
Si 0.11684083949999999 10.337536259999998 31.48363738441248 
Si 1.78170246 12.14890281 32.195754220084815 
Si 2.02437459 9.351616589999999 32.33198167906477 
Si 3.59779311 12.11435172 30.629998029517157 
Si 2.69050527 16.2966789 2.682439697263676 
Si 3.72641895 14.596817399999999 1.426557996490317 
Si 1.354181184 14.940585269999998 4.070319685524173 
Si 4.06095039e-05 13.574815379999999 8.145246761129949 
Si 2.7155267100000002 13.57455474 5.428055652258237 
Si 1.3571133839999998 12.21706017 6.787992163508888 
Si 1.3600488419999999 14.934052979999999 9.50184807209765 
Si 2.71539639 13.57240446 10.860924995646508 
Si 0.115686693 13.58111961 13.607410853395281 
Si 0.6816631949999999 15.514889219999999 14.836346198892874 
Si 3.47944626 15.359303429999999 17.634544852781435 
Si 2.0797442999999998 14.67994527 21.11790367201415 
Si 1.388264751 15.243758459999999 18.865405674731047 
Si 3.93704865 12.993897689999999 17.857556286134283 
Si 0.6363737369999999 13.09738806 22.150818637995158 
Si 0.868748958 12.68360577 24.456301621216706 
Si 2.5588820699999997 15.8003226 24.914874468368552 
Si 2.19188466 16.06402512 29.135484467673994 
Si 0.785673216 14.56467723 25.856638754451566 
Si 1.374553458 14.139915479999999 28.092735818384487 
Si 3.2036402699999997 12.63164067 28.36147731747265 
Si 3.7868548499999997 16.271461979999998 32.48237514337025 
Si 2.9371521599999997 12.722196779999999 34.355519896098635 
Si 1.6831479599999999 15.885893969999998 31.465998644771712 
Si 0.14364000719999998 13.937821739999999 31.78858471750011 
Si 6.78928104 4.07204388 4.070629137096818 
Si 8.13087657 -0.014972774309999999 2.726044862200167 
Si 4.0718809799999995 1.359483579 4.0685661266125175 
Si 5.42650851 2.71352304 2.698156398803236 
Si 6.60411261 1.122825717 1.3611640024888099 
Si 8.145309509999999 2.71546155 5.430049895726394 
Si 5.43198195 -0.000831293361 5.430703182379756 
Si 5.43009231 2.71484253 8.14483415903309 
Si 6.787586879999999 1.357281171 6.787476410887813 
Si 5.430238919999999 -0.0013534953749999997 10.864500880485961 
Si 6.79724685 1.374318882 12.243657772748675 
Si 4.35715146 0.882390204 15.328752417987246 
Si 5.44296141 2.66908392 13.788302489360332 
Si 7.44646851 3.2374583099999996 17.5084949121907 
Si 5.7243385799999995 3.77610345 19.347668758944273 
Si 7.028434529999999 0.47864906999999995 19.19596872133207 
Si 5.84666019 2.4031822499999995 23.0050425125277 
Si 7.33087467 0.926972676 21.52620783036522 
Si 6.616639619999999 2.1762625499999997 25.283671975945275 
Si 7.63178355 1.109347371 29.25527660979569 
Si 4.7830698 2.6583488099999997 26.696387172085938 
Si 5.3973819899999995 1.576197594 28.672441764472826 
Si 4.247210249999999 2.2460000399999998 32.510053867367944 
Si 6.670673549999999 2.30298246 32.73557529681002 
Si 4.202266139999999 2.92573287 30.216089359350406 
Si 7.21541115 0.37842810299999996 31.443718131541274 
Si 4.184477459999999 4.1739867 1.237685948301832 
Si 6.8937325199999995 6.84246789 1.2333948864944877 
Si 5.43897036 8.15267259 2.6840316536873945 
Si 8.14438098 5.41864044 2.69582175860517 
Si 4.0725 4.0723370999999995 6.787098192299024 
Si 5.4289683 5.42960361 5.429706060645677 
Si 6.787928969999999 6.78659319 6.787304493347454 
Si 6.79014441 4.07421045 9.501607387541146 
Si 4.0730701499999995 6.78833622 9.50229505770258 
Si 4.079439539999999 4.06169973 12.246821055491269 
Si 5.42898459 5.42846331 10.86285047209852 
Si 6.812624609999999 6.76818549 12.2248156103254 
Si 5.7577330799999995 6.094300769999999 16.251743308663126 
Si 6.74212149 4.247112509999999 15.187676884369187 
Si 4.13218656 7.078314509999999 14.853228501356064 
Si 7.5663303299999995 7.73431281 16.448898343946077 
Si 4.40704773 5.1619100399999995 17.938254379578492 
Si 7.50327174 7.38785709 20.83709356159283 
Si 6.95165976 5.09758083 20.91290919689086 
Si 5.62853709 4.94636076 22.818443214222754 
Si 8.06630301 7.752378419999999 23.162965965100874 
Si 6.14957274 6.86773368 24.226585403789883 
Si 7.789666229999999 4.19535918 25.747024130719087 
Si 5.1984485099999995 4.9745424599999994 29.75617555538376 
Si 6.5555847 6.085748519999999 26.38882669238486 
Si 7.984462049999999 7.64015661 27.49821058031726 
Si 4.77943713 4.989855059999999 27.457809958333048 
Si 5.480493569999999 5.59963863 34.07797621894412 
Si 7.45361982 5.093035919999999 30.272100093999153 
Si 7.22399598 4.60747989 32.59494674879689 
Si 8.14198635 10.85057352 2.6674416110428143 
Si 6.78867831 9.50169636 4.068909961693234 
Si 4.07222307 9.50275521 6.787785862460458 
Si 5.42988054 8.145 8.145109227097661 
Si 5.42883798 10.858083209999998 5.431184551492758 
Si 6.788564279999999 9.50291811 9.502982727864014 
Si 4.05412488 9.52073937 12.210099468870727 
Si 5.423918399999999 10.86240006 10.864397729961746 
Si 6.4912392 9.86944311 15.001524571669172 
Si 5.51528901 8.286560099999999 13.445189462313147 
Si 4.720907159999999 12.006218699999998 15.135138884035678 
Si 6.093649169999999 9.09548892 20.05400916526057 
Si 6.4864662299999996 11.27367369 20.82746617933276 
Si 4.47036696 8.49570741 24.672780188035933 
Si 6.247996919999999 11.82583953 23.1168232972687 
Si 4.26426588 10.53374931 23.425587199752282 
Si 6.76649133 9.679289939999999 27.58062784916505 
Si 6.78550176 10.29255957 29.88851767795161 
Si 8.02132632 11.546645219999998 26.84657433534299 
Si 4.56682005 8.898151859999999 27.051087441353275 
Si 4.576137929999999 9.998264429999999 30.770764111562567 
Si 4.8856968 11.36853036 34.33014486714174 
Si 7.90894161 8.42533461 31.722809066559012 
Si 5.422957289999999 13.58289522 2.7122158152537414 
Si 6.67572345 12.243010139999999 1.250294380711713 
Si 6.78753801 14.933205899999999 4.0758898138317825 
Si 5.0332842 15.972703379999999 0.10267362495805286 
Si 4.07256516 14.93263575 6.787751478952386 
Si 5.42991312 13.57483167 8.14466224149273 
Si 6.78693528 12.217581449999999 6.787579561412028 
Si 4.07277693 12.219748019999999 9.501401086492718 
Si 6.78851541 14.93126739 9.501641771049218 
Si 4.053408119999999 14.93786484 12.23592148343255 
Si 6.80803083 12.22453728 12.246477220410553 
Si 6.41233044 15.607172069999999 14.99282554412704 
Si 5.613648029999999 13.794029909999999 13.608889344242364 
Si 6.6459942 13.20324048 15.801869489053411 
Si 4.4130913199999995 14.46239232 21.157135254723922 
Si 4.4865103500000005 12.330552599999999 20.20013907456516 
Si 4.7681318699999995 16.229857319999997 19.494348804378014 
Si 7.74304425 15.10452783 22.52040696625753 
Si 5.649974729999999 14.09774067 23.167263903609836 
Si 4.235856119999999 14.099679179999999 25.146413011723173 
Si 4.4866569599999995 15.777989009999999 28.918627682265974 
Si 4.917055049999999 13.992409529999998 27.45554064680032 
Si 7.17185169 13.486800509999998 27.929895524157065 
Si 7.3344258899999994 12.65193801 30.135425649414266 
Si 5.35709682 15.3108081 31.050336415693305 
Si 5.55078492 13.042637369999998 31.669308327999495 
Si 8.39643615 2.12455809 0.16339386870737813 
Si 9.502478279999998 1.3594395959999999 4.066881334717006 
Si 10.34955828 0.634247892 0.16834096784872984 
Si 10.867710599999999 2.73404844 2.6899524937773363 
Si 9.40016079 4.02017652 1.2126925762845358 
Si 8.14459275 -2.20709952e-05 8.14507484358959 
Si 10.86000543 2.7151357499999995 8.145006076573447 
Si 9.50334165 1.3589639279999999 9.503567247501232 
Si 8.14082976 2.713914 10.859755956372071 
Si 10.86222087 -0.0040450513499999995 10.863297457703451 
Si 8.321078609999999 0.21086101799999998 13.680372657523364 
Si 10.239584489999999 1.099527759 15.187470583320756 
Si 10.903369409999998 2.79821475 13.642894633725245 
Si 11.09124198 2.16756369 17.586029722892313 
Si 9.480519359999999 1.83787038 21.350336186578634 
Si 11.04077556 1.105621848 19.721658176239814 
Si 10.598111099999999 0.84352878 23.18985386841292 
Si 10.73843316 2.8042094699999995 24.455270115974557 
Si 8.32458096 0.5319385469999999 25.93847150366214 
Si 12.21013692 1.7803341 29.543100955863626 
Si 8.63055603 3.22748883 29.451572057376847 
Si 10.18024002 1.91788686 26.48571941813082 
Si 9.43660152 3.9082479299999995 27.412423727678448 
Si 11.8467396 0.6387651089999999 27.493809491284086 
Si 10.52436627 2.880072 30.772586437490368 
Si 10.56217536 0.71809578 32.16463714527996 
Si 12.20966451 4.077582479999999 4.0690131122174495 
Si 9.5079843 6.78191796 4.067431470846152 
Si 9.50272263 4.0725814499999995 6.78720134282324 
Si 8.14469049 5.42996199 8.144868542541161 
Si 10.862123129999999 5.43066246 5.431047017460473 
Si 10.861064279999999 5.42903346 10.862919239114664 
Si 8.14408776 8.14456017 10.860959379154579 
Si 9.5034231 6.78931362 9.502466975242937 
Si 9.4975587 4.0728909600000005 12.21487877649269 
Si 8.21045322 5.388129269999999 13.669404318448501 
Si 9.415864349999998 6.851101589999999 15.064996527569471 
Si 10.86240006 5.617736819999999 16.412211140833605 
Si 10.755228149999999 4.790986739999999 20.17452336105177 
Si 11.46095982 6.94970496 19.51405055450308 
Si 11.455242029999999 7.88587497 17.39506371906226 
Si 9.82143648 4.11021135 18.004270715076093 
Si 12.02158017 7.25494698 23.106473861339126 
Si 9.20795508 4.42679121 23.890520995897393 
Si 9.93012336 6.60271167 24.026095168223982 
Si 9.000078389999999 4.13621019 21.584075274449837 
Si 10.006946999999998 7.32681846 26.27735535921651 
Si 10.88347932 6.561546839999999 29.87094770532699 
Si 8.5761963 7.109249219999999 29.773848678532598 
Si 10.98918513 5.69157939 27.679274133822666 
Si 11.0372895 4.9871509199999995 31.750143955475988 
Si 8.543974679999998 7.6701464999999995 34.04029189409757 
Si 9.33495192 5.39747973 33.576492753718824 
Si 9.65666313 9.34653411 1.0607724842206736 
Si 10.88564589 8.14379454 2.681865492678879 
Si 9.50223393 12.21844482 4.066984485241221 
Si 12.20681376 9.50956443 4.075064609638063 
Si 8.14356648 8.145716760000001 5.429706060645677 
Si 9.50308101 9.50303214 6.787717095444315 
Si 10.860445259999999 8.144674199999999 8.145109227097661 
Si 8.14475565 10.86046155 8.145281144638021 
Si 10.86137379 10.8598914 5.4322504402429805 
Si 12.21837966 9.502185059999999 9.502157523670293 
Si 9.505491929999998 9.50490549 12.231864229480093 
Si 10.85756193 10.86049413 10.863469375243811 
Si 9.503374229999999 12.2205951 9.502638892783297 
Si 11.5867512 11.45775069 16.26807547499717 
Si 10.90130058 8.19510804 13.608270441097073 
Si 8.2577268 10.87018668 13.76354636354873 
Si 11.868551909999999 8.582989229999999 21.15699772069164 
Si 9.425752379999999 10.303376129999998 19.592616870446843 
Si 11.42728839 10.54119384 18.41185281975766 
Si 8.164173329999999 8.43229044 18.759504469870304 
Si 10.22174694 10.19089368 21.826479006355104 
Si 9.148073039999998 9.729854099999999 23.8610199459719 
Si 8.18476389 11.74368906 24.514581667398186 
Si 10.7426034 9.460531529999999 25.666807406387882 
Si 11.09326194 10.49929596 29.72526478162733 
Si 10.335141629999999 11.05719588 27.426830417560474 
Si 11.194878959999999 10.582798499999999 34.087019081566964 
Si 9.09843741 10.339784279999998 31.171400747613657 
Si 9.46079217 11.841868889999999 32.98922243585472 
Si 9.49035852 14.959905209999999 1.3232321163841445 
Si 10.871196659999999 13.56808761 2.6927616263867913 
Si 8.14214925 13.574717639999998 5.431150167984687 
Si 9.50205474 14.933140739999999 6.7876139449201 
Si 10.86020091 13.57499457 8.145006076573447 
Si 10.85925609 16.28762166 5.430668798871684 
Si 12.21725565 12.23022249 12.241422844724017 
Si 8.14291488 13.575222629999999 10.857933630444272 
Si 9.49501746 14.932994129999999 12.236196551497123 
Si 11.884418369999999 15.668829719999998 14.686090268619681 
Si 9.57842226 12.28588542 15.33401309472221 
Si 10.859109479999999 13.644780929999998 13.704784948254249 
Si 9.35018307 13.88074158 21.066981696560006 
Si 8.25078726 12.287107169999999 19.738781163259507 
Si 10.3244391 15.219518939999999 19.343714655516028 
Si 8.43750324 15.376945499999998 17.844146717986334 
Si 8.310832199999998 13.01530275 17.405791373580627 
Si 10.871994869999998 12.46878954 22.29918347532441 
Si 9.273864419999999 15.477291899999999 24.23559388290466 
Si 10.13083245 13.22084997 24.446158486335563 
Si 11.39707044 12.97218312 26.49245858571287 
Si 8.42652378 15.535935899999998 27.89705927394862 
Si 10.76821128 14.8677201 27.890148188826213 
Si 8.236549799999999 13.50344889 34.19807781263846 
Si 9.407458709999998 13.38133905 31.14616325268905 
Si 8.86026132 15.3279126 32.35708163995709 
Si 11.3723748 14.272467209999999 30.0953344790027 
Si 12.293395109999999 1.496357046 1.2492113002074556 
Si 14.934623129999999 1.355652171 4.068772427660948 
Si 13.57455474 4.18516164e-05 8.14504046008152 
Si 13.57597197 2.71625976 5.4289496234681005 
Si 12.216620339999999 1.357286058 6.787132575807096 
Si 16.28995113 -0.000690855642 10.863434991735739 
Si 14.9323914 1.358470341 9.502157523670293 
Si 13.572599939999998 2.71350675 10.858690067621849 
Si 12.213769589999998 1.386337644 12.21408795580704 
Si 14.927080859999998 4.09781466 12.247336808112344 
Si 14.788534409999999 1.2520705769999998 16.908055710735145 
Si 13.735760579999999 0.169303599 13.454610543524785 
Si 15.48432918 1.121397084 14.656279767121543 
Si 12.83752998 3.96534438 21.029847507842607 
Si 13.03257015 1.614918924 20.93333300068543 
Si 15.102133199999999 0.664638516 20.382234133312718 
Si 13.304938949999999 3.0506934599999997 17.294938943557565 
Si 12.71356308 3.9671851499999997 24.84287540246648 
Si 16.1104842 0.49230009 22.544647339448055 
Si 12.886872389999999 0.6118295939999999 23.02728864225007 
Si 15.920102969999999 2.59465491 23.548714542156933 
Si 13.923796049999998 2.0453723999999998 24.578053623298487 
Si 13.87303641 3.25027854 28.766721343605344 
Si 14.857506269999998 0.0753663366 29.96962837349268 
Si 13.977911429999999 0.6293234249999999 26.43995496888743 
Si 15.30074088 1.500711363 28.109171135242743 
Si 15.75303273 1.228922487 33.808856501267165 
Si 13.84099398 2.7094342499999997 34.09310496249566 
Si 14.97339333 4.1218587 1.268644858969563 
Si 13.58771706 5.4326987099999995 2.7019557764451556 
Si 12.934276289999998 7.27011297 1.3757047880523186 
Si 14.941807019999999 6.77776401 4.080531587421459 
Si 14.93345025 4.07297241 6.78782024596853 
Si 13.57486425 5.43056472 8.14507484358959 
Si 12.21714162 6.787684619999999 6.7876827119362435 
Si 16.28547138 5.43113487 10.861681432824085 
Si 12.21950367 4.072548869999999 9.501951222621862 
Si 14.933303639999998 6.7891832999999995 9.501469853508858 
Si 12.226801589999999 6.78400308 12.23987558686079 
Si 12.34643535 4.1527119599999995 15.195172489128812 
Si 13.63129281 5.58385362 13.803637533960297 
Si 15.1049025 7.11012888 15.246128848091024 
Si 15.496253459999998 8.04445812 19.798883535368788 
Si 14.19676758 4.38484446 19.129608550753748 
Si 13.74773373 6.6924207 18.852443092188025 
Si 15.5906703 5.96114631 23.277291129439174 
Si 13.31885061 5.32334394 22.983002683853762 
Si 16.06659894 4.9114512900000005 25.295121684133143 
Si 15.680037239999999 6.63089337 29.15370772695198 
Si 14.247576089999999 8.10691398 26.36204193959703 
Si 14.893881839999999 5.94221733 26.999305878197344 
Si 12.978422189999998 4.65086016 27.07917876744783 
Si 16.0845831 5.73256503 34.24064459563119 
Si 14.83287579 4.71211056 30.37731362869846 
Si 13.34483316 4.8020476500000004 32.4041526625072 
Si 13.92026112 6.81330879 33.64164950151464 
Si 12.29347656 12.17381022 1.2576146295801713 
Si 14.93586117 12.21732081 4.073689269315196 
Si 16.105841549999997 10.24056189 0.0691968099942338 
Si 14.576243129999998 9.13160385 1.5035701778692412 
Si 13.58131509 10.85725242 2.7225790045865423 
Si 14.932847519999997 9.502380539999999 6.787717095444315 
Si 13.57525521 10.85964705 8.144971693065376 
Si 13.57597197 8.14488597 5.428158802782453 
Si 13.577242589999999 8.14377825 10.860959379154579 
Si 14.945944679999998 9.491840909999999 12.219726851130794 
Si 12.40913556 9.64136682 14.993616364812688 
Si 13.69638765 10.93063887 13.561268185563101 
Si 15.50428443 11.850877259999999 14.903875408745632 
Si 13.799780279999998 8.51409882 16.670362519435695 
Si 15.01463961 9.93600405 18.48691201787811 
Si 13.15684656 10.28803095 19.974617645123086 
Si 12.78765 8.851220369999998 24.656791856782608 
Si 15.782761979999998 9.285674669999999 21.895074104958084 
Si 14.063368769999999 10.340028629999999 23.275193735446805 
Si 13.102828919999999 11.872901339999999 21.76785512509291 
Si 15.278684219999999 11.34127719 25.021772794963372 
Si 16.15189338 9.21569283 25.65687057255517 
Si 14.26557654 8.514783 28.71291115347318 
Si 12.31602192 8.484222959999999 30.027564584593442 
Si 15.756535079999999 10.312922069999999 29.152263619612967 
Si 12.91920804 8.93136717 32.50462127309262 
Si 14.524750439999998 10.67348493 32.804926832590574 
Si 12.216473729999999 14.93358057 4.07272653108919 
Si 14.812725059999998 14.71500135 1.391679365902416 
Si 13.569944669999998 16.2906516 2.6905576435193974 
Si 16.3035207 13.546552229999998 2.719659844751258 
Si 16.28817552 16.28750763 5.42956852661339 
Si 13.573854269999998 13.574457 5.429396609073032 
Si 12.216490019999998 12.21732081 6.787957780000816 
Si 14.93252172 14.932847519999997 6.78782024596853 
Si 12.21921045 14.933352509999999 9.50208875665415 
Si 14.93281494 12.21888465 9.502363824718723 
Si 13.57246962 13.57502715 10.85889636867028 
Si 14.940292049999998 14.906881259999999 12.220173836735725 
Si 13.401766709999999 15.545628449999999 16.485138561453617 
Si 15.384878729999999 14.06721321 16.197726817482536 
Si 14.273216549999999 14.77327068 19.771823714516383 
Si 15.911436689999999 13.74071274 18.456516996742756 
Si 12.360118949999999 14.55697206 18.36368152494925 
Si 14.470537319999998 15.227647649999998 23.40155312761019 
Si 14.64427017 13.602606119999999 21.757952674768266 
Si 14.748216659999999 14.83657362 25.697133660507095 
Si 15.758913419999999 14.15247507 29.475262294438224 
Si 13.85150103 12.74241267 26.4495823511475 
Si 14.47527771 12.324916259999998 28.74158699920495 
Si 13.99916988 12.85233759 32.1835136912113 
Si 13.29697314 13.800138659999998 34.24525198571279 
Si 12.636348479999999 12.290690969999998 30.218014835802418 
Si 12.536246429999998 16.214137469999997 30.972629687451338 
Si 15.90768999 15.21792252 33.80418034416942 
