&CONTROL
  dt          = 30.D0,
  prefix = 'x1.33_y1.66_z3.15_struc17-scf',
  pseudo_dir = './',
  outdir='./',
  wf_collect= .true.,
  verbosity= 'high',
/

&SYSTEM
ibrav= 6, celldm(1) =30.783621515, celldm(3) =2.1024929778250487, nat=  432, ntyp= 1,
  ecutwfc     = 12.D0, nbnd= 1728,
  degauss     = 0.05D0,
  occupations = "smearing",
  smearing    = "methfessel-paxton",
/
&ELECTRONS
  electron_maxstep=200,
  conv_thr    = 1.D-8,
  mixing_beta = 0.3D0,
  scf_must_converge=.false.,
/
&IONS
/
ATOMIC_SPECIES
Si  28.08  Si.pbe-hgh.UPF
K_POINTS {automatic}
1 1 1 0 0 0
ATOMIC_POSITIONS (angstrom)
Si 0.00263353914 2.7043843499999998 2.704445152578187 
Si 1.3799926889999998 1.291433733 1.3052286855728001 
Si 4.07277693 1.3567338269999998 4.069504482923447 
Si -0.001463421924 0.00036114604199999996 5.430892255011448 
Si 0.000311241627 2.71495656 8.144831399650386 
Si 2.71541268 -0.000567600615 8.144728650818559 
Si 2.71590138 2.71547784 5.4310977526751 
Si 1.357313751 1.3574896829999998 6.7874850816142205 
Si 2.7115845299999997 2.7161457299999996 10.863188744057855 
Si 1.363328019 1.365826905 12.241221826901718 
Si 4.07253258 1.35668007 9.502451714571421 
Si 1.76124222 2.0859996599999997 16.485296575098065 
Si 2.96626239 0.1377386289 13.589252250852297 
Si 0.2827944 0.15342410699999998 16.215957637270698 
Si 1.1245557149999998 0.63200313 20.47695169310778 
Si 3.262887 3.25247769 18.907018042022976 
Si 1.0848358079999998 2.28801195 18.77779426119609 
Si 0.6682891049999999 2.06869968 22.309374359898193 
Si 2.55401136 2.25499212 23.789711029630453 
Si 2.66450643 0.284001489 25.000058018933775 
Si 2.20130028 3.9396224699999998 25.409854609867708 
Si 1.071629505 3.35740158 29.951729722307313 
Si 3.8144826899999997 3.27002202 26.99739256080542 
Si 3.8572928099999997 0.8871191909999999 26.920193938493252 
Si 2.38185864 2.9222631 34.10059055301128 
Si 1.4278201289999999 1.07160507 30.184181829509036 
Si 3.22450776 1.9525519799999997 31.946872289099996 
Si 3.9850715699999997 4.08901806 1.1481120218661285 
Si 4.07473173 6.78159216 4.072758195931281 
Si 1.357696566 4.07026827 4.071045715400842 
Si 2.72425815 5.435435429999999 2.691878970445829 
Si 1.4034714659999998 6.79020957 1.2445486504572423 
Si 2.7142886699999997 5.430466979999999 8.144865649260995 
Si 1.358022366 6.78716334 6.787587830446046 
Si 2.7164389499999997 8.145537569999998 5.43027576202049 
Si 4.06766187 4.08004227 12.250195224881216 
Si 1.35814617 4.073184179999999 9.501492725474376 
Si 0.000667122741 5.4317538899999995 10.861202266642547 
Si 1.359213165 6.765921179999999 12.22803572681734 
Si 2.71402803 8.14438098 10.859798032607587 
Si 3.5447202899999994 7.39528533 15.046470433423636 
Si 0.06606197729999999 6.24659598 16.219314099110356 
Si 1.137586086 4.11462594 15.129970984087818 
Si 2.68099191 5.42852847 13.771802675397042 
Si 3.4501894199999996 4.163935769999999 21.135640204335647 
Si 3.4598005199999995 7.80449013 21.19232330989316 
Si 3.0086000999999998 7.18288002 18.88852325229424 
Si 0.802012086 7.88183505 18.852287164270162 
Si 3.63400578 5.15879865 17.650913572946337 
Si 1.075113936 4.21528185 21.50755672593628 
Si 1.8300511799999999 7.2734361299999994 22.89154924102607 
Si 2.5772246099999996 6.254121959999999 24.882855851430566 
Si 3.17620791 4.15528578 29.12597161052987 
Si 2.30135346 7.53194214 26.84450229904787 
Si 0.0375168474 7.677949409999999 27.36581562212396 
Si 3.2896026 6.4554500699999995 28.686514856808742 
Si 0.6956351279999999 4.80789576 34.18042639534033 
Si 2.41487847 7.3165720499999995 30.69117881535066 
Si 0.397950039 6.51428955 31.76925380848291 
Si 1.358082639 9.500458319999998 4.068168748109706 
Si 2.70591561 10.87769637 2.7023182517593827 
Si 0.00027837003599999997 8.14486968 8.144899898871603 
Si -0.000511339842 10.861357499999999 5.430755256569014 
Si 2.71492398 10.85994027 8.145345143809518 
Si 4.06722204 9.51057441 12.225364257189858 
Si 1.35700587 9.502168769999999 9.502554463403246 
Si 1.345109283 12.20477751 12.23810511233632 
Si 0.264847707 8.870409989999999 16.762410174533624 
Si 4.01672304 10.800286289999999 17.087301980768416 
Si 1.69635915 8.98988085 14.87823634611336 
Si 3.9328295399999997 12.112462079999998 15.008384866426685 
Si 2.6151640199999995 10.7657352 13.639564928836581 
Si 3.2431760999999995 8.60892291 17.036407059403786 
Si 0.30131775899999996 11.1301425 19.50624922923402 
Si 2.45140065 11.88096489 18.718097189905002 
Si 0.670113585 9.242489879999999 22.850415458684935 
Si 2.00388177 11.06064936 23.242710498597788 
Si 3.7417967099999996 10.188645659999999 21.846011377972147 
Si 2.46195657 11.396418839999999 25.517603884842902 
Si 3.14809137 10.73511 29.02315427948234 
Si 3.36368952 9.69377175 26.88176587539021 
Si 2.74471839 8.34948837 34.05931977222772 
Si 0.1099490292 10.996841429999998 33.924513304871596 
Si 1.67580117 9.44872128 30.2191849315512 
Si 1.8490290299999999 10.133373689999999 32.59549141480888 
Si 0.43968664799999996 15.82076655 0.06921572307147554 
Si 2.73061125 16.28732844 2.7123431127845694 
Si 4.00318605 14.89195962 1.288244303671911 
Si -0.000999062442 13.560219539999999 2.714326165238817 
Si 1.309168656 12.240305999999999 1.2478605878031104 
Si 1.35726651 14.93312445 4.068613993047619 
Si 0.00033191526600000003 13.575010859999999 8.144797150039777 
Si 2.71531494 13.57357734 5.429762017861359 
Si 1.357279542 12.217548869999998 6.787724828888482 
Si 4.09235751 14.91680187 12.225501255632294 
Si 1.3558183289999999 14.933173319999998 9.501252978200114 
Si 2.71673217 13.57634664 10.864832725367076 
Si 2.2068063 13.306812299999999 15.973847139877304 
Si 1.480599729 15.076248389999998 14.780111211719232 
Si 0.1378270836 14.714496359999998 17.921656744808665 
Si 3.8411168399999998 12.244639139999999 20.600147542467525 
Si 3.2898143699999998 15.961984559999998 20.556821785047433 
Si 2.40534882 14.13067905 18.10246043921236 
Si 2.88409563 14.002590779999998 21.873890561007684 
Si 0.874253349 13.10815575 22.6636180824247 
Si 3.6238571099999994 14.66401365 24.019286169541036 
Si 0.385040214 16.27198326 25.402251196312566 
Si 1.78821846 12.64302738 29.550872279742272 
Si 3.5585505 14.194486979999999 29.40301671074421 
Si 0.24891282899999997 12.297532769999998 26.010421531892494 
Si 0.376035102 15.881756309999998 27.670534407710186 
Si 2.551014 16.13480517 28.562086021467078 
Si 2.22808104 14.03810298 34.07771181312462 
Si 1.0573757549999998 12.865337010000001 31.980539656328418 
Si 6.783498089999999 4.07300499 4.067381007065704 
Si 5.41114704 2.7318981599999996 2.6922385913572215 
Si 6.85463652 1.4844343949999999 1.34143052398627 
Si 5.4288542699999995 0.00039363970499999994 5.4309950038432735 
Si 5.43035295 2.71450044 8.14500264770343 
Si 6.78730995 1.357668873 6.787656329667264 
Si 8.14701996 2.71050939 10.861887258854722 
Si 5.432438069999999 -0.00330577857 10.85918153961663 
Si 6.78932991 1.3606434269999998 12.231083942161522 
Si 7.07582214 3.88506726 15.15384296268213 
Si 8.053792289999999 0.0651145509 13.784440781711679 
Si 4.67487162 1.0333561500000001 15.117264378551965 
Si 5.51133054 2.7684529199999997 13.674465282046917 
Si 4.76277246 1.82635335 17.564570304601627 
Si 7.079291909999999 0.667600038 20.42982422891011 
Si 7.0943764499999995 2.1975535799999997 18.661859329285402 
Si 4.6004263199999995 2.75599107 22.70749183361454 
Si 6.617046869999999 3.31622046 24.105389690611485 
Si 5.10403167 0.732131244 21.685586201880668 
Si 6.813846359999999 3.6370194299999996 29.34897082520357 
Si 7.032278969999999 1.2421809179999999 28.895471731132847 
Si 4.82692248 3.78625212 30.77282988704197 
Si 6.8746569299999996 0.59932539 31.255680897404407 
Si 4.78491057 0.20999927699999998 32.32019304473559 
Si 8.027597969999999 3.0390786899999997 34.153095206074525 
Si 6.98572215 7.01103681 1.242106653220837 
Si 4.073037569999999 4.0720927499999995 6.786800089402045 
Si 5.430206339999999 5.43221001 5.4308580054008395 
Si 6.78766833 6.787554299999999 6.787279583950569 
Si 6.78802671 4.07210904 9.502554463403246 
Si 4.07227194 6.78784752 9.502417464960814 
Si 5.42872395 5.43102084 10.864798475756468 
Si 6.77448972 6.80040711 12.242968557042765 
Si 6.0377418899999995 5.137686809999999 17.184844871782193 
Si 6.86996541 5.552381339999999 21.100876849567744 
Si 7.318543139999999 7.63367319 20.198262611584216 
Si 7.47082206 4.49255394 19.064908746929408 
Si 6.06929562 8.07492042 24.616667877779207 
Si 4.732619669999999 5.96738538 21.935882356209557 
Si 8.047422899999999 4.95931131 23.056187119222425 
Si 4.8180118499999995 6.10218513 24.3526376295962 
Si 5.537850659999999 7.25911722 28.421559869139298 
Si 5.63513454 4.45279005 25.933462656854587 
Si 6.86919978 5.40513603 27.729580736399708 
Si 6.945958259999999 5.375243879999999 33.72747529503934 
Si 4.80989943 5.23216881 32.829347756045564 
Si 4.12247772 7.475904539999999 32.28851215492248 
Si 4.10721399 9.531230129999999 1.373402535489557 
Si 5.43592413 8.12906838 2.702945019633523 
Si 6.78815703 9.502038449999999 4.0700867263037965 
Si 4.0729887 9.50233167 6.788101574605179 
Si 5.429701349999999 8.14542354 8.145345143809518 
Si 5.42916378 10.86018462 5.4309265046220565 
Si 6.787554299999999 9.50299956 9.502794210677509 
Si 5.428202669999999 10.860933959999999 10.858702045068107 
Si 5.96601702 10.530914849999998 14.37223259897939 
Si 5.34538431 8.19325098 13.724332715093286 
Si 6.741795689999999 9.16923375 16.080979921861537 
Si 7.133716799999999 9.71815788 21.235169572764732 
Si 7.320644549999999 11.35277793 19.531765189137555 
Si 6.20368812 11.443122269999998 17.488433420218332 
Si 5.72371956 9.94437711 23.09115597165398 
Si 6.11357184 12.057548489999999 24.092854333128678 
Si 7.9627149 11.900496599999999 25.495786882885117 
Si 6.396887519999999 12.15800892 28.761898249758644 
Si 5.66326737 8.99149356 26.761960737480734 
Si 7.38383346 10.5766083 27.359890439488645 
Si 4.24905102 11.609606069999998 32.21693046875015 
Si 7.63289127 8.96533182 33.92879450619769 
Si 8.07324255 8.26930899 31.64708544744143 
Si 5.67727677 10.6078851 34.04438694200229 
Si 5.20160877 10.7298972 30.22689109393817 
Si 5.9660984699999995 8.45086104 30.45002730705431 
Si 4.073461109999999 12.21859143 4.073169191258586 
Si 5.418884789999999 13.561669349999999 2.689238325467893 
Si 6.7490121599999995 12.265522919999999 1.141967641722915 
Si 6.78766833 14.93149545 4.06498353432309 
Si 5.74553187 16.0345728 0.14861111540808972 
Si 4.0725 14.93261946 6.7874850816142205 
Si 5.42999457 13.575743909999998 8.145379393420127 
Si 6.7870656 12.21732081 6.787416582393003 
Si 4.073053859999999 12.21712533 9.501424226253159 
Si 6.788417669999999 14.93424846 9.50193797041229 
Si 6.79003038 12.224781629999999 12.236255633363447 
Si 7.32833343 12.84028299 15.959085557704922 
Si 7.725076379999999 14.901000569999999 16.970887554309208 
Si 5.49111465 13.54420647 13.825506064831593 
Si 6.305256269999999 15.414282179999999 15.050100892148166 
Si 6.0193341899999995 13.1028615 20.2809754212044 
Si 6.5220272999999995 15.024120389999998 18.996204028048215 
Si 4.39479765 15.909970589999999 18.44475104763641 
Si 5.658478109999999 15.49203435 23.368269571089538 
Si 6.78357954 13.68760734 22.42137058658887 
Si 7.057430729999999 15.888093119999999 25.206343423630397 
Si 4.275098729999999 12.95097354 25.47396988092733 
Si 7.98294708 13.55179761 29.716674644699328 
Si 5.90404986 16.08114591 27.263751782509825 
Si 5.074335 13.784386229999999 27.61926274062886 
Si 7.5655972799999995 14.21307387 34.0955901098624 
Si 6.9542661599999995 14.49376686 31.650510408502306 
Si 4.51736361 14.074983539999998 31.645133219636733 
Si 9.50080041 1.355668461 4.070018227082579 
Si 10.86888348 2.7099229499999997 2.6755213564190807 
Si 8.14475565 -8.09590194e-05 8.145139646145864 
Si 8.147036250000001 2.7151031699999995 5.4300702643568375 
Si 10.86072219 0.00214410609 5.430618258126578 
Si 10.85969592 2.71544526 8.145242394977691 
Si 12.207123269999999 1.369169613 12.247969000191645 
Si 9.502250219999999 1.358657676 9.501561224695593 
Si 10.855770029999999 0.001575744732 10.86582596407473 
Si 8.9788851 1.9193040899999998 15.156514432309615 
Si 10.867156739999999 2.78736561 13.88544288339694 
Si 9.17032518 1.522002393 17.55751488481622 
Si 10.70526672 2.1716199 21.26962468103715 
Si 10.751351129999998 2.6879477400000003 18.85269815959747 
Si 8.827811639999998 0.8599670189999999 22.11706279632995 
Si 8.16244659 1.5045346259999999 24.415382916231465 
Si 11.78917074 0.533179845 25.90219276236878 
Si 9.740784689999998 1.7282061 26.290857343557104 
Si 10.22521671 3.9639271499999995 27.013147381685457 
Si 9.293005169999999 0.684465075 28.40279108252569 
Si 8.70650001 3.94698555 30.760739774497072 
Si 8.783535419999998 1.90946493 32.05503255940249 
Si 10.67540715 0.9774390959999999 30.42471684481443 
Si 12.21916158 4.06834605 4.068065999277879 
Si 12.16509507 6.85696599 1.2999028711231364 
Si 9.670542209999999 4.228558199999999 1.1874374247671182 
Si 8.16295158 5.4475389 2.690659684308157 
Si 9.501126209999999 6.7875054299999995 4.074813172567807 
Si 9.502087320000001 4.073021279999999 6.787622080056655 
Si 8.14534209 5.42963619 8.144899898871603 
Si 10.85984253 5.43279645 5.430378510852316 
Si 9.504058409999999 6.78685383 9.502109218465334 
Si 9.5171067 4.07078955 12.241530073397197 
Si 10.86059187 5.42908233 10.859524035722718 
Si 10.93138821 8.10699543 13.622508622753413 
Si 9.62519085 6.74651979 15.100242322079406 
Si 12.18493629 4.1715431999999995 15.523773006867456 
Si 11.07957834 5.937737579999999 16.9853066403755 
Si 8.15715234 5.44463928 13.634804232961962 
Si 10.807453889999998 5.84877789 20.69751918542826 
Si 9.667968389999999 7.8150786299999995 20.128633153216587 
Si 9.840104819999999 4.81307598 18.835813101567346 
Si 11.96257779 5.07467709 23.892083115740064 
Si 11.84726088 7.479292859999999 24.055042763016594 
Si 8.16832728 6.87664431 24.548237155782882 
Si 10.27371204 4.30860726 22.41027371275163 
Si 8.91413235 5.96810214 26.655512947708676 
Si 10.6214058 4.24330065 29.384864417121562 
Si 11.47876479 6.434843219999999 29.2553666394098 
Si 10.350796319999999 7.64075934 27.565319603920045 
Si 8.765062559999999 5.8925654100000004 32.283340463720556 
Si 10.730304449999998 5.69151423 33.78001419771319 
Si 9.54988218 9.457631909999998 1.131692758540284 
Si 10.83553785 8.146303199999998 2.7102299118100084 
Si 8.15777136 10.87165278 2.669942094850912 
Si 8.14680819 8.14472307 5.430378510852316 
Si 9.502315379999999 9.50220135 6.787382332782394 
Si 10.86000543 8.14493484 8.144968398092821 
Si 8.14457646 10.860038009999998 8.145310894198909 
Si 10.859907689999998 10.86116202 5.430584008515969 
Si 8.143990019999999 8.147492369999998 10.863428491332117 
Si 9.51375096 9.49187349 12.22779597954308 
Si 10.86095025 10.86024978 10.859626784554543 
Si 9.50251086 12.215561489999999 9.502931209119945 
Si 8.24058972 10.89102159 13.616172444790791 
Si 11.76750504 9.792749789999998 17.113571432105346 
Si 9.102232979999998 8.961992369999999 15.860754925647145 
Si 10.72865916 11.120661720000001 21.394156265210643 
Si 9.546738210000001 12.14292438 19.648556361313457 
Si 10.19390733 8.24588397 17.812366237356077 
Si 10.65377403 11.86066755 17.366710304114765 
Si 9.35875161 9.36339426 21.855978014659296 
Si 11.06625312 12.09312585 23.499205832446865 
Si 9.74993967 8.51489703 23.984248817888265 
Si 9.910803419999999 10.719781109999998 24.958650239707776 
Si 10.99343682 11.201916240000001 27.00886618035936 
Si 9.516243329999998 9.77038362 28.179038376418596 
Si 11.584421729999999 10.208209949999999 34.15056073488948 
Si 9.493225559999999 12.192576299999999 30.838691888242636 
Si 11.81863935 9.82138761 31.63078263279166 
Si 9.71397135 9.8140734 30.528972659507527 
Si 12.21881949 14.93289639 4.0684427449945755 
Si 9.50110992 12.2175 4.070292223967449 
Si 9.655946369999999 14.94082962 1.081095808787948 
Si 10.858913999999999 13.555609469999998 2.674182196644278 
Si 8.172090269999998 16.2955386 2.685207146299241 
Si 8.14521177 13.57401717 5.4309265046220565 
Si 9.502413119999998 14.93274978 6.78693708784448 
Si 10.85982624 13.57507602 8.144762900429168 
Si 8.14403889 13.579409159999999 10.861544762748634 
Si 9.49405635 14.943892139999999 12.250811717872175 
Si 12.038977889999998 15.288832889999998 16.827587183522112 
Si 9.44564247 12.23027136 15.151445489939517 
Si 10.8651042 13.567696649999998 13.634119240749788 
Si 10.009439369999999 14.413734089999998 20.051331782072594 
Si 9.856508849999999 15.56459001 17.864494144702626 
Si 12.191061329999998 15.92039619 23.7352198991519 
Si 10.37068641 14.314104449999999 23.928182205321708 
Si 8.94953052 14.7862701 22.14658596067471 
Si 8.662288949999999 14.2037397 25.67022014971558 
Si 11.216104829999999 13.42235727 27.894766608365806 
Si 9.20342646 14.64371631 27.94107208190886 
Si 11.737401119999998 15.36811632 31.360587454699072 
Si 11.529671039999998 13.11615414 30.227439087707914 
Si 11.61045315 15.54525378 33.87012492322487 
Si 13.57602084 0.0075042654299999996 2.6948175870360616 
Si 12.264529229999999 1.255155903 1.0981589647932373 
Si 14.93309187 1.3587961409999998 4.074059681134414 
Si 13.57532037 -0.000218313693 8.144899898871603 
Si 13.576770179999999 2.71531494 5.431063503064491 
Si 12.21784209 1.357211124 6.787211084729351 
Si 16.2927693 -0.00493321473 10.859489786112109 
Si 14.93377605 1.3578366599999998 9.502896959509336 
Si 13.57181802 2.7210164399999996 10.8621955053502 
Si 16.14213567 2.6776035899999995 13.627543315512902 
Si 13.68402354 0.0659917674 13.536439351293575 
Si 14.783142419999999 1.2450349259999998 15.244159185857457 
Si 13.51514511 0.617527836 17.640946936259187 
Si 13.74639795 3.4286866199999997 20.052290771169638 
Si 16.003067939999998 3.9775292999999996 19.63184255133638 
Si 12.84171651 2.8647919799999997 17.768629484608677 
Si 14.6280942 2.3343570000000002 22.92507960981205 
Si 12.82179384 1.149674895 21.881082979235522 
Si 15.17030685 1.77308505 25.14363238660574 
Si 15.419902229999998 0.57159981 29.512033221311924 
Si 13.938440759999999 2.2656457800000003 28.793133894633844 
Si 16.27590915 3.6342012599999998 26.03066305176228 
Si 13.319762849999998 2.13993585 26.523206701927 
Si 15.7465656 3.71048733 28.335764594564328 
Si 13.94713962 2.46348783 34.144943798749644 
Si 12.245746859999999 2.80192887 30.358615096339502 
Si 13.70427201 3.7365350399999997 32.06496494647904 
Si 16.28767053 8.14493484 2.684350906034022 
Si 15.029414639999999 4.10190345 1.2957449683952318 
Si 13.57131303 5.44042017 2.692447513981935 
Si 14.9315769 6.78828735 4.070018227082579 
Si 16.28973936 5.429424419999999 5.429145524870401 
Si 14.93283123 4.072060169999999 6.787690579277873 
Si 13.574668769999999 5.43001086 8.145071146924648 
Si 12.21732081 6.787391399999999 6.787827577720308 
Si 13.57540182 8.144120339999999 5.429522270587097 
Si 12.216978719999998 4.073086439999999 9.501526975084985 
Si 14.93283123 6.78669093 9.501835221580462 
Si 14.90868945 4.0890343499999995 12.237351620902926 
Si 12.22619886 6.76688229 12.223240781332114 
Si 13.46480901 5.44488363 13.834102717094394 
Si 14.61719619 7.23157083 14.91964412533936 
Si 13.361953949999998 6.822056519999999 18.185858241044716 
Si 14.664257999999998 7.129139309999999 21.267021710630885 
Si 13.0886892 5.697916199999999 20.16312251109962 
Si 15.768459359999998 6.00020973 18.451532470536947 
Si 16.22977587 5.92273449 22.600085054745435 
Si 15.26188923 5.347958129999999 24.760276495061778 
Si 14.022627479999999 4.6099071 22.866958020608973 
Si 14.88993966 7.479260279999999 25.568190559712054 
Si 15.220463759999998 5.936662439999999 28.487935614499094 
Si 12.49348518 7.9820837099999995 26.294796048777112 
Si 12.360167820000001 4.29433722 26.102518734819476 
Si 13.09007385 6.02972721 27.550044277588537 
Si 16.112683349999998 4.287772349999999 31.851898118881877 
Si 12.63010941 7.54544655 31.105496354884952 
Si 12.79061478 5.8785234299999995 32.73872328637476 
Si 14.92711344 7.24691601 30.41081150290727 
Si 12.334902029999999 12.15321966 1.1664629632303076 
Si 13.29332418 8.52182028 0.10920659590659372 
Si 12.21561036 9.50415615 4.067792002393009 
Si 15.02164431 9.62799273 1.2531179030315565 
Si 13.590193139999998 10.8660816 2.702520324461974 
Si 13.575157469999999 10.85977737 8.144831399650386 
Si 14.9320656 9.5030973 6.787793328109699 
Si 12.21601761 9.50311359 9.50303395795177 
Si 13.575988259999999 8.14219812 10.863702488216987 
Si 14.927976809999999 9.534162330000001 12.222281792235067 
Si 16.28861535 10.86158556 10.858736294678716 
Si 12.70908333 9.091839959999998 15.029893621888993 
Si 13.55640768 10.862465219999999 13.697378271544185 
Si 16.26776415 8.152216469999999 13.504039219657678 
Si 15.145497179999998 10.54023273 17.762909799637015 
Si 12.808061369999999 10.15637517 20.83222290395255 
Si 16.16560956 9.07344855 20.64234306273753 
Si 13.37031072 9.230777369999998 18.67449743560004 
Si 13.289903279999999 8.54759106 22.51757774278891 
Si 14.983998119999999 9.140025779999998 23.97770714226199 
Si 14.63187348 11.045825459999998 25.195554796288636 
Si 15.87452355 9.06546645 29.225261231684694 
Si 14.44346334 10.8374112 28.743506208861735 
Si 13.136288579999999 10.24955397 26.85624991548668 
Si 13.22958141 11.516525009999999 30.652271257699095 
Si 14.931120779999999 12.21833079 4.075395415948156 
Si 14.94701982 14.89925754 1.3435539998440138 
Si 13.5762489 13.574408129999998 5.4316457464448415 
Si 12.217793219999999 12.217809509999999 6.787587830446046 
Si 14.93221221 14.93252172 6.787793328109699 
Si 12.217614029999998 14.932179629999998 9.50248596418203 
Si 14.933303639999998 12.21719049 9.50221196729716 
Si 13.575304079999999 13.574733929999999 10.86359973938516 
Si 12.20839389 12.20008599 12.231255190214567 
Si 14.95469241 14.92934517 12.203787002506331 
Si 12.678555869999999 14.62082886 14.689589490880254 
Si 14.413994729999999 12.91500522 14.888648227738424 
Si 16.28799633 13.59292986 13.616103945569574 
Si 13.64399901 12.333061260000001 21.350351013242026 
Si 15.819430769999999 12.94427835 20.797665046848305 
Si 13.5762489 16.04460744 20.080889196027965 
Si 12.359483639999999 14.01818031 20.199701095229788 
Si 15.7887567 15.224047559999999 20.09486303715634 
Si 12.51288657 13.27307571 17.897750516603743 
Si 14.83908228 12.83337603 17.204298650607978 
Si 13.755276 14.37304167 24.639169871949168 
Si 13.35581262 12.31413228 23.698230319694428 
Si 16.12095867 14.155309529999998 24.576013589986594 
Si 14.763284909999998 14.62345155 28.383577050974168 
Si 12.870028529999999 14.80462893 26.868819522580097 
Si 16.00779204 12.59963082 28.293363576630668 
Si 13.4594496 13.87134225 34.05863478001554 
Si 14.80275558 13.25466801 31.985060604928773 
Si 14.072523749999998 15.18768828 30.690322575085442 
