&CONTROL
  dt          = 30.D0,
  prefix = 'x1.33_y.66_z3.18_struc4-scf',
  pseudo_dir = './',
  outdir='./',
  wf_collect= .true.,
  verbosity= 'high',
/

&SYSTEM
ibrav= 6, celldm(1) =30.783621515, celldm(3) =2.122134354613896, nat=  432, ntyp= 1,
  ecutwfc     = 12.D0, nbnd= 1728,
  degauss     = 0.05D0,
  occupations = "smearing",
  smearing    = "methfessel-paxton",
/
&ELECTRONS
  electron_maxstep=200,
  conv_thr    = 1.D-8,
  mixing_beta = 0.3D0,
  scf_must_converge=.false.,
/
ATOMIC_SPECIES
Si  28.08  Si.pbe-hgh.UPF
K_POINTS {automatic}
1 1 1 0 0 0
ATOMIC_POSITIONS (angstrom)
Si 0.00323587818 2.71080261 2.685281124731049 
Si 2.7141909299999996 -0.01050964011 2.7045329175048054 
Si 1.3512375810000001 1.2204077039999999 1.2363045692391572 
Si 1.3570172729999999 4.070952449999999 4.069806176456751 
Si 4.073053859999999 1.357872498 4.069702467750841 
Si 4.02234309 4.05513486 1.3177781286020382 
Si 0.001589688972 0.0006380385749999999 5.42987671532888 
Si 0.00013127280209999998 2.71497285 8.145074344758095 
Si 2.71539639 0.00016997474699999998 8.144901496914912 
Si 2.71482624 2.71549413 5.430049563172063 
Si 1.357409862 1.357541811 6.7874928148278055 
Si -0.001564284717 0.00037326906 10.864351183286436 
Si 2.7170091 2.7147284999999997 10.859788000226397 
Si 1.365279561 1.3497063209999998 12.246684524360575 
Si 0.09479770019999999 2.8372455899999998 13.686956462469755 
Si 1.171557252 3.8672297099999997 17.701866163931488 
Si 2.89437462 1.109031345 19.509059503550183 
Si 0.61929693 1.78579125 18.863956783221465 
Si 3.4968602699999995 3.91390056 22.350989171601395 
Si 1.1359082159999998 0.228167514 22.438968723781695 
Si 3.0921352199999994 1.597131873 21.89048794779244 
Si 0.717190056 3.68932662 25.103349087315017 
Si 3.2906940299999996 0.0675815085 29.07359490609819 
Si 0.325301526 3.10010103 29.009468356277182 
Si 2.9657248199999997 1.124464491 27.01635987653053 
Si 0.852175512 2.10057921 26.93097304199798 
Si 2.7324846 2.56171653 34.50053320809295 
Si 1.9999395899999999 3.7755007199999997 30.63423808220022 
Si 1.05648795 3.56915529 32.98434649725767 
Si 3.50912664 0.740678607 33.07270631469297 
Si 2.70513369 5.43789522 2.7003327149154512 
Si 1.413028809 6.8149215 1.1799216027927641 
Si -0.006353148869999999 8.143419869999999 2.674488505402684 
Si 2.71497285 5.42992941 8.144901496914912 
Si 1.357404975 6.7870656 6.787665662670989 
Si 1.35661491 4.0718809799999995 9.502690444257022 
Si -0.0011866694849999998 5.43097197 10.861101643834589 
Si 1.3563021419999999 6.786511739999999 12.23524199714184 
Si 0.8587990259999999 4.5463761 15.253511034808655 
Si 2.62444932 5.35282884 13.714819534790903 
Si 0.501083658 7.2896772599999995 17.374699766354134 
Si 2.1581317799999997 5.519866499999999 21.123008954489947 
Si 2.9642424299999997 5.0413640399999995 18.8917161468367 
Si 2.9194286399999996 6.89316237 17.38451752384695 
Si 2.4024492 7.82436393 21.808972904947197 
Si 2.1734443800000003 8.08381476 24.237796227790316 
Si 3.05484741 4.226130990000001 24.68775373316509 
Si 3.58107957 6.496761509999999 25.308450338036327 
Si 3.54011022 6.47534016 27.710067410362395 
Si 1.445007708 6.67982853 28.73747499024394 
Si 0.1293406452 5.47461288 34.24914330496716 
Si 3.68238708 6.94006128 32.60988892978536 
Si 1.9338347699999998 6.091661789999999 30.958915470835734 
Si 1.3548555899999999 9.505882889999999 4.069149354652654 
Si 2.71044423 10.8587511 2.686968119680518 
Si -0.00034072489800000003 8.14490226 8.145005205620821 
Si 2.7146307599999995 8.14506516 5.4303261197211565 
Si 0.000524324601 10.86000543 5.430256980583883 
Si 2.7150868799999994 10.86002172 8.145108914326732 
Si 4.074471089999999 9.487719539999999 12.230678814081799 
Si 1.3570172729999999 9.50026284 9.501757065903831 
Si 2.7187358399999995 8.14211667 10.859891708932306 
Si 0.26939913299999996 10.486964429999999 16.367307966713216 
Si 1.616678244 9.2229093 14.924443310956285 
Si 2.67196725 10.81007658 13.540761756705317 
Si 1.191704724 9.55866249 20.534220061470347 
Si 2.614545 11.48687721 20.150532419172055 
Si 1.588928229 11.88823023 17.858950283816473 
Si 0.9552341969999999 11.68035354 23.578277997340113 
Si 2.65333149 10.3926942 24.494544414054793 
Si 3.40706979 11.157363089999999 26.59754955249739 
Si 2.11944303 11.597795819999998 30.238347382173185 
Si 2.67885792 10.00028439 28.558577472549224 
Si 0.601804728 8.84398761 28.72485709769156 
Si 2.67799455 8.26096851 34.372452956294126 
Si 0.20039306399999998 11.01515139 31.839713510129204 
Si 1.4507206109999997 12.274270649999998 1.1250977238918847 
Si 1.3575157469999999 14.92950807 4.072260615829954 
Si 1.89310977e-05 13.574717639999998 8.144970636052184 
Si 2.7152334899999997 13.576770179999999 5.430118702309336 
Si 1.3576851629999998 12.21763032 6.7874928148278055 
Si 4.0685904 14.93553537 12.237903853926861 
Si 1.358037027 14.932847519999997 9.502828722531568 
Si 2.7178887599999997 13.574180069999999 10.8622424395996 
Si 1.343579652 12.222826829999999 12.219098008588519 
Si 2.65745286 16.2017082 13.730237562402854 
Si 0.500743197 15.12327762 17.08680439874803 
Si 2.98006002 12.9751479 16.20690516823911 
Si 1.542563631 14.583052349999999 15.062548737659744 
Si 3.3912033299999997 15.099217289999999 19.751565027536355 
Si 1.173049416 14.71428459 20.853850293084907 
Si 2.16280701 12.950859509999999 22.006952824529353 
Si 0.7875351629999999 15.59384685 24.61467366506719 
Si 2.76921855 15.39162279 25.81313147056293 
Si 1.430292951 15.15955545 29.977381708535038 
Si 3.0271381199999996 13.43757213 27.1937017636366 
Si 1.254600414 13.15777509 28.685344080739856 
Si 0.17974548899999998 16.17623064 34.029384557143906 
Si 3.2205492899999997 13.34647845 34.2288163986088 
Si 3.92789367 12.61450359 31.569379483390524 
Si 2.0002491 15.078968819999998 32.63104550579099 
Si 8.1269181 -0.000607540437 2.7301766235194798 
Si 5.43624993 2.71865439 2.702866664296518 
Si 6.7955038199999995 1.344648276 1.3398093146941819 
Si 5.4305973 -0.001345055526 5.430775524113432 
Si 5.42991312 2.71495656 8.144866927346275 
Si 6.7874728499999994 1.357414749 6.787631093102353 
Si 4.05166509 4.07033343 12.225942783178576 
Si 8.1453258 2.71591767 10.861758465638685 
Si 4.07263032 1.3579539479999998 9.501722496335194 
Si 5.427192689999999 0.0024347034 10.862380717874146 
Si 6.78662577 1.3663465559999999 12.239252067103692 
Si 5.35494654 2.75147874 13.652110337284002 
Si 4.12508412 1.268168355 15.017642868000722 
Si 4.38792327 1.67311332 17.400384955851173 
Si 6.796188 2.65611708 17.940499896230357 
Si 5.03618382 0.490464207 22.828775179728677 
Si 6.98928966 1.7263164599999998 23.430804217536117 
Si 7.783785539999999 3.31628562 21.8623483189222 
Si 6.57213534 2.8266408 25.504252374794373 
Si 4.33115262 2.92661253 26.30439961045851 
Si 5.80777596 4.05811593 32.37854937646883 
Si 5.37074784 0.1191071043 34.5068940087221 
Si 7.587295559999999 2.36947824 32.38895481662846 
Si 4.24963746 1.173349152 30.887909576856035 
Si 8.1969651 0.33181589699999997 31.07427412137627 
Si 4.34574846 3.47459184 30.420874704574754 
Si 6.78830364 4.07290725 4.071258098339491 
Si 4.072060169999999 6.787586879999999 4.066764054416725 
Si 6.82557516 6.66008505 1.060013597019644 
Si 5.4506177099999995 8.13809304 2.6793420728392707 
Si 4.0725814499999995 4.07241855 6.787423675690532 
Si 5.43069504 5.42981538 5.430049563172063 
Si 6.78757059 6.787440269999999 6.787181688710076 
Si 8.145716760000001 8.14539096 5.429600158779787 
Si 6.78730995 4.07149002 9.502448457276564 
Si 4.070040209999999 6.78708189 9.501169383237007 
Si 5.42768139 5.43282903 10.86234614830551 
Si 6.783530669999999 6.79029102 12.243469554477365 
Si 5.702477399999999 4.683537899999999 14.925514967584022 
Si 4.18182219 6.50881611 15.092762540648184 
Si 5.429766509999999 8.14860009 13.75191268193804 
Si 7.904999429999999 5.277536459999999 13.703065881454439 
Si 7.701521039999999 4.37301792 16.054695357531898 
Si 6.305191109999999 6.689716559999999 18.220305984775486 
Si 5.693859989999999 4.41024057 21.401881664681884 
Si 5.30519688 4.38248241 19.049560797231695 
Si 6.115542929999999 6.612371639999999 22.212918314466574 
Si 5.81204394 6.840708569999999 24.603818820515276 
Si 7.040570579999999 5.13100791 25.702992824886532 
Si 6.7940377199999995 5.12299323 28.059842305828123 
Si 4.59327501 4.384665269999999 28.210980459907603 
Si 7.504021079999999 7.13710512 28.95744115547901 
Si 5.16860523 5.43090681 34.21087479248637 
Si 7.68185901 5.49355815 32.37723573286064 
Si 7.22430549 7.48611837 31.2214022054939 
Si 4.14533259 9.57565296 1.2684093276320239 
Si 6.787358819999999 9.502217639999998 4.070877833084488 
Si 4.95791037 11.413507049999998 0.045323470048152674 
Si 4.07238597 9.50291811 6.787665662670989 
Si 5.429766509999999 8.14470678 8.145108914326732 
Si 5.42981538 10.859972849999998 5.43070638497616 
Si 6.787586879999999 9.50127282 9.502344748570655 
Si 5.43097197 10.857154679999999 10.86203502218778 
Si 6.32791566 10.16109927 15.117272364811578 
Si 4.517217 11.771870759999999 14.78754781915511 
Si 4.634472419999999 10.31142339 17.746115211786417 
Si 4.6747250099999995 8.14315923 21.107902052995726 
Si 4.96859661 11.33160093 19.904362520910393 
Si 4.50307728 8.156060909999999 18.66649540716886 
Si 6.96575061 10.70950212 17.510731018939392 
Si 5.767034669999999 10.15554438 21.7300505797497 
Si 8.09378424 10.553818589999999 21.70014790287899 
Si 4.63105152 11.228468939999999 23.4510619847572 
Si 5.56520157 10.942253639999999 25.538718234725117 
Si 6.707554109999999 8.857622339999999 25.562709515358964 
Si 6.546771809999999 9.00149562 27.913924156612783 
Si 7.53816492 11.20281219 28.189823883901965 
Si 4.41978651 8.43993045 28.81688128940235 
Si 5.32544535 10.65786282 32.37205029756514 
Si 7.79860944 10.830422789999998 32.0780015467417 
Si 4.976464679999999 8.407643669999999 31.178363092541254 
Si 5.4252215999999995 13.590518939999999 2.711574738636093 
Si 4.07137599 12.21719049 4.068215976299465 
Si 4.08966966 14.94105768 1.272070244950646 
Si 6.77033577 12.31613595 1.2920134290971355 
Si 6.78568095 14.9320656 4.07696207716454 
Si 4.072516289999999 14.93227737 6.787700232239626 
Si 5.43002715 13.57502715 8.145281762169915 
Si 6.7870167299999995 12.217597739999999 6.787596523533716 
Si 4.0723370999999995 12.217109039999999 9.502690444257022 
Si 6.78815703 14.932049309999998 9.502206470296107 
Si 6.805473299999999 12.22683417 12.232994975180457 
Si 5.46900912 15.94271349 16.65945539126163 
Si 5.53177449 13.63060863 13.629709256807445 
Si 7.083413279999999 14.98021884 15.258177926574604 
Si 5.32059093 14.92193322 21.35503989917921 
Si 7.796605769999999 14.63633694 21.358911690866517 
Si 8.10728865 13.96587312 19.147427246042078 
Si 6.16848543 12.825475379999999 18.57443664588943 
Si 8.05121847 15.69225474 17.5609951717371 
Si 4.3434026999999995 14.153485049999999 17.773252323166194 
Si 4.30373655 13.486800509999998 22.958514770822063 
Si 4.7410578899999996 15.182491769999999 24.61550333471447 
Si 6.991619129999999 12.58790202 26.34235699682156 
Si 7.499036339999999 12.386541329999998 30.200908539339686 
Si 6.19033032 14.83667136 26.592951799868715 
Si 4.701489479999999 14.58288945 28.387803803484122 
Si 7.163967329999999 15.45860727 33.36820698739914 
Si 8.12941047 13.60746054 34.44940481607933 
Si 5.61293127 13.84904124 30.40981244261102 
Si 6.03402777 15.913391489999999 31.338247347485808 
Si 8.49828123 2.32386624 0.01917580886189278 
Si 9.502657469999999 1.35703845 4.069944454731298 
Si 10.307546369999999 0.6672384 0.11902890164268987 
Si 10.877077349999999 2.7224010899999995 2.701784636798191 
Si 8.14521177 -4.60565541e-05 8.144763218640366 
Si 8.14485339 2.7157221899999997 5.4303261197211565 
Si 10.8598914 2.7146796299999996 8.145108914326732 
Si 12.22292457 1.356686586 12.236970475573672 
Si 9.50233167 1.35804843 9.502241039864744 
Si 12.21763032 4.07121309 9.5014459397861 
Si 10.85933754 0.00033008752799999996 10.862553565717329 
Si 11.42774451 1.043530884 16.647286903101527 
Si 8.19129618 0.0290100465 13.654357359245385 
Si 9.336564629999998 1.7070616799999998 14.968104676144389 
Si 10.86762915 2.7668239199999998 13.615570303235051 
Si 9.563305139999999 0.0455699718 21.40855359142876 
Si 9.33283422 2.2051773 20.290366324307342 
Si 11.3288805 3.60434169 20.26423173041803 
Si 9.357513569999998 1.339246512 17.986995966046663 
Si 11.38786659 3.90132468 22.54627266482989 
Si 9.0013653 0.50420808 23.609598026524925 
Si 10.729669139999999 2.05931664 23.928640575472667 
Si 10.23075531 3.17591469 25.910064541020127 
Si 8.33606541 2.11396959 26.98739057801301 
Si 8.279816039999998 3.5167666499999997 28.9472431327312 
Si 9.186598889999999 3.92422842 31.303504931005968 
Si 10.571167439999998 0.482959404 32.397666347924904 
Si 11.25349038 2.7812405699999996 31.802827780393887 
Si 10.84158144 8.15408982 2.708632868345113 
Si 9.568208429999999 4.08206223 1.2722638345350115 
Si 8.14082976 5.42129571 2.6855438534526876 
Si 9.50339052 6.78949281 4.072779159359504 
Si 9.50270634 4.07272806 6.787873080082809 
Si 8.14495113 5.430141180000001 8.145350901307188 
Si 10.86000543 5.42965248 5.430740954544797 
Si 8.14627062 8.146303199999998 10.862207870030964 
Si 9.502022160000001 6.788662019999999 9.501584218060648 
Si 9.489967559999998 4.07077326 12.232891266474546 
Si 10.85857191 5.43219372 10.86400548760007 
Si 10.75004793 8.0676225 13.686403349371568 
Si 10.040341499999998 5.1873876 16.218382265026484 
Si 9.0834669 6.910332029999999 14.992891056856873 
Si 11.873943899999999 4.4486849699999995 14.873660614629031 
Si 8.274554369999999 7.422782849999999 19.336280799504152 
Si 11.74756608 5.75778195 19.15288923788667 
Si 10.136305890000001 6.89024646 17.829669859181223 
Si 9.2794356 5.19812271 25.117142345201046 
Si 9.29061054 4.98016251 22.756870476964423 
Si 8.41815072 6.90469569 21.67435900467604 
Si 10.24139268 4.87437525 29.31630784749618 
Si 10.08567657 7.1623871999999995 26.104656642875888 
Si 9.75876885 7.045767089999999 28.457150358169258 
Si 8.77017762 7.39333053 34.2139169145264 
Si 10.8644526 5.5921940999999995 34.514706731233986 
Si 9.34125615 9.33138441 1.2096721735614742 
Si 8.135242289999999 10.85658453 2.6868402122765627 
Si 11.041671509999999 10.58291253 0.05850692074342946 
Si 12.21536601 9.504612269999999 4.075129890026797 
Si 9.50301585 9.50229909 6.787423675690532 
Si 10.86002172 8.1453258 8.145074344758095 
Si 8.14535838 10.86000543 8.14531633173855 
Si 10.86197652 10.859418989999998 5.430637245838887 
Si 9.49262283 9.4969071 12.240392862868703 
Si 10.85774112 10.861634429999999 10.86542283991417 
Si 11.74756608 9.77755122 15.02562843835579 
Si 11.565851129999999 8.72505432 17.154215057589518 
Si 8.195596740000001 10.94033142 13.731067232050133 
Si 10.07987733 11.7902133 15.07015404275981 
Si 8.30754162 9.81812961 19.45205428486833 
Si 10.277198099999998 10.433810159999998 18.334143574296007 
Si 9.38750346 8.820399689999999 22.623120815909186 
Si 11.7126729 9.049323059999999 22.032119470496838 
Si 9.03601413 8.94415482 24.959954516610154 
Si 10.1838564 10.89087498 25.648891449970158 
Si 10.24737111 9.114238709999999 29.50111676142777 
Si 9.863937089999999 10.89043515 27.948943129641716 
Si 9.013159259999998 8.89505676 31.582239362923357 
Si 9.451246229999999 12.014526599999998 33.36665135681049 
Si 12.218102729999998 14.931348839999998 4.070117302574481 
Si 9.504237599999998 12.21692985 4.067559154495369 
Si 9.495424709999998 15.04049184 1.3320242478372062 
Si 10.86130863 13.5920502 2.701027563245048 
Si 8.14311036 13.575743909999998 5.430810093682069 
Si 9.50223393 14.932505429999999 6.787319966984623 
Si 10.85998914 13.57489683 8.145039775189458 
Si 10.860217200000001 16.2901629 5.429842145760243 
Si 9.502413119999998 12.218982389999999 9.502344748570655 
Si 8.14539096 13.57092207 10.858992900147754 
Si 9.508310100000001 14.92600572 12.235622262396841 
Si 11.986491509999999 15.325648289999998 15.239441220373536 
Si 10.96375644 13.66292799 13.714059004280896 
Si 11.956371299999999 14.063287319999999 17.38800905027925 
Si 11.70361566 15.222597749999998 21.423764201628888 
Si 9.97316154 12.6972405 17.549932909773364 
Si 8.82551475 12.765968009999998 24.885768222315882 
Si 11.061675629999998 13.053160709999998 22.221180441370738 
Si 8.69941386 12.73397445 22.509144948114116 
Si 9.374194529999999 15.07338135 25.23001198679974 
Si 11.661929549999998 14.994130499999999 25.50722535769712 
Si 11.40461271 12.64449348 28.550073358664605 
Si 11.574582569999999 16.20571554 29.392049772379107 
Si 9.61352721 13.41821961 29.888849043256553 
Si 9.26482347 15.665229629999999 29.216470933273506 
Si 8.24756184 16.011913410000002 27.08124695686154 
Si 12.035345219999998 15.11578422 31.60871965249904 
Si 10.912068269999999 13.08881952 31.906882181990238 
Si 12.308430779999998 1.4857734329999999 1.2144808005588337 
Si 14.93265204 1.35878148 4.067801141475825 
Si 13.57483167 -6.273979469999999e-05 8.145212623032641 
Si 13.575238919999999 2.7158688 5.430637245838887 
Si 12.21712533 1.3580793809999998 6.7874582452591685 
Si 14.93120223 1.357044966 9.501826205041105 
Si 13.57326783 2.71625976 10.861965883050505 
Si 13.63482774 0.0835527132 13.726815175107824 
Si 14.750204039999998 1.68570549 15.106866924651943 
Si 15.351191009999999 0.666353853 17.204271792975398 
Si 12.98055618 2.9710353599999997 16.246729311308545 
Si 15.5312118 2.805138 20.546699675748183 
Si 13.45018059 2.8937393099999995 19.49077220174139 
Si 13.263464609999998 0.856303398 18.386793027329638 
Si 15.341368139999998 1.273591296 22.264910945696112 
Si 15.085370789999999 2.99027385 23.829080217799085 
Si 12.490829909999999 0.623900484 24.475565720873266 
Si 13.95346014 1.9674899099999998 25.628080569650887 
Si 15.00460497 1.75602942 30.242703147821405 
Si 12.63038634 2.0033442 30.025744535057726 
Si 15.63510942 0.42786173699999996 26.2277243072224 
Si 12.48092559 3.56312799 26.602458431243797 
Si 12.391900739999999 4.02837039 28.854320132235852 
Si 13.77339048 2.7491329799999997 34.28091273854425 
Si 15.527823479999999 1.8063329399999999 32.76133820998257 
Si 12.214030229999999 4.0721742 4.072917437634051 
Si 14.985252449999999 4.14989379 1.2012752253396295 
Si 13.58721207 5.43444174 2.6963399297379165 
Si 12.283604819999999 6.92046441 1.3281559131067637 
Si 14.932945259999999 6.7865606099999995 4.071154389633581 
Si 16.28920179 5.4297990899999995 5.43070638497616 
Si 14.93265204 4.072516289999999 6.787665662670989 
Si 13.575010859999999 5.430190049999999 8.144901496914912 
Si 12.21706017 6.787684619999999 6.787665662670989 
Si 14.933352509999999 6.786951569999999 9.502413887707927 
Si 14.92747182 4.076637659999999 12.239736041064605 
Si 12.2175 6.79664412 12.233962923102283 
Si 13.59309276 5.53576554 13.69072454545115 
Si 15.43187538 6.490913399999999 15.159862073371942 
Si 15.882245009999998 5.41002303 18.468930322410348 
Si 13.61150046 4.67475759 17.98412669184982 
Si 16.134902909999997 5.132408849999999 20.798919248521255 
Si 12.802539059999999 7.492634369999999 20.43147930348219 
Si 16.26452244 7.78683177 25.1263378504584 
Si 14.46237603 6.4919885399999995 21.855676392175326 
Si 13.5233064 4.74568425 23.211149178418776 
Si 13.427130239999999 5.393895929999999 25.43659972897243 
Si 15.766700039999998 5.55868557 25.876048085481653 
Si 12.38494491 7.44754365 25.82516168044849 
Si 13.97163978 5.777443979999999 29.127696281014565 
Si 13.45609386 7.806070259999999 27.91589462202507 
Si 16.02209466 5.21625348 28.180801226487798 
Si 16.22523096 6.8054244299999995 32.12930278659851 
Si 13.99477158 6.070875749999999 31.514794134513235 
Si 12.467861009999998 4.4114460300000005 33.08179811124441 
Si 12.239377469999999 12.160550159999998 1.4018167499577596 
Si 14.933173319999998 12.21639228 4.069253063358564 
Si 14.79298158 9.53401572 1.1898430689914856 
Si 13.5824391 10.85068755 2.7293953512682916 
Si 13.57400088 8.14486968 5.430429828427067 
Si 14.932114469999998 9.502869239999999 6.787250827847349 
Si 13.574880539999999 10.860103169999999 8.144866927346275 
Si 14.922552239999998 9.497281769999999 12.232061596827267 
Si 16.2917919 10.86088509 10.86193131348187 
Si 12.218998679999999 9.50340681 9.502310179002016 
Si 13.573349279999999 8.14669416 10.860755948148222 
Si 13.4918667 10.71504072 13.68989487580387 
Si 14.92841664 11.84232501 15.134418870855361 
Si 16.274817719999998 8.13659436 13.640114696967078 
Si 16.07058999 9.24716511 18.505919760851572 
Si 14.510480399999999 12.18480597 21.56477347209783 
Si 12.31787898 11.29592583 21.292952953907765 
Si 12.484346489999998 10.864436309999999 19.032137734638816 
Si 13.676448689999999 8.891798759999999 18.673927864425742 
Si 15.93647442 10.35548784 22.155117995706078 
Si 15.005093669999999 8.40013398 23.22777714093301 
Si 12.90552444 9.00191916 24.08603582147538 
Si 12.548887469999999 11.03201154 25.269421295045536 
Si 12.567881609999999 9.180799649999999 29.63804682279758 
Si 13.310444969999999 11.35020411 29.164409162906693 
Si 15.33565035 8.98874055 27.01131271950958 
Si 14.256617039999998 11.12321925 27.008789140999102 
Si 15.915378869999998 8.90717652 30.93817372965374 
Si 14.59440648 12.1619511 30.997460539865614 
Si 13.6197432 8.431606259999999 31.69310396954113 
Si 12.774471389999999 11.81670084 32.51841785117276 
Si 15.900750449999999 11.34965025 34.34458988397298 
Si 12.9283956 8.77087809 34.27182094199281 
Si 15.047024129999999 14.935681979999998 1.126518533162851 
Si 13.57909965 16.28727957 2.673492901825948 
Si 16.3085706 13.584182129999999 2.6795529472079544 
Si 13.575662459999998 13.57532037 5.429842145760243 
Si 12.217597739999999 12.217043879999999 6.7874928148278055 
Si 14.933140739999999 14.93227737 6.7875273843964425 
Si 12.217679189999998 14.932179629999998 9.503001570374751 
Si 14.932782360000001 12.218672879999998 9.502137331158835 
Si 13.573821689999999 13.57426152 10.861585617795503 
Si 12.23072748 12.220806869999999 12.241395380359165 
Si 14.933010419999999 14.93072982 12.247894459262856 
Si 13.65791067 12.307860629999999 17.272926956287808 
Si 16.21871496 13.43578023 13.689307193137047 
Si 15.24685356 13.86192663 19.990959290345227 
Si 13.097779019999999 15.101090639999999 19.533673036419483 
Si 15.84912744 13.154272739999998 17.886917064843534 
Si 16.21565244 13.41618336 24.77566414620812 
Si 14.36691663 13.74382413 23.350291692181337 
Si 12.31813962 13.12701957 24.232783640338003 
Si 13.628995919999998 15.93688167 22.699726980008023 
Si 12.35296764 14.733539369999999 27.712729267147417 
Si 15.48379161 15.801479189999998 29.756931569339056 
Si 15.72819048 12.995917649999999 27.059986672149996 
Si 14.705553149999998 15.03630531 27.654341265720095 
Si 14.062016700000001 13.02087393 34.552594978459766 
Si 14.432369849999999 14.549902199999998 31.787340613644663 
