&CONTROL
  dt          = 30.D0,
  prefix = 'x1.33_y1.66_z3.17_struc40-scf',
  pseudo_dir = './',
  outdir='./',
  wf_collect= .true.,
  verbosity= 'high',
/

&SYSTEM
ibrav= 6, celldm(1) =30.783621515, celldm(3) =2.1138013110639746, nat=  432, ntyp= 1,
  ecutwfc     = 12.D0, nbnd= 1728,
  degauss     = 0.05D0,
  occupations = "smearing",
  smearing    = "methfessel-paxton",
/
&ELECTRONS
  electron_maxstep=200,
  conv_thr    = 1.D-8,
  mixing_beta = 0.3D0,
  scf_must_converge=.false.,
/
&IONS
/
ATOMIC_SPECIES
Si  28.08  Si.pbe-hgh.UPF
K_POINTS {automatic}
1 1 1 0 0 0
ATOMIC_POSITIONS (angstrom)
Si -0.00682114428 2.70873378 2.681110457917159 
Si 3.09988926 2.40145551 0.04172380810019176 
Si 1.297570176 1.232662671 1.2298212181152246 
Si 0.0001426080357 -0.0008930992499999999 5.430489414022366 
Si 1.8329670899999997e-05 2.71498914 8.145217613683192 
Si 2.71539639 0.000735895863 8.144632238686118 
Si 2.71461447 2.7151357499999995 5.429766303731864 
Si 1.357848063 1.356966774 6.787182054297314 
Si -0.000520902072 0.000533875428 10.860875526574661 
Si 2.71350675 2.71529865 10.865042019200887 
Si 1.342470303 1.353172833 12.225556813868486 
Si 4.07451996 1.356324948 9.500705070140635 
Si 0.8450176859999999 0.522444735 16.386815498943278 
Si 0.07004292749999999 2.8412203499999995 13.61451394662916 
Si 1.95248682 3.5363635199999996 15.026369571922391 
Si 3.6792594 1.67907546 14.937771344424233 
Si 0.17349827399999998 0.19623422699999998 21.478923730834126 
Si 0.7935608339999999 2.2928826599999996 20.58564148530081 
Si 2.72134224 1.543288536 19.532655167036648 
Si 3.73707261 3.29962095 18.286942739442058 
Si 1.029498678 0.8874906029999999 24.843762515479494 
Si 0.682547742 3.88984023 22.292629410588876 
Si 2.97432594 0.14806078739999998 23.758270667966105 
Si 1.0036822859999999 3.1937359499999998 24.5771758550478 
Si 3.2452612199999997 3.8979852299999997 25.100363367137582 
Si 3.35023398 1.555409925 28.471296938517185 
Si 1.376664642 2.4413008499999997 29.463128786498896 
Si 3.49809831 0.381220209 31.82480699527802 
Si 1.59881463 1.96625187 31.801357561571745 
Si 3.04404714 3.81801762 32.3946179041935 
Si 1.358147799 4.07132712 4.066083597315401 
Si 2.7147447899999997 5.43398562 2.6934653137377342 
Si 1.3052183309999998 6.75678249 1.2402236761514442 
Si -0.001356129468 5.4314769599999995 5.429766303731864 
Si 2.7147447899999997 5.4301086000000005 8.145320915153263 
Si 1.3576069709999998 6.7875054299999995 6.787664127824314 
Si 1.355614704 4.07334708 9.503322040715785 
Si 0.001477631691 5.42777913 10.855228379544076 
Si 1.3521433049999998 6.76694745 12.227726144739991 
Si 3.50210565 7.505112509999999 14.9083304254538 
Si 2.76811083 5.50802367 13.71065318144255 
Si 2.3786495100000002 5.5166085 16.190714874923838 
Si 1.0479568769999998 5.51359485 18.245449982296595 
Si 3.1103800199999996 5.36939577 19.379768991330536 
Si 0.869126886 6.8676033599999995 24.813942824452127 
Si 1.67804919 7.2514283399999995 22.6267407986241 
Si 2.5130420099999995 5.24616192 21.692172398885464 
Si 2.0634543 6.27252966 28.163596292996957 
Si 3.8535949799999996 6.781575869999999 29.622522954819523 
Si 0.6176076569999999 4.6447839900000005 29.163692258584405 
Si 2.80766295 6.04624527 25.92408928948929 
Si 0.540101466 5.67362781 31.25255128490418 
Si 2.79639027 6.27593427 31.66544726078075 
Si 4.065772229999999 9.61095339 1.3648327961165962 
Si 2.23423866 8.69868081 0.2564796445998765 
Si 1.3606255079999998 9.50361858 4.070077920824839 
Si 0.544038759 10.4602977 0.00766875679988917 
Si 2.71002069 10.86593499 2.743552753193164 
Si 1.34550513 12.17459214 1.4045522113591633 
Si 0.00024113272499999997 8.14521177 8.144528937216046 
Si 2.7146633399999995 8.145048869999998 5.430868186079296 
Si 0.0006887607479999999 10.86068961 5.430282811082224 
Si 2.71500543 10.85984253 8.144804407802905 
Si 1.356802245 9.501680069999999 9.502185724544995 
Si 2.71601541 8.146107719999998 10.863389195679739 
Si 0.573124554 10.235023289999999 16.4064427782569 
Si 1.63308879 9.09561924 14.718427889638665 
Si 2.84434803 10.91480499 13.644712409713451 
Si 1.2454519499999999 11.47058721 21.48067985582534 
Si 3.17734821 10.265958 21.13220956345015 
Si 2.52051912 8.832682349999999 19.371194969314587 
Si 2.26043298 10.75548879 17.984854807129064 
Si 3.23755605 9.00716454 23.069387597881317 
Si 2.77179237 10.036480769999999 25.152633910993863 
Si 0.7610932349999999 9.00910305 25.75329752563742 
Si 2.1621879899999996 9.91075455 29.379661198680967 
Si 1.062554346 8.41774347 27.974003661592036 
Si 1.458116271 12.008222369999999 28.60094028345716 
Si 3.24255708 8.430710309999998 32.631247138304396 
Si 1.242648441 9.444192659999999 31.481983849933414 
Si 0.27132298199999993 11.66098473 32.182436684666236 
Si 2.7021363299999996 16.2787599 2.7054276239720365 
Si 3.95763921 14.84356203 1.3060129390577722 
Si -0.0233601858 13.586918849999998 2.6988301034167907 
Si 1.3590632969999998 14.935584239999999 4.072453854636488 
Si 0.00016760292299999998 13.57455474 8.145011010743048 
Si 2.71370223 13.572453329999998 5.4313846934296555 
Si 1.357672131 12.21745113 6.787870730764458 
Si 1.3582129589999998 14.935128119999998 9.503425342185857 
Si 2.7171719999999997 13.569781769999999 10.861185430984877 
Si 1.3743221399999999 12.21170076 12.230411982961856 
Si 2.6392406399999997 16.2675198 13.637446872985077 
Si 1.302380613 14.778744119999999 14.950511859066408 
Si 3.4705844999999997 14.42728737 20.346119810027897 
Si 1.050090867 12.30944076 19.29003444766159 
Si 0.398989341 14.44082436 18.490515503130016 
Si 2.24520183 15.96786525 18.112225519727467 
Si 1.126896588 13.137950159999999 23.059952730281434 
Si 2.01407931 15.065496989999998 22.072941617569732 
Si 2.38801626 12.365087399999998 24.967896448682314 
Si 3.24206838 13.610881439999998 29.142067817516065 
Si 0.563953284 12.37720716 26.433331103119396 
Si 0.716746968 16.15883292 26.97724777687024 
Si 2.89675296 15.61181472 27.70910425850485 
Si 0.1060171119 15.94913175 34.111316167668306 
Si 2.9950142399999997 13.143619079999999 34.420497467592895 
Si 2.04045282 15.11905851 30.767275412330704 
Si 1.2818454389999998 13.92661422 32.82638361526983 
Si 6.78973716 4.063784849999999 4.071386406112414 
Si 8.132863949999999 0.01266246135 2.709504588657533 
Si 4.07533446 1.353571938 4.068218494363549 
Si 5.46019623 2.70550836 2.69242196889001 
Si 7.05757734 1.473816573 1.127690498037674 
Si 5.43062988 -0.00176539617 5.4302139434355094 
Si 5.42909862 2.7147122099999996 8.144563371039403 
Si 6.787896389999999 1.357416378 6.786527811653525 
Si 4.0889529 4.079472119999999 12.242945894663887 
Si 6.77960478 1.343056743 12.219427593310899 
Si 7.27811136 3.5363960999999997 15.090519784836914 
Si 5.47358661 2.6687418299999996 13.676770299259035 
Si 5.61446253 0.5514197579999999 18.52346867208289 
Si 6.107854049999999 2.9583617399999995 18.040121093617422 
Si 4.46940585 0.323332065 20.586777801471595 
Si 7.3615650299999995 3.77004357 20.072784120218188 
Si 4.51138518 1.606272192 22.620990350123442 
Si 4.14194427 3.97269117 22.82817866526391 
Si 6.53360949 1.76508666 23.914565792184582 
Si 7.327209419999999 4.02928263 24.155464820391778 
Si 5.8215573 0.798402222 25.91768459834485 
Si 4.50938151 2.625948 26.706081417932033 
Si 7.456340249999999 0.555106185 27.590445303215827 
Si 8.136854999999999 2.75120181 27.965291904282658 
Si 5.0595273899999995 3.3771776399999998 31.166535594157814 
Si 6.64228008 3.8703899699999997 32.72449393195578 
Si 4.903159679999999 1.268463204 30.192161694618214 
Si 4.31331507 0.273285927 34.10349968976622 
Si 4.173400259999999 4.10706738 1.3498058756034998 
Si 4.0677759 6.79247388 4.071730744345986 
Si 6.684471179999999 6.716920859999999 1.375235254152816 
Si 5.41635984 8.153649989999998 2.7103792077708064 
Si 8.16058953 5.4224523 2.6919639990393587 
Si 4.07267919 4.072304519999999 6.787664127824314 
Si 5.43194937 5.43194937 5.428457818444291 
Si 6.78773349 6.787489139999999 6.787664127824314 
Si 8.145114029999998 8.14395744 5.429904039025294 
Si 6.786642059999999 4.0738032 9.502943268658854 
Si 4.07228823 6.78730995 9.503149871598998 
Si 5.427257849999999 5.43048327 10.861495335395093 
Si 6.78589272 6.78155958 12.239468078504808 
Si 8.11989711 5.38871571 13.728386600471527 
Si 6.27420753 6.43375179 16.00587411114222 
Si 6.484592879999999 7.563577319999999 19.697283276507576 
Si 4.31194671 7.33563135 18.758996023846358 
Si 6.335181 4.6860791399999995 22.122388587910716 
Si 6.538398749999999 7.020761939999999 21.986512720943082 
Si 4.88201526 7.2030470399999995 25.593559019083223 
Si 5.499324809999999 5.09927499 29.639912035614927 
Si 6.635536019999999 5.595240329999999 25.90611483369682 
Si 6.1577991899999995 4.07613267 27.63892812650281 
Si 5.550426539999999 5.28761997 34.23737839497913 
Si 7.42024161 6.16073139 30.451654987438314 
Si 7.22637432 6.36275997 32.829999166722345 
Si 8.14635207 10.848358079999999 2.6929143725640183 
Si 6.78952539 9.502038449999999 4.070525560528483 
Si 4.88056545 11.35530288 -0.00036309778053734146 
Si 4.07043117 12.21960141 4.075242994328424 
Si 6.6684744 12.156738299999999 1.3633831321532566 
Si 4.07210904 9.50275521 6.787629694000957 
Si 5.42940813 8.14555386 8.145424216623336 
Si 5.427567359999999 10.859402699999999 5.430041774318723 
Si 8.14675932 8.14605885 10.860565622164447 
Si 6.78879234 9.50340681 9.503081003952284 
Si 4.07958615 9.5091246 12.217602600672967 
Si 5.42481435 10.85896287 10.860531188341088 
Si 4.580487359999999 11.77418394 15.281661938292912 
Si 6.36807051 10.12324131 15.013629057280216 
Si 5.43093939 8.20305756 13.679903777184542 
Si 4.5572904 10.997167229999999 17.525507603543588 
Si 6.00951132 11.67185016 19.3864835868852 
Si 7.214384879999999 10.77480873 17.320247582511126 
Si 7.687527929999999 8.15128794 17.546408934321427 
Si 6.55058367 10.380851369999998 23.97902590950932 
Si 5.387640569999999 8.3057823 23.546261617555626 
Si 6.50365218 10.479340709999999 26.352652654993403 
Si 7.719830999999999 8.39084868 29.774548284941705 
Si 4.3351925399999995 9.10210266 29.069825656112588 
Si 4.52326059 9.30629781 26.687934793022773 
Si 7.96910058 8.94338919 27.453846325957688 
Si 6.08617206 9.9105102 30.543111222275126 
Si 7.4811010499999995 8.350644959999999 34.22133223329466 
Si 7.3458451799999995 11.974534649999999 30.294740054399412 
Si 5.44727826 9.514190789999999 32.95223923964051 
Si 7.839464759999999 13.69798407 -0.007948118408786396 
Si 5.42593836 13.58727723 2.7152102731878265 
Si 6.78406824 14.93745759 4.07479535462478 
Si 8.14477194 13.5755973 5.4298351713785795 
Si 4.07214162 14.9325543 6.787423091060814 
Si 5.42989683 13.574847959999998 8.144838841626262 
Si 6.78688641 12.217532579999999 6.787491958707528 
Si 8.151890669999998 13.56513912 10.856743467771794 
Si 4.073151599999999 12.217679189999998 9.50311543777564 
Si 6.786299969999999 14.93257059 9.504871562766859 
Si 4.06841121 14.94938187 12.220804946245186 
Si 6.801417089999999 12.236543009999998 12.230274247668428 
Si 5.42230569 16.2987966 10.85453970307693 
Si 5.3148731399999996 14.0491476 15.620353024834646 
Si 5.923907369999999 14.15547243 13.401953955044966 
Si 7.5890385899999995 14.28238782 16.237028367339317 
Si 4.22829756 16.185336749999998 16.63804467415764 
Si 7.85384883 15.995672279999999 13.574157505654483 
Si 7.3668267 15.29362215 18.356774533210526 
Si 4.43074968 12.27133845 21.064547100553188 
Si 7.639570169999999 13.35708324 19.728480320469227 
Si 7.51801419 13.22361927 22.114331073245125 
Si 5.52413448 12.41827425 23.139804766646858 
Si 4.57902126 13.306812299999999 25.140031131645117 
Si 4.12207047 15.5232297 25.60437123961739 
Si 6.473336489999999 15.9171219 29.550177491945977 
Si 5.81818527 13.551813899999999 29.07147847963374 
Si 6.28311816 12.829091759999999 26.777497167574932 
Si 7.653041999999999 16.27071264 31.800014642460813 
Si 6.64001577 15.89188869 33.97909028597653 
Si 12.192918389999999 1.4443789139999998 1.3594404593788536 
Si 9.49803111 1.358502921 4.074244413451064 
Si 10.5816582 0.26113032899999994 0.12535598959377006 
Si 10.84931919 2.73891915 2.728363993710289 
Si 8.14496742 0.000353089008 8.14487327544962 
Si 8.14576563 2.71577106 5.431591296369798 
Si 10.86020091 0.001350796122 5.43069601696251 
Si 10.85982624 2.7150705900000003 8.144632238686118 
Si 12.22113267 1.336863285 12.225246909458273 
Si 9.50239683 1.3566100229999998 9.503700812772713 
Si 8.1484209 2.7161783099999997 10.86400900450017 
Si 10.303245809999998 1.4172821279999999 16.852257489262982 
Si 11.55267252 3.40219908 17.006968657607025 
Si 9.009852389999999 1.5961104899999998 14.86391079332297 
Si 10.780249589999999 2.62102842 13.526948733831718 
Si 11.04330051 2.4906595499999997 21.01355060816113 
Si 8.78534361 1.8274122 20.672483587807747 
Si 9.21152259 0.42107532299999995 18.79201806044594 
Si 12.09327246 1.192766832 22.62736060744453 
Si 8.35067754 0.71001594 22.862956826854713 
Si 10.25258391 1.379319912 24.06934582817534 
Si 9.70051581 3.6457508699999996 24.441265554256802 
Si 10.995766289999999 0.26458380899999995 26.011620068463376 
Si 9.23884092 2.7230201099999998 30.056423562944005 
Si 11.128041089999998 1.3457804309999999 29.495909786334984 
Si 10.119918149999998 3.5906092199999997 26.790272116040466 
Si 11.87780463 2.03452326 27.341764230929897 
Si 9.08040438 2.20929867 34.40569092354929 
Si 8.25526701 2.27170566 32.16429005975697 
Si 12.21564294 4.07140857 4.070594428175197 
Si 9.708253560000001 4.1783198399999995 1.190962648456588 
Si 9.50669739 6.78709818 4.072006214932844 
Si 9.50301585 4.07178324 6.787526392530885 
Si 8.145244349999999 5.42975022 8.14487327544962 
Si 10.85886513 5.4296199 5.429249796381507 
Si 9.50198958 6.7870167299999995 9.50263336424864 
Si 9.498210299999998 4.08800808 12.227278505036347 
Si 10.85612841 5.43072762 10.85942930599366 
Si 9.60072327 6.81435135 14.92100207244926 
Si 11.149478729999998 5.68833768 16.386712197473205 
Si 10.031088780000001 6.280185959999999 20.841794697255256 
Si 12.20331141 7.351677 20.631713940952782 
Si 8.23430178 5.93193834 19.292582550590026 
Si 9.981371699999999 6.93287739 18.0933557845277 
Si 8.780521769999998 7.60169592 22.288359616492578 
Si 10.862676989999999 4.51679346 22.097492933623442 
Si 9.82844118 7.3274374799999995 24.370331878140906 
Si 11.27784393 5.45459247 24.157117643912922 
Si 8.534607929999998 6.94454103 26.326965022768906 
Si 9.44515377 5.068128509999999 29.886561512322782 
Si 10.09258353 5.77576611 27.696708082096244 
Si 11.96329455 7.25253606 27.981613536553983 
Si 11.78377875 7.865870849999999 30.31126828961088 
Si 11.250264959999999 5.68004607 31.31797554928292 
Si 11.452945139999999 5.19714531 34.113623233833245 
Si 9.3828771 9.37834848 1.1989822859164876 
Si 10.84461138 8.133727319999998 2.687384300532847 
Si 12.21631083 9.502673759999999 4.065704825258471 
Si 9.502608599999999 9.502168769999999 6.7875952601776 
Si 10.85964705 8.14527693 8.145011010743048 
Si 8.14563531 10.860103169999999 8.144804407802905 
Si 10.85964705 10.86013575 5.430110641965437 
Si 9.502347959999998 9.48369591 12.217740335966395 
Si 10.85717097 10.860412679999998 10.864594379497243 
Si 11.80852326 10.03964103 14.850998109564008 
Si 10.00891809 11.780243819999999 14.850274999273505 
Si 10.92853746 8.1878427 13.581009836502572 
Si 8.16736617 10.84873275 13.603873895211775 
Si 11.27083923 9.63524178 17.349585200011486 
Si 9.08433027 9.598719599999999 21.091026710714903 
Si 11.455893629999998 9.63762012 20.92360946155204 
Si 11.433820679999998 11.281867559999998 19.2000933010525 
Si 8.45898975 11.12862753 22.72945689369872 
Si 12.1788927 10.334587769999999 23.100791244783114 
Si 10.4721894 11.78128638 23.74205233716485 
Si 11.772147689999999 8.64497268 24.673797163388194 
Si 9.963631889999998 12.11664861 25.9986385170577 
Si 9.67904559 11.180331989999999 29.710742410260753 
Si 11.81153691 9.32240862 26.892712740528232 
Si 9.807345629999999 10.37130543 27.52539981089402 
Si 11.26818396 10.43978859 34.39849425446762 
Si 11.94689052 11.80189323 30.2580335987006 
Si 9.75567375 9.05280912 30.80632336801781 
Si 10.42761996 11.0705211 32.21697380949354 
Si 12.21197769 12.27037734 1.2458914834760448 
Si 9.502673759999999 12.21826563 4.069010472300765 
Si 9.43401141 14.88721923 1.355094910871171 
Si 10.8548415 13.57432668 2.7046322026524843 
Si 9.502217639999998 14.93331993 6.786872149887098 
Si 10.8598914 13.57442442 8.14435676809926 
Si 12.2429124 12.22707852 12.232168107953076 
Si 9.50176152 12.219552539999999 9.49925884955963 
Si 9.51603156 14.921965799999999 12.24404777701132 
Si 10.86235119 16.2911403 10.860668923634519 
Si 8.92274976 12.43246284 16.813967077689743 
Si 11.05524108 13.63777623 13.742401166577919 
Si 11.987175689999999 16.04004624 17.369350214618535 
Si 9.876154589999999 13.096410659999998 18.853069229258313 
Si 10.9227708 15.177653639999999 19.407040579429463 
Si 10.826757540000001 14.087396519999999 23.341896875930452 
Si 8.565607799999999 14.715359729999998 23.567300683626897 
Si 11.94619005 15.22956987 21.613284509574044 
Si 12.19488948 14.69089215 25.186688962294166 
Si 10.511432009999998 15.312290489999999 29.29739879468054 
Si 8.318244149999998 13.81517433 25.858768326580623 
Si 12.076982459999998 12.87973737 26.716755903172775 
Si 9.28305198 15.47188362 27.243386797598284 
Si 9.70224255 14.844376529999998 31.533944489379483 
Si 11.77468893 15.44428836 32.73644246866074 
Si 8.66373876 12.80134989 32.20375122132436 
Si 14.93325477 1.358019108 4.069768016414624 
Si 13.574717639999998 1.091372985e-05 8.14511431221312 
Si 13.574408129999998 2.7156896099999996 5.430420546375653 
Si 12.21738597 1.3580956709999998 6.787905164587815 
Si 14.93133255 1.3551960509999998 9.50239232748514 
Si 13.57776387 2.71270854 10.863389195679739 
Si 13.61565441 0.1413431172 13.814471158864606 
Si 14.56189164 2.08513629 14.9747532707099 
Si 12.61277685 3.47069853 14.87148623446156 
Si 15.40452447 1.85456763 17.209370671300835 
Si 12.512251260000001 2.6975262599999996 19.179226404098017 
Si 16.102860479999997 3.5305317 18.747047487141394 
Si 13.800708809999998 0.786341106 18.54767564990302 
Si 15.394994819999999 0.533197764 23.552184235173073 
Si 14.02220394 2.4904151999999997 23.421680044649158 
Si 15.01806051 3.57852204 25.351626976175307 
Si 14.22532395 2.65515597 27.380846620440355 
Si 15.83335872 1.251818082 28.487343100201652 
Si 15.75966276 0.9690872129999999 32.15220378775858 
Si 13.050570599999999 3.32333919 34.3607547840681 
Si 13.78450026 2.64368781 32.17740934645608 
Si 12.68254692 0.7830537839999999 31.186817116115225 
Si 14.954382899999999 4.07492721 1.1847783337816291 
Si 13.58595774 5.4447858899999995 2.682618659380206 
Si 12.261629609999998 6.91590321 1.1741004051585515 
Si 14.9305995 6.78770091 4.072247251696345 
Si 14.9323914 4.07240226 6.787526392530885 
Si 13.575010859999999 5.42992941 8.144666672509477 
Si 12.217516289999999 6.787489139999999 6.787319789590742 
Si 12.21821676 4.07432448 9.502771099542068 
Si 14.934965219999999 6.78730995 9.502047989251567 
Si 14.938255799999999 4.0884642 12.211783284525593 
Si 12.219194159999999 6.78046815 12.216982791852535 
Si 16.18181811 8.02829844 13.553462777816787 
Si 13.262601239999999 6.619180859999999 16.84605940105868 
Si 13.443811199999999 5.28532308 13.57656787328949 
Si 14.768611739999999 6.610416839999999 14.981571167734632 
Si 15.95493099 7.78267782 21.47799401760348 
Si 14.13478413 4.2617898 19.77420843788763 
Si 16.077203729999997 7.45262613 19.120000227923576 
Si 13.833337679999998 6.48695493 19.127575669062168 
Si 14.645459339999999 4.35505005 22.042812022132157 
Si 13.929188039999998 6.657185429999999 22.224347138871487 
Si 13.24417725 6.8080797 24.41371849557102 
Si 15.060398219999998 5.95085103 25.58426188677677 
Si 14.1846804 6.55133301 27.708484449684416 
Si 14.5611423 4.52443347 28.76312359146972 
Si 13.60496817 8.032126589999999 32.06126406027213 
Si 16.27483401 5.3494242299999994 34.15886927772464 
Si 15.83259309 7.77546135 30.917785654225167 
Si 14.646176099999998 5.79000357 32.40877020559332 
Si 13.32539919 4.56769971 30.789795132806336 
Si 14.938402409999998 9.56815956 1.2252174159323626 
Si 13.58118477 10.878250229999999 2.693802765206635 
Si 16.27335162 8.137343699999999 2.694250404910279 
Si 13.576086 8.14273569 5.429663002261793 
Si 14.93221221 9.502608599999999 6.7875952601776 
Si 13.575287789999999 10.85985882 8.145148746036478 
Si 12.216783239999998 9.50156604 9.503218739245712 
Si 13.576933079999998 8.14442985 10.861426467748378 
Si 14.926950539999998 9.50037687 12.217464865379537 
Si 16.2958644 10.85749677 10.863423629503098 
Si 13.40777772 8.891098289999999 16.496659395452845 
Si 13.684153859999999 10.906187580000001 13.638169983275578 
Si 15.231182579999999 11.88938682 15.211657975407658 
Si 15.306507539999998 10.996906589999998 19.448705505691716 
Si 15.314685119999998 9.29411289 17.823084704996784 
Si 14.4243063 11.02839516 23.44461297100508 
Si 15.622614989999999 10.106381159999998 21.632429715360665 
Si 15.35547528 10.655468189999999 25.631918298303177 
Si 14.0636457 10.58131611 29.438026529271475 
Si 13.502357459999999 10.94676597 27.130616026103347 
Si 15.17750703 8.412840179999998 28.764018870877013 
Si 13.11726186 8.76126699 34.29653570350686 
Si 12.21670179 14.93382492 4.067667553189833 
Si 14.93226108 12.21468183 4.072832626693418 
Si 14.828347169999999 14.85905382 1.12012538704609 
Si 13.582390229999998 16.2909774 2.6855627512772493 
Si 13.5762489 13.574180069999999 5.429525266968364 
Si 12.21756516 12.21748371 6.787491958707528 
Si 14.93232624 14.932668329999998 6.7875952601776 
Si 12.217109039999999 14.93089272 9.502116856898281 
Si 14.93242398 12.21958512 9.503322040715785 
Si 13.56986322 13.576200029999999 10.857914217765941 
Si 14.92779762 14.936024069999998 12.252380762263769 
Si 13.936925789999998 13.36597758 16.73198014427617 
Si 15.746076899999998 14.904926459999999 16.444010079539638 
Si 12.50480673 14.875637039999999 15.372704967249433 
Si 16.225915139999998 13.395886019999999 13.633245946535494 
Si 13.869273419999999 13.976021789999999 21.043714637422067 
Si 15.11624034 15.547029389999999 19.86339204038286 
Si 13.49297442 12.4470261 19.236971925868094 
Si 15.00571269 13.271951699999999 23.049519281804198 
Si 14.441378219999999 14.914439819999998 24.63103035477851 
Si 15.565062419999999 14.34583737 26.679154168066677 
Si 15.745816259999998 12.273195509999999 29.891141210829293 
Si 14.66350866 16.21459359 30.050638680619993 
Si 12.23646156 13.72463451 28.89886172314393 
Si 14.56451433 14.139377909999999 28.887154223202476 
Si 13.351903019999998 13.74105483 33.99672040353544 
