&CONTROL
  dt          = 30.D0,
  prefix = 'x1.33_y1.66_z3.15_struc33-scf',
  pseudo_dir = './',
  outdir='./',
  wf_collect= .true.,
  verbosity= 'high',
/

&SYSTEM
ibrav= 6, celldm(1) =30.783621515, celldm(3) =2.104478273085783, nat=  432, ntyp= 1,
  ecutwfc     = 12.D0, nbnd= 1728,
  degauss     = 0.05D0,
  occupations = "smearing",
  smearing    = "methfessel-paxton",
/
&ELECTRONS
  electron_maxstep=200,
  conv_thr    = 1.D-8,
  mixing_beta = 0.3D0,
  scf_must_converge=.false.,
/
&IONS
/
ATOMIC_SPECIES
Si  28.08  Si.pbe-hgh.UPF
K_POINTS {automatic}
1 1 1 0 0 0
ATOMIC_POSITIONS (angstrom)
Si 2.70923877 0.004729133609999999 2.6783597039143934 
Si 2.7345371399999996 2.93386158 0.03884213619970824 
Si 1.363859073 1.3565236859999998 1.1628677776115544 
Si -0.00025256016 0.000200414241 5.4301924853589405 
Si -0.000308348523 2.7152497799999997 8.145323009989479 
Si 2.71546155 -0.000520501338 8.145357291940549 
Si 2.7146796299999996 2.7146633399999995 5.430295331212146 
Si 1.3571899469999997 1.357675389 6.7872778003592495 
Si 2.7125456399999996 2.71528236 10.86545869947603 
Si 1.3412306339999998 1.374975369 12.237250971484755 
Si 1.3593255659999999 4.0736403 9.501585558164143 
Si 4.07360772 1.3576297769999999 9.502853990353682 
Si 2.8111164299999998 0.11833772759999998 13.515350671223084 
Si 3.81454785 1.70020359 14.97013954676881 
Si 2.7396684899999997 2.94559038 17.8773861251876 
Si 2.01505671 0.608710059 18.62562398921015 
Si 1.87900263 3.08609163 24.63545570323643 
Si 2.4134938200000002 2.17204344 22.54477091731985 
Si 1.225283301 0.17019792 22.97788908712013 
Si 1.054542924 3.71149731 21.472225796188646 
Si 3.6632137499999997 2.06620731 25.662508675299645 
Si 2.09930859 3.7740183299999996 28.67393810301581 
Si 0.13698847439999998 2.82791142 27.715037649676912 
Si 0.12329819549999999 0.6075974519999999 28.473765790726443 
Si 2.79811701 3.01338936 30.833118227167393 
Si 2.62019763 0.726393906 31.315225305044653 
Si 0.336688236 0.347838741 30.81899406332714 
Si 1.355609817 4.07235339 4.066113652340643 
Si 2.72218932 5.4358426799999995 2.702069101273415 
Si 1.298726766 6.736827239999999 1.2742429802431163 
Si -0.00040293152099999996 8.13543777 2.7073382371526535 
Si -0.001049375736 5.432421779999999 5.429746819995049 
Si 2.71490769 5.43048327 8.145014472429862 
Si 1.357346331 6.7877497799999995 6.787037826701769 
Si 2.7151194599999995 8.14664529 5.430089639505735 
Si 1.369327626 6.8020361099999995 12.224703777393659 
Si 3.80679381 6.8951986199999995 15.191806642378168 
Si 0.792689319 4.59378 15.011175042197886 
Si 2.62736523 5.42764881 13.671984905655368 
Si 2.53057005 7.48380519 17.48081251522641 
Si 2.5206820199999997 4.46450256 19.816544687381114 
Si 1.4001092099999999 6.49021293 19.44067737586534 
Si 1.5060365639999997 5.40885015 24.761853256826242 
Si 0.244775169 5.54635404 22.77250591826834 
Si 3.73111047 5.996821409999999 24.32784375629818 
Si 0.643269294 7.4605593599999995 21.47476266056772 
Si 1.71603747 6.099301799999999 28.725223901814385 
Si 0.490188906 6.430282019999999 26.74972647148819 
Si 3.89661687 6.79565043 28.218570946972026 
Si 1.89638406 4.28708817 32.596856045743046 
Si 2.44371177 6.743587589999999 32.43597084937826 
Si 0.930196467 7.2979199999999995 30.669867576178873 
Si 3.9163603499999997 9.4695399 1.3356248136313864 
Si 1.354042719 9.50145201 4.076329673759076 
Si 0.324475623 10.436856389999999 0.037325845503945514 
Si 2.70770751 10.85607954 2.7404820274457444 
Si 1.4457375 12.15888858 1.2861936683856188 
Si 0.00040700890799999994 8.14498371 8.145014472429862 
Si 2.71498914 10.85976108 8.145083036331998 
Si 1.3593125339999999 9.5040747 9.50192837767483 
Si 2.71388142 8.14486968 10.860384970717881 
Si -9.062615699999999e-05 10.85710581 10.862818989243749 
Si 0.034920384299999996 8.17811757 13.624264429767923 
Si 0.941262264 9.959135850000001 15.016523026564581 
Si 2.7328429799999996 10.92278709 13.692725486051852 
Si 1.370518425 9.55716381 17.35348934895775 
Si 1.562649201 11.3081922 19.366696925459376 
Si 1.91210391 8.973036989999999 22.764758197326845 
Si 3.92103558 8.277128189999999 23.743747873991925 
Si 0.472014153 9.780988409999999 24.367405127831304 
Si 2.36333691 10.89877563 21.526802662289807 
Si 0.8887058369999999 12.06538398 24.863156422233857 
Si 0.439821855 8.783421389999999 26.50296498769664 
Si 2.396259 11.94824259 26.67889996058053 
Si 2.02074192 9.91466415 27.897554757165963 
Si 2.14573509 8.66119752 34.07279688509808 
Si 3.06960615 10.27649763 31.981632151866535 
Si 1.6002530369999999 9.57472443 30.2705514101322 
Si 4.07354256 12.217972409999998 4.070810279637037 
Si 3.31043751 13.051254779999999 0.09119684623260303 
Si 1.357455474 14.931088199999998 4.069987512811391 
Si 9.33285051e-05 13.574587320000001 8.145323009989479 
Si 2.7161294399999996 13.572990899999999 5.431358071695271 
Si 1.357352847 12.21692985 6.787723465723142 
Si -0.001470643281 16.291629 10.865698673133508 
Si 1.358989992 14.9323914 9.503196809864365 
Si 2.7133275599999997 13.57225785 10.859802177549714 
Si 1.381248648 12.21243381 12.219252947173755 
Si 3.9738314699999995 12.583601459999999 14.965511483374554 
Si 0.16521969599999997 13.56968403 16.345531423639734 
Si 2.77364943 15.736905629999999 16.721844400519398 
Si 2.5399368 13.43247336 16.659348403721403 
Si 0.1433337552 13.62754611 13.595296181114984 
Si 1.033738965 15.52862169 14.973636305777804 
Si 3.3442718399999998 15.77062593 20.36375319033759 
Si 3.40399098 12.463364969999999 18.6048491268626 
Si 2.7089129699999996 14.80212027 22.482240638570783 
Si 1.4168113469999999 12.81692313 22.675659406499637 
Si 0.21338270999999998 16.230916169999997 25.11365463869188 
Si 3.52100205 13.591366019999999 29.79749476733704 
Si 3.7505933099999997 16.106949269999998 26.254969353666624 
Si 1.544187744 15.63528861 27.050722001870213 
Si 1.7174709899999998 13.55696154 28.201018588024922 
Si 3.3178494599999997 12.66650127 32.035969044310214 
Si 6.78626739 4.06906281 4.068719080621855 
Si 4.07267919 1.35827649 4.068547670866511 
Si 5.43626622 2.71940373 2.679679559030533 
Si 6.87548772 1.376809623 1.1939752200111726 
Si 4.07280951 4.07243484 6.787483492065661 
Si 8.14482081 -5.48656974e-05 8.144705934870245 
Si 8.146971090000001 2.71459818 5.4318380190102316 
Si 5.43180276 9.982495709999999e-05 5.430398177065351 
Si 5.43015747 2.71494027 8.14504875438093 
Si 6.78713076 1.358025624 6.787963439380622 
Si 5.428300409999999 0.0009848738519999999 10.86017927901147 
Si 6.78634884 1.3655972159999998 12.228131972500513 
Si 7.50858228 3.63270258 15.094445901343436 
Si 5.031492299999999 0.191767509 16.558490903677676 
Si 5.531562719999999 2.77920432 13.722825039090054 
Si 5.07868443 2.43965556 17.55794690513069 
Si 4.35558762 1.3519315349999999 21.313294671034768 
Si 5.63515083 2.74853025 19.862996731079026 
Si 7.989039539999999 2.5989554699999995 19.736222076027463 
Si 5.7549312 0.489778398 22.940453196553253 
Si 5.52696894 2.4013740599999998 24.310222833448933 
Si 7.54314966 2.12087655 25.50988542914238 
Si 4.0703823 3.54571398 27.360288020019375 
Si 7.71308694 3.2564198699999998 27.606500992593826 
Si 5.3059788 0.21084635699999998 28.080826067578524 
Si 5.745336389999999 2.48934006 28.589981604848887 
Si 5.109521399999999 3.5598862799999997 30.59259605847032 
Si 4.21772535 4.26490119 1.26042049757227 
Si 4.071538889999999 6.79001409 4.071084535245586 
Si 6.95081268 6.90031368 1.153402530921523 
Si 8.15588172 5.43667347 2.680601743514278 
Si 5.429180069999999 5.42937555 5.429198308777952 
Si 6.787407689999999 6.78726108 6.787483492065661 
Si 5.429766509999999 8.14495113 8.14504875438093 
Si 6.788662019999999 4.07354256 9.501996941576966 
Si 4.07417787 6.788808629999999 9.500557099632086 
Si 4.082485769999999 4.07691459 12.249283936309821 
Si 5.430173759999999 5.431281479999999 10.861002045837115 
Si 6.77678661 6.7816899 12.25216362019958 
Si 5.58400023 6.50772468 16.744676179931066 
Si 6.67966563 4.3743536999999995 17.195483836482726 
Si 4.757445629999999 4.74745986 20.765640502714405 
Si 5.706256679999999 6.923820149999999 20.296526284292128 
Si 8.12501217 6.74122554 20.026727329382503 
Si 4.6679483699999995 7.93707444 18.435564852486014 
Si 5.19724305 4.501106189999999 23.113337075792035 
Si 7.43825835 5.16389742 23.64720989978284 
Si 6.88933422 6.25329117 25.690859848833348 
Si 5.19299136 5.822127449999999 29.89890077859786 
Si 7.320888899999999 6.62035374 29.45433243714068 
Si 4.71559662 5.61594492 26.388703244785106 
Si 8.11667169 5.584798439999999 27.52089896077561 
Si 5.656507019999999 5.62938417 33.90217561462982 
Si 4.77674928 6.9240156299999995 31.98845426012918 
Si 6.977365379999999 4.283650979999999 32.36493864676419 
Si 8.1700866 10.85466231 2.696344015444964 
Si 5.4307602 8.138956409999999 2.677094699919963 
Si 6.78553434 9.503357939999999 4.066387907949192 
Si 5.08293612 11.18745072 0.21956149817472545 
Si 4.0718809799999995 9.50249457 6.787380646212456 
Si 5.42997828 10.862530379999999 5.430055357554666 
Si 6.788776049999999 9.5032602 9.503882448885737 
Si 4.07481318 9.512740979999998 12.241707625123667 
Si 5.42680173 10.86277473 10.867481334589074 
Si 5.40787275 8.19105183 13.720013919102431 
Si 7.16204511 9.13404735 15.109358550058264 
Si 4.73219613 10.372738949999999 18.646398851557706 
Si 4.6520167500000005 10.552759739999999 21.00554559629224 
Si 6.578341829999999 10.58167449 17.23206267827289 
Si 5.4543807 8.57986155 21.996773929488796 
Si 7.56709596 8.860016969999998 22.961776570117905 
Si 6.939816929999999 8.58276117 25.19384012224126 
Si 4.8547458 9.547194329999998 25.55849723575761 
Si 5.55624207 10.07321472 29.425124214830255 
Si 7.582147919999999 8.952218369999999 28.913637504887234 
Si 4.6406952 11.93687217 25.788529127427697 
Si 4.17631617 9.05432409 27.765672091405186 
Si 5.13633474 9.30178548 31.614541019824316 
Si 6.7662144 10.33071075 32.97772852211483 
Si 7.63478091 13.947937829999999 0.07131948536402627 
Si 4.126273289999999 14.96070342 1.2446405154954083 
Si 5.42043234 13.59141489 2.7234610387402007 
Si 6.795666719999999 12.262330079999998 1.4366571516255613 
Si 6.78369357 14.93229366 4.072010147924437 
Si 8.14897476 16.3017288 2.704739665261656 
Si 4.07277693 14.93245656 6.787414928163524 
Si 5.430206339999999 13.57489683 8.14484306267452 
Si 6.7872285 12.21805386 6.787586337918867 
Si 8.14381083 13.571606249999999 10.864395958992903 
Si 4.07323305 12.21958512 9.502271197185514 
Si 6.78700044 14.9343462 9.5026140166962 
Si 4.079406959999999 14.935519079999999 12.20530019308885 
Si 6.78408453 12.237162029999999 12.25812867968551 
Si 7.99620714 14.04439092 16.099524142771696 
Si 5.8845996 12.67500465 16.432573297402826 
Si 5.52672459 13.889277539999998 13.68271515633983 
Si 6.696770129999999 15.55015707 14.90459245632571 
Si 7.83720045 12.32661042 20.882096290494328 
Si 4.7441692799999995 13.985421119999998 19.80670576742444 
Si 5.977012769999999 14.661407249999998 17.885476665639782 
Si 5.59965492 12.602905109999998 21.55443391485107 
Si 7.92352116 16.07715486 22.19074120863475 
Si 5.52364578 13.053958919999998 23.906450013763344 
Si 4.47281046 15.14785923 24.09129829392506 
Si 7.8228326699999995 12.61145736 24.33641424406532 
Si 6.284307329999999 13.050016739999998 27.2987519178513 
Si 5.582354939999999 12.45347694 29.39900136811601 
Si 7.263971639999999 15.23202966 27.781441788896725 
Si 4.26035628 15.804199619999999 30.09129108799466 
Si 7.532349389999999 12.64187079 32.3837937198519 
Si 5.55865299 13.74388929 31.433155216720525 
Si 5.979309659999999 15.779210759999998 34.240127088263755 
Si 12.099935069999999 1.1952266219999998 1.3206675983801703 
Si 9.50104476 1.357084062 4.078797974236013 
Si 10.853310239999999 2.6979823799999996 2.703258684975494 
Si 10.8600543 0.0016468538399999999 5.431460917548478 
Si 10.86033123 2.71485882 8.144603089017039 
Si 12.209338709999999 1.348846209 12.25888288260902 
Si 9.5030973 1.357141077 9.50305968206009 
Si 8.138760929999998 2.71775844 10.86209906827131 
Si 12.21764661 4.073086439999999 9.50233976108765 
Si 10.863882449999998 -0.0018080271 10.862133350222377 
Si 8.344976039999999 0.215849016 13.552135204719656 
Si 9.19031301 1.80905337 15.221083428590722 
Si 10.827832679999998 2.7536941799999997 13.694473865556349 
Si 10.67436459 1.64673981 17.75688506718159 
Si 12.058933139999999 3.66265989 20.4788034181237 
Si 10.860347519999998 3.8905895699999995 18.47231510403152 
Si 8.43791049 1.1822190569999997 17.785579060225977 
Si 11.407544909999999 1.8076035599999998 21.756388888596 
Si 9.03223485 1.88511138 21.847818852095873 
Si 8.847636569999999 3.1975640999999997 23.911009513255465 
Si 10.92045762 3.1988673 25.220442916270468 
Si 9.541590569999999 2.8141300799999995 29.01302088103501 
Si 10.65356226 0.0626612769 26.396210992069125 
Si 11.07946431 2.12916816 27.37928022091136 
Si 8.18266248 2.8328147099999996 34.00378731759705 
Si 9.40488489 1.161635013 30.641310710938757 
Si 11.93428206 2.45255724 32.31570976502972 
Si 9.808730279999999 1.458518634 32.92188322382414 
Si 10.87165278 8.13659436 2.684554452472484 
Si 12.235842539999998 6.76740357 1.1675986868590167 
Si 9.57159675 4.08364236 1.2555216067645716 
Si 9.499024799999999 6.78669093 4.068513388915443 
Si 9.5021199 4.07214162 6.787860593527416 
Si 8.144397269999999 5.43056472 8.14528872803841 
Si 10.860380099999999 5.429180069999999 5.430398177065351 
Si 10.85775741 5.42909862 10.861276301445663 
Si 8.14706883 8.143289549999999 10.86305896290123 
Si 12.20378382 6.791545349999999 12.238553685625359 
Si 9.50361858 6.786365129999999 9.503985294738943 
Si 9.50422131 4.097081609999999 12.242324700242902 
Si 8.21555199 5.51331792 13.760912286727232 
Si 9.04759632 7.57250424 15.094308773539161 
Si 8.61591132 4.716834659999999 18.755415455955752 
Si 10.735126289999998 6.452469 23.341140640642667 
Si 8.58658932 6.78517596 22.3647563922588 
Si 11.274097229999999 5.47656768 25.482151330727913 
Si 10.3654899 4.86204372 29.876034717235125 
Si 10.4192469 5.99542047 27.718808664294453 
Si 8.65029951 5.83967178 31.22437813471295 
Si 12.06346176 4.601143079999999 31.455438484915096 
Si 9.433669319999998 7.92549225 32.03254084920336 
Si 11.4077241 4.9291259400000005 34.21671251568392 
Si 9.730717469999998 9.60906375 1.215977376206979 
Si 9.50371632 12.21601761 4.072592941092602 
Si 12.2181516 9.50055606 4.066730727459877 
Si 8.14558644 8.1456516 5.431186661939929 
Si 9.50257602 9.50264118 6.78751777401673 
Si 10.85945157 8.14465791 8.145117318283068 
Si 8.145114029999998 10.85976108 8.145802957304438 
Si 10.85945157 10.86077106 5.428649797560855 
Si 12.217548869999998 12.217043879999999 6.78751777401673 
Si 9.49710258 9.53373879 12.226040773485332 
Si 10.85731758 10.85754564 10.861173455592459 
Si 9.50589918 12.21965028 9.5026140166962 
Si 12.2175 9.502445699999999 9.501277020604526 
Si 10.871359559999998 8.27911557 13.63437760533315 
Si 8.18357472 10.90900575 13.772705277894818 
Si 10.30435353 8.18999298 17.185062123357884 
Si 11.20483215 9.22913208 20.652270090530653 
Si 9.265963769999999 8.78374719 19.288431231169834 
Si 11.466140039999999 10.334555189999998 17.206248369118256 
Si 10.031039909999999 12.15488124 17.730865066320543 
Si 8.23250988 11.09241486 18.84732536677058 
Si 10.75524444 10.34955828 22.702056508822437 
Si 8.53289748 11.0302848 22.717346258999015 
Si 11.81883483 12.14048088 23.783926320644287 
Si 11.19512331 8.5954185 24.183139640837755 
Si 11.60423037 11.432126519999999 26.052945816019555 
Si 9.68777703 9.30773133 29.916761675104585 
Si 10.28988801 11.606071140000001 29.708018875048076 
Si 10.552173299999998 9.32079591 26.298953096887594 
Si 8.16223482 11.95391151 26.56213563524099 
Si 8.2653831 9.61510734 26.74132739347639 
Si 11.11528602 8.166177 28.256932450217754 
Si 8.228518829999999 8.64080244 33.98445229719438 
Si 11.018181329999999 10.978026479999999 34.03560096818868 
Si 12.216278249999998 14.93377605 4.069884666958186 
Si 9.45561195 14.89942044 1.312751895878438 
Si 10.85914206 13.56966774 2.7010989220581743 
Si 8.14638465 13.576623569999999 5.429609692190774 
Si 9.50223393 14.93270091 6.7881005671848955 
Si 10.86020091 13.574913119999998 8.14528872803841 
Si 12.21776064 14.933352509999999 9.5026140166962 
Si 12.22838172 12.22887042 12.25123800752073 
Si 9.52588701 14.92048341 12.247741248511735 
Si 9.52723908 12.41806248 15.314090361839748 
Si 10.965825269999998 13.612803659999999 13.836332579078082 
Si 10.910683619999999 14.47068393 21.146615824939392 
Si 8.66439036 14.55245973 20.487785289303666 
Si 11.6910072 12.934585799999999 19.537763861291527 
Si 8.31861882 15.13044522 18.17330792681147 
Si 10.99487034 14.324041349999998 23.487490289754383 
Si 8.725168349999999 14.77305891 24.00134245432114 
Si 8.351964449999999 16.17976557 25.870737246090123 
Si 9.0666882 15.315564779999999 29.573839318565703 
Si 10.203811649999999 12.562505909999999 27.519150581271116 
Si 10.76415507 14.767569179999999 28.042533128234933 
Si 9.57521313 13.388571809999998 31.15115188723049 
Si 11.77928271 14.18559264 32.54032510843098 
Si 10.94746644 15.938526959999999 34.08709245869367 
Si 16.28574831 2.7110795399999996 2.6813010953160763 
Si 13.57318638 -0.00328833198 2.697153069490182 
Si 12.87014256 3.0426950699999997 0.14619400905386298 
Si 14.935812299999998 1.3574831669999998 4.06810200550262 
Si 14.757062129999998 3.9657190499999997 1.236083740508694 
Si 13.574847959999998 -0.000442060101 8.145220164136273 
Si 13.57421265 2.7147936599999998 5.430329613163214 
Si 12.2175 1.3579946729999999 6.7876891837720725 
Si 14.931967859999999 1.357274655 9.50213406938124 
Si 13.578643529999999 2.71541268 10.862304759977722 
Si 14.94566775 4.0517954099999995 12.219047255467345 
Si 16.21544067 2.73494439 13.795365647551144 
Si 13.574750219999999 0.047823856199999994 13.927591132822608 
Si 14.31987111 1.89796419 15.335687991012945 
Si 12.607075349999999 3.67932456 14.910728925566984 
Si 14.47157988 1.2830394959999998 17.892333055853495 
Si 15.37378524 2.47283829 21.406473014039136 
Si 15.81288219 0.220765338 21.39533137994185 
Si 14.1108867 2.99734371 19.497825388296643 
Si 12.461475329999999 0.227892213 18.500700559516293 
Si 14.51399904 2.82219363 23.621635564285686 
Si 12.36824766 1.8946410299999998 23.88649791824144 
Si 16.123011209999998 2.2514409 25.35074861228209 
Si 13.194346139999999 1.9292409899999998 28.459915882494744 
Si 14.523414659999998 3.9191622299999995 28.581685372690295 
Si 16.119997559999998 0.221545629 34.06724320902497 
Si 15.283310579999998 1.64436147 32.28883271539197 
Si 15.73933284 3.9760794899999996 32.452391903940104 
Si 13.254488819999999 1.260057564 30.85025920270167 
Si 12.222501029999998 4.07388465 4.070775997685969 
Si 13.56877179 5.431411799999999 2.695812645203401 
Si 14.934932639999998 6.7875054299999995 4.071770174266957 
Si 14.933010419999999 4.07238597 6.787312082310319 
Si 13.575043439999998 5.42975022 8.14480878072345 
Si 12.21792354 6.78730995 6.787586337918867 
Si 13.57597197 8.14576563 10.863333218509778 
Si 16.28830584 5.43115116 10.86179053071169 
Si 14.933205899999999 6.787440269999999 9.501619840115211 
Si 13.97113479 7.962503129999999 16.11501958465469 
Si 12.38318559 4.8453301799999995 16.960309652152354 
Si 13.55982858 5.34321774 13.553163663251713 
Si 15.28614504 6.400943729999999 14.79663859241079 
Si 12.828358709999998 7.47204381 20.3386588021554 
Si 15.55781337 6.48768798 18.51773868919737 
Si 12.352837319999999 7.09618464 17.713861218590534 
Si 14.579387099999998 4.52163159 17.761718822282255 
Si 14.27088708 5.12261856 23.295991311085363 
Si 12.43573713 5.615879759999999 21.808977401535184 
Si 13.518842939999999 6.12725544 25.243308977633202 
Si 14.52163905 5.92014438 27.32508045627196 
Si 13.484910869999998 7.91255799 28.27736449305462 
Si 15.755183009999998 5.74862697 34.18421322607092 
Si 14.699639879999998 7.309665089999999 31.352009838541225 
Si 14.33599821 4.88735838 30.79684792293685 
Si 14.03060958 7.733253959999999 34.070260020719005 
Si 14.9348349 12.215089079999998 4.066456471851329 
Si 14.9061645 9.44165142 1.2864267856528853 
Si 13.568527439999999 10.85546052 2.7059018234028804 
Si 16.29 10.85928867 5.431495199499546 
Si 13.576086 8.14438098 5.4302267673100095 
Si 14.93312445 9.502087320000001 6.787826311576347 
Si 13.575304079999999 10.86011946 8.14528872803841 
Si 14.929899029999998 9.50308101 12.233445674916142 
Si 12.437317259999999 9.58865238 15.07973894433502 
Si 13.7849238 11.030268509999999 13.687446065587292 
Si 15.6162456 11.826588869999998 15.004935727103407 
Si 15.484638689999999 8.773223849999999 17.762130205695076 
Si 14.89197591 8.57575647 21.02080106451775 
Si 12.464619299999999 10.73711367 19.3929568999779 
Si 14.74231968 10.30378338 19.431181275419352 
Si 13.45923783 8.43082434 24.74868898761591 
Si 14.095003949999999 11.87782092 23.304630362754644 
Si 14.71501764 9.59974587 23.178678474528727 
Si 14.439130199999997 9.30261627 26.693504071735738 
Si 13.82502978 11.5243605 26.76745024019064 
Si 12.58399242 11.105300249999999 30.183338126613766 
Si 15.91518339 10.75975677 30.468323985846766 
Si 12.848183639999998 10.289611079999998 32.60052421450739 
Si 15.035555969999999 11.28688488 32.71098066085031 
Si 14.104289249999999 9.217566179999999 30.094787847003655 
Si 12.302501219999998 12.277121399999999 1.3025941537768215 
Si 14.85716418 14.971845779999999 1.1244411386587971 
Si 16.28859906 13.58279748 2.668870459858614 
Si 13.57287687 13.573284119999999 5.429849665848255 
Si 14.93258688 14.93234253 6.787483492065661 
Si 14.933368799999998 12.218070149999999 9.503196809864365 
Si 13.57108497 13.57729146 10.863916011677944 
Si 14.930550629999999 14.93806032 12.262551051373356 
Si 12.28777506 14.940210599999999 15.426123777931824 
Si 12.75430437 14.301903239999998 17.751399955010616 
Si 12.4245459 16.19427996 20.830330544380793 
Si 15.798546989999998 12.360167820000001 19.74537535696277 
Si 16.09671915 16.21043964 19.08061404379218 
Si 15.24195027 14.127013799999999 18.337792728038462 
Si 12.270752009999999 15.94900143 24.662401316776325 
Si 15.40942776 13.203826920000001 21.902018616735276 
Si 14.126020109999999 15.24002805 22.288856152592995 
Si 14.973539939999998 12.86686827 25.25160520979179 
Si 14.405328449999999 15.22152261 25.425586111464774 
Si 14.28986493 16.199476469999997 27.670436831336705 
Si 13.8753333 12.564770219999998 28.799718581486385 
Si 16.084257299999997 12.907821329999999 29.478124111182264 
Si 12.948839549999999 14.668949519999998 28.848090414444133 
Si 13.678403489999999 13.36149783 33.97862436551272 
Si 13.31733564 15.23504331 31.074497444641175 
Si 15.6004443 14.486876189999998 31.22321254837662 
