&CONTROL
  dt          = 30.D0,
  prefix = 'x1.33_y.66_z3.16_struc46-scf',
  pseudo_dir = './',
  outdir='./',
  wf_collect= .true.,
  verbosity= 'high',
/

&SYSTEM
ibrav= 6, celldm(1) =30.783621515, celldm(3) =2.108862401886256, nat=  432, ntyp= 1,
  ecutwfc     = 12.D0, nbnd= 1728,
  degauss     = 0.05D0,
  occupations = "smearing",
  smearing    = "methfessel-paxton",
/
&ELECTRONS
  electron_maxstep=200,
  conv_thr    = 1.D-8,
  mixing_beta = 0.3D0,
  scf_must_converge=.false.,
/
ATOMIC_SPECIES
Si  28.08  Si.pbe-hgh.UPF
K_POINTS {automatic}
1 1 1 0 0 0
ATOMIC_POSITIONS (angstrom)
Si 0.0311143887 2.71223613 2.7265650239029826 
Si 1.495990521 1.5766520849999999 1.2177066774826324 
Si 4.07085471 1.3564829609999998 4.069912276098414 
Si -2.9723548499999997e-05 2.71487511 8.145114970949944 
Si 2.7146796299999996 0.000451068471 8.144908850738783 
Si 2.7156081599999995 2.71660185 5.430717910179128 
Si 1.3571296739999998 1.3578203699999998 6.787435493405162 
Si 2.7120569399999996 2.71454931 10.861264053515624 
Si 1.373012424 1.3606206209999998 12.245739158511252 
Si 0.0345405015 2.73448827 13.696997211922838 
Si 0.029224422899999998 0.401618547 18.24064244000482 
Si 0.989006625 0.657304758 20.830336773023618 
Si 2.1121776899999998 3.99409623 19.28900418733495 
Si 1.8726006599999998 1.6804763999999999 18.75061819578408 
Si 3.9149919899999994 1.295056629 17.52111113621252 
Si 3.22001172 0.375601788 21.611841553638133 
Si 0.0273779514 1.94751837 22.612108585030843 
Si 1.076607729 1.132609491 24.579422940450925 
Si 3.93787944 2.94313059 25.191496907491622 
Si 1.6433026199999998 3.1329090899999996 25.698002973049686 
Si 1.83479157 3.0840716699999997 28.01819512997631 
Si 2.8401452099999998 1.033188363 28.543011540959117 
Si 3.0547007999999995 2.96688141 33.992108503300045 
Si 0.599760333 1.1447960400000001 31.909469889735742 
Si 2.84794812 0.592330464 30.83355674084718 
Si 1.35509994 4.07033343 4.075511875168271 
Si 0.118622151 5.551501679999999 0.06510100749288894 
Si 2.7270763199999997 5.42329938 2.703878059327932 
Si 1.5598294019999999 6.93714537 1.2981176071931426 
Si 2.71492398 5.430304079999999 8.145595918109318 
Si 1.357546698 6.7872936600000005 6.787710320353376 
Si 4.06816686 4.07650734 12.262331835509663 
Si 1.3579767539999998 4.072027589999999 9.502244794598298 
Si 0.000166345335 5.431590989999999 10.864458916788609 
Si 1.37083608 6.782374079999999 12.227875406877354 
Si 2.71448415 8.14087863 10.859958625511608 
Si 3.32881263 7.50749085 15.201365573076746 
Si 0.724650876 4.583338110000001 15.25224291186483 
Si 2.64580551 5.52731103 13.844716696587765 
Si 3.28722426 4.84842528 17.348141925680448 
Si 0.05189228369999999 5.12201583 19.083742810387758 
Si 0.6934653 7.39430793 18.774665553752794 
Si 2.88940617 7.24756761 17.808236590358906 
Si 0.399680037 4.969802069999999 24.859815134366073 
Si 2.95422408 7.11208368 21.650111206176902 
Si 0.642495519 4.24362645 22.61918537894735 
Si 2.69239491 4.706523089999999 21.55969314021456 
Si 3.53782962 7.41110292 25.669661444015137 
Si 2.8860830099999997 5.12380773 28.526144037012497 
Si 1.225781775 6.945713909999999 25.844966683607026 
Si 1.1788063020000001 6.68895093 28.185976981860843 
Si 2.7851990399999997 5.12278146 32.93258191119873 
Si 3.7266307199999997 5.41859157 30.702498639917714 
Si 3.64257432 7.04746125 34.22385632738135 
Si 0.649804842 5.40484281 32.13812591064964 
Si 3.7052093699999995 9.14377248 1.3443022758404746 
Si 0.01386656928 8.157103470000001 2.696962726243502 
Si 1.353368313 9.50604579 4.07530575495711 
Si 2.7029182499999997 10.84966128 2.7114254943932536 
Si 0.000280357416 8.14452759 8.144908850738783 
Si 2.7169439399999997 8.14734576 5.428725414804578 
Si 0.0021774354299999997 10.859663339999999 5.431301917444083 
Si 2.7151520399999995 10.85982624 8.144908850738783 
Si 4.07256516 9.50137056 12.217844223267551 
Si 1.3575988259999998 9.50107734 9.50190126091303 
Si 1.372401549 12.22421148 12.248453074624864 
Si 0.12222387 8.20600605 13.5952768877152 
Si 1.588496544 9.411221699999999 15.010841791227518 
Si 2.85913935 10.89134739 13.69414588233512 
Si 3.94354836 8.19242019 19.77489823177698 
Si 0.871013268 8.18122896 20.988980628880043 
Si 0.911345679 10.50618663 20.64431328245139 
Si 3.2080059899999998 10.47539853 19.88500077790514 
Si 0.681555681 10.74784878 24.88987433182696 
Si 3.00069945 10.908207540000001 25.364500471392223 
Si 1.0138896 10.27356543 29.826968689645547 
Si 2.43944379 8.59072698 28.976619758503467 
Si 3.6217719899999996 9.35634069 27.025520193028 
Si 0.37541934 12.178615769999999 28.536106513885247 
Si 1.310462082 11.354390639999998 32.131530063892505 
Si 3.68163774 11.864593439999998 32.850030766629004 
Si 2.72139111 16.3028691 2.680033386233531 
Si 0.0043194564 13.59846846 2.707364926233395 
Si 1.398273327 12.28272516 1.3510561480928291 
Si 1.3555821239999999 14.92836777 4.07121770410243 
Si -0.00043741908 13.57499457 8.14494320410731 
Si 2.713914 13.5738054 5.430717910179128 
Si 1.356829938 12.21741855 6.7881225607756965 
Si -4.8334059e-06 16.2924435 10.865180337527669 
Si 1.358203185 14.931413999999998 9.502210441229773 
Si 2.7150705900000003 13.57659099 10.861573233832363 
Si 2.6646041699999996 16.195273649999997 13.73025127265671 
Si 0.659474586 15.37228656 15.023724304425041 
Si 0.8476110539999999 14.63006529 17.39527474729912 
Si 3.9964908599999998 14.86361502 20.325067428732517 
Si 2.93407335 13.89725964 18.4496139807529 
Si 2.68555311 13.94938764 23.698259037740375 
Si 3.03536457 16.23476061 23.940003692062955 
Si 0.364066839 13.714941959999999 23.014627004058507 
Si 3.8996793899999997 13.082971409999999 25.534480938862465 
Si 3.9946338 13.84179219 27.724679949283953 
Si 0.965118969 15.95401875 28.155677310820273 
Si 1.93572441 13.91697054 28.79104286172209 
Si 2.86396119 13.547138669999999 34.30266295478166 
Si 1.1553226380000001 13.92457797 32.52556320089407 
Si 2.7621161099999996 14.55843816 30.90291619190264 
Si 6.788841209999999 4.07399868 4.0731758461084535 
Si 5.4426519 2.69364924 2.7180419531715017 
Si 6.84334755 1.378710666 1.2926313742394244 
Si 5.430190049999999 0.000198454554 5.429927782703014 
Si 5.43041811 2.71448415 8.14514932431847 
Si 6.787863809999999 1.3573952009999999 6.787366786668109 
Si 6.78827106 4.0715226 9.502622681652094 
Si 4.07214162 1.358851527 9.503859402919055 
Si 5.43032037 -0.0005900563799999999 10.858378370559379 
Si 6.77965365 1.369909179 12.235295734479127 
Si 8.02407933 0.056180952 16.19081129338354 
Si 4.27915494 1.1384641169999998 15.074017635948168 
Si 5.4107235 2.6953108199999996 13.7001577218273 
Si 5.578298729999999 2.07888093 19.059214505259675 
Si 7.3023183 0.5112241829999999 18.57273645355269 
Si 5.05607391 1.7954023499999998 21.432482616560087 
Si 4.68018216 0.71425134 25.464159593488255 
Si 6.8453186399999995 1.233483687 24.727314191958488 
Si 7.27987068 3.55605813 24.849303003596894 
Si 6.7255708499999995 0.44044250399999996 22.536221993955305 
Si 4.3360722 3.5673145199999996 22.867079286236212 
Si 6.637393079999999 3.2784113699999997 28.61082509043088 
Si 5.64800364 3.9468715199999997 26.506990448485585 
Si 8.09331183 1.3848422219999998 28.388009142166528 
Si 4.23329859 1.83992292 32.21518051625509 
Si 5.1754959 3.3760699199999995 30.625512741049317 
Si 6.073905689999999 0.301843926 32.28192911130252 
Si 8.03204514 2.88575721 34.082389155788285 
Si 4.28018121 4.137774029999999 1.3356108736032126 
Si 4.07567655 6.7821623099999995 4.07351937979372 
Si 6.9141276 6.90674823 1.3340924547143311 
Si 4.07263032 4.07269548 6.78819126751275 
Si 5.4295547399999995 5.42887056 5.431473684286717 
Si 6.787440269999999 6.786739799999999 6.788053854038643 
Si 4.0729887 6.79047021 9.501866907544505 
Si 5.430206339999999 5.42988054 10.867550719956014 
Si 6.79214808 6.78928104 12.250720396947628 
Si 6.69199716 8.046168569999999 17.076956434530466 
Si 6.29877285 6.45795873 15.22314560872269 
Si 7.06697667 4.93365456 20.90368121482818 
Si 7.861553999999999 7.11420138 20.445785165735437 
Si 5.78710395 4.40567937 18.88449327293274 
Si 6.2636679 4.81542174 23.134382846742678 
Si 4.32150894 7.8717026699999995 23.500967642291382 
Si 6.492672719999999 7.0256652299999995 23.900737791836907 
Si 7.41053277 7.58377692 26.046105656331015 
Si 7.87318506 5.280403499999999 29.115682194299662 
Si 4.632338429999999 5.93503344 27.152833776788057 
Si 6.50371734 6.937373429999999 28.144581172786136 
Si 5.62211883 5.52367836 34.340382953424005 
Si 4.11868215 7.838275589999999 30.589304290622145 
Si 8.155295279999999 5.63306571 31.440683822820024 
Si 6.6142287 4.1698979099999995 32.559985276157846 
Si 7.544827529999999 7.82100819 32.28453996731055 
Si 8.14747608 10.851567209999999 2.698378085026803 
Si 5.421181679999999 8.14967523 2.704159756949851 
Si 6.78916701 9.50205474 4.071011583891269 
Si 4.074096419999999 12.22105122 4.073072786002873 
Si 6.56791623 11.966780609999999 1.3258304695836534 
Si 8.14311036 8.14275198 5.430202609651227 
Si 4.0721742 9.50255973 6.78777902709043 
Si 5.43038553 8.14478823 8.145733331583425 
Si 5.43048327 10.86112944 5.429549895649219 
Si 8.14846977 8.146417229999999 10.861848060780579 
Si 6.78760317 9.502657469999999 9.502485268177987 
Si 5.430141180000001 10.85847417 10.861264053515624 
Si 4.07109906 12.21688098 9.502657035020619 
Si 7.96833495 10.73709738 13.780235423863099 
Si 5.2584282899999994 8.18689788 13.801946752771991 
Si 6.218691209999999 9.80850222 15.33702702538879 
Si 4.412781809999999 11.57516901 15.50738537991283 
Si 4.2161778 11.90378718 17.985431265219763 
Si 6.858399509999999 10.708084889999999 20.324792601784303 
Si 6.25363326 8.546792850000001 19.45843500090877 
Si 6.54642972 11.03466681 24.32922735747077 
Si 7.94865663 10.991775239999999 22.444773326937156 
Si 4.43798244 10.19970657 23.617459914965515 
Si 4.702369139999999 11.185952039999998 21.503525382673363 
Si 7.34345055 9.9570996 26.276548052408298 
Si 6.12398115 8.74302219 29.618684216267997 
Si 5.640868619999999 10.229240339999999 27.89885152771446 
Si 4.984854029999999 10.3381227 34.10509673238445 
Si 8.02153809 9.56789892 30.821258234914605 
Si 5.01176511 8.35841529 32.75968140740371 
Si 7.705332899999999 13.78546137 0.11664548869776083 
Si 4.2166339200000005 15.011251289999999 1.2623385738725563 
Si 5.42259891 13.55924214 2.7069148971056944 
Si 6.78931362 14.93183754 4.0688473216740855 
Si 6.1780965299999995 15.717162149999998 0.11976236982419079 
Si 4.07279322 14.93219592 6.787710320353376 
Si 5.42986425 13.57507602 8.145183677686997 
Si 6.787456559999999 12.217548869999998 6.787607260247796 
Si 8.14675932 13.57401717 10.857176002660943 
Si 6.787423979999999 14.930583209999998 9.502450914809458 
Si 4.0640292 14.91830055 12.24556739166862 
Si 6.78687012 12.22544952 12.258175077917926 
Si 5.37980508 13.592522609999998 13.781094258076267 
Si 6.0057809099999995 15.5888784 15.13300236970856 
Si 8.03756745 16.18305615 13.541685632813506 
Si 4.49040366 15.31170405 17.376517808083523 
Si 6.06755259 14.831360819999999 19.124657672303087 
Si 6.4777185 12.50624025 18.71653965420557 
Si 6.21525402 13.34577798 24.814777868227534 
Si 6.38271522 14.3422047 22.655050295689254 
Si 4.30797195 13.412469239999998 22.054759534053225 
Si 7.57620207 13.64219082 28.77668315367792 
Si 5.5382742 12.40569837 28.872975645658336 
Si 6.6950433899999995 15.898991129999999 29.06246882645176 
Si 4.70855934 16.13029284 27.68998304707196 
Si 5.49636003 12.62147571 31.300728199442137 
Si 7.7429628 12.3437475 32.2109550519263 
Si 5.155426619999999 14.96379852 30.829777870309236 
Si 8.16174612 0.001398584466 2.703699421811593 
Si 9.50311359 1.35588186 4.0723513652638115 
Si 10.86026607 2.71609686 2.678717652218957 
Si 8.14452759 0.000268273494 8.145183677686997 
Si 8.14563531 2.7158688 5.430374376493861 
Si 10.86018462 0.0012010388939999999 5.430958383758816 
Si 10.859875109999999 2.7151031699999995 8.145286737792578 
Si 12.224455829999998 1.3691288879999999 12.236051508586716 
Si 9.500849279999999 1.3569065009999999 9.502279147966826 
Si 8.14620546 2.71404432 10.860439572670982 
Si 10.85920722 0.00351205884 10.860405219302454 
Si 9.96804648 0.8165997809999999 14.630034701108748 
Si 10.88150823 2.78583435 13.666834954356373 
Si 11.189633579999999 2.6050968 16.426956348636264 
Si 10.12171005 3.10855554 19.448094636982226 
Si 8.97999282 3.6397398599999997 21.446807971235735 
Si 9.28368729 0.921334707 19.696881731852784 
Si 8.83597293 1.2945907349999999 21.958707515652495 
Si 10.45451475 0.220757193 23.306768050009794 
Si 10.53824535 0.872616204 25.576563815307708 
Si 9.949394429999998 1.213927542 29.862764899650394 
Si 12.05176554 2.46091401 29.607175837811546 
Si 11.22053571 3.0897243 25.84902038109318 
Si 8.37853344 0.332241066 26.248756177270177 
Si 11.67698151 3.36696381 31.794729638856474 
Si 8.49152088 0.662877567 31.607297660174652 
Si 9.914110289999998 1.8956021399999998 32.96727881341072 
Si 8.67141135 7.76915712 0.07398100972336263 
Si 10.86440373 8.16010083 2.7096356838930116 
Si 12.184675649999999 6.79084488 1.3254903712352388 
Si 9.387193949999999 4.08377268 1.2565088072335706 
Si 8.13556809 5.430206339999999 2.715781501522443 
Si 9.50345568 6.78507822 4.070461929994842 
Si 10.29252699 5.95495611 0.1125354516872232 
Si 9.502282799999998 4.0726629 6.787504200142216 
Si 8.14513032 5.43004344 8.145836391689006 
Si 10.860412679999998 5.4307602 5.430099549545647 
Si 10.85984253 5.42988054 10.861538880463836 
Si 9.50047461 6.7869027 9.502519621546512 
Si 9.49537584 4.07284209 12.236463749009037 
Si 9.04002147 7.89229323 17.166618726385224 
Si 11.75769846 4.747117769999999 15.284088484489105 
Si 8.21791404 5.484614939999999 13.767318557297049 
Si 9.90687753 6.564658229999999 15.20036932538947 
Si 9.64690542 6.5326809599999995 18.984667695556677 
Si 11.389870259999999 7.100990189999999 20.553414269329668 
Si 9.12964905 4.41766881 17.7847045329181 
Si 11.91330054 5.61754134 22.307222439356142 
Si 8.48449989 7.40580867 22.686208800942996 
Si 9.720764280000001 5.30796618 22.926476260418923 
Si 9.4602546 4.433404949999999 25.04666310578294 
Si 11.43059526 7.64403363 25.595252047786246 
Si 11.133693719999998 7.631115659999999 29.285765721875485 
Si 9.50270634 6.466771619999999 26.196710823952184 
Si 11.72019888 4.11197067 27.951961835456782 
Si 10.03667625 5.7524877 28.347231693725302 
Si 10.606142069999999 5.52553542 32.11806354343003 
Si 12.1673268 7.10366175 31.271802663142637 
Si 9.59013477 9.59992506 1.2376900319546298 
Si 12.21719049 9.50138685 4.074859161166263 
Si 9.50270634 9.50257602 6.787538553510743 
Si 10.86002172 8.14465791 8.145114970949944 
Si 8.14539096 10.859972849999998 8.144668377159096 
Si 10.8610317 10.85813208 5.430202609651227 
Si 9.48319092 9.4967442 12.251510524423743 
Si 10.8577737 10.862497799999998 10.86404667636629 
Si 12.236103179999999 12.20520105 12.230005315726011 
Si 11.808230039999998 10.028726729999999 15.370933800124671 
Si 10.921809689999998 8.2593558 13.762680852545941 
Si 9.79511184 11.682943649999999 14.987378440523763 
Si 10.83615687 9.34663185 21.039617494088436 
Si 9.28409454 9.810750239999999 19.26152149251357 
Si 10.09527138 11.87032752 18.538864032185337 
Si 9.600283439999998 9.46427823 23.02393676692925 
Si 10.72328346 9.8086977 25.097918331624818 
Si 9.893128769999999 9.65793375 29.268176797189803 
Si 9.46510902 10.65177036 27.03812787927731 
Si 11.142832409999999 10.868964929999999 34.15453122969441 
Si 11.02005468 11.54869776 30.14820703873897 
Si 12.207221009999998 9.10244475 32.76246403025438 
Si 12.219552539999999 14.93437878 4.072110891684125 
Si 9.501484589999999 12.21875433 4.069603095781673 
Si 9.499203989999998 14.83818633 1.2992409623439665 
Si 10.87046361 13.56909759 2.713105374114211 
Si 8.1453258 13.576965659999999 5.430614850073548 
Si 9.50314617 14.93245656 6.787950793933063 
Si 10.85971221 13.574782799999998 8.14494320410731 
Si 9.50166378 12.21841224 9.501695140701871 
Si 9.497281769999999 14.90666949 12.214718066731619 
Si 11.497237649999999 15.28668261 14.971369770790307 
Si 9.5913891 14.720768009999999 16.822329267010364 
Si 10.77221862 13.448014019999999 13.585898418107405 
Si 8.5996539 12.6148131 16.930851558186294 
Si 10.03618755 13.36526082 20.360313984840936 
Si 10.26701685 15.25439583 19.035957274767078 
Si 8.426295719999999 13.262389469999999 22.075646382117473 
Si 11.73935592 13.207606199999999 23.854738631379618 
Si 9.651043079999999 14.300013599999998 23.77668777808689 
Si 12.101140529999999 13.05436617 21.51551470828919 
Si 8.257612769999998 14.29486596 25.68749084228051 
Si 9.38634687 13.08186369 27.310515738325734 
Si 11.368155689999998 14.30149599 28.107376474671693 
Si 9.170390339999999 13.13816193 30.466216171190883 
Si 11.60900334 15.55243767 32.1587722851342 
Si 10.45646955 15.16693482 30.15737938813561 
Si 10.800905310000001 16.26269796 34.207641537436736 
Si 14.06727837 2.3698691999999997 0.10014762699648541 
Si 12.25996803 1.300551246 1.227346232691232 
Si 14.93281494 1.355644026 4.0693969755705135 
Si 12.21743484 4.07337966 4.06922520872788 
Si 15.041420369999999 4.0651695 1.364828413535194 
Si 13.575369239999999 -5.8590894599999995e-05 8.145114970949944 
Si 13.57505973 2.71601541 5.429790369228907 
Si 12.21771177 1.3569716609999998 6.78767596698485 
Si 14.930778689999999 1.358133138 9.502176087861244 
Si 13.578252569999998 2.71480995 10.859683798563394 
Si 14.813360369999998 1.79848116 16.99134784016186 
Si 15.271223399999998 0.921132711 14.825539721394351 
Si 12.43951641 3.4056688499999996 19.317002182684234 
Si 12.768118289999999 1.438762122 18.06327599830133 
Si 12.784033619999999 0.0584933175 22.88635152597971 
Si 13.9346289 2.0819108699999997 22.921323255139914 
Si 13.266918089999999 3.85190082 21.474943380059123 
Si 13.465314 2.83843476 25.10399887785405 
Si 16.0590078 3.4122174299999997 29.197202737813583 
Si 15.7635072 0.1607361993 29.960706353320095 
Si 14.31330624 1.77645708 28.960164494979168 
Si 14.093179469999999 1.122807798 26.707785887524302 
Si 15.93681651 0.734990139 34.29173858359016 
Si 15.98448105 3.34863756 31.612107131768393 
Si 13.84622307 3.8420942399999998 32.60014436396559 
Si 13.57351218 5.421035069999999 2.6946060851625684 
Si 14.932179629999998 6.786365129999999 4.068950381779666 
Si 16.2919548 5.43012489 5.42985907596596 
Si 14.93270091 4.07253258 6.787401140036636 
Si 13.575304079999999 5.42992941 8.145080617581417 
Si 12.21746742 6.7875054299999995 6.787504200142216 
Si 13.573821689999999 8.14706883 5.43102709049587 
Si 12.221816849999998 6.80548959 12.247525533674642 
Si 13.57567875 8.141188139999999 10.861435820358256 
Si 12.21841224 4.071473729999999 9.502794448494727 
Si 14.932407689999998 6.788417669999999 9.501557727227764 
Si 14.92123275 4.064208389999999 12.246666699461475 
Si 15.387077879999998 6.585607169999999 15.003318403520163 
Si 15.448230539999999 8.09700966 16.98684754888486 
Si 15.3740133 4.16983275 17.128623900794665 
Si 13.54795317 5.46312843 13.725304387588864 
Si 15.037070939999998 7.339459499999999 21.45336946462434 
Si 15.27894486 5.04009342 21.197230748889062 
Si 13.434363 7.13607885 19.5395776573689 
Si 13.085528939999998 5.00578668 17.56845007804235 
Si 12.964689719999999 6.6226995 24.133791043922223 
Si 14.331078629999999 5.00788809 25.3093289615383 
Si 15.435068219999998 5.65548075 28.920314587488164 
Si 13.61521458 5.54052222 27.47733569589152 
Si 12.704668739999999 7.6894990199999995 27.542160502301453 
Si 14.6458503 6.260686829999999 32.986447993048635 
Si 14.671849139999999 7.00364115 30.70631186382418 
Si 13.605684929999999 8.05446018 34.316816542614674 
Si 14.95651689 9.54910026 1.286317225104212 
Si 13.57374024 10.858588199999998 2.7094604817135255 
Si 14.932244789999999 9.50345568 6.787950793933063 
Si 13.57509231 10.86000543 8.14494320410731 
Si 12.21821676 9.50205474 9.502760095126199 
Si 14.923741409999998 9.49780305 12.239315078596755 
Si 16.28899002 10.86095025 10.867859900272755 
Si 13.500125729999999 10.75993596 13.744542273963829 
Si 14.98287411 11.96138862 15.16216837958775 
Si 16.26675417 10.25633061 16.541009532144997 
Si 12.695904719999998 10.803006719999999 21.072493667768516 
Si 13.59928296 10.69019847 18.913727989548985 
Si 15.874442099999998 11.28152547 18.81056482386322 
Si 13.30249545 8.639385209999999 17.786525261450013 
Si 12.25516248 11.90877192 17.443816057027384 
Si 12.547665719999998 11.196833759999999 24.724256742159607 
Si 16.263984869999998 11.402869679999998 22.713004428393845 
Si 14.02767738 10.48950567 22.97951786142419 
Si 14.512239719999998 8.26816869 23.57898414221558 
Si 15.94535247 8.68206501 25.504181267821895 
Si 14.491144169999998 9.19780641 27.47774793631384 
Si 15.17245713 9.196454339999999 29.86156253175196 
Si 13.651720469999999 11.30643288 26.797929126538435 
Si 14.54760531 10.872939689999999 31.45682990602759 
Si 12.342704939999999 11.534248530000001 32.093226057985206 
Si 15.96742542 11.28400155 34.07222055870437 
Si 14.19209235 13.1632974 0.030644269680264912 
Si 12.324264659999999 12.289957919999999 1.3296574348375307 
Si 14.93025741 12.21728823 4.071458177682117 
Si 15.046323659999999 15.06818484 1.2513764139756778 
Si 13.57310493 16.28209935 2.698797196122829 
Si 16.2913032 16.290325799999998 5.429893429334487 
Si 13.57463619 13.57463619 5.429721662491853 
Si 12.21732081 12.217614029999998 6.787435493405162 
Si 14.932375109999999 14.932538009999998 6.787401140036636 
Si 12.217516289999999 14.93074611 9.502588328283565 
Si 14.930843849999999 12.21844482 9.501832554175976 
Si 13.57828515 13.57502715 10.858653197507593 
Si 14.92344819 14.910302159999999 12.229558721935165 
Si 13.458081239999999 16.14716928 13.614617834195748 
Si 16.23145374 13.52747664 13.70036384203846 
Si 13.45280328 13.85532918 17.991099571026677 
Si 13.521709979999999 14.986066949999998 21.16974805406768 
Si 15.945189569999998 14.87492028 21.011310318422417 
Si 12.5312454 15.62007375 19.15499169671219 
Si 15.65214876 13.62306636 18.961204344852923 
Si 13.206970890000001 14.824307249999999 24.65266432214991 
Si 15.4634454 14.22887517 25.02251268770865 
Si 12.67366887 12.43197414 28.654213394880134 
Si 14.714675549999999 12.58182585 29.858676848795714 
Si 16.074955709999998 16.218861569999998 26.12013716550611 
Si 15.774910199999999 12.24173952 26.30756914418793 
Si 12.26915559 15.86390247 26.529182724553852 
Si 15.30030105 14.40106047 31.18001046243922 
Si 13.35317364 14.060387699999998 32.36973632125684 
