&CONTROL
  dt          = 30.D0,
  prefix = 'x1.66_y.66_z3.17_struc34-scf',
  pseudo_dir = './',
  outdir='./',
  wf_collect= .true.,
  verbosity= 'high',
/

&SYSTEM
ibrav= 6, celldm(1) =30.783621515, celldm(3) =2.117028552714252, nat=  432, ntyp= 1,
  ecutwfc     = 12.D0, nbnd= 1728,
  degauss     = 0.05D0,
  occupations = "smearing",
  smearing    = "methfessel-paxton",
/
&ELECTRONS
  electron_maxstep=200,
  conv_thr    = 1.D-8,
  mixing_beta = 0.3D0,
  scf_must_converge=.false.,
/
ATOMIC_SPECIES
Si  28.08  Si.pbe-hgh.UPF
K_POINTS {automatic}
1 1 1 0 0 0
ATOMIC_POSITIONS (angstrom)
Si 2.7382512599999997 -0.011795116589999998 2.6948565795944246 
Si 2.0644317 3.1718584799999996 0.007921145609571011 
Si 1.338005214 1.342325322 1.4040066696371793 
Si 4.07484576 1.3572730259999999 4.07218802260341 
Si -0.00072161442 0.001303858116 5.430434694550931 
Si 0.000122018616 2.7147447899999997 8.144893341133676 
Si 2.71539639 -4.20483996e-05 8.145445123455655 
Si 2.7142886699999997 2.71401174 5.430124316994819 
Si 1.357292574 1.35765747 6.787612288249618 
Si 2.7141909299999996 2.71811682 10.865111215702079 
Si 1.35382932 1.352820969 12.248291551324048 
Si 1.67912433 3.14717913 16.768423360189395 
Si 2.7273043799999996 0.022691155499999997 13.751898378718028 
Si 3.77483283 1.8601062299999997 15.421281307471709 
Si 1.85484456 3.360627 20.315211153083006 
Si 3.8257065 2.02100256 19.776499174855452 
Si 2.59745679 0.0345756879 19.236511200008316 
Si 0.870092883 0.9113619689999999 17.8177753910138 
Si 1.79848116 1.0964554649999998 24.499445473443362 
Si 0.737850663 0.348216669 22.491509603760175 
Si 3.7628271 2.2662485099999996 25.212727583787164 
Si 2.6530871400000002 0.8338655519999999 29.235703520549034 
Si 0.7577472689999999 1.23774678 30.597191913638188 
Si 1.0278908549999999 2.9077812899999995 32.276817301743606 
Si 4.07140857 6.786365129999999 4.073877855964472 
Si 1.355391531 4.0721742 4.067463386471461 
Si 0.35661905099999996 5.12915085 0.005389637289119577 
Si 2.72836323 5.44890726 2.691101011165452 
Si 1.3613813639999999 6.86209734 1.2967574294419375 
Si -0.018815112899999997 8.13871206 2.708844261456603 
Si 2.71498914 5.42986425 8.1449278275288 
Si 1.357126416 6.787586879999999 6.787267424298381 
Si 4.071506309999999 4.07474802 12.24998138468511 
Si 1.357427781 4.07186469 9.501795043671374 
Si 1.3716163709999998 6.785452889999999 12.224737343454551 
Si 3.99828276 6.9886054799999995 15.145390146481988 
Si 0.760816305 4.34786616 14.926401537446395 
Si 2.6635290300000003 5.45773644 13.714480640008798 
Si 2.4957746100000002 7.051012469999999 18.45504948650493 
Si 1.368091215 4.90340403 18.57364819933539 
Si 2.32743375 4.6094184 22.27362455936854 
Si 0.23990120099999998 5.653542239999999 22.83799441556814 
Si 3.30243912 7.403104529999999 23.987425965041567 
Si 1.031673393 7.02647973 24.601594175799807 
Si 3.45403386 6.661551149999999 21.72222158773546 
Si 3.2994906299999998 4.36858704 26.242180964625188 
Si 3.19458303 6.004396259999999 29.91429231739838 
Si 1.456813071 5.76920124 26.53145284692291 
Si 2.3851818 7.28974242 28.134380492273188 
Si 1.43275437 4.96976949 31.102727979756725 
Si 2.2309154999999996 8.85903957 0.17576681002703906 
Si 1.3561473869999998 9.5027715 4.064256151724956 
Si 0.360983142 10.33198137 0.043689434526429795 
Si 2.72756502 10.886769899999999 2.6943634241441554 
Si 1.500949197e-05 8.14482081 8.1449278275288 
Si 2.71704168 8.144120339999999 5.430331235365561 
Si -0.001093884903 10.861438949999998 5.432779769419344 
Si 2.71458189 10.85992398 8.14503128671417 
Si 1.357209495 9.50031171 9.501622611695753 
Si 2.7126107999999998 8.14770414 10.85748972237974 
Si 1.3540036229999999 12.22153992 12.215115639215034 
Si 2.7583205399999997 9.12153663 16.22888370847887 
Si 0.883271493 9.805814369999998 14.848393311676553 
Si 2.6730749699999996 10.878038459999999 13.611469777774262 
Si 0.7576446419999999 8.356362749999999 17.33165516534991 
Si 2.85540894 11.21252103 17.599510996275807 
Si 0.380589786 9.236902409999999 20.94972633696424 
Si 2.49605154 8.38273626 20.435706617645266 
Si 0.832681269 11.90352654 18.58206287974558 
Si 3.64707036 11.16120753 24.817823873225503 
Si 0.46061441099999995 11.35556352 22.276831794115047 
Si 2.85506685 11.44774863 22.59514122110694 
Si 0.935487459 9.00563328 28.804244231156233 
Si 1.7945389799999998 11.86423506 26.095682758139645 
Si 0.17427530700000002 10.269281159999998 26.947393258510036 
Si 2.73846303 9.084493169999998 32.31713189764323 
Si 1.484618472 10.363307039999999 30.687787673628183 
Si 4.081492079999999 14.91307146 1.0741580948368932 
Si 0.01609746849 13.56105033 2.6947945040832018 
Si 1.496231613 12.272446169999998 1.104806154183339 
Si 1.3577486939999999 14.932098179999999 4.068739383091039 
Si 0.000369361089 13.57442442 8.145376150665408 
Si 2.7174326399999997 13.57387056 5.430227776180189 
Si 1.357520634 12.216555179999999 6.787853693015484 
Si 1.357694937 14.932538009999998 9.502415798783598 
Si 2.7137510999999996 13.57199721 10.862662681648295 
Si 3.2156785799999996 13.2473538 16.379589255169506 
Si 1.5803792369999998 14.57453268 14.995374327693826 
Si 4.06259568 14.83654104 18.081216963363858 
Si 1.8183060899999999 15.01144677 21.13636670737379 
Si 0.5044231079999999 13.0787523 20.62810621604047 
Si 3.5506824299999997 13.660191269999999 21.97917971780226 
Si 1.2222387 13.38752925 24.37222516183198 
Si 2.60193654 15.254640179999999 25.068677911355408 
Si 2.01212451 12.556788119999998 29.96088343721052 
Si 2.34263232 15.413239619999999 27.466172100356086 
Si 0.054221265 14.941530089999999 27.580425527400955 
Si 2.8317558599999995 13.09181688 27.838763113272705 
Si 1.1532114539999998 15.33126834 33.19377606168807 
Si 2.6713645199999996 13.68501723 33.8947465289727 
Si 3.5208880199999997 13.601921939999999 31.431486784471105 
Si 6.78620223 4.07175066 4.06735992728609 
Si 5.41204299 2.7120732299999997 2.688635233914106 
Si 6.8177233799999994 1.3758468839999998 1.2880772037892985 
Si 5.43012489 0.000348861753 5.430745072107046 
Si 5.42996199 2.71533123 8.1449278275288 
Si 6.787440269999999 1.3575010859999999 6.7875088290642465 
Si 4.07385207 1.357916481 9.503622822612929 
Si 5.42808864 -0.001094119479 10.86176603537508 
Si 6.78638142 1.36321236 12.256050990226884 
Si 5.36718033 2.73706209 13.805869587086644 
Si 7.77042774 2.33841321 20.742635534246332 
Si 5.18626359 2.07440118 17.56250709430806 
Si 7.27908876 3.66599934 17.43632137455039 
Si 5.470898759999999 1.9621793699999999 21.554928084990316 
Si 5.07345534 3.36657285 23.498477854977533 
Si 7.3579323599999995 3.2484214799999998 24.24731543869388 
Si 5.254518689999999 1.361633859 26.947979527227144 
Si 7.2766126799999995 2.5609346099999994 26.50276016617998 
Si 4.480385309999999 2.3756032799999995 28.973193080867315 
Si 7.9334254799999995 2.94254415 34.4183879525312 
Si 7.8855002999999995 3.21053094 30.33706103522 
Si 5.704138979999999 2.45275272 31.032996488816575 
Si 5.81665401 0.14883668009999998 31.878844302015935 
Si 4.079504699999999 4.13809983 1.1764654346109067 
Si 6.852307049999999 6.75955179 1.258712038341455 
Si 4.0725814499999995 4.07259774 6.7873363970886285 
Si 5.4296199 5.4319005 5.430296748970437 
Si 6.787489139999999 6.787456559999999 6.7875778018544946 
Si 6.787652039999999 4.07219049 9.50196747564699 
Si 4.0718483999999995 6.788564279999999 9.502208880412857 
Si 5.4298316699999996 5.42893572 10.864421487799607 
Si 6.79540608 6.78076137 12.241014921952944 
Si 6.03158427 6.14227482 16.534398682879864 
Si 6.642622169999999 4.24862748 15.21819092658815 
Si 5.3073308699999995 8.09805222 13.547049191683161 
Si 8.124898139999999 5.3998580700000005 13.760588950289206 
Si 5.57787519 7.074975059999999 20.606414273507657 
Si 7.7618429099999995 6.22828602 20.6252438452452 
Si 4.91197257 7.453131119999999 18.210609917868037 
Si 4.5789561 5.484891869999999 24.590696474940714 
Si 6.56801397 6.47988507 25.43088851933979 
Si 7.233444179999999 7.04759157 29.75172345078518 
Si 6.11529858 6.18190839 27.80548374197832 
Si 7.872842969999999 4.1856177599999995 28.16824613228468 
Si 4.31300556 4.6246332599999995 28.344126747415626 
Si 6.05557944 4.8032368199999995 34.396006282095904 
Si 5.06534292 6.90775821 31.07555270039924 
Si 6.01316028 4.91000148 32.065346726844986 
Si 7.764400439999999 8.64109566 0.20849129522388363 
Si 8.1567288 10.880433089999999 2.715738091841834 
Si 4.207462649999999 9.625207139999999 1.3329336579267146 
Si 5.42966877 8.12514249 2.6992398004146487 
Si 6.78665835 9.502185059999999 4.067497872866585 
Si 6.10576893 10.505828249999999 0.14365100970412809 
Si 4.07134341 12.2173371 4.075291798164544 
Si 4.0721253299999995 9.50295069 6.787405369878876 
Si 5.42968506 8.145244349999999 8.145100259504419 
Si 5.42947329 10.8610317 5.43115890884853 
Si 6.787619459999999 9.50249457 9.502484771573846 
Si 4.046533739999999 9.50506839 12.211942890863654 
Si 5.42764881 10.86096654 10.86390419187275 
Si 8.032908509999999 10.860608159999998 13.64312828849783 
Si 6.641433 9.22380525 16.891056981249324 
Si 6.06014064 10.01773098 14.737485064958685 
Si 4.50675882 12.12863805 14.701895105191012 
Si 4.09209687 10.061990909999999 21.050702501886477 
Si 4.62569211 11.36888874 19.124430415856242 
Si 6.792685649999999 11.277469259999998 18.02745267336599 
Si 6.100605 9.04275819 21.98186965662191 
Si 6.512774579999999 8.647302149999998 24.40712539369718 
Si 4.4291532600000005 9.01205154 25.335706068798334 
Si 7.374189779999999 9.864702719999999 29.410997866962877 
Si 4.95680265 9.828001350000001 29.31484979735796 
Si 6.09026085 11.88510255 29.058926259144872 
Si 4.50868104 8.200190519999998 27.608462966636534 
Si 4.93099929 9.188846909999999 31.564949133599878 
Si 6.36196176 10.869404759999998 32.355860119367165 
Si 5.415968879999999 13.57766613 2.688111040708226 
Si 6.935223149999999 12.36399597 1.307734449009816 
Si 6.785322569999999 14.93486748 4.068911815066657 
Si 8.147362049999998 13.57665615 5.428986265955736 
Si 4.0723696799999995 14.932880099999998 6.7871639651130105 
Si 5.43009231 13.57553214 8.144755395553181 
Si 6.787391399999999 12.21743484 6.7879916385959795 
Si 4.07227194 12.21738597 9.502105421227487 
Si 6.78830364 14.93143029 9.501657098090877 
Si 4.05992412 14.96357046 12.225737448913138 
Si 6.79996728 12.228479459999999 12.20394204719495 
Si 8.09614629 13.32135927 16.99292979244478 
Si 5.6331308700000005 13.79091852 13.475524408196577 
Si 6.9307596899999995 14.9359752 15.176910711625062 
Si 5.813607779999999 16.151225489999998 17.081352909541987 
Si 6.76292382 14.747939729999999 20.55858164347106 
Si 4.83125562 13.53726693 19.97765831761208 
Si 7.54453431 15.537792959999999 18.496502133443638 
Si 6.061883669999999 16.07221899 22.49464786571643 
Si 4.5833055300000005 14.71918788 23.831754377453116 
Si 5.34176793 12.847597200000001 25.119028048236032 
Si 7.64753598 12.387274380000001 25.020569390157828 
Si 5.12594172 13.30378236 27.422546810524587 
Si 5.50584081 15.55773192 28.104066950959446 
Si 7.80859521 15.2562366 28.469174416134216 
Si 7.830049139999999 14.185397159999999 34.414870340228575 
Si 7.3284148799999995 14.79705408 30.778866243149917 
Si 5.75683713 12.83883318 31.151181364905547 
Si 4.23904896 15.68301831 30.23874032272229 
Si 6.04453482 15.949636739999999 34.29244363753939 
Si 9.50104476 1.355860683 4.071739699466802 
Si 10.86096654 2.71816569 2.7032747086441233 
Si 8.14498371 4.57061562e-05 8.144755395553181 
Si 8.146628999999999 2.71446786 5.430227776180189 
Si 10.85994027 -0.0006176223179999999 5.432745283024221 
Si 10.85971221 2.71533123 8.144789881948304 
Si 9.5021199 1.356691473 9.502346825993351 
Si 8.14441356 2.71808424 10.861903980955576 
Si 10.858848839999999 0.000379623789 10.861386685028718 
Si 12.049794449999998 0.408144321 16.2254350689665 
Si 8.24560704 0.09661094009999999 13.75710582438171 
Si 9.85634595 1.2412002599999998 15.095419359947726 
Si 10.83957777 2.8124847899999996 13.685374122524383 
Si 9.14947398 2.17388421 17.145601063657466 
Si 9.026109810000001 0.970154208 19.210508458085037 
Si 11.2329324 0.467757576 19.996832753300865 
Si 11.227084289999999 3.6465164999999997 17.38976474113337 
Si 10.86055929 2.8100575799999996 23.074467626931455 
Si 8.72811684 1.9561846499999997 22.818199224767127 
Si 10.87222293 3.04201089 25.431336842476394 
Si 9.36301959 1.521661932 26.506346751272847 
Si 9.67702563 0.440667306 28.59691202367246 
Si 10.724765849999999 0.19670175 34.41787065660434 
Si 11.728914029999999 3.16136772 30.63995504359159 
Si 9.12319821 1.059177429 32.76838637783705 
Si 9.78416496 1.7915579099999999 30.55711872250443 
Si 9.539424 4.0849455599999995 1.2511871069254605 
Si 8.16073614 5.434767539999999 2.699991603828346 
Si 9.501289109999998 6.78599046 4.074636556657194 
Si 9.50272263 4.0725814499999995 6.787474342669123 
Si 8.14490226 5.4297990899999995 8.144824368343428 
Si 10.86098283 5.4314769599999995 5.431193395243653 
Si 8.14615659 8.145244349999999 10.863317923155646 
Si 12.213639269999998 6.802052399999999 12.233945210952582 
Si 9.501403139999999 6.78675609 9.502381312388476 
Si 9.484233479999999 4.07491092 12.232910619098872 
Si 10.859598179999999 5.42904975 10.863283436760524 
Si 8.210567249999999 7.4160224999999995 16.813048755479482 
Si 10.83574962 8.11077471 13.717274038013818 
Si 11.49707475 4.6449631799999995 15.186325497493838 
Si 9.7606422 6.4959633 15.086970193142413 
Si 11.11386879 7.242175619999999 19.286309554566962 
Si 8.80819848 7.80041763 19.16746943697064 
Si 11.13442677 4.87665585 19.62482800910135 
Si 8.57562615 4.28731623 19.50619480987577 
Si 10.328397569999998 5.28248862 25.819239814827945 
Si 9.094381199999999 6.41632149 22.546687835958117 
Si 8.37376047 5.378159789999999 24.500893902038563 
Si 10.93182804 4.95905067 22.070844556041095 
Si 11.432207969999999 7.90664472 30.00844017608612 
Si 10.04156325 5.33292246 28.10468770607167 
Si 9.452028149999999 7.595619749999999 28.682472769974396 
Si 8.388486630000001 5.40919224 31.056585183081193 
Si 10.2760578 6.60631176 32.07127838680627 
Si 10.97983467 5.37804576 34.16125739048878 
Si 9.61448832 9.577412279999999 1.4473560683076894 
Si 10.8846522 8.11157292 2.707913128788263 
Si 8.14669416 8.14653126 5.429641507463086 
Si 9.502804079999999 9.50262489 6.787612288249618 
Si 10.860152040000001 8.14477194 8.144893341133676 
Si 8.144739359999999 10.86059187 8.14503128671417 
Si 10.859809949999999 10.86189507 5.429779453043581 
Si 9.492785729999998 9.49980672 12.246222367616625 
Si 10.861829909999999 10.86026607 10.862869600019039 
Si 12.1951827 9.423846450000001 15.189118895498858 
Si 10.94290524 11.093848379999999 16.2616457838464 
Si 11.71990566 8.54408871 21.136711571325023 
Si 12.21003918 10.61291871 20.2006128620869 
Si 8.427370859999998 10.15121124 19.36742155589794 
Si 10.49045049 10.942188479999999 18.60810010806398 
Si 8.154969479999998 10.256900759999999 21.682355314972444 
Si 9.79315704 8.69584635 22.49640667186774 
Si 10.91876346 11.94433299 23.554345815077948 
Si 10.28837304 9.86452353 24.427886203561656 
Si 8.15902569 10.087761689999999 25.428508958076254 
Si 12.14103474 8.94856941 25.424922372983385 
Si 8.84773431 9.6645312 27.638535103184413 
Si 10.67065047 11.086403849999998 28.22694197678524 
Si 11.59579215 9.65521332 33.57098825155127 
Si 11.97717363 9.91485963 31.20218674329352 
Si 8.48954979 10.25701479 31.45252348549657 
Si 9.30527154 8.569387079999998 32.91888500615694 
Si 10.33765029 11.41498944 30.55453224287015 
Si 12.20885001 14.940845909999998 4.076291903623132 
Si 9.50278779 12.2111469 4.073084668876627 
Si 9.52326432 14.989536719999998 1.297874788643946 
Si 10.87833168 13.57945803 2.680230899422457 
Si 8.15042457 16.2968418 2.709223611802964 
Si 9.502217639999998 14.93375976 6.787957152200856 
Si 10.85998914 13.574978279999998 8.144962313923923 
Si 9.502543439999998 12.21921045 9.502381312388476 
Si 8.14526064 13.574473289999998 10.85842085504808 
Si 9.49130334 14.94758997 12.228703278893779 
Si 12.171268979999999 14.76755289 14.932229738222304 
Si 12.140464589999999 13.181770259999999 16.714038315079296 
Si 9.34879842 12.22567758 15.028895103754078 
Si 10.74555189 13.51750716 13.577707596948144 
Si 10.83400659 14.467246739999998 20.326177826732344 
Si 10.357849889999999 13.25588976 18.339244171679496 
Si 11.82091995 15.55888851 24.880002843633562 
Si 8.697247289999998 12.326936219999999 22.861410677857144 
Si 8.35787772 15.98518152 23.19137650640085 
Si 8.837080649999999 14.289262199999998 21.610727072300488 
Si 9.43937082 15.803678339999998 25.252628342945304 
Si 11.8892565 13.25013939 25.24693808774989 
Si 11.52137943 15.274204469999999 28.280844212363608 
Si 8.64935469 13.96595457 26.577492184413067 
Si 10.751041619999999 13.236195149999999 27.255874062891667 
Si 9.06036768 14.69739186 32.4526289440843 
Si 11.00889603 13.422031469999999 31.77445398397645 
Si 16.2927693 2.7025924499999996 2.72966369819279 
Si 16.00938846 0.16312806 0.1693623415886139 
Si 13.575434399999999 -0.01053471042 2.7221456640558204 
Si 12.29245029 1.41133302 1.3589226052919465 
Si 14.934932639999998 1.358755416 4.074222719915709 
Si 15.058019879999998 4.00709565 1.2635746200538989 
Si 13.57499457 -0.000170551413 8.145065773109295 
Si 13.574538449999999 2.7150380100000002 5.4310899360582825 
Si 12.216408569999999 1.357290945 6.7883365025472155 
Si 16.2930951 -2.98022292e-05 10.863938678267875 
Si 14.93012709 1.35773892 9.502381312388476 
Si 13.57603713 2.71723716 10.857903559121224 
Si 12.2205951 1.360141695 12.246291340406874 
Si 16.08785739 2.57106699 13.685236176943889 
Si 14.80024692 1.061878311 15.230226678486328 
Si 13.41507564 2.8476386099999997 17.753768641664184 
Si 14.24190717 2.92547223 21.506474699841498 
Si 16.23665025 1.8467321399999999 20.83636955619259 
Si 15.30841347 0.256412745 19.27948124833247 
Si 13.057265789999999 0.591216228 18.475430946023046 
Si 12.36034701 1.499675319 21.836750905941315 
Si 15.93383544 1.432586583 25.484514863757166 
Si 14.707068119999999 3.39706773 25.503344435494714 
Si 15.233137379999999 2.120958 29.340231784169013 
Si 12.86141112 0.278278812 26.814103341356876 
Si 12.736678589999999 2.689479 26.71847256767882 
Si 15.105945059999998 0.589973301 27.527523397281175 
Si 13.57551585 2.83255407 34.40345534344263 
Si 13.643917559999998 1.8175730399999999 31.019615767508572 
Si 15.24509424 1.83326031 33.023861592913526 
Si 12.215561489999999 4.07398239 4.070946512378956 
Si 13.58942751 5.42199618 2.6878489441052857 
Si 12.25354977 6.73684353 1.1856801993879633 
Si 14.93178867 6.787391399999999 4.071981104232668 
Si 16.28843616 5.43079278 5.430779558502169 
Si 14.933010419999999 4.0723370999999995 6.7873363970886285 
Si 13.57486425 5.429733929999999 8.144962313923923 
Si 12.21712533 6.7872936600000005 6.7875088290642465 
Si 16.2913032 5.430336659999999 10.864800838145968 
Si 12.217597739999999 4.06997505 9.502760662734836 
Si 14.93004564 6.7877497799999995 9.502105421227487 
Si 14.91294114 4.05627516 12.231565649689045 
Si 15.326625689999998 6.153514919999999 14.98927023575693 
Si 16.246017 8.00842464 13.616263386696458 
Si 13.48520409 5.37483663 13.644818121858894 
Si 14.907125609999998 7.03827369 17.15091196850652 
Si 15.63377364 7.12449666 21.160507183960384 
Si 13.674917429999999 4.23660546 19.640277914116776 
Si 15.41447766 5.79676392 19.14891575639408 
Si 13.625803079999999 7.73349831 22.198513190789086 
Si 14.59429245 4.33871118 23.353772941038425 
Si 12.80203407 5.83359561 23.21134412917748 
Si 12.22748577 6.595218269999999 25.346983120003788 
Si 15.356713319999999 8.0772336 29.939708790604556 
Si 14.76220977 4.41618642 29.015231996523124 
Si 14.199732359999999 6.86043576 26.680847910598843 
Si 15.584643 5.00806728 26.955152697412874 
Si 13.398964829999999 7.93508706 28.64788291566531 
Si 12.30960366 4.19078169 28.593739275321074 
Si 12.540628439999999 4.26654648 32.80128639878507 
Si 15.608230919999999 5.865589169999999 30.69703002752134 
Si 14.54433102 5.90602095 32.88581255323329 
Si 13.459107509999999 8.10202698 34.21153855457915 
Si 12.213264599999999 9.50376519 4.070153325291111 
Si 14.870538269999999 9.38734056 1.2495490031570837 
Si 13.58792883 10.87111521 2.6863556831964286 
Si 13.57747065 8.14534209 5.429607021067962 
Si 14.933368799999998 9.50249457 6.787853693015484 
Si 13.57499457 10.85977737 8.145134745899542 
Si 12.217728059999999 9.50080041 9.501829530066496 
Si 13.576900499999999 8.14555386 10.857075885638254 
Si 14.92660845 9.477391679999998 12.221426649522673 
Si 16.2934209 10.85937012 10.861283225843348 
Si 14.14100691 12.014656919999998 16.874675943565563 
Si 13.52169369 10.70575542 13.629368216843469 
Si 15.354677069999997 11.508624359999999 14.868395420848309 
Si 16.00240005 9.876284909999999 18.81205264882563 
Si 13.73468544 10.26072891 18.47267203441315 
Si 12.807996209999999 8.35610211 17.401317683499812 
Si 14.61087567 11.32583427 23.419572982934472 
Si 14.04600363 9.167197499999999 24.017705019960186 
Si 12.768102 11.95022997 22.056739620435497 
Si 15.663861269999998 8.45576433 25.549314800194622 
Si 14.41230057 11.40586704 27.444273239452524 
Si 12.63204792 9.883501379999998 27.54614605064798 
Si 15.903812969999999 10.1685438 32.17515140891889 
Si 13.94223633 11.43826785 31.649578747233477 
Si 12.38874048 12.000794130000001 33.50287762118193 
Si 12.83254524 12.76199325 1.3179148328503367 
Si 14.94307764 12.20782374 4.074808988632812 
Si 14.63101011 14.6324925 1.4444316220011983 
Si 13.57406604 13.5746199 5.427986160497149 
Si 12.21764661 12.21689727 6.787819206620361 
Si 14.93274978 14.93270091 6.7875088290642465 
Si 12.21745113 14.93257059 9.503312445056816 
Si 14.93120223 12.216815819999999 9.503002067500704 
Si 13.577894189999999 13.573854269999998 10.861007334682359 
Si 12.219194159999999 12.209306129999998 12.23632477221612 
Si 14.946433379999998 14.91157278 12.225599503332644 
Si 13.566426029999999 16.16104836 13.613711393457303 
Si 16.261932329999997 15.621507269999999 16.348034203631308 
Si 16.245544589999998 13.416101909999998 13.671476105289525 
Si 15.6190149 13.61265705 17.642032721463348 
Si 12.988521989999999 14.113411649999998 21.237342872296022 
Si 14.91194745 14.24684304 19.798018685412647 
Si 13.08121209 15.842464829999999 22.907312069766807 
Si 15.19462782 16.0953345 23.91348713389632 
Si 15.64517664 14.29440984 25.388090902991255 
Si 14.120595539999998 12.56576391 25.398678226294237 
Si 16.278678449999997 13.74634908 29.619157747929624 
Si 12.647670029999999 14.35552992 30.10896801787175 
Si 14.23358298 12.622029569999999 29.547253614096675 
Si 13.859075879999999 15.82798302 31.52504837444174 
Si 16.16916078 15.38168589 31.262986257896628 
