&CONTROL
  dt          = 30.D0,
  prefix = 'x1.66_y.66_z3.17_struc19-scf',
  pseudo_dir = './',
  outdir='./',
  wf_collect= .true.,
  verbosity= 'high',
/

&SYSTEM
ibrav= 6, celldm(1) =30.783621515, celldm(3) =2.114852743146671, nat=  432, ntyp= 1,
  ecutwfc     = 12.D0, nbnd= 1728,
  degauss     = 0.05D0,
  occupations = "smearing",
  smearing    = "methfessel-paxton",
/
&ELECTRONS
  electron_maxstep=200,
  conv_thr    = 1.D-8,
  mixing_beta = 0.3D0,
  scf_must_converge=.false.,
/
ATOMIC_SPECIES
Si  28.08  Si.pbe-hgh.UPF
K_POINTS {automatic}
1 1 1 0 0 0
ATOMIC_POSITIONS (angstrom)
Si 2.7083265299999995 -0.00271127502 2.711086597715128 
Si 3.02366835 2.49438996 0.07579967181815128 
Si 1.387360656 1.364183244 1.347741880961526 
Si 1.3601400659999998 4.07046375 4.075030761019364 
Si 4.0707081 1.356981435 4.069828667390299 
Si 0.00172423134 -8.808361379999999e-05 5.4314680620602 
Si -0.0001390196745 2.7146633399999995 8.14537619267745 
Si 2.7151846199999996 0.000228022533 8.144997232214406 
Si 2.71290402 2.7142235099999996 5.430021122110395 
Si 1.357284429 1.357336557 6.787939814052224 
Si 2.71539639 2.71502172 10.860214498976717 
Si 1.347727086 1.363380147 12.226160262544852 
Si 1.83940164 3.60812097 15.255018988903226 
Si 3.62719656 1.83039327 14.830411015537512 
Si 2.04151167 3.8765312999999995 17.745719406787295 
Si 3.2865075 3.3624189 21.464871842056734 
Si 1.504730106 2.6963208 19.979725787385526 
Si 2.21926815 0.481900554 19.468508122738562 
Si 3.80855313 2.0637638099999998 23.4025311405542 
Si 2.5098003 0.054927436499999996 23.62391295287453 
Si 0.31343426099999994 0.5334975 24.37604611916421 
Si 3.1912109999999996 3.2125671899999997 25.370989589411828 
Si 2.4727731299999998 1.92331143 30.05962624200253 
Si 0.0311531589 1.68256152 30.018147296774757 
Si 0.554272137 1.213904736 26.66713772587741 
Si 0.165993471 0.0644520366 34.25323717700362 
Si 2.6689698899999996 3.86292915 31.36917579847941 
Si 1.252813401 3.3765749099999995 33.24010360452987 
Si 0.1086795495 5.0880674699999995 0.03011454105819279 
Si 2.7088478099999995 5.4165227400000004 2.721545906495155 
Si 1.225016145 6.62051664 1.3927003722590723 
Si 0.01325616669 8.13079512 2.7234613793810887 
Si 3.03367041 7.5121335 0.2358839402220191 
Si 0.000737980983 5.429391839999999 5.430124474963952 
Si 2.7152497799999997 5.43009231 8.145307290775078 
Si 1.357419636 6.78726108 6.787457500735621 
Si 1.358563194 4.07140857 9.501779042767101 
Si 0.0018000938699999998 5.42991312 10.867208042067448 
Si 1.36630746 6.78312342 12.261644742266288 
Si 2.83123458 5.41336248 13.875740707226166 
Si 1.563338268 6.165911609999999 17.769766170715023 
Si 2.5281754199999997 7.23065859 19.85449657982493 
Si 2.49300531 5.1759846000000005 22.698284796412867 
Si 1.2644314289999998 4.12024599 24.39413286853679 
Si 0.9956073329999999 6.55332039 21.566502148055015 
Si 0.32758049699999997 5.49367218 26.04040602190426 
Si 2.6674875 7.02149499 28.900868498866153 
Si 1.74102633 7.262310059999999 26.799222672723996 
Si 1.6860149999999998 5.9129442 30.716123567800263 
Si 2.72355768 7.29640503 32.359054978902705 
Si 4.04422056 9.42695784 1.3647916567034077 
Si 1.357227414 9.502478279999998 4.07048323546283 
Si 2.7121220999999998 10.868215589999998 2.6975094778527806 
Si -0.00014807137589999998 8.14498371 8.144962781263219 
Si 2.71639008 8.145928529999999 5.42964216164735 
Si -0.000768638763 10.85992398 5.429676612598535 
Si 2.7147936599999998 10.86008688 8.145169486970335 
Si 1.3576444380000001 9.502478279999998 9.501779042767101 
Si 2.7150868799999994 8.14602627 10.863728495997675 
Si -0.0019650952800000002 10.85725242 10.865037632142739 
Si 0.845600868 9.99552771 14.94265221450104 
Si 2.77684227 10.90367892 13.794023051013307 
Si 0.630970344 9.3465504 17.217138462742653 
Si 0.41249537999999997 11.537490239999999 18.23871251825694 
Si 2.93055471 9.5643477 19.935594118916438 
Si 0.517487688 9.80395731 19.749765688219913 
Si 3.73353768 10.39860747 22.200227395118898 
Si 1.9968770699999998 11.92714704 22.758367255281005 
Si 0.898191504 8.41735251 22.989567588689308 
Si 3.10914198 8.63726751 23.69009323010257 
Si 0.38456128799999995 10.449660329999999 21.97874222994501 
Si 3.2735080799999996 8.95207176 25.974294646578596 
Si 2.3296329 9.28942137 29.664577184754283 
Si 0.0473853294 9.320975099999998 28.978899903302125 
Si 1.99339101 10.86240006 26.563922676124577 
Si 0.33317611199999997 9.141117209999999 26.686878120906908 
Si 3.01780395 11.31247647 28.63049743395953 
Si 2.1569589 9.49622292 31.982988395757868 
Si 4.057464329999999 15.05844342 1.179011457338543 
Si 0.016107291359999998 13.587374969999999 2.7120202184922646 
Si 1.5302891159999998 12.43037772 1.2726078015202855 
Si 1.357126416 14.931967859999999 4.076029838603754 
Si 8.44019109e-05 13.5746199 8.144962781263219 
Si 2.713914 13.576167449999998 5.43029672971988 
Si 1.3577242589999998 12.21756516 6.787457500735621 
Si -0.000929983068 16.2939096 10.86059345943976 
Si 4.06422468 14.930778689999999 12.229743161468182 
Si 1.357800822 14.932912679999998 9.502192454181332 
Si 2.71318095 13.57323525 10.860111146123161 
Si 1.381374081 12.21932448 12.240939720603585 
Si 2.6636756399999997 16.28975565 13.613086655385175 
Si 0.061080495299999996 13.547203829999999 13.702211266102992 
Si 0.9508114619999999 15.357381209999998 15.095476633961512 
Si 1.247809113 15.07836609 17.75498671265629 
Si 2.76498315 15.51679515 21.437758943473458 
Si 1.507103559 13.61174481 21.205972943895 
Si 2.07184365 13.07513592 18.955326753874 
Si 1.67984109 12.63786345 25.0319233278406 
Si 2.9240549999999996 14.68988217 25.314145519955158 
Si 3.31410276 15.08059782 29.248547498233847 
Si 2.49267951 16.11090774 27.212875243612608 
Si 3.09527919 16.27581141 31.270129313820068 
Si 2.90598939 13.77723492 33.91675473677133 
Si 2.5089695099999996 13.088249369999998 30.14141280011776 
Si 0.42441151499999996 13.87455138 30.952801602447117 
Si 1.4933482829999998 15.22722411 32.6497176540578 
Si 8.136007919999999 -0.0213540723 2.7156410134618985 
Si 5.43673863 2.73088818 2.703679643210168 
Si 6.7435713 1.285471593 1.3700282012836584 
Si 8.14403889 2.7159828299999997 5.430572337329368 
Si 5.4309231 -0.00079752582 5.42964216164735 
Si 5.4295547399999995 2.71546155 8.145031683165591 
Si 6.78730995 1.3573919429999999 6.787423049784435 
Si 4.07228823 1.359838701 9.502433610839631 
Si 5.42867508 -0.000311492493 10.863487339339375 
Si 6.804007199999999 1.365647715 12.247003088012297 
Si 5.058045 0.6186029759999999 16.292061521499964 
Si 5.4964089 2.85477363 13.620838119401993 
Si 6.63838677 2.73637791 16.881689551045945 
Si 4.37898006 3.3985827 18.112105272648908 
Si 7.26380874 3.65309766 20.630676510042335 
Si 5.958262979999999 0.213837201 19.984755626258657 
Si 4.30096725 1.085515101 18.53082213336184 
Si 7.094783699999999 1.549156194 21.627480331653988 
Si 6.12065799 1.9611530999999998 23.75461986167368 
Si 6.66331047 3.9672666 25.042878730317703 
Si 5.99432904 0.38779485299999994 25.530015180085755 
Si 6.276227489999999 0.5284117620000001 29.15542657717847 
Si 8.11419561 2.94780582 26.6922524692919 
Si 4.11511464 1.4367535649999998 26.64191962960936 
Si 7.59737907 0.689242932 27.258247146324383 
Si 4.54505661 2.12986863 28.819013038848553 
Si 7.80113439 0.454634352 30.950079977303435 
Si 6.73169589 1.9588399199999997 32.66246450599657 
Si 5.1295581 3.9606691499999997 31.584494243391035 
Si 5.042911589999999 0.757783107 34.23342788007175 
Si 4.10291343 4.15627947 1.2995002140159673 
Si 6.7887271799999995 4.07149002 4.074066134386159 
Si 4.07334708 6.785599499999999 4.068726236952351 
Si 4.993031609999999 6.02687646 0.18400976498342336 
Si 6.82995717 6.9005091599999995 1.4066254467283967 
Si 8.141041529999999 5.41601775 2.6995386388776277 
Si 4.07220678 4.07235339 6.787664206442736 
Si 5.42989683 5.4283655699999995 5.4310201996947844 
Si 6.787440269999999 6.78766833 6.787423049784435 
Si 6.788873789999999 4.07336337 9.502089101327773 
Si 4.07375433 6.788417669999999 9.502399159888448 
Si 4.07093616 4.088838869999999 12.231431258076288 
Si 5.42575917 5.42849589 10.859732185660116 
Si 6.7976541 6.80171031 12.222715167426266 
Si 6.600072689999999 4.5590823 15.063850660772895 
Si 4.80610386 6.4018071 15.25315863753919 
Si 6.390599579999999 8.079432749999999 21.08515345808619 
Si 5.053125419999999 4.32274698 20.161110045379072 
Si 4.83537699 6.66546075 19.839682670815005 
Si 7.78389957 7.02418284 17.940401731938586 
Si 5.37467373 7.41745602 17.554034314389174 
Si 6.187984559999999 7.49282985 23.358571726841042 
Si 4.109576039999999 6.50270736 23.83110097330629 
Si 7.74532485 5.85405585 24.021201321949864 
Si 4.58804592 5.08507011 25.73007185362204 
Si 5.54698935 4.19433291 29.304047980594262 
Si 4.56181902 5.898234329999999 28.01193060541743 
Si 6.1207394399999995 7.577130599999999 28.361986720416944 
Si 7.86411153 4.28435145 28.66088317290546 
Si 6.22856295 7.63764795 30.852342628789152 
Si 4.915898459999999 6.233270759999999 32.22231915364603 
Si 5.426101259999999 8.16492267 2.7390848857438757 
Si 6.786365129999999 9.50278779 4.075788681945452 
Si 5.515631099999999 10.71090306 0.08519479071604695 
Si 4.07280951 9.50304843 6.787939814052224 
Si 5.43001086 8.145032579999999 8.144997232214406 
Si 5.43237291 10.86072219 5.4304689844758105 
Si 5.42769768 10.86202539 10.864865377386808 
Si 6.79001409 9.50345568 9.502743669400306 
Si 4.05933768 9.49535955 12.249276850790563 
Si 8.0694144 10.837590389999999 13.629726464807945 
Si 5.46653304 8.14170942 13.655357972490222 
Si 6.30507708 9.90093168 14.954158832197118 
Si 4.79655792 11.82046383 15.025851261614891 
Si 6.969757949999999 10.43842023 21.028550545287825 
Si 5.968932929999999 11.32459623 19.050135771537484 
Si 4.57245639 9.60904746 18.199403982953875 
Si 6.623970119999999 9.53735517 24.570073876242972 
Si 5.89287492 11.25396279 22.930105246942514 
Si 5.50685079 9.263813489999999 26.711958413370212 
Si 6.703400159999999 11.09766024 29.751221326986716 
Si 5.30236242 11.28900258 27.87795085625562 
Si 7.471783169999999 9.901176029999998 33.39186004450358 
Si 6.01128693 9.80081334 31.528304742006895 
Si 4.11258969 10.69327728 32.63073517995439 
Si 4.07448738 12.21650631 4.070758843072317 
Si 5.4109026899999995 13.60434915 2.700492930225476 
Si 6.74529804 12.27168054 1.3259172033852844 
Si 6.78760317 14.933173319999998 4.0747896043610625 
Si 4.07227194 14.93263575 6.787560853589179 
Si 5.42981538 13.57486425 8.144928330312034 
Si 6.7877171999999995 12.21720678 6.78804316690578 
Si 8.14400631 13.57492941 10.85845750046624 
Si 4.0721742 12.21850998 9.501916846571845 
Si 6.78864573 14.931055619999999 9.501779042767101 
Si 6.790551659999999 12.238921349999998 12.222818520279825 
Si 5.69338758 12.73192191 17.173385754736614 
Si 7.46132499 14.284977929999998 16.901981161294415 
Si 5.5231245 13.711341869999998 13.633826127999061 
Si 6.56830719 15.394864499999999 15.012690998261892 
Si 4.9083073200000005 14.63487084 20.98176615357743 
Si 4.4455084199999995 13.22065449 19.100330807415283 
Si 7.733482019999999 15.680346749999998 18.720440168688814 
Si 6.10420509 13.73369175 22.901063095092834 
Si 5.26140936 14.46270183 25.028891644136245 
Si 6.18549219 13.30590006 26.86933035838722 
Si 5.5680849 14.62578102 28.755864445324875 
Si 7.8235983 14.440335659999999 31.859343931951816 
Si 4.1009423400000005 12.8340765 31.836468500364408 
Si 6.17876442 13.256541359999998 30.57828531210564 
Si 8.47769067 2.2444687799999996 0.052388183430288754 
Si 9.50242941 1.35865116 4.065591200394438 
Si 10.862628119999998 2.7373716 2.7001656461892107 
Si 10.36703745 0.614691747 0.2376702220410059 
Si 9.47647944 4.08191562 1.1873864835718253 
Si 8.14514661 8.88047721e-05 8.144962781263219 
Si 10.86011946 -0.0006411858029999999 5.430055573061581 
Si 10.860168329999999 2.7146796299999996 8.144928330312034 
Si 12.20438655 1.381729203 12.215652722433164 
Si 9.50259231 1.358413326 9.504156158398924 
Si 8.14211667 2.7152497799999997 10.861558086072966 
Si 10.8611946 -0.00248039685 10.86235045795024 
Si 8.300569499999998 0.1298169648 13.737799098677986 
Si 10.01543409 0.9008044199999999 15.297118051252346 
Si 10.859972849999998 2.6500571999999996 13.741967663771474 
Si 11.96114427 1.97455977 19.29294607549542 
Si 10.579312439999999 0.203453955 20.34666286846611 
Si 10.88631378 4.02696945 19.708080037285022 
Si 8.85087828 3.2716836 18.49747361261393 
Si 9.46092249 0.9700108559999999 18.116928405814928 
Si 10.50139737 2.2521087900000003 23.381447158428454 
Si 9.15787962 0.658651941 22.25204162570243 
Si 10.28899206 2.52799623 25.770586172216607 
Si 12.18355164 1.2374503019999998 29.72383282079396 
Si 11.062864799999998 0.328052907 26.421502443922236 
Si 11.04014025 0.352606824 32.52755458115274 
Si 9.50715351 3.68514009 30.278872095349335 
Si 9.99187875 1.393901091 30.728732615934288 
Si 9.50596434 6.7853062799999995 4.070931097828246 
Si 9.5027715 4.07269548 6.787664206442736 
Si 8.14482081 5.430255209999999 8.14454936984899 
Si 10.86139008 5.42968506 5.430262278768696 
Si 10.86083622 5.431411799999999 10.86193704653601 
Si 12.22740432 6.7737078 12.238665957825319 
Si 9.50107734 6.78716334 9.501227827548126 
Si 9.508261229999999 4.0646156399999995 12.24173209248086 
Si 9.821469059999998 6.77139462 15.07428929898221 
Si 8.27229006 5.586541469999999 13.616566201454946 
Si 10.665437670000001 5.1527224799999995 16.597055792348375 
Si 8.166926339999998 4.88851497 16.887511761796354 
Si 11.9122254 5.91436143 18.628697285680865 
Si 8.40102993 7.13068686 20.328748373849464 
Si 10.53791955 4.240987469999999 22.048333151340444 
Si 11.66935779 5.9755629599999995 23.163131480763667 
Si 8.483603939999998 5.26437414 21.842488718004937 
Si 11.19504186 6.198296129999999 25.494392896559575 
Si 9.00346671 7.029444509999999 25.704888208305174 
Si 9.305238959999999 7.9317476099999995 29.400579545817045 
Si 11.38172526 6.8940094499999995 29.70236987820517 
Si 11.385520829999999 4.58692191 29.14850193599011 
Si 11.63940048 4.2394725 26.77555486925931 
Si 8.1632448 6.55690419 27.87795085625562 
Si 8.42245128 7.36725024 31.53691747980336 
Si 11.44923102 6.01944822 32.010893666218415 
Si 9.250960679999999 5.24213829 32.08799489497237 
Si 8.489859299999999 7.85375109 34.43072847751317 
Si 10.34175537 5.97080628 34.32155341320518 
Si 9.5203647 9.51243147 1.3970859783450325 
Si 10.87466643 8.14796478 2.7096017617190173 
Si 8.13094173 10.873151459999999 2.7081444864838553 
Si 10.97152677 10.69086636 0.019060333253088497 
Si 8.1448371 8.146042559999998 5.4298833183056505 
Si 9.50259231 9.50251086 6.787629755491551 
Si 10.860103169999999 8.14464162 8.144893879360847 
Si 8.14465791 10.860445259999999 8.14479052650729 
Si 10.86165072 10.85889771 5.430985748743598 
Si 8.145 8.14218183 10.859801087562486 
Si 9.50892912 9.5013054 12.243075679577109 
Si 10.860168329999999 10.860298649999999 10.865313239752226 
Si 9.33055362 8.32510224 16.755220109242654 
Si 11.059916309999998 8.22073221 13.685950417143266 
Si 9.65200419 11.96324568 14.951127148492763 
Si 9.32597613 10.88404947 20.96557420652007 
Si 10.17835038 8.710588799999998 20.444055707468536 
Si 11.19882114 8.218875149999999 18.361426806380972 
Si 11.5759998 8.18217378 22.27732862387285 
Si 10.500029009999999 11.884548689999999 22.842393125223314 
Si 10.88101953 9.791055629999999 23.875749406043163 
Si 8.92867932 9.424693529999999 25.248344203190168 
Si 8.88329538 10.305998820000001 29.24565361833423 
Si 9.352105289999999 11.04292584 27.044892405630357 
Si 11.67856164 11.17746495 27.11548240461018 
Si 10.073182139999998 11.2317921 31.110655860780724 
Si 9.20458305 11.524898069999999 33.27069604918292 
Si 9.502380539999999 12.215985029999999 4.070724392121131 
Si 9.44666874 14.94082962 1.2580316040735486 
Si 10.85824611 13.585697099999999 2.696768782402285 
Si 8.144055179999999 13.57541811 5.429607710696164 
Si 9.502185059999999 14.9325543 6.787457500735621 
Si 10.85976108 13.575304079999999 8.144687173653733 
Si 12.221751689999998 12.21714162 12.252205181641362 
Si 9.50340681 12.2199435 9.501331180401685 
Si 9.49850352 14.93012709 12.240870818701213 
Si 11.77693695 15.435931590000001 15.033017059461551 
Si 9.35213787 13.008232889999999 16.95686152653349 
Si 10.837769579999998 13.575939389999998 13.708860299681863 
Si 11.43812124 13.334489009999999 18.30709765636087 
Si 9.01185606 14.548208039999999 20.32592339585222 
Si 12.17110608 14.799220649999999 20.15139487714466 
Si 9.505231290000001 12.50488818 19.287227217598566 
Si 8.3745261 14.672989439999998 22.646091605366287 
Si 9.601277129999998 13.53418812 24.327849238455194 
Si 12.2054454 13.454464859999998 22.05325963736002 
Si 11.534248530000001 14.64772365 25.239938171100817 
Si 11.078617229999999 14.348671829999999 29.065923005997607 
Si 8.576799029999998 13.285537559999998 26.51420995356338 
Si 9.42226632 15.36752988 27.60447920574227 
Si 11.78343666 14.451934139999999 31.982712788148383 
Si 8.15798313 13.497926579999998 34.10392675456411 
Si 9.82956519 13.516464599999999 30.858819407612092 
Si 16.2934209 2.7052965899999997 2.7198199138407433 
Si 12.27979296 1.441405989 1.3183689999804626 
Si 14.93371089 1.356401511 4.07106890163299 
Si 12.214453769999999 4.07484576 4.074238389142089 
Si 14.89072158 3.93359517 1.3424950010959196 
Si 13.574913119999998 4.3629995699999995e-05 8.144893879360847 
Si 13.57556472 2.71601541 5.429435455940235 
Si 12.217304519999999 1.357808967 6.787698657393922 
Si 14.93235882 1.356266304 9.501400082304057 
Si 13.575727619999999 2.71347417 10.862178203194313 
Si 16.299122399999998 2.68064982 13.785306960363286 
Si 13.89678723 0.0373071951 16.53904039055139 
Si 12.263079419999999 1.78553061 16.888579741283117 
Si 15.430930559999998 0.675531639 14.773084632764242 
Si 12.283067249999998 3.76838199 15.228147246978256 
Si 15.71673861 3.0187487699999997 21.110337103403054 
Si 13.76592966 1.66162887 20.814231177960593 
Si 12.65985495 1.336486986 22.92786593511543 
Si 16.03805886 2.58103647 23.419308753781714 
Si 13.86169857 3.06124938 24.063334835250167 
Si 13.68452853 3.13356069 26.392632546828484 
Si 15.29025012 3.69651051 29.432756734224636 
Si 15.92046135 3.51966627 27.169570397971984 
Si 13.04495055 1.1345952419999998 27.51687043687663 
Si 15.265570769999998 0.454033251 28.196828860431935 
Si 13.77853812 2.66378967 34.17503351781172 
Si 13.09217526 3.33558927 30.239012344827298 
Si 15.798807629999999 1.82715156 32.57657828469022 
Si 13.570710299999998 5.422468589999999 2.6931755481935995 
Si 12.2513832 6.83389935 1.2217134113334156 
Si 14.93100675 6.78828735 4.069828667390299 
Si 14.93232624 4.07240226 6.787491951686807 
Si 13.575304079999999 5.42997828 8.145066134116778 
Si 12.217532579999999 6.78760317 6.787629755491551 
Si 14.932033019999999 6.78911814 9.501503435157614 
Si 13.57813854 8.143973729999999 10.862109301291941 
Si 12.2175 4.073086439999999 9.501985748474217 
Si 14.936512769999998 4.07162034 12.256752707197894 
Si 13.53987333 5.318978219999999 13.806080883928358 
Si 14.5196028 7.151326289999999 15.162104773554965 
Si 15.690935249999999 7.0630182 17.36462298476932 
Si 15.22417788 5.339796839999999 21.232982489624714 
Si 14.21906859 6.349092659999999 19.30772553355415 
Si 13.922525429999999 5.362700579999999 23.269171508513736 
Si 14.749145189999998 6.60691449 25.118085156756432 
Si 14.83942437 7.777921139999999 29.937359816243916 
Si 12.9199248 7.63776198 26.194849636070465 
Si 13.03778295 7.981187759999999 28.51384651324421 
Si 13.068245249999999 4.25085921 32.43791320616714 
Si 15.67202256 5.69342016 30.62407062623165 
Si 14.887105199999999 5.77029267 32.87833416612716 
Si 13.964227829999999 7.842820499999999 34.11812054645268 
Si 12.239377469999999 12.20686263 1.3173768125863097 
Si 15.96757203 11.30739399 0.18421337010493183 
Si 12.21725565 9.501289109999998 4.075547525287152 
Si 15.030815579999999 9.409674149999999 1.2732003578806823 
Si 13.57734033 10.83775329 2.703462602217697 
Si 13.57556472 10.85925609 8.145238388872707 
Si 13.57246962 8.14612401 5.429848867354465 
Si 14.931918989999998 9.502185059999999 6.787491951686807 
Si 12.21728823 9.501403139999999 9.503019277009791 
Si 14.93226108 9.50150088 12.232912648977281 
Si 12.88165959 8.99675523 15.1668934557698 
Si 13.62844206 10.81295991 13.747755423570698 
Si 15.29075511 11.84020731 15.051034906931756 
Si 16.26103638 8.16203934 13.71113406246013 
Si 14.60092248 8.6123601 19.970355128662973 
Si 13.03698474 9.611784179999999 17.545972791811682 
Si 13.184718749999998 11.99035224 17.275084962637273 
Si 14.412544919999998 10.751041619999999 22.311814026009895 
Si 14.558894279999999 10.942758629999998 24.5972901276798 
Si 15.55341507 8.742777839999999 24.601596496578033 
Si 13.92737985 8.49745044 22.232266779721748 
Si 12.616800479999998 9.89446455 25.435791828592425 
Si 14.971503689999999 11.21454099 29.111501614416497 
Si 12.81765618 10.29228264 28.95154584806055 
Si 12.395810339999999 10.80067725 31.256280031443353 
Si 15.312225329999999 12.06237033 31.22734123244723 
Si 14.006076839999999 9.01270314 31.99594195340375 
Si 16.1539785 10.22577057 32.514359866848565 
Si 14.110854119999999 12.93935877 0.05015403924588578 
Si 12.21727194 14.93234253 4.070448784511644 
Si 14.93242398 12.213199439999999 4.067279297002545 
Si 15.02596116 14.946270479999999 1.2594268675965758 
Si 13.57962093 16.28296272 2.6936578615102014 
Si 13.57545069 13.57564617 5.430021122110395 
Si 12.217516289999999 12.21696243 6.787595304540365 
Si 14.933108159999998 14.932668329999998 6.788008715954595 
Si 12.21789096 14.93234253 9.50253696369319 
Si 14.93162577 12.21820047 9.501916846571845 
Si 13.57784532 13.57237188 10.861144674658735 
Si 14.92704828 14.91670413 12.238665957825319 
Si 13.46682897 16.257143069999998 13.554933449783443 
Si 15.242862509999998 15.111174149999998 18.329869735094725 
Si 14.16462741 12.627486719999998 21.054492111530777 
Si 14.4037809 15.73685676 20.415599221789016 
Si 14.79400785 12.78952335 18.73036204263034 
Si 15.627958109999998 14.26821552 21.827502554239086 
Si 12.96721467 15.24910158 23.51301534100725 
Si 15.231182579999999 14.860976039999999 24.062129051958664 
Si 15.642814589999999 12.949963559999999 25.451053599967764 
Si 12.98526399 15.36269175 30.087531512463077 
Si 15.18327369 14.706644579999999 29.266599796655235 
Si 12.321120689999999 13.40466633 27.189758655366894 
Si 14.698971989999999 13.079974049999999 27.656362338228174 
Si 13.358304989999999 12.68870454 32.3105824905842 
