&CONTROL
  dt          = 30.D0,
  prefix = 'x1.66_y.66_z3.17_struc3-scf',
  pseudo_dir = './',
  outdir='./',
  wf_collect= .true.,
  verbosity= 'high',
/

&SYSTEM
ibrav= 6, celldm(1) =30.783621515, celldm(3) =2.1190173891003106, nat=  432, ntyp= 1,
  ecutwfc     = 12.D0, nbnd= 1728,
  degauss     = 0.05D0,
  occupations = "smearing",
  smearing    = "methfessel-paxton",
/
&ELECTRONS
  electron_maxstep=200,
  conv_thr    = 1.D-8,
  mixing_beta = 0.3D0,
  scf_must_converge=.false.,
/
ATOMIC_SPECIES
Si  28.08  Si.pbe-hgh.UPF
K_POINTS {automatic}
1 1 1 0 0 0
ATOMIC_POSITIONS (angstrom)
Si 1.3181509619999998 1.3357034369999998 1.3034814120063503 
Si 4.0422006 4.052398139999999 1.157439301446217 
Si 1.3605310259999999 4.07100132 4.071146478080292 
Si 4.072027589999999 1.355505561 4.070110914282239 
Si 0.0010893579119999998 -6.306771239999999e-06 5.430289444232009 
Si -0.00031651469999999997 2.7157221899999997 8.145192534795134 
Si 2.7157384799999997 -0.000586229859 8.14501994082879 
Si 2.71551042 2.7152660699999998 5.43025492543874 
Si 1.3574571029999998 1.357774758 6.787430320374155 
Si 2.71769328 2.71590138 10.864479512103351 
Si 1.345086477 1.3502259719999998 12.24840697182181 
Si 2.2912536599999997 2.6658096299999996 16.60737114817439 
Si 2.7687461399999997 0.0172144575 13.688600064567833 
Si 3.81624201 1.562041584 15.13624921665984 
Si 3.16122111 1.82721672 20.689011339408285 
Si 2.13698736 0.7717468949999999 18.768109531605916 
Si 1.75265739 2.1934647899999997 22.602042862345456 
Si 0.107906589 0.563808303 23.14309042803505 
Si 3.15172404 2.6812525499999995 24.462605819514593 
Si 1.5875468369999999 3.60603585 25.983607407302042 
Si 1.9934398799999997 3.1600482299999997 29.64981392155022 
Si 0.18872127899999996 1.7927144999999998 26.759900549116082 
Si 1.141705827 1.0836433799999998 28.804828381131976 
Si 2.5343819099999996 2.73843045 34.36280284166396 
Si 4.03588008 2.5334370899999996 30.63725852178733 
Si 3.9456009 1.4259646979999998 32.88560560253416 
Si 0.5629384169999999 3.63785022 33.25257489377099 
Si 2.71590138 5.42413017 2.6871879514478914 
Si 1.296108963 6.7303926899999995 1.27544524811372 
Si -0.00520439436 8.151450839999999 2.6798250928437324 
Si 0.0009344595599999999 5.4301086000000005 5.429668105953176 
Si 2.7147284999999997 5.4300760200000004 8.144916384448987 
Si 1.3573153799999997 6.787423979999999 6.7874648391674235 
Si 1.358297667 4.07386836 9.502471486110354 
Si -0.0048985658999999996 5.43362724 10.860026587771722 
Si 1.352408832 6.80267142 12.237084807629762 
Si 2.71262709 8.14371309 10.864203361757204 
Si 3.8035358099999996 6.96190617 14.734139793875736 
Si 4.07577429 6.379163999999999 16.981934573930275 
Si 0.9540271079999999 4.2738444 15.08809550005036 
Si 2.5162511399999996 5.295895289999999 13.604857472098589 
Si 3.8720026799999996 4.111009559999999 17.757917046604895 
Si 1.70748522 5.67981801 20.916835374980018 
Si 3.3476438699999997 4.13821386 20.11365209320986 
Si 0.05492906549999999 6.493194 19.387549276808144 
Si 3.08464182 7.29348912 21.94173286591339 
Si 0.55069974 4.2671492099999995 22.39562047860016 
Si 0.17918837099999999 4.94435709 24.643553333827775 
Si 2.7417536099999995 4.5278380799999995 27.84413584567791 
Si 2.5131071699999996 6.91049493 28.231781894082534 
Si 0.237395799 7.4243304 28.703722835648705 
Si 0.721446633 4.49234217 31.07115975317167 
Si 2.37548925 6.00561801 31.947868064603615 
Si 1.023189561 7.82299557 32.734620400777985 
Si 3.47907159 7.341463169999999 30.32286135269834 
Si 2.78482437 7.932171149999999 34.45375986192631 
Si 3.99166902 9.612549809999999 1.2248717640961226 
Si 1.35536058 9.5061924 4.069213425657259 
Si 2.6937144 10.879227629999999 2.7000703650956748 
Si -0.00021864275099999997 8.1443484 8.14529609117494 
Si 2.7151520399999995 8.145 5.430669150957961 
Si -0.000810039798 10.86007059 5.431117895270451 
Si 2.7147610799999997 10.860217200000001 8.145848391867235 
Si 4.07512269 9.502022160000001 12.229835861043387 
Si 1.356473187 9.50102847 9.502851192836307 
Si -0.00024557012099999997 10.861829909999999 10.863236835545687 
Si 0.0899546832 8.186246279999999 13.818114576911036 
Si 1.025027073 10.113190379999999 15.103387325468281 
Si 2.82962187 10.954894679999999 13.73192115011973 
Si 1.1947444379999999 11.58443802 17.32301477021577 
Si 1.15041609 10.71536652 21.3133872720479 
Si 2.9448736199999996 12.20656941 20.7215970802537 
Si 3.0953117699999995 8.27388648 18.040384331920574 
Si 0.776036052 8.41863942 18.188884180561423 
Si 2.43009333 9.3072915 22.91347141521336 
Si 1.6576052399999999 8.81080488 25.01614918836736 
Si 0.593882901 9.73695654 29.327477430009484 
Si 0.606002661 10.68136929 26.01584796021477 
Si 3.4603869599999997 8.31141864 26.52210058228977 
Si 3.98441997 10.59508116 27.097943091593955 
Si 1.8599922 11.20883949 27.933435963863374 
Si 1.63802466 9.72829026 31.4258748727982 
Si 3.91908078 9.29543238 31.550280603737672 
Si 0.6063854759999999 11.64179511 32.22829874111645 
Si 2.7155267100000002 16.2958644 2.6956795745919284 
Si 0.00302057325 13.592327130000001 2.696528736906332 
Si 1.5209842679999999 12.45821733 1.2512579296705213 
Si 1.35674523 14.930990459999999 4.07162974118605 
Si 0.00035855593199999995 13.574668769999999 8.145192534795134 
Si 2.7146959199999996 13.57603713 5.430151369058935 
Si 1.357548327 12.21719049 6.7874648391674235 
Si 1.3576265189999999 14.93226108 9.501573997485375 
Si 2.71046052 13.576623569999999 10.86095859518997 
Si 1.380711078 12.20875227 12.234530416927896 
Si 0.39672177299999994 13.526320049999999 16.202672815895152 
Si 3.98318193 12.7200465 15.035316265142908 
Si 2.4478820100000003 14.628745799999999 15.513263476737785 
Si 3.3395314499999995 15.14947194 17.789501742445523 
Si 0.20564007299999998 15.982868339999998 19.493280340589383 
Si 3.08348523 12.79947654 18.396825391210527 
Si 2.79231777 14.08079907 22.16959142027839 
Si 2.5671411 13.424784479999998 24.461259586577125 
Si 0.36124704 12.58184214 24.67033991740409 
Si 0.595169811 15.09185421 21.643732123626915 
Si 0.384733962 16.196853779999998 25.373004473176533 
Si 2.5321176 15.424626329999999 25.806215328695508 
Si 2.50649343 15.324882659999998 28.13716588173373 
Si 1.2659936399999998 13.39788969 28.690433100240348 
Si 0.0612701109 16.1782506 34.3397788065539 
Si 3.25500264 13.442410259999999 34.39386975560556 
Si 3.88363374 13.936420799999999 31.067535279878484 
Si 0.70402122 15.394115159999998 32.05860435340878 
Si 2.99240784 15.501547709999999 32.626542059054486 
Si 1.559866869 13.37985666 30.998117986615643 
Si 5.42457 2.72813517 2.692293280972294 
Si 6.91227054 1.484682003 1.3484870146697474 
Si 5.4309231 -0.001054946916 5.431186932856988 
Si 5.42991312 2.71482624 8.145158016001865 
Si 6.78724479 1.3574978279999999 6.7878445458933765 
Si 4.07284209 1.357115013 9.50147044110557 
Si 6.780207509999999 1.3631895539999999 12.204430029197813 
Si 5.442489 2.6433131399999996 13.688358433014955 
Si 5.6391744599999996 0.846255726 16.63377802502475 
Si 7.053309359999999 3.5624600999999996 15.251369392210101 
Si 7.98485301 1.3651313219999999 15.761833307063853 
Si 5.236681139999999 0.601923645 20.69760651893213 
Si 7.14811716 3.90674925 19.84540655072078 
Si 7.16083965 1.92723732 21.155325717671698 
Si 6.05813697 3.10718718 17.70482714255803 
Si 7.50110517 0.8424666719999999 24.437476138015164 
Si 4.160726639999999 0.7970631839999999 25.50510789501487 
Si 6.92018748 2.88839619 23.271672932960005 
Si 5.2476606 0.8358415289999999 29.52803161889915 
Si 7.78995945 1.2315125969999998 26.724518786015924 
Si 5.51737413 1.66876389 27.323488886809965 
Si 5.0487597 3.96545841 27.675338946595218 
Si 7.23675105 1.181341026 30.780856701784053 
Si 7.6328749799999995 3.4887152699999997 30.84930746883538 
Si 5.5566330299999995 0.322077735 34.33363446135212 
Si 6.78393792 4.07590461 4.070904846527413 
Si 4.07232081 6.78949281 4.068039786686132 
Si 6.80281803 6.76942353 1.1429966383427002 
Si 4.07228823 4.07279322 6.787223207614544 
Si 5.430222629999999 5.43005973 5.4308072261310345 
Si 6.787391399999999 6.787440269999999 6.78732676399435 
Si 6.787586879999999 4.07149002 9.503472531115138 
Si 4.07313531 6.78913443 9.501608516278642 
Si 4.0755951 4.06546272 12.245024130081504 
Si 5.42779542 5.432877899999999 10.864583068483157 
Si 6.8015637 6.76334736 12.231699875879883 
Si 8.145781920000001 8.144609039999999 10.861925121401486 
Si 8.11859391 5.34253356 13.858501565035114 
Si 5.9482120499999995 7.93251324 17.323739664874406 
Si 5.3436087 5.23164753 20.54358366336833 
Si 7.844514659999999 7.603162019999999 20.683074106966117 
Si 5.87243097 7.334849429999999 19.533425697160585 
Si 4.93111332 6.03627579 22.689789634833843 
Si 7.05453111 7.027017299999999 22.867941126892283 
Si 5.01187914 4.102424729999999 24.041407504053037 
Si 6.01755858 5.15200572 25.94218485537991 
Si 7.484456789999999 7.31899926 30.133353177654584 
Si 5.6089728 4.17765195 29.939357559485924 
Si 5.69151423 7.513436699999999 26.125893873154567 
Si 5.57122887 5.25785814 34.25924646185862 
Si 5.482627559999999 6.32423412 30.71993103166525 
Si 4.45301811 6.86942784 32.91183988541818 
Si 7.5872304 4.27565259 33.138421244432244 
Si 8.1464661 10.86024978 2.6699181991756884 
Si 5.43258468 8.15079924 2.6729800161385997 
Si 6.786707219999999 9.50158233 4.067280373234226 
Si 4.0723696799999995 9.50290182 6.787188688821275 
Si 5.4301086000000005 8.14486968 8.14505445962206 
Si 5.431688729999999 10.860445259999999 5.429599068366639 
Si 6.7872285 9.50278779 9.502609561283426 
Si 5.426117549999999 10.86240006 10.863029722786077 
Si 6.79007925 12.23133021 12.221862019798376 
Si 7.9511327099999995 8.74979883 16.32003671300786 
Si 4.457774789999999 9.62898642 16.426872378173694 
Si 4.9301685 11.89142307 17.12177020546074 
Si 5.483458349999999 8.153959500000001 13.559016514638094 
Si 6.4552057199999995 9.843737489999999 14.839491150931027 
Si 4.746058919999999 10.72382103 21.12847009650885 
Si 6.89093064 11.44442547 20.635610766222005 
Si 4.09240638 8.60299335 20.253694837499943 
Si 7.01843247 12.07491363 18.345806614759766 
Si 4.6074473099999995 10.207574639999999 23.412509609495256 
Si 6.4711699199999995 8.87286978 24.26571062271139 
Si 4.3214112 11.92159215 25.069791393106524 
Si 6.96175956 8.267012099999999 28.00803107611648 
Si 7.731331739999999 11.931431309999999 28.072443144355397 
Si 5.984587619999999 10.40072517 28.38804847120878 
Si 4.8557720699999996 11.517844499999999 34.25790022892116 
Si 7.756027379999999 9.25726491 31.687561844566275 
Si 5.75957385 10.59447843 30.730977045511153 
Si 4.0721742 12.216815819999999 4.067245854440958 
Si 4.23746883 15.10239384 1.2464529136475537 
Si 5.44950999 13.59084474 2.6860315718733982 
Si 6.82627563 12.29872194 1.0790022475023318 
Si 6.78587643 14.930794979999998 4.0751851768927 
Si 4.072516289999999 14.932863809999999 6.7876719519270345 
Si 5.42966877 13.57556472 8.144985422035523 
Si 6.787375109999999 12.21764661 6.787257726407812 
Si 8.1406017 13.57670502 10.859094580353474 
Si 4.07297241 12.218575139999999 9.502609561283426 
Si 6.78835251 14.93382492 9.500434877307516 
Si 4.07973276 14.94288216 12.227385026721327 
Si 5.42777913 16.28814294 10.856643746031414 
Si 5.54089689 13.705738109999999 13.612934869723404 
Si 6.733471499999999 15.38277732 15.01688322953756 
Si 7.41981807 14.41138833 18.430550252233797 
Si 5.47428708 15.79421385 18.586022897114873 
Si 5.0314434299999995 15.01771842 22.123715944024628 
Si 7.8068358899999994 12.825035549999999 23.969573895261405 
Si 5.62321026 15.71690151 24.28448884624942 
Si 6.9709634099999995 13.508303309999999 21.831859546939935 
Si 6.03619434 13.607574569999999 25.34162689009552 
Si 4.69059147 14.893311689999999 29.04877269316007 
Si 6.5995677 13.96810485 27.60561098419296 
Si 7.30282329 16.17745239 32.78978143242096 
Si 7.74121977 13.90252131 31.87158153148035 
Si 5.59403487 12.609877229999999 31.946728944425754 
Si 12.12567327 1.285290774 1.3520148353417827 
Si 8.14161168 -0.017731665 2.69920049150531 
Si 9.5078214 1.355266098 4.069558613589944 
Si 10.868052689999999 2.7150380100000002 2.7232531866547616 
Si 9.49535955 4.0350981599999995 1.4112249214351447 
Si 8.14482081 0.00047791113299999993 8.144640234102837 
Si 8.144055179999999 2.71402803 5.428943211294539 
Si 10.859744789999999 2.71487511 8.144985422035523 
Si 12.202985609999999 1.355021748 12.222586914457013 
Si 9.50166378 1.3554241109999998 9.50257504249016 
Si 8.14183974 2.71850778 10.86140733950246 
Si 10.861634429999999 0.00243423099 10.860613407257285 
Si 8.195189489999999 0.1541273463 13.566127386051393 
Si 10.79579025 2.67615378 13.661502811852104 
Si 9.147079349999998 0.593878014 21.25971054851547 
Si 11.15403993 1.87957278 20.920528885859742 
Si 11.877495119999999 3.64544136 19.420514724379505 
Si 10.82449323 1.6864548299999997 24.735856587027595 
Si 11.273250149999999 3.1632247799999997 22.961038312337273 
Si 9.526131359999999 0.0403529364 23.56642890867925 
Si 10.821447 3.66169878 28.198298664612143 
Si 9.47704959 2.84364756 26.42803687063326 
Si 8.5362858 2.4329929499999996 34.45583098952241 
Si 10.402305299999998 0.408802437 34.48268661068526 
Si 10.870007489999999 2.2142834099999997 31.659049321326542 
Si 10.62000486 0.0631991727 30.653033610311006 
Si 12.125868749999999 3.73256028 33.046428660371845 
Si 10.87693074 8.11352772 2.725017096990779 
Si 8.13123495 5.44333608 2.7015650288441986 
Si 9.503667449999998 6.787391399999999 4.073321162056204 
Si 8.1456516 8.145179189999999 5.429978775092592 
Si 9.502185059999999 4.07228823 6.7876719519270345 
Si 8.1448371 5.42999457 8.145572241521085 
Si 10.859402699999999 5.428414439999999 5.43135952682333 
Si 9.50264118 6.788433959999999 9.502747636456501 
Si 9.49672791 4.07686572 12.246819107331461 
Si 10.86007059 5.43041811 10.86382365503125 
Si 9.214796879999998 6.95384262 15.304769965396384 
Si 10.18848276 4.17716325 15.837671095874624 
Si 8.810397629999999 5.69312694 19.580750962731624 
Si 10.970956619999999 5.59494711 20.451625598101195 
Si 10.1656116 6.076414349999999 17.330677942321365 
Si 8.167317299999999 4.9462467299999995 23.377680147087396 
Si 10.564846919999999 7.3596102299999995 23.88296624295088 
Si 10.359674369999999 5.298224759999999 22.690445491905944 
Si 8.36242263 4.861864529999999 25.70365999389496 
Si 10.794014639999999 7.608163049999999 29.023090710968347 
Si 9.738601829999999 6.7400689499999995 26.011291479503335 
Si 11.42908029 5.87117664 27.54789556184812 
Si 9.83002131 4.10610627 30.326692938751137 
Si 9.658031489999999 6.46888932 30.77702511573126 
Si 9.10009899 6.30263358 33.11936687054806 
Si 10.84987305 5.26781133 34.42365947419623 
Si 9.607760549999998 9.423846450000001 1.2874784994470996 
Si 11.36721087 10.45159884 0.1430337977267882 
Si 9.50311359 9.502413119999998 6.787568395547229 
Si 10.860233489999999 8.145114029999998 8.14529609117494 
Si 8.14527693 10.860038009999998 8.144640234102837 
Si 10.86031494 10.860347519999998 5.430496556991619 
Si 9.50891283 9.48672585 12.232114101399103 
Si 10.86308424 10.859533019999999 10.862408384507244 
Si 9.50194071 12.217516289999999 9.502816674043038 
Si 11.606266619999998 10.153377809999999 15.03818132498419 
Si 10.7373906 8.197144289999999 13.87458732269821 
Si 8.188738650000001 10.9297755 13.549592884075809 
Si 9.4649787 12.135023729999999 15.183367369471267 
Si 8.66191428 9.82589994 20.997989057954133 
Si 12.13497486 9.88296381 20.168744087266298 
Si 10.11390714 10.9496493 19.48982846126254 
Si 8.82355995 10.82325519 17.37531074201746 
Si 11.92414968 10.72127979 22.382296224398544 
Si 9.911862269999999 9.55432935 23.02834995921074 
Si 8.275678379999999 10.50817401 24.46978572851443 
Si 11.50854291 11.404319489999999 26.35855053978388 
Si 11.830172669999998 9.48032388 29.989513366104976 
Si 9.247132529999998 10.74902166 26.59600531867751 
Si 9.216018629999999 8.54148231 27.44433918204279 
Si 8.172888480000001 8.289573749999999 34.0728794970023 
Si 9.79610553 10.27271835 30.997358573163737 
Si 10.379792519999999 11.765224439999999 32.914670426466195 
Si 9.501973289999999 12.214958759999998 4.068108824272669 
Si 9.41210136 14.84318736 1.2014058884322343 
Si 10.86384987 13.57786161 2.684139942002288 
Si 8.145781920000001 13.577926769999998 5.429978775092592 
Si 9.50246199 14.93263575 6.787706470720303 
Si 10.860282360000001 13.574733929999999 8.144571196516301 
Si 10.859875109999999 16.290325799999998 5.430600113371424 
Si 12.20617845 12.23901909 12.22735050792806 
Si 9.495815669999999 14.93981964 12.23270092088467 
Si 12.07165563 14.96809908 15.065796359598945 
Si 8.51323545 14.321092859999998 16.204812981077794 
Si 10.778343659999999 13.566702959999999 13.682559275745856 
Si 10.05482331 16.12354878 15.958521391107446 
Si 12.00217878 15.96825621 17.262710438375798 
Si 8.572596209999999 14.67820224 20.46960988939406 
Si 10.44193887 13.29721749 20.16605162139136 
Si 12.07567926 14.81541291 19.343468777804336 
Si 9.888958529999998 13.969880459999999 23.980827021866915 
Si 11.35167021 13.053079259999999 22.320438546861492 
Si 11.39755914 13.68140085 25.7580961308793 
Si 8.459820539999999 15.67837566 30.013918152945767 
Si 8.94105972 12.23082522 30.05903421574762 
Si 11.01244725 13.145704199999999 29.49071680337596 
Si 10.7325036 14.745300749999998 27.731949767555463 
Si 8.442080729999999 15.4681695 27.685970734921895 
Si 12.21002289 16.19027262 28.906037482995053 
Si 8.52939513 13.299156 34.10360122301121 
Si 11.551320449999999 13.574245229999999 31.82950312248612 
Si 11.66649075 15.800843879999999 32.69903152491822 
Si 16.28833842 2.71396287 2.70962516707238 
Si 14.93470458 1.35803214 4.069316982037065 
Si 14.83553106 4.02519384 1.3881422043765361 
Si 13.57496199 -0.000286992333 8.144433121343228 
Si 13.573854269999998 2.7156407399999996 5.430393000611814 
Si 12.21712533 1.357613487 6.78777550830684 
Si 16.2930951 -0.00198637002 10.86427239934374 
Si 14.93170722 1.357533666 9.502195335764206 
Si 13.576134869999999 2.7173349 10.86050985087748 
Si 16.13700432 2.65926105 13.679141915212279 
Si 14.217749099999999 0.49005858599999996 17.017903156515995 
Si 14.2597773 1.8005988599999998 14.966485791365631 
Si 12.58146747 3.66521742 14.937524523813408 
Si 12.923052479999999 0.23657641199999999 21.062608238952656 
Si 14.242281839999999 3.3577599599999997 19.462247945441053 
Si 14.51577465 0.9994208219999999 19.349129859900362 
Si 14.14765323 1.3351023359999998 22.990172173855843 
Si 13.53376458 3.58466337 23.21071274404793 
Si 13.07073762 0.8982371159999999 25.092401202697353 
Si 14.166533339999999 2.34377262 26.668149596608554 
Si 12.712325039999998 2.22982407 28.58735998354078 
Si 13.571769149999998 2.59313994 34.493974256084044 
Si 13.12206741 2.95324668 30.88817563005565 
Si 15.32307447 1.7175035699999999 33.131793636124705 
Si 15.84727038 0.426459168 30.460039037147133 
Si 12.215431169999999 4.074161579999999 4.074046056714842 
Si 13.56254901 5.449086449999999 2.7080614657373197 
Si 12.248825669999999 6.876171899999999 1.2250685212177526 
Si 14.93069724 6.78662577 4.069386019623601 
Si 13.57525521 5.4298316699999996 8.14460571530957 
Si 14.932912679999998 4.07240226 6.787637433133765 
Si 12.21732081 6.787684619999999 6.787361282787618 
Si 12.21813531 4.07093616 9.502057260591133 
Si 14.93069724 6.784719839999999 9.50098717799981 
Si 14.92724376 4.07039859 12.220584824447444 
Si 12.20329512 6.807362939999999 12.250719730970795 
Si 13.85231553 5.676348239999999 16.82604770352998 
Si 13.612412699999998 5.441853689999999 13.61880306457904 
Si 15.442675649999998 6.19142175 15.000624877908123 
Si 12.234588209999998 7.3690747199999995 17.48680644427454 
Si 14.674178609999998 4.51122228 21.449425836318845 
Si 14.44945806 6.811321409999999 20.860949448678408 
Si 12.32244018 7.486330139999999 19.86525485685014 
Si 15.5574387 4.70582262 18.067619659809377 
Si 16.19546913 7.294727159999999 24.74013691739288 
Si 14.591718629999999 7.92205506 23.02168783210993 
Si 12.7580022 7.7192282699999994 24.554632922368263 
Si 14.273933309999999 4.3061963400000005 25.31256206616349 
Si 13.349703869999999 6.23696859 26.28271275097311 
Si 15.1487226 7.60907529 26.84260757778727 
Si 12.94497882 5.259829229999999 30.030728805267497 
Si 16.0599852 5.557789619999999 34.37277877291854 
Si 15.29686386 5.98302378 30.246609338368348 
Si 15.007211369999998 7.11071532 32.41542511942468 
Si 12.21833079 9.50441679 4.072492711017762 
Si 14.977889369999998 9.60412788 1.1464278063935833 
Si 13.59325566 10.85699178 2.7066634546099477 
Si 13.574717639999998 8.14480452 5.430082331472398 
Si 14.9325543 9.502804079999999 6.7874648391674235 
Si 13.57533666 10.85977737 8.144916384448987 
Si 12.217793219999999 9.502673759999999 9.50233341093728 
Si 13.57846434 8.14514661 10.861579933468802 
Si 14.92344819 9.486253439999999 12.255241692888962 
Si 14.931902699999998 12.21745113 9.50254052369689 
Si 13.07005344 9.61062759 16.80543998394872 
Si 13.38389658 10.77102945 13.612417087824376 
Si 15.32923209 11.476028069999998 14.826339490695748 
Si 16.25728968 10.37272266 19.150336129467394 
Si 13.86093294 10.87888554 18.860205672046124 
Si 14.068695599999998 10.23906321 23.212783871644035 
Si 15.775398899999999 11.76444252 22.648815827224198 
Si 13.09173543 9.980035919999999 25.328854936586197 
Si 14.84419734 9.928478069999999 26.867806296873237 
Si 12.29041404 11.360450519999999 28.598026290660727 
Si 14.67201204 11.433185369999999 28.733616110619174 
Si 13.1595507 8.79370038 34.28489392525708 
Si 13.628002229999998 9.18591471 31.78079710518434 
Si 14.78451078 11.28377349 31.19159582288527 
Si 16.1329644 11.506522949999999 34.46487491335875 
Si 12.339772739999999 12.23318727 1.2878374948970914 
Si 12.21934077 14.932912679999998 4.070697733767802 
Si 14.93371089 12.212319779999998 4.071388109633171 
Si 14.865928199999999 14.8481721 1.1915300616781326 
Si 13.57049853 16.272309059999998 2.6923554148001774 
Si 13.57520634 13.574799089999999 5.429840699919518 
Si 12.21802128 12.21666921 6.787568395547229 
Si 14.932994129999999 14.93235882 6.787292245201081 
Si 12.215708099999999 14.932228499999999 9.5014359223123 
Si 13.57564617 13.574603609999999 10.861856083814947 
Si 14.933352509999999 14.92439301 12.257416376864875 
Si 13.46669865 16.27814088 13.656117880102228 
Si 16.232740649999997 13.350941909999998 13.704685822230928 
Si 15.26635269 14.63967639 17.810178499613322 
Si 14.9869629 13.625672759999999 21.52467680564405 
Si 13.94562465 13.29141825 19.352374626467597 
Si 13.13060337 14.5823193 22.585819029509288 
Si 13.25815407 14.838642449999998 24.940691106282543 
Si 15.364125269999999 14.26005423 25.790578315344902 
Si 14.230145789999998 15.09591042 29.674011595631395 
Si 15.306703019999999 13.64381982 28.08328204544169 
Si 14.1174027 13.03374303 34.33111458944352 
Si 13.87433961 13.43288061 31.74410362793999 
