&CONTROL
  dt          = 30.D0,
  prefix = 'x1.66_y2.00_z3.15_struc33-scf',
  pseudo_dir = './',
  outdir='./',
  wf_collect= .true.,
  verbosity= 'high',
/

&SYSTEM
ibrav= 6, celldm(1) =30.783621515, celldm(3) =2.104478273085783, nat=  432, ntyp= 1,
  ecutwfc     = 12.D0, nbnd= 1728,
  degauss     = 0.05D0,
  occupations = "smearing",
  smearing    = "methfessel-paxton",
/
&ELECTRONS
  electron_maxstep=200,
  conv_thr    = 1.D-8,  mixing_beta = 0.3D0,  scf_must_converge=.false.,
/
&IONS
/
ATOMIC_SPECIES
Si  28.08  Si.pbe-hgh.UPF
K_POINTS {automatic}
1 1 1 0 0 0
ATOMIC_POSITIONS (angstrom)
Si 2.70930393 0.00470680002 2.6786271031327282 
Si 2.73448827 2.9339104499999995 0.03880442605353282 
Si 1.363818348 1.3563738179999998 1.162662085905143 
Si -0.000247795335 0.000200541303 5.4301924853589405 
Si -0.00030590013599999995 2.7152497799999997 8.145323009989479 
Si 2.71546155 -0.000516370194 8.145357291940549 
Si 2.7146796299999996 2.7146633399999995 5.430295331212146 
Si 1.357193205 1.35767376 6.7872778003592495 
Si 2.7125782199999997 2.7152660699999998 10.86542441752496 
Si 1.3413023099999999 1.374931386 12.237045279778343 
Si 1.359310905 4.07362401 9.501619840115211 
Si 4.07360772 1.3576265189999999 9.502853990353682 
Si 2.8110023999999996 0.11847700709999999 13.51521354341881 
Si 3.8141568899999996 1.70043165 14.970002418964535 
Si 2.73953817 2.94547635 17.87742040713867 
Si 2.01460059 0.6092460000000001 18.62555542530802 
Si 1.87900263 3.08607534 24.63545570323643 
Si 2.4135101100000003 2.17205973 22.54473663536878 
Si 1.225293075 0.17021583899999998 22.97788908712013 
Si 1.0545282630000001 3.71149731 21.472225796188646 
Si 3.6631811699999997 2.06619102 25.662577239201777 
Si 2.0992923 3.7740183299999996 28.67390382106474 
Si 0.1369767456 2.82791142 27.715037649676912 
Si 0.12327180569999999 0.607636548 28.473800072677513 
Si 2.7980192699999997 3.01327533 30.833083945216323 
Si 2.62019763 0.726483501 31.315259586995722 
Si 0.33658723799999996 0.347975577 30.81899406332714 
Si 1.3556261069999997 4.0723696799999995 4.066147934291712 
Si 2.72212416 5.43579381 2.702206229077689 
Si 1.2989206169999998 6.7366806299999995 1.2743252569256809 
Si -0.00038697057899999995 8.13548664 2.70739651646947 
Si -0.001040919597 5.43240549 5.42971253804398 
Si 2.71490769 5.43048327 8.145014472429862 
Si 1.3573479599999998 6.7877497799999995 6.787037826701769 
Si 2.7151194599999995 8.146628999999999 5.430089639505735 
Si 1.36922337 6.802052399999999 12.22463521349152 
Si 3.8074454099999997 6.89668101 15.192046616035647 
Si 0.7936553159999999 4.5924768 15.010763658785061 
Si 2.62720233 5.42777913 13.671402112487202 
Si 2.53091214 7.4835445499999995 17.47944123718367 
Si 2.52009558 4.46396499 19.816887506891803 
Si 1.399814361 6.490033739999999 19.440780221718548 
Si 1.506041451 5.40883386 24.761921820728375 
Si 0.24479797499999997 5.54635404 22.77254020021941 
Si 3.73109418 5.996805119999999 24.327912320200312 
Si 0.6436032389999999 7.4602824299999995 21.474899788371996 
Si 1.7160537599999999 6.09928551 28.725223901814385 
Si 0.49021171199999997 6.430282019999999 26.749760753439258 
Si 3.89660058 6.79561785 28.218502383069893 
Si 1.8965795399999998 4.28694156 32.59695889159625 
Si 2.44372806 6.7436690399999994 32.43597084937826 
Si 0.930299094 7.297822259999999 30.669867576178873 
Si 3.91626261 9.469767959999999 1.3357002339237372 
Si 1.354055751 9.50145201 4.076329673759076 
Si 0.32440720500000003 10.43680752 0.037337844186819506 
Si 2.70775638 10.85607954 2.7402660511540122 
Si 1.4459574149999999 12.158790839999998 1.2862656604828628 
Si 0.00040584743099999994 8.14496742 8.145014472429862 
Si 2.71498914 10.85976108 8.145083036331998 
Si 1.3592652929999998 9.503993249999999 9.501996941576966 
Si 2.71399545 8.14498371 10.860453534620019 
Si -0.000179095518 10.85795289 10.86377888387367 
Si 0.0348746094 8.17749855 13.624401557572197 
Si 0.943674813 9.958402799999998 15.014500391451536 
Si 2.7331850699999998 10.923178049999999 13.69368538068177 
Si 1.372087152 9.556398179999999 17.35379788651737 
Si 1.56287889 11.30788269 19.366971181067925 
Si 1.9120550399999998 8.972971829999999 22.76486104318005 
Si 3.9209378399999997 8.27707932 23.743919283747267 
Si 0.472012524 9.78097212 24.367405127831304 
Si 2.3631414299999998 10.898938529999999 21.526768380338737 
Si 0.888712353 12.06541656 24.863156422233857 
Si 0.439834887 8.783421389999999 26.50296498769664 
Si 2.39627529 11.94825888 26.67889996058053 
Si 2.0207745 9.914647859999999 27.89758903911703 
Si 2.14566993 8.66121381 34.072831167049145 
Si 3.0697690499999997 10.276399889999999 31.98152930601333 
Si 1.600262811 9.574757009999999 30.27061997403434 
Si 4.0735262699999994 12.217972409999998 4.070810279637037 
Si 3.31043751 13.051336229999999 0.09127329498348592 
Si 1.3574571029999998 14.93110449 4.07002179476246 
Si 9.25978986e-05 13.574587320000001 8.145323009989479 
Si 2.71611315 13.57300719 5.431358071695271 
Si 1.357354476 12.21692985 6.787723465723142 
Si -0.001400623974 16.291629 10.865732955084578 
Si 1.358978589 14.932407689999998 9.503162527913297 
Si 2.71311579 13.5723393 10.85969933169651 
Si 1.3806149669999999 12.21186366 12.219561484733374 
Si 3.97142055 12.58281954 14.965202945814937 
Si 0.165714912 13.571801729999999 16.34330309682028 
Si 2.77417071 15.736156289999998 16.721947246372604 
Si 2.53910601 13.43185434 16.659519813476745 
Si 0.14510757330000001 13.629500909999999 13.593616365512624 
Si 1.033463664 15.528084119999999 14.974219098945971 
Si 3.3448582799999995 15.7701861 20.362896141560878 
Si 3.40625529 12.464146889999999 18.602106570777117 
Si 2.7089129699999996 14.80213656 22.482240638570783 
Si 1.417158324 12.816727649999999 22.675487996744295 
Si 0.21335501699999998 16.230916169999997 25.11365463869188 
Si 3.52116495 13.59138231 29.797529049288105 
Si 3.75062589 16.10691669 26.254935071715558 
Si 1.544195889 15.63528861 27.050722001870213 
Si 1.71751986 13.55696154 28.201052869975992 
Si 3.31771914 12.666517559999999 32.03593476235915 
Si 6.78626739 4.0690791 4.068753362572923 
Si 4.07267919 1.358271603 4.0685819528175795 
Si 5.43620106 2.7193874399999998 2.6799675274195094 
Si 6.8755691699999995 1.376777043 1.1939546508405314 
Si 4.07280951 4.07243484 6.787483492065661 
Si 8.14472307 4.7756904299999996e-05 8.144603089017039 
Si 8.14693851 2.71459818 5.431803737059163 
Si 5.43178647 0.00010288470779999999 5.430363895114283 
Si 5.43015747 2.71494027 8.14504875438093 
Si 6.78713076 1.358022366 6.787963439380622 
Si 5.428349279999999 0.00127726632 10.859905023402922 
Si 6.786739799999999 1.365556491 12.227720589087692 
Si 7.508631149999999 3.63205098 15.095200104266945 
Si 5.02996104 0.194927769 16.55962220806294 
Si 5.531497559999999 2.7793997999999998 13.722482219579367 
Si 5.07865185 2.44014426 17.55811831488603 
Si 4.355636489999999 1.352089548 21.313397516887974 
Si 5.63511825 2.7481555799999997 19.86296244912796 
Si 7.987361669999999 2.6000468999999997 19.73711340675525 
Si 5.75484975 0.49003252199999997 22.940693170210732 
Si 5.52692007 2.40139035 24.310222833448933 
Si 7.5431007899999996 2.12089284 25.50988542914238 
Si 4.07043117 3.5457302699999995 27.36032230197044 
Si 7.71308694 3.2564198699999998 27.606500992593826 
Si 5.30591364 0.21087079199999997 28.08068893977425 
Si 5.745336389999999 2.48930748 28.589981604848887 
Si 5.10921189 3.5598374099999996 30.592424648714978 
Si 4.21767648 4.26499893 1.260465064108659 
Si 4.071538889999999 6.7899978 4.071084535245586 
Si 6.95079639 6.90008562 1.1533442516047065 
Si 8.155800269999999 5.4366083099999996 2.680865714537506 
Si 5.429180069999999 5.42937555 5.429198308777952 
Si 6.787407689999999 6.78726108 6.787449210114593 
Si 5.429766509999999 8.14495113 8.145083036331998 
Si 6.788710889999999 4.07350998 9.502099787430172 
Si 4.074063839999999 6.78882492 9.500522817681018 
Si 4.082388030000001 4.07696346 12.24907824460341 
Si 5.42986425 5.4312651899999995 10.861207737543527 
Si 6.77823642 6.78416598 12.25336348848698 
Si 5.585710679999999 6.50184399 16.745533228707778 
Si 6.67793889 4.37454918 17.19493532526563 
Si 4.75728273 4.7473947 20.76557193881227 
Si 5.707299239999999 6.92421111 20.296492002341058 
Si 8.123823 6.7412581199999995 20.02491038597587 
Si 4.66959366 7.93871973 18.43594195394777 
Si 5.1972267599999995 4.501122479999999 23.113337075792035 
Si 7.43814432 5.16381597 23.64720989978284 
Si 6.88933422 6.25325859 25.690996976637624 
Si 5.193007649999999 5.82196455 29.898729368842517 
Si 7.3209051899999995 6.62033745 29.454435282993884 
Si 4.71559662 5.61594492 26.388703244785106 
Si 8.11667169 5.58478215 27.52093324272668 
Si 5.6565395999999994 5.62948191 33.902209896580885 
Si 4.77689589 6.9239830499999995 31.98845426012918 
Si 6.97734909 4.28373243 32.36487008286205 
Si 8.16987483 10.85472747 2.6964879996394515 
Si 5.4307439099999995 8.13900528 2.6773963810893666 
Si 6.7855506299999995 9.50334165 4.06642218990026 
Si 5.08283838 11.187336689999999 0.2195789819697704 
Si 4.0718809799999995 9.50249457 6.787380646212456 
Si 5.42997828 10.86251409 5.430055357554666 
Si 6.78895524 9.50327649 9.504602369858176 
Si 4.07549736 9.512610659999998 12.242016162683285 
Si 5.42574288 10.86254667 10.866521439959154 
Si 5.40474507 8.19149166 13.719705381542814 
Si 7.13397744 9.20929086 15.090057811606659 
Si 4.729540859999999 10.371191399999999 18.64461619010214 
Si 4.6521959399999995 10.55183121 21.00650549092216 
Si 6.59526714 10.34033814 17.24210728993598 
Si 5.4544621499999995 8.57924253 21.997288158754824 
Si 7.567666109999999 8.860587119999998 22.960953803292256 
Si 6.939816929999999 8.582712299999999 25.19387440419233 
Si 4.85464806 9.54722691 25.558360107953337 
Si 5.5561932 10.073247299999998 29.425055650928122 
Si 7.58211534 8.952202080000001 28.913671786838304 
Si 4.640711489999999 11.93688846 25.788529127427697 
Si 4.17634875 9.05432409 27.765637809454116 
Si 5.136237 9.30194838 31.61467814762859 
Si 6.7662144 10.33058043 32.977625676261624 
Si 7.6347646199999994 13.947742349999999 0.07123378048635484 
Si 4.1261266800000005 14.960735999999999 1.2446165181296602 
Si 5.42053008 13.59128457 2.723361621082102 
Si 6.79578075 12.26247669 1.4365817313332105 
Si 6.78372615 14.93229366 4.072044429875505 
Si 8.148942179999999 16.3015659 2.7048459393099686 
Si 4.07277693 14.93245656 6.787414928163524 
Si 5.430190049999999 13.574880539999999 8.144774498772382 
Si 6.7872285 12.21805386 6.787586337918867 
Si 8.14381083 13.57048224 10.864670214601452 
Si 4.07293983 12.21953625 9.50192837767483 
Si 6.78709818 14.934118139999999 9.502716862549407 
Si 4.07958615 14.93586117 12.20550588479526 
Si 6.78610449 12.234848849999999 12.259774213336803 
Si 7.987720049999999 14.032678409999999 16.08317165211199 
Si 5.89671936 12.64203369 16.44155516858279 
Si 5.52644766 13.88860965 13.685766249984933 
Si 6.698399129999999 15.556379849999999 14.909426211426378 
Si 7.833176819999999 12.32372709 20.884118925607375 
Si 4.74464169 13.98586095 19.807768507907564 
Si 5.981264459999999 14.657465069999999 17.87594628324272 
Si 5.59973637 12.6037359 21.555599501187405 
Si 7.923032459999999 16.0772526 22.191701103264673 
Si 5.52333627 13.054089239999998 23.90686139717617 
Si 4.47287562 15.147826649999999 24.091229730022924 
Si 7.822702349999999 12.61095237 24.336585653820663 
Si 6.2843561999999995 13.04998416 27.29868335394916 
Si 5.58237123 12.4535421 29.39893280421387 
Si 7.263971639999999 15.23206224 27.781407506945655 
Si 4.26037257 15.80436252 30.091153960190386 
Si 7.532153909999999 12.64187079 32.383930847656174 
Si 5.558734439999999 13.743872999999999 31.43312093476946 
Si 5.97932595 15.779275919999998 34.24009280631269 
Si 12.099951359999999 1.1953667159999999 1.3205510397465372 
Si 9.50104476 1.357077546 4.078763692284944 
Si 10.8533754 2.69809641 2.703320392487417 
Si 10.8600543 0.00163574406 5.431426635597409 
Si 10.86031494 2.71485882 8.144603089017039 
Si 12.208035509999998 1.3478411160000001 12.260185596749626 
Si 9.50301585 1.357553214 9.503025400109022 
Si 8.13840255 2.71801908 10.861310583396733 
Si 12.21764661 4.073086439999999 9.50233976108765 
Si 10.86409422 -0.0018474651899999998 10.861893376564899 
Si 8.34479685 0.21414834 13.551278155942942 
Si 9.190736549999999 1.80962352 15.219780714450119 
Si 10.82781639 2.75336838 13.695193786528788 
Si 10.678371929999999 1.6469515799999999 17.755856608649527 
Si 12.059177489999998 3.6635884199999995 20.478666290319428 
Si 10.86108057 3.8894818499999997 18.472623641591138 
Si 8.43036822 1.19021256 17.78647039095376 
Si 11.40770781 1.8080270999999999 21.755874659329972 
Si 9.031925339999999 1.8851765399999998 21.84785313404694 
Si 8.84765286 3.1975640999999997 23.911009513255465 
Si 10.920473909999998 3.1988673 25.220442916270468 
Si 9.54150912 2.8141626599999996 29.012918035181805 
Si 10.65356226 0.0626747976 26.396176710118056 
Si 11.07946431 2.12916816 27.37928022091136 
Si 8.18272764 2.83276584 34.003684471743846 
Si 9.40496634 1.161848412 30.6414821206941 
Si 11.934461249999998 2.45257353 32.31567548307866 
Si 9.808518509999999 1.458604971 32.92205463357948 
Si 10.871555039999999 8.13665952 2.6847670005691087 
Si 12.235647059999998 6.76741986 1.1675541203226276 
Si 9.5716782 4.08360978 1.2556038834471361 
Si 9.499041089999999 6.786707219999999 4.068547670866511 
Si 9.5021199 4.07214162 6.787860593527416 
Si 8.14441356 5.43056472 8.14528872803841 
Si 10.860380099999999 5.42919636 5.430398177065351 
Si 10.85790402 5.42883798 10.861344865347801 
Si 8.147394629999999 8.14149765 10.862167632173447 
Si 12.204402839999998 6.79169196 12.238485121723222 
Si 9.50327649 6.7860393299999995 9.503231091815435 
Si 9.504367919999998 4.09683726 12.242496109998244 
Si 8.216171009999998 5.51717865 13.764031944274471 
Si 9.03001941 7.57559934 15.092149010621842 
Si 8.61970689 4.71786093 18.752501490114923 
Si 10.18289529 8.01422388 17.209333744714428 
Si 10.73533806 6.4525504499999995 23.34093494893626 
Si 8.58701286 6.78452436 22.36564772298658 
Si 11.27411352 5.47658397 25.482185612678975 
Si 10.365669089999999 4.8620274299999995 29.8761718450394 
Si 10.41923061 5.99542047 27.718808664294453 
Si 8.65039725 5.839834679999999 31.224343852761884 
Si 12.063396599999999 4.6011267899999995 31.455232793208687 
Si 9.43352271 7.925296769999999 32.0326094131055 
Si 11.40785442 4.92907707 34.216746797635 
Si 9.73088037 9.60899859 1.2158985277195216 
Si 9.50371632 12.21601761 4.072592941092602 
Si 12.2181516 9.50057235 4.066765009410946 
Si 8.14558644 8.1456516 5.431186661939929 
Si 9.50257602 9.502657469999999 6.78751777401673 
Si 10.859484149999998 8.14470678 8.145014472429862 
Si 8.14519548 10.8597285 8.146214340717263 
Si 10.85945157 10.86077106 5.428649797560855 
Si 12.217548869999998 12.21706017 6.78751777401673 
Si 9.491840909999999 9.53553069 12.227926280794103 
Si 10.85629131 10.858555619999999 10.861344865347801 
Si 9.506322719999998 12.21965028 9.502716862549407 
Si 12.21745113 9.50291811 9.501859813772693 
Si 10.872809369999999 8.28238986 13.636263112641922 
Si 8.177579999999999 10.91596158 13.747336634104078 
Si 9.266892299999999 8.783291069999999 19.29103665945105 
Si 11.209295609999998 9.23009319 20.642945399840002 
Si 8.18331408 10.97139645 18.912563919654062 
Si 10.75542363 10.35118728 22.702365046382052 
Si 8.532213299999999 11.03152284 22.71868325509069 
Si 11.819176919999999 12.14010621 23.783446373329326 
Si 11.19504186 8.5952556 24.184682328635837 
Si 11.60424666 11.432110230000001 26.052877252117423 
Si 9.687825899999998 9.307894229999999 29.916487419496036 
Si 10.28979027 11.606087429999999 29.708018875048076 
Si 10.55215701 9.32077962 26.299021660789734 
Si 8.162218529999999 11.95397667 26.56230704499633 
Si 8.26539939 9.61522137 26.74132739347639 
Si 11.11528602 8.166193289999999 28.256966732168824 
Si 8.22863286 8.64093276 33.98445229719438 
Si 11.017985849999999 10.977896159999998 34.035498122335476 
Si 12.216278249999998 14.93375976 4.069918948909255 
Si 9.45562824 14.899534469999999 1.3128238879756822 
Si 10.85914206 13.569700319999999 2.7012120524967007 
Si 8.146368359999999 13.576623569999999 5.429609692190774 
Si 9.50223393 14.93270091 6.7880662852338265 
Si 10.86042897 13.574603609999999 8.145837239255508 
Si 12.217532579999999 14.932847519999997 9.503676757179326 
Si 12.22818624 12.23141166 12.245650049496554 
Si 9.523362059999998 14.923611089999998 12.247329865098912 
Si 10.971673379999999 13.6014984 13.829956136179327 
Si 10.264052069999998 14.38848459 16.823113283975946 
Si 10.910537009999999 14.47270389 21.14839848639496 
Si 8.665009379999999 14.5528344 20.489945052220985 
Si 11.702638259999999 12.92199363 19.55795593047091 
Si 8.32246326 15.13697751 18.196002578418867 
Si 9.98515098 12.34547424 18.040671058127188 
Si 10.99519614 14.32439973 23.488107364873617 
Si 8.72502174 14.77302633 24.000999634810455 
Si 8.35193187 16.17979815 25.87077152804119 
Si 9.06675336 15.315646229999999 29.573599344908224 
Si 10.20379536 12.562505909999999 27.519150581271116 
Si 10.76413878 14.767569179999999 28.042533128234933 
Si 9.57527829 13.388490359999999 31.15111760527942 
Si 11.77933158 14.18547861 32.540256544528845 
Si 10.94756418 15.93838035 34.08712674064474 
Si 16.285780889999998 2.7111284099999997 2.6815822073148388 
Si 13.57318638 -0.0032542044299999997 2.6972901972944565 
Si 12.8700774 3.0426624899999997 0.14629308389245113 
Si 14.93579601 1.3574750219999998 4.068136287453688 
Si 14.756882939999999 3.96553986 1.2359671818750608 
Si 13.574847959999998 -0.00043855123499999995 8.145220164136273 
Si 13.57421265 2.71480995 5.430329613163214 
Si 12.2175 1.3579914149999999 6.787654901821004 
Si 14.931967859999999 1.357289316 9.502099787430172 
Si 13.57870869 2.71547784 10.862236196075584 
Si 14.945586299999999 4.05192573 12.219047255467345 
Si 16.21544067 2.73487923 13.795331365600074 
Si 13.57709598 0.0530783586 13.918026468474476 
Si 14.32000143 1.89721485 15.338841930511252 
Si 12.60777582 3.67952004 14.910523233860571 
Si 14.47263873 1.2833408609999999 17.89229877390243 
Si 15.3738504 2.47291974 21.406438732088066 
Si 15.81252381 0.220789773 21.395297097990785 
Si 14.11070751 2.99607309 19.497688260492367 
Si 12.464896229999999 0.23690384099999998 18.5068027468065 
Si 14.51403162 2.82220992 23.621704128187826 
Si 12.368296529999999 1.8946899 23.88656648214358 
Si 16.123011209999998 2.25145719 25.35078289423316 
Si 13.194395010000001 1.92920841 28.459915882494744 
Si 14.52344724 3.9191296499999995 28.581685372690295 
Si 16.120030139999997 0.221597757 34.06727749097604 
Si 15.28339203 1.6446221099999998 32.288866997343035 
Si 15.739039619999998 3.9759002999999997 32.45225477613583 
Si 13.25430963 1.259904438 30.850224920750605 
Si 12.22248474 4.07388465 4.070775997685969 
Si 13.568820659999998 5.431379219999999 2.6959497730076754 
Si 14.93491635 6.7875054299999995 4.071770174266957 
Si 14.933010419999999 4.07238597 6.787312082310319 
Si 13.575043439999998 5.42975022 8.14480878072345 
Si 12.21792354 6.78730995 6.787586337918867 
Si 13.574978279999998 8.1456516 10.863093244852298 
Si 16.28830584 5.43115116 10.861756248760624 
Si 14.933238479999998 6.7874728499999994 9.501654122066281 
Si 13.966817939999999 7.968497849999999 16.117659294886966 
Si 12.384325889999998 4.84477632 16.959761140935257 
Si 13.559567939999999 5.343771599999999 13.5535064827624 
Si 15.286389389999998 6.401041469999999 14.79571297973194 
Si 12.828928859999998 7.47214155 20.339721542638525 
Si 15.558074009999999 6.48866538 18.517327305784548 
Si 12.33905598 7.106056379999999 17.709336001049483 
Si 14.58059256 4.52065419 17.76158169447798 
Si 14.271049979999999 5.1224719499999996 23.29616272084071 
Si 12.43619325 5.61592863 21.809320221045873 
Si 13.518842939999999 6.12725544 25.243274695682132 
Si 14.52163905 5.9201280899999995 27.32508045627196 
Si 13.48492716 7.912541699999999 28.277330211103553 
Si 15.75532962 5.74865955 34.184076098266644 
Si 14.699460689999999 7.30986057 31.351838428785886 
Si 14.336063369999998 4.88709774 30.79691648683898 
Si 14.03060958 7.73333541 34.070328584621144 
Si 14.93480232 12.21510537 4.066490753802397 
Si 14.906099339999999 9.441814319999999 1.286382219116496 
Si 13.56854373 10.8554931 2.706004669256086 
Si 16.29 10.85928867 5.431495199499546 
Si 13.576086 8.14438098 5.4302267673100095 
Si 14.93312445 9.502087320000001 6.787826311576347 
Si 13.575222629999999 10.860233489999999 8.145425855842685 
Si 14.932049309999998 9.501191369999999 12.23066883687959 
Si 12.424203809999998 9.57400767 15.083441395050425 
Si 13.791032549999999 11.03756643 13.680486829520374 
Si 15.602708609999999 11.82896721 15.01059224902972 
Si 12.48784884 11.96228457 15.663217751522039 
Si 15.48432918 8.77294692 17.761890232037597 
Si 14.89213881 8.57420892 21.021418139636985 
Si 12.45254841 10.74687138 19.40248728237496 
Si 14.73440274 10.309501169999999 19.428370155431725 
Si 13.45915638 8.430905789999999 24.748586141762704 
Si 14.095362329999999 11.877592859999998 23.30541884762922 
Si 14.714919899999998 9.59979474 23.178781320381933 
Si 14.439146489999999 9.30264885 26.693504071735738 
Si 13.82502978 11.52437679 26.76745024019064 
Si 12.58400871 11.105381699999999 30.183098152956283 
Si 15.915215969999998 10.759691609999999 30.46822113999356 
Si 12.848232509999999 10.289659949999999 32.60059277840952 
Si 15.03558855 11.28675456 32.71094637889924 
Si 14.104289249999999 9.217501019999998 30.094787847003655 
Si 12.30261525 12.27717027 1.302724425190882 
Si 14.85705015 14.971910939999999 1.1244137130979426 
Si 16.28859906 13.58274861 2.6692338485399407 
Si 13.572893159999998 13.57330041 5.429849665848255 
Si 14.93258688 14.93234253 6.787483492065661 
Si 14.93367831 12.21813531 9.503642475228258 
Si 13.57198092 13.576835339999999 10.863024680950161 
Si 14.929296299999999 14.9364639 12.263613791856482 
Si 12.28002102 14.92269885 15.42122145892902 
Si 12.75844203 14.29701624 17.759147675952114 
Si 12.42492057 16.194475439999998 20.83012485267438 
Si 15.797357819999998 12.358636559999999 19.745786740375593 
Si 16.09676802 16.2113193 19.080956863302866 
Si 15.250649129999998 14.127763139999999 18.34255791923699 
Si 12.27067056 15.94885482 24.662435598727395 
Si 15.40874358 13.20395724 21.90157295137139 
Si 14.126378489999999 15.24056562 22.2884104872291 
Si 14.973523649999999 12.866884559999999 25.25163949174286 
Si 14.405295869999998 15.22152261 25.425586111464774 
Si 14.28989751 16.19946018 27.670402549385635 
Si 13.87531701 12.564737639999999 28.799650017584245 
Si 16.08428988 12.90783762 29.47802126532906 
Si 12.94882326 14.668916939999999 28.848021850541997 
Si 13.67841978 13.36156299 33.97869292941486 
Si 13.31731935 15.235303949999999 31.074531726592244 
Si 15.60046059 14.486713289999999 31.223109702523413 
