&CONTROL
  dt          = 30.D0,
  prefix = 'x1.66_y1.33_z3.17_struc13-scf',
  pseudo_dir = './',
  outdir='./',
  wf_collect= .true.,
  verbosity= 'high',
/

&SYSTEM
ibrav= 6, celldm(1) =30.783621515, celldm(3) =2.1163055416155427, nat=  432, ntyp= 1,
  ecutwfc     = 12.D0, nbnd= 1728,
  degauss     = 0.05D0,
  occupations = "smearing",
  smearing    = "methfessel-paxton",
/
&ELECTRONS
  electron_maxstep=200,
  conv_thr    = 1.D-8,
  mixing_beta = 0.3D0,
  scf_must_converge=.false.,
/
ATOMIC_SPECIES
Si  28.08  Si.pbe-hgh.UPF
K_POINTS {automatic}
1 1 1 0 0 0
ATOMIC_POSITIONS (angstrom)
Si 0.00215197416 2.70954828 2.6960184945939427 
Si 2.7360683999999997 0.00303707502 2.6928847518838346 
Si 1.4926527 1.446165927 1.2785015239513158 
Si -0.001580659425 0.00027244862099999996 5.430062492039913 
Si 0.000192160098 2.71458189 8.145179924603053 
Si 2.71450044 0.00050946975 8.145179924603053 
Si 2.7162271799999997 2.71337643 5.430165915891732 
Si 1.3576167449999998 1.357463619 6.787603971012846 
Si 2.7140769 2.71549413 10.86146949415347 
Si 1.348932546 1.360814472 12.229525731394643 
Si 4.07194614 1.3574913119999998 9.501307944267795 
Si 2.7363942 0.12497199299999999 13.677838877647167 
Si 4.06059201 1.550099385 17.155879590459964 
Si 1.74881295 3.69253575 15.124393818418772 
Si 3.5966853899999998 2.09341161 14.905514473353021 
Si 2.08797075 1.1967986069999998 18.57457904047505 
Si 0.208974636 2.3304473999999997 17.678411364465568 
Si 2.93674491 3.3640153199999996 22.134531443928296 
Si 0.785756295 2.61232956 22.671232285633074 
Si 4.0336320599999995 1.330000308 21.7256624830715 
Si 0.879642081 2.00160117 24.968655255317547 
Si 2.5952413500000002 0.987949404 29.709328825750937 
Si 2.94244641 1.8160906499999998 26.173336281302365 
Si 2.18836602 2.74761801 28.19161827492803 
Si 2.6813339999999997 3.0448127699999996 34.461654816822566 
Si 1.577640888 1.2188194289999998 31.832517079738086 
Si 3.44108331 2.75960745 32.30133740003249 
Si 1.355920956 4.07297241 4.0674532443278615 
Si 2.70713736 5.45196978 2.6942292619574784 
Si 1.4532162389999999 6.90469569 1.1550237872649083 
Si -0.000325721808 5.429522159999999 5.430372763595369 
Si 2.7152660699999998 5.4297990899999995 8.144869653047595 
Si 1.357194834 6.787684619999999 6.787155800988298 
Si 1.358397036 4.07215791 9.501687165057799 
Si 1.351475415 6.7854366 12.243694799093811 
Si 2.74484871 5.44532346 13.676390943721703 
Si 0.760079997 6.610726349999999 17.977237346987216 
Si 3.7706463 6.32646585 20.3129616164619 
Si 2.7106722899999998 4.278258989999999 19.948944132677166 
Si 0.5135846040000001 4.59493659 19.104902077984338 
Si 2.61048879 7.68987369 18.87402556610761 
Si 0.905844546 6.679372409999999 23.229307390047055 
Si 3.78359685 5.07154941 23.789071750707414 
Si 3.26278926 6.960635549999999 22.510546094524006 
Si 0.733932918 6.03410922 25.55724039601806 
Si 2.71125873 6.06445749 29.596079708009402 
Si 0.35916192 5.753171879999999 29.186762577128057 
Si 3.02734989 5.8717793700000005 25.954698258557524 
Si 3.59077212 4.6512511199999995 27.95384683959672 
Si 2.84187195 5.04755424 31.745330772654878 
Si 0.603013446 4.641965819999999 32.70472489674289 
Si 3.04952058 7.92070299 34.00548668106733 
Si 1.354493952 9.504758879999999 4.070900706055153 
Si 2.71220355 10.852121069999999 2.679343122219033 
Si 1.236656979 12.163791869999999 1.1985824661892392 
Si -3.78864675e-05 8.14506516 8.145007551516688 
Si 2.7152009099999996 8.145781920000001 5.430096966657186 
Si 0.00032590099800000003 10.86039639 5.43085540823719 
Si 2.71541268 10.86002172 8.14490412766487 
Si 4.08312108 9.497021129999998 12.242832933661989 
Si 1.3586609339999998 9.50541048 9.502583505106893 
Si 2.7152334899999997 8.145439829999999 10.865330651288035 
Si -0.00202069305 10.86042897 10.859952610993462 
Si 1.367770302 12.226052249999999 12.212667643548185 
Si 2.7532217699999997 9.79056693 16.503826679360007 
Si 1.0012485599999998 9.982365389999998 14.773924859222296 
Si 2.74022235 10.90486809 13.571967328002037 
Si 1.315305099 10.84404123 18.041015388942114 
Si 0.30639046499999995 10.24583985 21.30148679214553 
Si 4.00952286 10.505274389999999 20.929884892560754 
Si 2.08932282 9.71641485 19.88826880627683 
Si 1.3011067349999998 11.94864984 22.503375374131238 
Si 1.64291166 10.871994869999998 24.52920730893967 
Si 3.80084796 9.91088487 24.69320306330694 
Si 3.8444888699999997 8.181522179999998 26.280655764872954 
Si 3.16702035 8.36124975 29.89893922075198 
Si 0.25666361099999996 9.18340605 27.560250134191826 
Si 2.67475284 11.939185349999999 27.83363384916606 
Si 2.5912828799999996 9.48327237 27.8904824930491 
Si 3.71446209 11.093913539999999 32.34898132110366 
Si 2.1684922199999996 9.0966618 32.00451094531267 
Si 0.5381466659999999 15.68769354 -0.0007881242254761598 
Si 4.05142074 14.835074939999998 1.202929715427354 
Si 1.3589052839999998 14.93359686 4.067970363586955 
Si -0.0001426510413 13.57435926 8.144490432257594 
Si 2.7162271799999997 13.57452216 5.430131441274459 
Si 1.3574896829999998 12.21743484 6.787672920247392 
Si 1.3575760199999998 14.93129997 9.502031911230526 
Si 2.7121058099999997 13.574114909999999 10.85933206788255 
Si 2.7015987599999995 13.98237489 16.36110176385013 
Si 3.96795078 12.40946136 14.81463938222161 
Si 0.1500444207 13.6749663 13.618232264382293 
Si 1.1809565819999999 15.28858854 15.047032777258345 
Si 0.0839106045 15.40037052 21.19895928037587 
Si 2.33249994 16.20374445 20.607995391083524 
Si 3.1383010799999997 14.103784259999998 19.894818983558686 
Si 1.5089703929999998 13.218048089999998 18.423993912226948 
Si 3.41264097 12.60999126 21.740969213140676 
Si 3.4973163899999995 15.2029683 24.470876256513897 
Si 1.177747452 14.72102865 24.697650288935144 
Si 1.3533389909999998 12.713253570000001 25.967867562355778 
Si 1.88318916 13.18030416 29.687023748375356 
Si 3.3638524199999997 15.81695469 26.71651835105445 
Si 1.8280800899999998 15.330600449999999 28.53774343234812 
Si 2.22542577 13.932429749999999 34.30486425746534 
Si 3.15289692 13.414912739999998 31.92132369383312 
Si 8.13898899 0.0215912547 2.687668742290442 
Si 4.07404755 1.3558932629999998 4.075899525559726 
Si 5.41541502 2.7033743699999997 2.7137556851808586 
Si 6.59404539 1.29513645 1.2223630571840973 
Si 5.42991312 0.00274506048 5.429752220484457 
Si 5.429294099999999 2.7155267100000002 8.145076500751234 
Si 6.787521719999999 1.3574961989999998 6.787259224840117 
Si 6.783595829999999 1.361782098 12.242626085958351 
Si 5.481275489999999 2.92908861 13.598409359450365 
Si 7.672720319999999 2.9678425199999996 21.359990217657668 
Si 6.02358588 1.506779388 20.445550994493537 
Si 5.87974518 2.70374904 18.381107488339442 
Si 5.02461792 0.641070144 23.74546135985717 
Si 5.145994709999999 2.3611214699999996 25.32026187688403 
Si 6.64825851 2.15800146 27.137660275660405 
Si 6.41856951 0.320476428 28.571528557275577 
Si 5.84666019 2.4902034299999998 31.586368312409455 
Si 4.897946879999999 0.7353859859999999 30.273023292780405 
Si 7.62888393 3.1124325600000002 34.4147693373314 
Si 4.17239028 4.17027258 1.3921953642556693 
Si 6.78889008 4.07240226 4.069073551339688 
Si 4.06995876 6.787391399999999 4.070555959882424 
Si 5.885577 5.067916739999999 0.040528015319868715 
Si 6.884154 6.916831739999999 1.304671205923187 
Si 4.0725814499999995 4.0723696799999995 6.787569496395573 
Si 5.429147489999999 5.42996199 5.429614322015365 
Si 6.7877497799999995 6.78716334 6.787672920247392 
Si 6.7868049599999996 4.07280951 9.502100860465072 
Si 4.07455254 6.787407689999999 9.501894012761435 
Si 4.05456471 4.09584357 12.205324550069056 
Si 5.42592207 5.43198195 10.858332303981635 
Si 6.78366099 6.81518214 12.22428558956916 
Si 6.3366470999999995 4.82268708 15.027209872326418 
Si 4.51975824 6.57316161 14.97194706083793 
Si 4.11581511 7.85049309 17.089102256802324 
Si 6.615792539999999 4.956558299999999 17.716402392700324 
Si 7.451208899999999 6.73646886 21.393430596412397 
Si 5.997228659999999 6.5764359 19.57161944662509 
Si 7.52101155 4.81799556 22.79020418984191 
Si 5.91955794 4.484669579999999 24.496766694085856 
Si 6.20218944 7.8685912799999995 26.431413266207425 
Si 6.72741162 5.589099 26.444065450746585 
Si 5.908431869999999 4.1906025 28.143043539190487 
Si 6.522988409999999 6.5524895999999995 31.499250954560797 
Si 4.58587935 6.29626419 32.94177236511147 
Si 6.69191571 4.379664239999999 30.358727191320877 
Si 8.15094585 10.85578632 2.6933811863725645 
Si 4.10934798 9.44521893 1.200812973926797 
Si 5.42856105 8.14628691 2.704554409830717 
Si 6.7870167299999995 9.5034231 4.07062490911697 
Si 4.073086439999999 12.22061139 4.069039076722415 
Si 6.750413099999999 12.23079264 1.3052917490340996 
Si 4.07225565 9.50283666 6.787431597926481 
Si 5.43002715 8.14506516 8.145110975368507 
Si 5.42988054 10.860103169999999 5.430441712829915 
Si 6.78861315 9.50213619 9.501756114292345 
Si 5.43181905 10.857855149999999 10.861538443388016 
Si 6.80794938 12.202008209999999 12.22842254364191 
Si 5.03038458 10.85713839 16.23761368477854 
Si 5.5654785 8.27647659 13.734204876888386 
Si 6.862895549999999 9.64806201 15.167211293071734 
Si 8.0083269 8.34668649 16.81385691249535 
Si 7.74236007 10.71008856 21.115289384254503 
Si 5.86962909 10.68749433 19.575756400697838 
Si 6.1307415 8.63146827 18.391829094311316 
Si 7.6408733699999996 8.79161526 24.74270861371085 
Si 6.93735714 8.785245869999999 22.47514066258472 
Si 4.53528261 8.99931276 22.66578529610395 
Si 5.248067849999999 11.72132289 25.307644166962145 
Si 7.5119706 11.024013149999998 25.520214657066948 
Si 7.08395085 8.74878885 28.43514697134392 
Si 6.43070556 12.18812913 29.297150301635934 
Si 7.79235408 10.93259367 27.871383555079902 
Si 8.020186019999999 8.442895230000001 34.2347773605495 
Si 5.23187559 11.05059843 34.2848000302125 
Si 7.17963831 10.62212256 32.96083682846339 
Si 5.56230195 8.496082079999999 30.239376066322034 
Si 5.7347153099999995 10.66649652 31.070248817216612 
Si 5.42248488 13.56808761 2.7079294748617353 
Si 6.78708189 14.93165835 4.0667637519824025 
Si 4.07267919 14.93229366 6.7875350217783 
Si 5.430190049999999 13.574587320000001 8.144973076899415 
Si 6.787440269999999 12.21736968 6.78729369945739 
Si 4.0728583800000004 12.22004124 9.50113557118143 
Si 6.78814074 14.934167009999998 9.50347984515599 
Si 4.0723370999999995 14.94485325 12.236799875639228 
Si 5.426133839999999 16.291629 10.862951902696205 
Si 4.68352161 15.55447392 16.66740873832 
Si 5.47153407 13.570465949999999 13.523496016116317 
Si 6.71299497 14.74790715 15.09319428978678 
Si 8.018508149999999 16.27410096 13.783020934946837 
Si 6.475503059999999 15.44526576 20.184233395564828 
Si 5.0554386 14.442990929999999 18.635323316109933 
Si 5.85293184 12.33583056 17.954725421907998 
Si 6.45844743 14.35821777 22.28604738684277 
Si 4.700137409999999 13.364804699999999 23.582775640946274 
Si 7.253497169999999 16.048109789999998 23.676477650694064 
Si 8.12103741 12.746859839999999 22.229026369873363 
Si 7.31279277 14.70600927 25.61546802459202 
Si 5.4917662499999995 14.94506502 27.167239497280566 
Si 4.887814499999999 12.674581109999998 27.515984725613396 
Si 7.757444609999999 14.02671627 34.445934391346114 
Si 5.15459583 15.038080919999999 31.688930298796386 
Si 7.23468222 14.00387769 30.657242902287066 
Si 5.755273289999999 15.66074988 34.13152588181712 
Si 9.49855239 1.359247374 4.0706938583515155 
Si 10.85971221 2.70962973 2.6938396987822943 
Si 9.454048109999999 4.02369516 1.2302646394630499 
Si 8.1456516 0.000584134965 8.144387008405776 
Si 8.146971090000001 2.71580364 5.4310277813235555 
Si 10.860803639999999 0.0013551243749999999 5.429890118953549 
Si 10.85899545 2.71487511 8.145042026133961 
Si 9.504270179999999 1.357176915 9.5004116042187 
Si 8.14648239 2.71490769 10.862124511881657 
Si 9.272544929999999 1.3295555909999999 15.446697015303275 
Si 10.65193326 2.7982636199999997 14.005658013295337 
Si 12.1085199 2.33725662 21.3458211499585 
Si 11.626026389999998 0.391333041 20.128418990199975 
Si 9.330374429999999 3.0844626299999995 19.76743527273526 
Si 9.65596266 0.816692634 18.847376686955645 
Si 8.19351162 2.28887532 17.651210891437234 
Si 9.96618942 2.5969518 22.299595911431027 
Si 9.575066519999998 0.492190947 23.433603972006363 
Si 10.07761302 3.9706874999999995 25.667628120525944 
Si 10.071992969999998 0.387697113 25.81045645988764 
Si 10.441547909999999 0.46891742399999997 29.934827297333083 
Si 10.1628423 2.57517207 28.9191361232384 
Si 9.01672677 2.24220447 26.810323784654056 
Si 10.79624637 1.2595721219999998 32.254382971306775 
Si 11.88479304 3.48078204 32.760884048280474 
Si 8.53828947 2.29180752 32.36532228969102 
Si 10.87282566 8.13537261 2.6773091197999306 
Si 12.12995754 6.615369 1.0563505377063647 
Si 8.159563259999999 5.4354843 2.6969251770282203 
Si 9.50239683 6.78499677 4.071728096869704 
Si 9.502657469999999 4.07280951 6.787776344099211 
Si 8.14496742 5.43009231 8.14490412766487 
Si 10.860168329999999 5.4304995599999994 5.430200390509004 
Si 8.14182345 8.14442985 10.860986849511649 
Si 9.502087320000001 6.78672351 9.500928723477793 
Si 9.50003478 4.06358937 12.249934704820209 
Si 10.86127605 5.4310534200000005 10.860331831783464 
Si 11.64894642 4.68622575 15.159557928037147 
Si 9.48130128 6.964610309999999 14.989598064881665 
Si 8.16684489 5.53097628 13.603752925127667 
Si 10.33929558 5.95096506 16.90542149597222 
Si 9.45834867 7.09644528 20.196368460844894 
Si 8.749359 5.57118 18.545068768089433 
Si 11.039700419999999 6.667497 23.70891826554788 
Si 10.87269534 8.06770395 21.800196605615547 
Si 9.66402621 7.70254731 25.369595054201575 
Si 9.77724171 4.62515454 23.47031943940202 
Si 9.068138009999998 5.802074459999999 26.64408718016405 
Si 12.13826544 5.91805926 28.683088418770737 
Si 9.77606883 6.010749359999999 28.844739899163443 
Si 8.769884399999999 6.85313784 32.648738118291675 
Si 9.062876339999999 4.14999153 30.284055170307738 
Si 10.54507086 5.26774617 33.98445716453085 
Si 9.55426419 9.5309532 1.2453300472113147 
Si 8.14486968 8.144120339999999 5.43002801742264 
Si 9.50200587 9.50270634 6.787569496395573 
Si 10.859809949999999 8.14459275 8.145007551516688 
Si 8.14491855 10.859679629999999 8.145834942331238 
Si 10.85860449 10.85920722 5.430131441274459 
Si 9.4944636 9.530464499999999 12.240350761218338 
Si 10.85348943 10.85943528 10.864951430498035 
Si 10.91799783 8.26825014 13.610958120137708 
Si 8.20046745 11.12563017 13.887272177580138 
Si 9.228659669999999 11.0926755 19.22077126663861 
Si 9.742788359999999 9.036128159999999 18.21966285565037 
Si 12.07062936 8.75385504 18.05990747920767 
Si 11.05897149 10.933326719999998 24.182358184556854 
Si 10.195145369999999 10.334441159999999 22.06103155990244 
Si 10.83486996 9.58570389 26.163786812317767 
Si 11.51642727 11.07951318 29.941101677676755 
Si 9.33534288 8.30066724 29.030454662412648 
Si 10.109557709999999 10.93187691 28.002731846889713 
Si 10.16882073 8.35261605 31.222316354007454 
Si 10.84337334 11.02855806 34.3825700447985 
Si 11.44496304 10.11913623 32.254624293627685 
Si 12.216555179999999 14.929654679999999 4.0706938583515155 
Si 9.500213969999999 12.22064397 4.070487010647878 
Si 9.538560630000001 15.08019057 1.1940283692474867 
Si 10.85133915 13.582422809999999 2.687255046883167 
Si 8.14475565 13.57388685 5.430751984385371 
Si 9.502250219999999 14.93252172 6.787431597926481 
Si 10.85985882 13.575108599999998 8.144800703813049 
Si 9.504335339999999 12.21938964 9.501618215823253 
Si 8.14718286 13.57035192 10.862641631140749 
Si 9.506013209999999 14.944674059999999 12.246763040031102 
Si 10.85171382 16.2983079 10.859814712524368 
Si 10.83265452 13.80450438 15.812714026889836 
Si 8.45648109 13.04625375 15.61493314759511 
Si 11.36509317 14.04533574 13.523461541499042 
Si 11.074088609999999 16.110858869999998 16.406642733267653 
Si 9.84570858 13.78184499 20.990422320491994 
Si 11.20795983 12.22740432 19.822456761902835 
Si 8.604540899999998 14.939705609999999 19.316679651891867 
Si 8.188868969999998 12.836536289999998 17.947623650749776 
Si 10.837329749999999 13.17342978 24.871505783842466 
Si 11.06747487 15.4025208 22.094437464039896 
Si 8.49725496 12.914907479999998 24.539549694121547 
Si 10.70406126 13.13130384 27.19657739657982 
Si 8.42248386 15.614127899999998 29.283050183171312 
Si 9.133737839999998 14.902857629999998 27.12828317976217 
Si 10.54448442 12.47989932 32.363564084210104 
Si 8.212961879999998 12.786477119999999 32.49101674426808 
Si 11.27600316 16.07370138 34.27173415026607 
Si 12.27205521 1.3341265649999998 1.316192623015796 
Si 14.931853829999998 1.3562809649999998 4.074313693165172 
Si 13.57532037 -4.93883478e-05 8.144973076899415 
Si 13.57496199 2.71459818 5.430889882854463 
Si 12.21735339 1.3577112269999998 6.7875350217783 
Si 16.28988597 0.00499319451 10.860711052573466 
Si 14.93252172 1.35584928 9.501997436613253 
Si 13.57856208 2.71531494 10.86750255217623 
Si 12.199499549999999 1.365419655 12.252830572671135 
Si 14.92724376 4.065951419999999 12.265275909506657 
Si 16.253559269999997 2.56262877 13.794121761708716 
Si 15.88196808 0.8281803419999999 15.609210361127806 
Si 13.29200469 0.11839897799999999 18.47053464554539 
Si 13.322776499999998 3.7036618199999998 19.802840704674544 
Si 14.700910499999999 1.8142173 19.330641871887398 
Si 13.681091339999998 0.18548934299999997 24.70492443317973 
Si 13.722207299999999 1.96703379 23.092029464066297 
Si 15.451586279999999 1.276407837 21.55242753127509 
Si 15.946329869999998 0.0514216656 25.61233083442018 
Si 16.049543309999997 3.8875596299999997 25.83386472501595 
Si 12.35438487 0.0193966659 28.559221118909143 
Si 14.388354269999999 2.82328506 29.378234601461838 
Si 14.444815409999999 0.514558746 29.53730048555908 
Si 12.352071689999999 3.45015684 26.09266567688374 
Si 12.27547611 1.053448236 26.361705590081584 
Si 16.2624699 3.652218 28.19303173423622 
Si 12.35826189 3.60186561 28.451694787634914 
Si 13.53637098 2.79678123 34.44603781519794 
Si 13.993158869999998 3.7156186799999995 31.471602311507915 
Si 15.44067198 0.49866459299999993 31.701099838693725 
Si 15.512233949999999 2.54133774 32.90329869223489 
Si 16.0054137 5.742827729999999 0.1175287967297929 
Si 16.3035207 8.14620546 2.693943122634113 
Si 12.218868359999998 4.076230409999999 4.072003893807886 
Si 14.88350511 4.0895882100000005 1.3720656352300131 
Si 13.54840929 5.436787499999999 2.7064022493165454 
Si 14.93460684 6.78669093 4.067866939735136 
Si 14.932538009999998 4.07276064 6.7875350217783 
Si 13.574913119999998 5.430336659999999 8.145248873837598 
Si 12.217662899999999 6.78709818 6.787190275605571 
Si 16.290488699999997 5.42852847 10.866882009065318 
Si 12.21595245 4.0715226 9.502617979724167 
Si 14.93200044 6.78898782 9.501445842736887 
Si 12.199988249999999 6.8009121 12.214977442905472 
Si 16.187584769999997 8.14035735 13.649328369162465 
Si 13.404063599999999 5.475394799999999 13.691801097642697 
Si 14.172902729999999 7.47556245 14.986667722413467 
Si 13.49408214 7.01118342 17.20997026496117 
Si 15.000222959999999 5.116965929999999 20.62340554500452 
Si 14.62154562 7.47248364 20.587482993806137 
Si 15.23947419 8.01378405 18.37841846819215 
Si 12.41674299 4.9373361000000004 17.699682203322958 
Si 15.921666809999998 4.67540919 22.719979394456978 
Si 13.267406789999999 6.44460093 24.58533198585998 
Si 14.14897272 4.10449356 24.393480740736198 
Si 13.432147559999999 6.79121955 26.914092382645535 
Si 15.804395099999999 6.983441549999999 27.362227932576186 
Si 15.279205499999998 5.65557849 31.18270501876087 
Si 14.230048049999999 7.668159119999999 31.888365959720215 
Si 12.44125944 7.644831839999999 30.278056586902252 
Si 14.10345846 7.385576489999999 34.30003781104713 
Si 14.935095539999999 12.215594069999998 4.071279926845155 
Si 12.21714162 9.50383035 4.069004602105142 
Si 14.806274219999999 9.2921418 1.258426954313296 
Si 13.57281171 10.85915835 2.68319048950669 
Si 13.57605342 8.14644981 5.429717745867184 
Si 14.93276607 9.50255973 6.787672920247392 
Si 13.576200029999999 10.8598914 8.144180160702138 
Si 12.220024949999999 9.502804079999999 9.502755878193257 
Si 13.57393572 8.14690593 10.858814948623454 
Si 14.927439239999998 9.51194277 12.215115341374563 
Si 12.63380724 9.40459167 14.881278817410161 
Si 13.74530652 10.99386036 13.62822990339144 
Si 13.04363106 10.554714539999999 16.975301545184422 
Si 15.63994755 11.793324689999999 14.933783659516813 
Si 15.26545674 10.36446363 17.85074997621288 
Si 12.933461789999999 10.96066134 20.896203191485114 
Si 12.62085669 8.67465306 20.37101687194949 
Si 15.05264418 11.457278279999999 20.00072500782109 
Si 15.75539478 8.37138213 22.438114923633606 
Si 13.21961193 10.851111089999998 23.244579645498956 
Si 14.2278489 8.861645969999998 24.21693622568159 
Si 15.851701259999999 10.100956590000001 25.519766487042403 
Si 15.417703079999999 10.143880739999998 29.382095758596403 
Si 13.13487135 9.62833482 29.019526208737133 
Si 13.03325433 9.06675336 26.707934171353493 
Si 15.890846129999998 9.410456069999999 31.590022621840387 
Si 14.43577446 10.9716408 32.89485241100303 
Si 16.13513097 10.701568889999999 34.42283639777327 
Si 12.29510556 12.35888091 1.2339430811260703 
Si 15.02478828 14.98684887 1.411015057824955 
Si 13.58980218 16.2935838 2.7177133712437893 
Si 16.291466099999997 13.54858848 2.7127490263564895 
Si 13.574733929999999 13.57437555 5.43061408591628 
Si 12.21764661 12.21746742 6.787431597926481 
Si 14.93274978 14.932114469999998 6.787328174074663 
Si 12.21776064 14.93208189 9.504238286735992 
Si 14.93183754 12.21784209 9.500549502687791 
Si 13.580696069999998 13.569016139999999 10.855712233068893 
Si 12.23186778 12.231444239999998 12.237730690305597 
Si 14.926054589999998 14.924637359999998 12.238420182651055 
Si 13.620916079999999 16.16595165 15.911070109969469 
Si 13.141957499999998 15.897834539999998 13.564348437584723 
Si 14.03696268 14.3001765 17.80982860550993 
Si 15.72325461 13.719714929999999 19.526181901059385 
Si 12.28210614 12.722718059999998 17.468564369125325 
Si 14.24211894 12.936345119999999 23.82661460891762 
Si 12.51826227 14.56236405 23.81561720600756 
Si 16.25663808 13.812616799999999 22.920862989306265 
Si 15.25874526 12.37587138 25.926704869331918 
Si 15.86983203 12.447661409999998 29.67609529469984 
Si 14.760531899999998 13.53961269 27.900583555910064 
Si 15.834873689999998 15.67855485 27.91485604746105 
Si 12.496352219999999 14.002036919999998 28.434664326702094 
Si 13.133079449999999 14.330313 34.406288581482265 
Si 12.30499359 13.184621009999999 30.66710264282712 
Si 14.519830859999999 12.9637449 31.586575160113096 
Si 15.06795678 14.830595189999999 32.89264603549756 
