&CONTROL
  dt          = 30.D0,
  prefix = 'x1.66_y.66_z3.18_struc12-scf',
  pseudo_dir = './',
  outdir='./',
  wf_collect= .true.,
  verbosity= 'high',
/

&SYSTEM
ibrav= 6, celldm(1) =30.783621515, celldm(3) =2.126240308478207, nat=  432, ntyp= 1,
  ecutwfc     = 12.D0, nbnd= 1728,
  degauss     = 0.05D0,
  occupations = "smearing",
  smearing    = "methfessel-paxton",
/
&ELECTRONS
  electron_maxstep=200,
  conv_thr    = 1.D-8,
  mixing_beta = 0.3D0,
  scf_must_converge=.false.,
/
ATOMIC_SPECIES
Si  28.08  Si.pbe-hgh.UPF
K_POINTS {automatic}
1 1 1 0 0 0
ATOMIC_POSITIONS (angstrom)
Si 0.0036203873399999996 2.7351235799999998 2.6957795089905483 
Si 2.7057689999999996 0.00381454785 2.7118404330002117 
Si 1.4192581049999997 1.405706454 1.2976305270115083 
Si 1.3576085999999998 4.06701027 4.071030330816928 
Si 4.0667985 1.359609012 4.069159962267172 
Si -0.000281717631 -0.00023591177999999997 5.429956991578493 
Si -1.441109511e-05 2.7146307599999995 8.14500476027699 
Si 2.7147773699999997 -8.55500301e-05 8.145524307096366 
Si 2.71541268 2.7163575 5.430372629033995 
Si 1.357916481 1.357310493 6.787359648336554 
Si 0.0011580153749999999 0.00242331669 10.863966448348124 
Si 2.7127737 2.7194526 10.865802180443255 
Si 1.343641554 1.3536045179999998 12.243190071520004 
Si 4.0635405 4.08745422 12.240142063512994 
Si 2.5687700999999996 2.8647268199999996 16.7691009609285 
Si 1.420949007 3.99965112 14.98975701392735 
Si 3.83942268 1.4654093039999998 15.09820375335857 
Si 1.357691679 2.15101305 20.86981473335915 
Si 2.03475132 1.348818516 18.725575736882465 
Si 1.6878068999999998 0.388501839 22.44629296562103 
Si 0.7246785689999999 0.63705303 24.600888262030622 
Si 3.1278591899999997 3.5526046499999997 21.64795732296687 
Si 2.82447423 2.58952356 25.60357898697293 
Si 3.74042835 3.12070788 29.34268817311743 
Si 3.40302987 0.8933501159999999 30.141855090682593 
Si 2.19577797 3.64399155 27.607090068307794 
Si 0.396979155 2.4661919699999997 28.371274166701593 
Si 1.5958661399999998 0.389492271 28.626267745651656 
Si 2.3958354600000002 0.172843416 26.353527502515814 
Si 3.22222716 2.0151218699999998 34.268061293717324 
Si 3.13263216 0.41377740299999993 32.57025156090368 
Si 4.06529982 6.79542237 4.075775525100568 
Si 2.7300410999999998 5.431216319999999 2.6853573997938525 
Si 1.300305267 6.73293393 1.2665581635673222 
Si 0.00788398533 8.12711358 2.720111618364688 
Si 0.000462075624 5.43082536 5.430199446760869 
Si 2.7152334899999997 5.42992941 8.145351124823241 
Si 1.3574896829999998 6.7888575 6.788364105520682 
Si 1.3566246839999998 4.0728258 9.501333686941672 
Si 1.350520821 6.78924846 12.245060440069759 
Si 0.340659738 4.21049259 17.133095462583782 
Si 4.008985289999999 7.138473479999999 15.256838715541575 
Si 2.74753656 5.5641101399999995 13.752785309900798 
Si 0.194657355 6.432301979999999 17.52247848547927 
Si 3.06338337 5.81885316 20.63591475527578 
Si 1.335766968 7.014408839999999 19.403099425804243 
Si 2.9831876999999998 7.287380369999999 22.54660013821535 
Si 0.769192623 8.143990019999999 22.681924766435653 
Si 3.78050175 5.96277531 24.324177626030618 
Si 2.3856379199999997 4.0888225799999995 23.81114246012349 
Si 0.0437961537 4.496235479999999 23.66889054097816 
Si 3.57852204 6.872930189999999 26.492973868836504 
Si 0.5886717300000001 6.742593899999999 28.98974270048756 
Si 1.5915329999999999 5.851368 27.105727387609328 
Si 3.73311414 4.88559906 30.917677037830433 
Si 1.606089744 6.0173631 31.012858015140235 
Si 4.03819326 9.51073731 1.2682795953621901 
Si 2.1225381299999997 8.61977205 0.03886383391210467 
Si 1.358524098 9.500767830000001 4.071064967271553 
Si 0.246350412 10.53024696 0.18772854497445737 
Si 2.71448415 10.87409628 2.702814172924908 
Si 6.181321949999999e-05 8.145309509999999 8.14486621445849 
Si 2.7151683299999996 8.14454388 5.432520089220752 
Si -9.76803786e-05 10.858620779999999 5.430718993580245 
Si 2.7151031699999995 10.859809949999999 8.14493548736774 
Si 4.06906281 9.50404212 12.222338925835688 
Si 1.357680276 9.503993249999999 9.502234234761925 
Si 2.71186146 8.147492369999998 10.862061443343743 
Si -0.001045332558 10.85958189 10.862130716252993 
Si 1.3600276649999998 12.231004409999999 12.243536436066256 
Si 2.95490826 9.1575864 16.4065958268221 
Si 1.0031626349999998 9.960487919999998 14.9105088057451 
Si 2.7495076499999995 10.87647462 13.637445915999182 
Si 3.7363884299999994 10.12234536 20.03386390098212 
Si 2.53263888 11.590481609999998 21.41166742951437 
Si 1.9259667 9.23636484 18.650449266800603 
Si 3.73474314 11.18385063 23.386464889965016 
Si 0.6401155499999999 10.44452898 22.132278867989783 
Si 0.7304745509999999 10.02867786 25.732114870086715 
Si 2.9594042999999997 10.682672489999998 25.584598209838372 
Si 2.8308761999999996 11.715214139999999 30.15893086281277 
Si 3.3395314499999995 9.54750384 29.248996563356506 
Si 0.9350508869999999 9.03774087 29.28030791833761 
Si 0.0609622299 10.699402319999999 27.86378083353448 
Si 1.7580330899999999 8.31110913 32.29201692090017 
Si 2.13469047 11.07799821 32.273798145767365 
Si 4.03157952 15.04032894 1.2492503271911546 
Si -0.0080633871 13.574799089999999 2.7257088694321054 
Si 1.3231177829999998 12.282692579999999 1.3096805495755839 
Si 1.358115219 14.935991489999997 4.07186160572793 
Si 0.000295155252 13.574913119999998 8.145177942550117 
Si 2.7157547699999998 13.57457103 5.431169267490372 
Si 1.357463619 12.21725565 6.787498194155054 
Si 1.3579783829999998 14.93164206 9.502823054490552 
Si 2.7119591999999995 13.573903139999999 10.861992170434492 
Si 2.6131440599999998 16.25805531 13.707273008523405 
Si 3.9807221399999997 12.341515769999999 15.186007165833225 
Si 1.8785790900000001 13.058324639999999 16.185684519223148 
Si 1.2080387069999998 15.12259344 15.292375717986937 
Si 0.9524551229999999 13.732290809999999 18.423961490007006 
Si 2.13983811 13.67133363 20.483479718470672 
Si 0.613668735 16.08267717 17.50051897324695 
Si 4.0488957899999996 16.181427149999998 22.37681223764306 
Si 0.7765312679999999 13.63124394 24.145280337891926 
Si 0.6339139469999999 14.64884766 21.985143208742315 
Si 2.7183774599999997 14.28364215 25.306225024016364 
Si 0.41821479899999997 14.67416232 29.097081073370777 
Si 3.2036565599999998 12.65790015 26.9157464339906 
Si 1.4356621349999998 12.57682482 28.53946879036113 
Si 2.6437692599999996 13.747245029999998 34.527765430496395 
Si 4.01745609 12.391803 33.107116607592886 
Si 1.304609085 15.317242649999999 33.24469260536382 
Si 5.43315483 2.74002687 2.7011481594574405 
Si 6.718207769999999 1.294106922 1.3707065189795653 
Si 5.43194937 -0.000302041035 5.429541354122993 
Si 5.430141180000001 2.71536381 8.145247215459367 
Si 6.78828735 1.357781274 6.787948468065181 
Si 4.07339595 1.358273232 9.502580599308176 
Si 5.42908233 -0.0014443789139999999 10.86555972526088 
Si 6.7804844399999995 1.377941778 12.242635888246003 
Si 5.32883367 2.7352539 13.706718825249402 
Si 5.24140524 0.620719047 16.84433134037424 
Si 7.18110441 2.1119496300000002 16.587536665783674 
Si 5.873929649999999 1.601867376 20.009583746289916 
Si 4.14984492 0.34791041699999997 18.982335775018406 
Si 7.93277388 0.368470026 19.534233043014908 
Si 6.09145002 3.7167101099999997 19.006373474528232 
Si 8.11776312 4.00162221 17.982069601899855 
Si 5.15254329 2.36288079 25.86418367157226 
Si 6.39095796 3.03171561 23.994854215455074 
Si 5.074481609999999 2.06580006 22.15700929659211 
Si 4.837690169999999 0.0539194113 26.143249586486768 
Si 5.4884268 3.52197945 27.878709145477906 
Si 7.616601269999999 3.65071932 28.781612244645274 
Si 7.1936151299999995 2.86646985 33.0003670544383 
Si 4.5246941099999995 3.9281054399999995 33.49601472012362 
Si 5.07557304 0.314959005 34.432965454187475 
Si 4.564067039999999 4.56719472 1.2994870409794141 
Si 6.79338612 4.06481112 4.079065988289953 
Si 6.35606478 6.2692065 1.423004101818019 
Si 8.13450924 5.4185427 2.720378319065301 
Si 4.07246742 4.07191356 6.787394284791179 
Si 5.43045069 5.42802348 5.4264587096613575 
Si 6.7875054299999995 6.787586879999999 6.787567467064305 
Si 6.7889715299999995 4.07469915 9.502407417035052 
Si 4.073216759999999 6.78665835 9.50226887121655 
Si 5.42906604 5.42981538 10.861853624615993 
Si 6.784719839999999 6.7855832099999995 12.239795698966743 
Si 8.03489589 5.341686479999999 13.725699602383962 
Si 5.40085176 5.843825729999999 16.816379721491778 
Si 7.742604419999999 6.545826989999999 16.979586695685295 
Si 6.44772861 4.15968408 15.255349347992695 
Si 6.878403629999999 7.08266394 20.35265782935163 
Si 5.08254516 5.88148821 19.360150222069105 
Si 6.09825924 5.40023274 24.146631159622306 
Si 7.22024928 6.81213591 22.670183008317743 
Si 7.150234859999999 6.11845884 26.228489901319165 
Si 5.45825772 6.30662463 30.035971448893633 
Si 5.319108539999999 5.86540998 27.693508022597445 
Si 7.03785015 6.932584169999999 33.89454176704014 
Si 8.06086215 5.01021756 32.64814894735555 
Si 7.667621549999999 5.46006591 30.382890178418734 
Si 5.4247328999999995 8.125109909999999 2.6911035876161584 
Si 6.79134987 9.50189184 4.071064967271553 
Si 4.07131083 9.502543439999998 6.788087013883681 
Si 5.42968506 8.145032579999999 8.145247215459367 
Si 5.4293103899999995 10.86011946 5.430095537396993 
Si 8.14459275 8.145097739999999 10.864451358712875 
Si 6.78599046 9.501842969999998 9.502442053489675 
Si 5.43072762 10.862172 10.859048071791358 
Si 8.076435389999999 10.99140057 13.742325100604013 
Si 5.02585596 10.658286359999998 16.57950100831065 
Si 5.416148069999999 8.18691417 13.634328635082923 
Si 6.668881649999999 9.63735948 15.084591626690903 
Si 5.78720169 10.94881851 19.056873425371645 
Si 7.46591877 9.411596369999998 20.0117658429313 
Si 4.30598457 9.17723214 22.19874622441537 
Si 6.319852109999999 8.88572259 23.356435083805046 
Si 7.7702974199999995 10.32347799 22.19344684685773 
Si 6.18811488 9.486693269999998 25.693772314816716 
Si 6.519877019999999 11.824080209999998 25.606869450162314 
Si 6.30222633 12.16963998 29.659854188119564 
Si 6.892559639999999 9.92912967 30.128866420198175 
Si 8.07373125 8.285680439999998 26.441538733718218 
Si 4.116808799999999 9.13186449 26.89208973548165 
Si 6.08967441 9.052532189999999 32.94311299494299 
Si 5.389562789999999 10.866456269999999 34.39389553337035 
Si 5.02305408 8.54957844 30.665350465886508 
Si 4.07144115 12.21461667 4.071411331817804 
Si 5.420872169999999 13.59784944 2.6853989635394027 
Si 6.77914866 12.28984389 1.1697631274719897 
Si 6.79050279 14.930925299999998 4.0720001515464315 
Si 4.072027589999999 14.932863809999999 6.787151829608803 
Si 5.42991312 13.574782799999998 8.14500476027699 
Si 6.78805929 12.2175 6.787290375427303 
Si 4.07272806 12.21735339 9.50213032539805 
Si 6.78814074 14.93131626 9.50226887121655 
Si 4.06803654 14.9369526 12.246619080527891 
Si 6.774131339999999 12.2184774 12.224971296387197 
Si 6.12354132 14.75553087 16.712470357616446 
Si 5.437504259999999 13.589329769999999 13.65254741021573 
Si 7.315855289999999 14.59755045 14.708647548189958 
Si 7.7095845899999995 14.46433083 18.41949338736037 
Si 4.28291793 14.730770069999998 20.395329941449766 
Si 6.23718036 13.22961399 19.921018331813514 
Si 5.48285562 12.72498237 23.700375078232387 
Si 4.74970788 14.93030628 24.22217326715967 
Si 7.736121 15.929111339999999 23.4602405383165 
Si 7.1367141599999995 12.590443259999999 22.03824089368261 
Si 5.92265304 15.19539345 27.866447840540616 
Si 5.0982324299999995 15.488906669999999 30.090454592018933 
Si 5.56088472 12.86701488 27.50335388670559 
Si 8.13869577 16.04102364 27.69891130951896 
Si 8.078455349999999 13.51696959 30.48025325236992 
Si 6.97024665 15.354709649999998 31.63565610575434 
Si 4.53836142 13.216353929999999 30.82623679762014 
Si 12.160322099999998 1.411020252 1.279633425188301 
Si 8.45885943 2.31630768 0.2486616886800434 
Si 9.50182668 1.3566002489999998 4.067254957262791 
Si 10.8709686 2.73087189 2.726851872434734 
Si 8.14540725 -0.000334529811 8.144519849912239 
Si 8.14302891 2.71726974 5.432866453767002 
Si 10.86181362 -0.00245773746 5.430753630034871 
Si 10.860347519999998 2.7147936599999998 8.144554486366863 
Si 12.215708099999999 1.361951514 12.217316639915047 
Si 9.50270634 1.355142294 9.5020610524888 
Si 8.14452759 2.7145656000000002 10.861611169433617 
Si 8.336309759999999 0.163256751 13.574684660218484 
Si 10.1908611 0.9820898909999999 14.988544738015472 
Si 10.983467339999999 2.77638615 13.669172908435783 
Si 11.20574439 1.66006503 17.2950555244108 
Si 9.64789911 2.99602422 21.395907842659945 
Si 9.04007034 0.6725961810000001 21.634934016027827 
Si 11.89152081 3.35383407 20.610179869489325 
Si 9.12968163 1.9498478399999999 18.30799863992214 
Si 9.87582879 4.0361733 23.524837526192332 
Si 8.826394409999999 0.38540836799999995 25.463162799922735 
Si 8.56011807 2.7585974699999998 25.019400543265824 
Si 8.64277353 1.607818113 29.17864992401291 
Si 10.83560301 2.3411987999999995 28.615010897898497 
Si 11.77768629 0.298963854 27.93620566015559 
Si 10.369301759999999 0.634407534 34.53285698932629 
Si 11.875051619999999 2.61868266 30.698636098781236 
Si 10.52221599 1.166968359 32.17719707381793 
Si 8.225440019999999 1.1516215499999998 31.544458320726424 
Si 9.51920811 4.08229029 1.3957036482825071 
Si 9.49931802 6.79234356 4.068986779994046 
Si 10.517687369999999 5.83911792 0.22919011298344533 
Si 9.502168769999999 4.07149002 6.78780992224668 
Si 8.14457646 5.43012489 8.14486621445849 
Si 10.86117831 5.42768139 5.429922355123868 
Si 9.499334309999998 4.07129454 12.248801177169272 
Si 10.861422659999999 5.4324869399999995 10.858701707245107 
Si 9.50306472 6.786365129999999 9.501922506670299 
Si 9.365756309999998 6.76935837 15.084072079871527 
Si 10.81756998 8.11018827 13.685971588928961 
Si 8.575088580000001 6.07602339 19.074676563048946 
Si 10.591481069999999 7.22902959 19.355924574604842 
Si 9.48397284 6.43381695 23.248092253737703 
Si 12.18159684 4.17155949 23.93029186403387 
Si 11.197469069999999 6.94864611 21.653810883798513 
Si 12.03725115 7.89296112 25.707245895665885 
Si 8.60476896 4.3540889400000005 26.78745300605919 
Si 11.194488 6.02441667 29.308571265311695 
Si 9.28192797 7.18278228 30.013700208569688 
Si 10.83599397 4.512997889999999 27.501102517154955 
Si 12.10783572 4.92140448 31.204085881125465 
Si 10.34981892 5.70609378 32.59283452931925 
Si 9.12977937 7.7889820499999995 34.49008096786428 
Si 9.55805976 9.55032201 1.337192285484309 
Si 10.88152452 8.15734782 2.7137489016500553 
Si 8.12286189 10.86552774 2.685617173203541 
Si 10.51659594 11.306791259999999 0.009712165786244715 
Si 8.14363164 8.14480452 5.429333535395242 
Si 9.50249457 9.5030973 6.787463557700429 
Si 10.86008688 8.14480452 8.144693032185364 
Si 8.14482081 10.86008688 8.145143306095491 
Si 10.860445259999999 10.85984253 5.430684357125621 
Si 9.49454505 9.5184099 12.254724010910166 
Si 10.85964705 10.857920309999999 10.864728450349876 
Si 8.44330248 8.67624948 16.421108501310023 
Si 10.60156458 11.332806389999998 18.47522344285217 
Si 11.53548657 12.176905319999998 20.545652154522745 
Si 9.42389532 9.27508617 18.659350835639252 
Si 9.850921379999999 8.22972429 24.82096829471857 
Si 11.62053666 10.82722995 22.46714411130535 
Si 9.6379785 10.32875595 23.673912826898803 
Si 8.78685858 12.12406056 25.097644294263947 
Si 8.581539419999999 8.99748828 28.67714869749594 
Si 10.46265975 10.4604606 28.50916189256416 
Si 9.90923958 8.22399021 32.21020561507566 
Si 11.876664329999999 9.59510322 32.1670832290674 
Si 11.14511301 11.328049709999998 30.669541476896143 
Si 8.17293735 9.9121392 32.11547491167599 
Si 9.18633825 12.09128508 32.08177364132575 
Si 9.503243909999998 12.216685499999999 4.066423682351788 
Si 9.4745898 14.96603025 1.0982423123166 
Si 10.8623349 13.59193617 2.682887820579082 
Si 8.14094379 16.26479937 2.6961605099914245 
Si 8.143973729999999 13.574815379999999 5.430615084216371 
Si 9.50220135 14.932782360000001 6.787567467064305 
Si 10.8597285 13.5755973 8.144693032185364 
Si 9.50295069 12.21914529 9.503169419036801 
Si 8.14193748 13.577894189999999 10.86143798716049 
Si 9.500784119999999 14.94245862 12.199617411601617 
Si 10.86090138 16.288664219999998 10.858078251061857 
Si 11.660805539999998 15.38957025 14.825580219004332 
Si 11.940749189999998 14.344403849999999 16.952293169440708 
Si 9.03086649 12.861590309999999 15.004685325870774 
Si 10.780477649999998 13.59126828 13.591725795894037 
Si 9.70885629 13.26870999 17.339009185330063 
Si 11.17067202 15.977834729999998 21.9005609865478 
Si 8.74776258 13.748059529999999 23.30198657713437 
Si 10.856258729999999 13.711960889999999 22.234491045588484 
Si 11.013669 15.804118169999999 25.855143556915106 
Si 11.65699368 13.488592409999999 26.108093585042283 
Si 11.49008634 14.916459779999999 29.67516350106386 
Si 9.40724694 14.221202579999998 28.675278328946185 
Si 9.908082989999999 12.40410195 27.180126492144066 
Si 8.706809519999998 13.033270619999998 34.41644386533129 
Si 12.13813512 15.82338924 31.804682004324874 
Si 15.967474289999998 0.23324347799999998 0.10843219212027684 
Si 14.178978899999999 2.00376774 0.14455281882607277 
Si 14.93346654 1.3578594659999998 4.069021416448671 
Si 12.219487379999999 4.070561489999999 4.0787196237437024 
Si 13.57502715 0.000242634663 8.144381304093738 
Si 13.574457 2.7162108899999997 5.429541354122993 
Si 12.21727194 1.3574750219999998 6.787636739973554 
Si 14.93116965 1.357359363 9.502026416034175 
Si 13.574033459999999 2.71334385 10.861715078797491 
Si 14.95397565 4.06933974 12.23557005150248 
Si 16.24424139 2.6402343299999997 13.741112824692136 
Si 14.75497701 0.8852409539999999 17.187232241162828 
Si 14.36458716 1.77621273 14.98615482264634 
Si 12.76492545 3.62434581 15.012166800069798 
Si 14.777848169999999 3.03585327 18.161971347222675 
Si 13.63271004 1.9504831499999997 21.352750820197056 
Si 15.48502965 3.0541632299999995 20.42632956833924 
Si 12.433147019999998 3.63099213 18.315445477666536 
Si 13.401049949999999 2.13537465 23.685031128833465 
Si 15.54986385 2.4407144099999996 24.56271888903375 
Si 12.236412689999998 0.1359245745 23.968461237030738 
Si 14.94407133 2.6073285299999998 26.795696482259967 
Si 15.32993256 3.62146248 29.939474286308077 
Si 13.98877686 1.7008389 30.21556146612483 
Si 14.01288606 0.7680392909999999 27.96949129305032 
Si 14.378775749999999 0.26280331199999996 32.11810728222749 
Si 15.900473519999998 5.68102347 -0.023565500723922207 
Si 14.84616843 4.05471132 1.290381117058473 
Si 13.5606105 5.42139345 2.7214659037405298 
Si 12.272771969999999 6.783432929999999 1.3627435980612526 
Si 14.935926330000001 6.78911814 4.073316336822185 
Si 14.156124029999999 7.41418173 0.07728051119499917 
Si 14.932538009999998 4.07186469 6.78767137642818 
Si 13.57489683 5.4299457 8.14493548736774 
Si 12.217662899999999 6.7882059 6.787290375427303 
Si 13.57554843 8.14658013 10.861992170434492 
Si 16.290488699999997 5.426068679999999 10.861299441341991 
Si 12.21657147 4.07122938 9.502234234761925 
Si 14.932668329999998 6.78807558 9.501680051487924 
Si 12.195997199999999 6.78354696 12.228331032485832 
Si 14.27192964 6.91528419 17.141096483602183 
Si 13.56730569 5.42650851 13.583759411330261 
Si 14.262090479999998 7.3613206799999995 14.83853425303412 
Si 12.22153992 5.9927489099999995 18.00340565794892 
Si 15.12837639 5.070897809999999 21.63230164547632 
Si 15.85950417 7.17971976 20.91477285146254 
Si 15.964688699999998 8.110725839999999 24.769671705418784 
Si 12.734153639999999 5.15733255 21.879398112771856 
Si 12.32317323 5.46127137 25.91264007159279 
Si 16.12895706 5.90258376 25.529595519893697 
Si 13.01064381 7.494067889999999 29.05995079401266 
Si 14.40514926 4.92482538 26.780040804769417 
Si 14.71428459 5.7688428599999995 28.908450941482425 
Si 13.94987634 6.1544108699999995 32.24879062552804 
Si 15.97480479 4.944226769999999 32.024415672466574 
Si 12.254966999999999 12.226980779999998 1.276751672163492 
Si 12.21487731 9.50301585 4.0768838916485715 
Si 14.87808054 9.36976365 1.3508355849611395 
Si 13.57129674 10.8468594 2.7011758686211405 
Si 13.5752715 10.85979366 8.144589122821488 
Si 13.574945699999999 8.14485339 5.430788266489496 
Si 14.932928969999999 9.501973289999999 6.788121650338306 
Si 12.21826563 9.502022160000001 9.502857690945177 
Si 14.93274978 9.507267539999999 12.213506629906284 
Si 12.43557423 10.590633989999999 17.028147005069698 
Si 12.566985659999999 9.18839079 14.894021853343547 
Si 13.64945616 10.87738686 13.621686329144758 
Si 15.33558519 11.824910999999998 14.989306740017225 
Si 16.21987155 8.16743133 13.658470243956625 
Si 16.020367919999998 10.292038289999999 18.45773203326649 
Si 15.18281757 10.67894208 20.675746678094658 
Si 14.108312879999998 8.65598472 20.34642326751911 
Si 14.04320175 9.085861529999999 18.023494801631486 
Si 12.633220799999998 8.72212212 22.157840571503115 
Si 13.71619629 8.75491389 24.257744906059656 
Si 16.182192779999998 11.466091169999999 24.096269754597394 
Si 13.97968704 11.049360389999999 24.754570211202235 
Si 12.41032473 9.27974511 27.629880855451113 
Si 14.09435235 10.93769244 27.11857751227524 
Si 16.04180556 9.22294188 31.320395095756584 
Si 16.0612884 11.19023631 32.635368095598885 
Si 13.739262929999999 8.243668529999999 31.155629481104935 
Si 12.21378588 14.93504667 4.075671615736693 
Si 14.93478603 12.21706017 4.0684325967200445 
Si 14.850648179999999 14.80510134 1.3183154177136238 
Si 13.556928959999999 16.281855 2.6940927136503054 
Si 13.573218959999998 13.576134869999999 5.4303379925793696 
Si 12.21745113 12.21740226 6.787844558701305 
Si 14.932782360000001 14.93208189 6.787636739973554 
Si 12.2170113 14.93494893 9.501402959850923 
Si 14.93305929 12.215919869999999 9.502580599308176 
Si 13.57395201 13.57663986 10.863897175438876 
Si 12.21922674 12.21885207 12.24059233742312 
Si 14.931348839999998 14.92276401 12.24322470797463 
Si 13.635186119999998 12.583959839999999 16.61413746293576 
Si 13.51677411 16.28133372 13.622240512418758 
Si 16.26699852 13.60653201 13.77917828832513 
Si 12.72626928 16.26134589 18.114103766930775 
Si 14.57875179 14.592419099999999 21.535215663162138 
Si 13.083834779999998 16.1424126 20.52303454965255 
Si 13.888625939999999 12.6120438 20.500590127055478 
Si 15.16291119 12.55639716 18.46493641582851 
Si 13.77317871 14.676328889999999 23.743809192332275 
Si 12.4121655 12.70971864 23.980029812875525 
Si 15.58459413 15.08087475 25.19292918093763 
Si 12.820490640000001 12.931392959999998 29.999672444446514 
Si 13.43548701 13.12179048 27.68245899357203 
Si 14.99968539 14.92898679 27.497431052964696 
Si 13.445603099999998 13.60858455 34.36590927803326 
Si 15.94577601 14.79821067 31.54934206082856 
Si 14.44937661 12.964152149999999 32.13480205335679 
