&CONTROL
  dt          = 30.D0,
  prefix = 'x1.66_y.66_z3.16_struc35-scf',
  pseudo_dir = './',
  outdir='./',
  wf_collect= .true.,
  verbosity= 'high',
/

&SYSTEM
ibrav= 6, celldm(1) =30.783621515, celldm(3) =2.110272343468375, nat=  432, ntyp= 1,
  ecutwfc     = 12.D0, nbnd= 1728,
  degauss     = 0.05D0,
  occupations = "smearing",
  smearing    = "methfessel-paxton",
/
&ELECTRONS
  electron_maxstep=200,
  conv_thr    = 1.D-8,
  mixing_beta = 0.3D0,
  scf_must_converge=.false.,
/
ATOMIC_SPECIES
Si  28.08  Si.pbe-hgh.UPF
K_POINTS {automatic}
1 1 1 0 0 0
ATOMIC_POSITIONS (angstrom)
Si -0.01020457728 2.71658556 2.706995554434563 
Si 2.72365542 0.00904686327 2.6929493833508378 
Si 1.364489496 1.409744745 1.307531458899602 
Si 4.07693088 4.001785109999999 1.178541131544085 
Si -0.000197472267 0.000525909618 5.430257991289144 
Si 0.0001615409253 2.7150705900000003 8.144888530054827 
Si 2.71502172 -0.000446332968 8.144957282727777 
Si 2.7161620199999996 2.71480995 5.429845475251443 
Si 1.357558101 1.357813854 6.787607637008461 
Si 2.71500543 2.7159828299999997 10.86254418643032 
Si 1.3527216 1.334561508 12.234778785843353 
Si 4.06914426 4.07735442 12.24540107381416 
Si 4.07083842 1.356502509 9.502375681120045 
Si 1.67262462 3.3466664699999997 15.027512361080465 
Si 3.6282717 1.6083165869999998 14.944080992455396 
Si 0.554260734 1.88527428 17.70130381211373 
Si 1.93073967 2.57639382 19.561373002444903 
Si 2.10015567 0.553351752 22.826093677485133 
Si 0.89652015 3.8422897199999997 23.72365982284999 
Si 0.7440473790000001 2.3113555199999998 21.751076883235815 
Si 1.0811249459999999 1.4823899999999999 26.646748466000677 
Si 3.3236324099999996 2.22044103 26.944035023837344 
Si 0.277579971 0.641042451 28.699531398611267 
Si 4.04780436 0.743317587 28.672477221805366 
Si 0.257437386 0.0329058 34.183278969455664 
Si 2.3490017099999996 2.9885634 34.22844947558394 
Si 2.33885304 2.74571208 31.735271296390856 
Si 0.39803474699999997 2.5121460599999996 30.243338293371526 
Si 1.3556928959999999 4.0738032 4.068851937865765 
Si 0.673501905 4.84805061 0.156516147497859 
Si 2.7288193499999998 5.43615219 2.6858747333042623 
Si 1.387722294 6.85681938 1.2727735450896285 
Si -0.0008754946469999999 5.43051585 5.430601754653895 
Si 2.7146307599999995 5.43015747 8.1445103903536 
Si 1.357463619 6.78753801 6.787435755326086 
Si 1.355771088 4.071995009999999 9.501447520035217 
Si 1.330503669 6.777030959999999 12.227044110136456 
Si 3.4158826799999997 7.053977249999999 15.168489716964848 
Si 2.48257971 5.285958389999999 13.684188260642987 
Si 0.6992661689999999 6.0202953 20.253574913707517 
Si 2.64893319 4.81232664 19.768731064062706 
Si 4.00935996 5.97388509 17.790716663285462 
Si 3.20813631 4.33625139 23.86229958785407 
Si 0.7882388909999999 7.46109693 22.10680321308015 
Si 3.4370271 5.937444359999999 25.573794251939866 
Si 0.6606051119999999 4.774387229999999 29.39025512740545 
Si 2.83630077 5.694755939999999 29.165296381512395 
Si 1.626424551 7.52195637 25.967850196953936 
Si 3.94475382 4.47256611 27.482196571355033 
Si 2.5226205299999998 7.872875549999999 28.158860378530896 
Si 3.5027083799999996 6.24846933 31.378135536751046 
Si 1.6176817079999999 5.126495579999999 32.21733066278118 
Si 3.9764541599999994 9.499301729999999 1.3417634147615063 
Si 1.3583074409999998 9.50451453 4.070123862315344 
Si 2.702511 10.884179790000001 2.705293925779046 
Si 0.000524849139 8.14459275 8.144751024708928 
Si 2.71583622 8.14594482 5.430223614952669 
Si 2.7147936599999998 10.8598914 8.144957282727777 
Si 1.354401099 9.50101218 9.502410057456519 
Si 2.71542897 8.14754124 10.865088035329476 
Si 0.48603495599999996 10.55741868 16.41466629052369 
Si 1.650177 8.99107002 14.949890593319688 
Si 2.7820550699999997 10.72939221 13.693916763865442 
Si 3.17777175 9.422347769999998 19.75910568984968 
Si 3.65920641 11.74523661 19.27728695781468 
Si 1.056025314 9.38422917 18.612207976030923 
Si 1.571649426 10.782041490000001 23.08604753390984 
Si 2.6734170600000002 9.01143252 22.04279447456351 
Si 1.7456364 9.89400843 25.256844429639447 
Si 1.617310296 9.223495739999999 29.888093232237843 
Si 1.01602359 11.41135677 28.925624563607997 
Si 3.75334632 10.957778009999998 25.87737167935147 
Si 0.1275770898 10.845637649999999 26.675624588639764 
Si 2.1627255599999997 8.69338656 34.27358560537575 
Si 0.371113893 10.411281090000001 34.206723630931684 
Si 3.17923785 8.551712429999998 32.0332797572935 
Si 1.352343672 12.301018829999999 1.1853063945623845 
Si 1.3568853239999998 14.93040402 4.067373755397336 
Si 0.000429459786 13.575010859999999 8.145163540746628 
Si 2.7166832999999997 13.574473289999998 5.431289281383397 
Si 1.357620003 12.21743484 6.787504507999036 
Si 4.06341018 14.93359686 12.230516120120441 
Si 1.355450175 14.93165835 9.501928788745868 
Si 2.71402803 13.576835339999999 10.863712981870473 
Si 1.3618472579999998 12.198815369999998 12.238697688201514 
Si 2.60156187 16.116853589999998 13.713373770310348 
Si 3.6890333999999996 12.27505257 15.188393615783932 
Si 1.65182229 12.66397632 16.41916959060193 
Si 1.0493056889999999 14.55943185 15.122700436780015 
Si 1.547031978 14.97749841 19.505820842701144 
Si 1.561539852 12.76042941 18.78168331485317 
Si 3.76009038 15.768410489999999 18.699867634042427 
Si 1.068967719 16.22887992 24.849141079044763 
Si 2.1247046999999997 13.107113189999998 23.171335224704563 
Si 1.216046871 14.85296136 21.87122217921629 
Si 1.5202577339999999 13.9543398 25.327556553768726 
Si 3.3328525499999997 13.18752063 26.64829540114206 
Si 2.1755783699999998 15.569982 29.347903480868126 
Si 2.6484444899999997 13.213405439999999 28.868009823675727 
Si 2.69886204 13.763421 34.26987296103644 
Si 2.1780055799999998 15.48542061 32.834110891817424 
Si 0.544771809 14.820674579999999 30.968575863986707 
Si 3.68869131 12.293639459999998 32.77006777696431 
Si 6.788385089999999 4.07267919 4.066204959957183 
Si 4.07357514 1.356495993 4.070467625680095 
Si 5.43308967 2.70005121 2.6757921538161153 
Si 6.81725097 1.230968511 1.1711227181327584 
Si 5.4295873199999996 -0.00040984011 5.431083023364546 
Si 5.430271499999999 2.71502172 8.144751024708928 
Si 6.78773349 1.3573316699999998 6.787298249980185 
Si 8.1458145 2.7137999699999997 10.86065348792419 
Si 5.4317213099999995 1.7594014499999998e-05 10.864538013945875 
Si 6.793272089999999 1.3507211879999999 12.255748351093164 
Si 5.33733705 2.63581974 13.646408666856853 
Si 5.0112927 0.32333695199999996 16.539108628563554 
Si 7.36951455 1.99101267 21.33983276998419 
Si 5.059576259999999 2.3510542500000002 21.33481382485883 
Si 4.10159394 1.7212014 19.276290044056903 
Si 5.87171421 2.17681641 17.750083833571892 
Si 6.75112986 2.9506402799999996 25.01648508500555 
Si 4.40413182 2.5293971699999998 24.841715790366138 
Si 4.35581568 0.9442742849999999 23.132421211814748 
Si 7.964392769999999 1.4720898329999998 23.618811996600936 
Si 8.04235671 0.428005089 28.147069295119937 
Si 7.70443695 2.61693963 27.18013170274833 
Si 4.70888514 1.83195711 30.673936284058627 
Si 6.373869749999999 3.5339037299999996 30.491019797674618 
Si 4.07287467 6.7836284099999995 4.0714301631013985 
Si 6.84199548 6.896860199999999 1.0997058791057386 
Si 4.072516289999999 4.07246742 6.787710766017885 
Si 5.42947329 5.43139551 5.429295453867841 
Si 6.78778236 6.787440269999999 6.787298249980185 
Si 6.786642059999999 4.07256516 9.50079436964219 
Si 4.07359143 6.785485469999999 9.50220379943767 
Si 5.42997828 5.43203082 10.860103466540586 
Si 6.76424331 6.791773409999999 12.232234936944197 
Si 5.2640483399999995 8.009907029999999 13.723686671252878 
Si 8.00352135 5.28273297 13.553661311047033 
Si 6.097966019999999 4.50837153 17.231998066555665 
Si 5.44340124 6.60179943 21.477131857865743 
Si 4.82079744 7.706522069999999 19.30014722157062 
Si 7.615737899999999 5.90882283 22.188275130526133 
Si 7.75431693 5.07483999 24.418096195983484 
Si 4.12601265 4.58786673 21.659532699202625 
Si 5.01459957 7.654296329999999 25.27245128639914 
Si 7.24230594 7.0619593499999995 25.691636333376508 
Si 7.31838024 6.31711539 27.869892894121207 
Si 6.250163489999999 4.2376317299999995 28.219328354390598 
Si 5.633293769999999 5.2896562199999995 34.21342701654433 
Si 5.662697219999999 5.43698298 31.82750300715355 
Si 7.56883899 7.02182079 31.322377118988435 
Si 5.43106971 8.14205151 2.6856065978797563 
Si 6.78571353 9.50400954 4.067442508070286 
Si 4.07093616 12.21828192 4.0733552379440034 
Si 4.0721742 9.50288553 6.787573260671986 
Si 5.4301086000000005 8.14501629 8.145129164410154 
Si 5.42953845 10.8610317 5.430704883663321 
Si 6.78669093 9.50181039 9.500828745978664 
Si 4.090858829999999 9.495001169999998 12.225909691032777 
Si 5.43149325 10.85920722 10.861616025345493 
Si 6.777014669999999 12.21736968 12.254648308325962 
Si 8.053987769999999 10.73421405 13.716880156630808 
Si 6.79946229 9.240974909999998 15.209775697071443 
Si 7.3606202099999996 10.154306339999998 19.101967641791674 
Si 4.9554668699999995 11.83717737 17.194734117816658 
Si 6.77867625 11.48182731 20.92931055979855 
Si 5.9208285599999995 9.63713142 17.380881979829322 
Si 6.299994599999999 10.100679659999999 22.779238730869572 
Si 4.75285185 8.30988738 22.973705666309215 
Si 5.35245417 11.62974051 24.24666140598216 
Si 4.34032389 9.044012519999999 27.142283356289244 
Si 7.50449349 8.19887103 29.27361621774543 
Si 7.33431186 10.99441422 27.210382878846417 
Si 5.929331939999999 9.78292692 28.658107913158773 
Si 5.63374989 10.87743573 30.70470310520384 
Si 7.4316609 8.33130873 33.32218611709089 
Si 5.035043519999999 11.000474099999998 34.29534582636449 
Si 7.825781159999999 11.700113309999999 31.119625486458297 
Si 5.33963394 9.45189783 32.60887713523257 
Si 4.15784331 14.98577373 1.2923302429103127 
Si 5.430336659999999 13.56553008 2.6996012044587694 
Si 6.69667239 12.21714162 1.142769115808096 
Si 6.78791268 14.932098179999999 4.072770840223927 
Si 4.07246742 14.932309949999999 6.787573260671986 
Si 5.43012489 13.57505973 8.144751024708928 
Si 6.78709818 12.217939829999999 6.787710766017885 
Si 4.07132712 12.215919869999999 9.50247881012947 
Si 6.78517596 14.929866449999999 9.501481896371692 
Si 5.24720448 13.55878602 13.721245951363146 
Si 6.479184599999999 14.93900514 15.274506338654056 
Si 6.769847069999999 13.473165779999999 17.236742000989228 
Si 5.0803460099999995 13.02983343 20.66708786516649 
Si 7.67834037 16.21421892 20.042057315376223 
Si 5.87868633 14.72824512 19.2056122962641 
Si 4.43879694 13.357457909999999 22.92853516018093 
Si 7.7243270399999995 15.40595799 23.697808817820714 
Si 5.38294905 15.249215609999998 23.960925297201133 
Si 6.7398245999999995 12.71740752 25.799543653571845 
Si 5.27273091 14.478698609999999 26.274899634349524 
Si 5.9312378699999995 15.66177615 28.255939152736577 
Si 4.77758007 16.13366487 32.00488490336507 
Si 7.5183237 14.0945967 34.28279846355108 
Si 4.360637519999999 12.858804719999998 30.498548215362664 
Si 7.789454459999999 13.90454127 31.934825929628815 
Si 5.95049265 14.600140559999998 30.42618602708258 
Si 5.78112552 15.88164228 34.19699512770923 
Si 12.07986579 1.267304985 1.2934337233111635 
Si 9.501191369999999 1.361790243 4.073423990616954 
Si 10.85366862 2.71005327 2.7052767376108084 
Si 9.53276139 4.00665582 1.225825782365585 
Si 8.145097739999999 -6.62382351e-05 8.145197917083104 
Si 8.1454887 2.71265967 5.43063613099037 
Si 10.858278689999999 9.64519497e-05 5.429570464559642 
Si 10.86011946 2.7147936599999998 8.14585106747613 
Si 9.501354269999998 1.357662357 9.502994455176596 
Si 9.860662799999998 0.0202202883 15.978739967682952 
Si 10.7766495 2.6656304399999997 13.573908973230868 
Si 9.730489409999999 3.0559877099999997 16.63010279121314 
Si 10.52680977 3.5353372499999995 21.120133603571833 
Si 10.658335229999999 2.0256615 19.32991712895806 
Si 9.696801690000001 0.00491179338 18.450157925887304 
Si 11.36234016 1.7256159899999999 22.413887026812215 
Si 10.160920079999999 1.8758749499999998 24.37615706548386 
Si 11.16127269 0.0827815446 25.75234494359153 
Si 11.390668469999998 1.5193862189999998 29.926044707706353 
Si 9.83875275 3.66979491 27.205673320749327 
Si 11.901131909999998 2.81745324 28.043321511638087 
Si 8.50302162 2.17106604 34.1937293757441 
Si 10.24926075 0.316804662 34.05921477111703 
Si 9.15238989 0.7755457229999999 30.252104259172675 
Si 8.29185435 2.56994298 31.71822063349921 
Si 11.53574721 2.17886895 32.095672807995804 
Si 10.1178819 4.07145744 32.12506457568201 
Si 10.85845788 8.126315369999999 2.703925747587337 
Si 12.21792354 4.06947006 4.0701926149882945 
Si 8.15042457 5.43963825 2.672632968494054 
Si 9.50573628 6.7855506299999995 4.071223905082547 
Si 9.50285295 4.07225565 6.787504507999036 
Si 8.145048869999998 5.42986425 8.145541680447854 
Si 10.8592398 5.4312326099999995 5.429398582877266 
Si 10.862106840000001 5.434555769999999 10.859106552782809 
Si 8.147264309999999 8.14947975 10.859965961194685 
Si 9.50106105 6.786951569999999 9.501413143698741 
Si 9.49335588 4.069616669999999 12.2160780588009 
Si 9.512235989999999 6.58907694 14.695161940039199 
Si 10.87499223 5.2655144400000005 16.063958905804725 
Si 8.16681231 4.74640101 16.071452947156295 
Si 12.06336402 5.356412639999999 21.46303755991095 
Si 8.27289279 4.13655228 20.780632904543747 
Si 9.23680467 7.163478629999999 18.249159486517396 
Si 11.51111673 6.83401338 17.62076005575257 
Si 9.74790342 5.87236581 20.187881734703602 
Si 10.477076399999998 4.30005501 18.52231385614854 
Si 11.454443819999998 5.94394407 24.860279012062694 
Si 9.11518353 7.78917753 22.107387610800224 
Si 11.28854646 7.11162756 22.81168999250207 
Si 9.922287869999998 4.1911726499999995 24.93050986748132 
Si 9.520967429999999 5.729372189999999 28.20843105572799 
Si 11.05188534 7.041042989999999 26.914368245459332 
Si 9.589922999999999 5.90905089 30.59229248493026 
Si 11.56140396 7.176168539999999 30.59308314066919 
Si 11.4121224 4.92741549 34.279532711585944 
Si 9.44073918 9.45427617 1.334730016318701 
Si 8.1362034 10.875318029999999 2.691120562250362 
Si 11.47034286 10.05145128 0.17883704653450608 
Si 12.201128549999998 12.13394859 1.298452668436528 
Si 12.217597739999999 9.50278779 4.067270626387911 
Si 8.14600998 8.143973729999999 5.429673593569068 
Si 9.502869239999999 9.502250219999999 6.787091991961335 
Si 10.86033123 8.14540725 8.145026035400727 
Si 8.14491855 10.86013575 8.144922906391303 
Si 10.85976108 10.85912577 5.429501711886692 
Si 9.47173905 9.51080247 12.208549641112853 
Si 10.86132492 10.86052671 10.861753530691393 
Si 11.61794655 9.8741835 14.836139295923584 
Si 10.80080757 8.14245876 13.48865565877262 
Si 8.623306979999999 8.15381289 16.192767038576925 
Si 9.7621083 11.67248547 15.138960443932737 
Si 8.65318284 12.000109949999999 17.379060033996144 
Si 9.095358599999999 8.74520505 19.897504820498433 
Si 10.94831352 10.131565499999999 19.496161092151638 
Si 9.90783864 11.407284269999998 22.816124539907356 
Si 8.474970240000001 9.62434377 23.469103051251874 
Si 11.74768011 10.625071049999999 21.612987139615335 
Si 8.314855829999999 9.23307426 25.76121403840211 
Si 9.50422131 9.51526593 28.890079431692744 
Si 8.84898864 11.75885505 28.879147756693662 
Si 11.71573542 11.163813929999998 25.929898721485426 
Si 10.42432938 9.27920754 26.748193034938698 
Si 11.2785444 9.47237436 30.361042869462267 
Si 8.738184059999998 10.421999909999998 33.04844734973967 
Si 10.983320729999999 10.81064673 32.3869778832858 
Si 9.50269005 12.22215894 4.070811389044846 
Si 9.38023812 14.94384327 1.2941212500406654 
Si 10.85088303 13.568055029999998 2.69029553017496 
Si 8.13415086 16.2950499 2.7156824546618212 
Si 8.14410405 13.57532037 5.4306705073268455 
Si 9.502282799999998 14.932863809999999 6.787504507999036 
Si 10.860038009999998 13.575369239999999 8.144647895699501 
Si 9.502282799999998 12.21663663 9.50247881012947 
Si 8.14298004 13.578057089999998 10.862441057420893 
Si 9.484933949999999 14.929035659999998 12.251279427351403 
Si 10.86376842 16.2911403 10.864159874244649 
Si 11.81207448 15.037250129999999 14.970619524214174 
Si 10.672181729999998 13.42092375 13.665246899245208 
Si 8.19955521 16.18572771 13.978862216907544 
Si 8.86804794 12.64501476 21.12449939830417 
Si 10.151194949999999 12.353342309999999 19.11437749925918 
Si 11.428591589999998 14.25878361 18.415575331393352 
Si 8.86193919 14.94646596 21.685349327895423 
Si 11.15166159 15.64305894 22.117563006396853 
Si 11.93312547 14.675498099999999 24.211631919114033 
Si 10.55725578 12.75578676 24.60108143504044 
Si 8.66225637 13.95565929 25.35103559158122 
Si 9.61176789 15.193520099999999 27.140014518081887 
Si 10.57624992 13.421526479999999 28.56333235349692 
Si 9.6783777 15.32836872 31.728705416124114 
Si 11.423199599999998 14.171029379999998 30.65994511511326 
Si 13.165415099999999 3.1123674 0.18406293720545075 
Si 14.932928969999999 1.358595774 4.0710863997366475 
Si 13.57455474 0.00023372729099999998 8.144785401045402 
Si 13.57554843 2.71528236 5.430704883663321 
Si 12.217174199999999 1.357800822 6.78726387364371 
Si 16.293257999999998 0.001589514669 10.860206595550013 
Si 14.93235882 1.355870457 9.502238175774144 
Si 13.57374024 2.71640637 10.86189103603729 
Si 12.210430139999998 1.359012798 12.221647025309865 
Si 14.939298359999999 4.076100090000001 12.23697887137776 
Si 16.20253899 2.55803499 13.653283934151872 
Si 15.4390104 3.67898247 17.03048398213863 
Si 13.444527959999999 -0.0181957671 13.651358859309267 
Si 14.80449861 1.141187805 15.100802710445375 
Si 13.415173379999999 2.50789437 16.409784850744227 
Si 12.27848976 3.91175028 14.890350778544816 
Si 14.121752129999999 0.16702137 19.893070273093144 
Si 12.882050549999999 1.8991696499999997 18.781614562180216 
Si 14.112417959999998 3.9358757699999996 18.94431776271686 
Si 13.547562209999999 2.38817916 22.99477836056845 
Si 15.0416973 1.013071842 21.895182485739433 
Si 13.922867519999999 2.62723491 25.265885406132398 
Si 16.123646519999998 3.2250779099999995 25.795727880223108 
Si 12.99647151 1.131122214 26.814848751363918 
Si 15.689208509999998 1.5474766949999998 32.36851779059867 
Si 13.73300757 2.8069624799999997 32.314168802631535 
Si 16.285569119999998 8.13274992 2.7123823263602116 
Si 14.971731749999998 4.12537734 1.3046300961011037 
Si 13.587244649999999 5.44340124 2.703709176667544 
Si 12.25438056 6.75738522 1.257582642001282 
Si 14.93144658 6.788499119999999 4.074730291403008 
Si 14.93261946 4.0726629 6.78726387364371 
Si 13.57476651 5.430271499999999 8.144751024708928 
Si 12.217874669999999 6.78708189 6.787882647700261 
Si 16.2937467 5.4307439099999995 10.85769712298733 
Si 12.216343409999999 4.071050189999999 9.503441347550773 
Si 14.932228499999999 6.78605562 9.502100670428243 
Si 12.2267853 6.785273699999999 12.221647025309865 
Si 16.213127489999998 5.85897543 16.541961864490986 
Si 16.18644447 8.10683253 13.62846421921685 
Si 13.62702483 5.4794347199999995 13.653215181478922 
Si 14.616658619999999 7.12578357 15.141573045504845 
Si 16.1994276 7.30798722 18.45136109766393 
Si 15.561364589999998 4.18727934 20.809818414211104 
Si 14.23659663 7.86142368 19.602108961167897 
Si 12.89123811 5.9342026500000005 19.351196081236147 
Si 16.078783859999998 5.93426781 23.588285809811047 
Si 14.070650399999998 4.720385879999999 22.62358267931032 
Si 13.60118889 5.02018704 25.08193762965414 
Si 15.591175289999999 6.721254 25.790708935097744 
Si 15.593993459999998 4.90487013 27.43551350642185 
Si 12.687564239999999 6.783367769999999 28.549409937224507 
Si 13.481571419999998 4.5757306799999995 28.63053809130574 
Si 14.009709509999999 4.843017 31.194222136609262 
Si 12.63048408 6.3371032199999995 32.47821268029071 
Si 16.012076309999998 6.0740685899999995 31.122788109414003 
Si 14.97469653 9.50580144 1.3452147989436065 
Si 13.584019230000001 10.86515307 2.7111550911480506 
Si 16.289006309999998 10.86007059 5.430395496635044 
Si 13.5764118 8.144266949999999 5.429639217232593 
Si 14.932375109999999 9.502673759999999 6.787676389681411 
Si 13.574457 10.85995656 8.144819777381876 
Si 12.216718079999998 9.501680069999999 9.502375681120045 
Si 13.575287789999999 8.142784559999999 10.86065348792419 
Si 14.930338859999999 9.504367919999998 12.224328379554924 
Si 16.292606399999997 10.861292339999999 10.862028541383191 
Si 12.79015866 8.49445308 16.36983954776016 
Si 13.50879201 10.77467841 13.643108538555243 
Si 14.79288384 12.01569948 15.182755896602014 
Si 16.2543249 11.24995545 19.60630287421786 
Si 14.05043451 11.70851895 18.926201433394485 
Si 13.040584829999998 9.58358619 18.551636871161797 
Si 15.005240279999999 8.602618679999999 21.714156697861558 
Si 12.8787111 8.86987242 22.767653905477463 
Si 14.246468369999999 11.96757882 23.04383339271842 
Si 13.427830709999999 10.20397455 24.609056745102663 
Si 15.88553559 10.802306249999999 21.880263155709237 
Si 14.865227729999999 9.03809925 26.220310012027063 
Si 13.04205093 10.49737374 29.2094699738829 
Si 14.18508765 8.59545108 28.4265489106625 
Si 15.73358247 8.30379492 30.28403987575804 
Si 14.19740289 11.496048479999999 30.983357688670996 
Si 15.11495343 9.75546198 32.26157300782464 
Si 13.378146209999999 8.3243529 34.183760238166315 
Si 12.21937335 14.93200044 4.0680612821268385 
Si 14.932668329999998 12.21663663 4.072736463887452 
Si 14.91478191 14.97691197 1.1509128699190472 
Si 13.57093836 16.28639991 2.6886695294596876 
Si 16.27757073 13.58017479 2.6829114931001086 
Si 13.57499457 13.57359363 5.429914227924393 
Si 12.21776064 12.217043879999999 6.787813895027311 
Si 14.9325543 14.932505429999999 6.7872294973072345 
Si 12.216783239999998 14.93072982 9.501103756670465 
Si 14.93133255 12.21689727 9.502100670428243 
Si 13.572143819999999 13.57865982 10.861375390990165 
Si 12.218868359999998 12.21795612 12.241138408091247 
Si 14.916117689999998 14.93490006 12.23481316217983 
Si 15.36303384 15.347004479999999 16.266504280316013 
Si 13.2776532 13.78570572 16.495381928567227 
Si 16.09673544 13.38432012 13.587384497129106 
Si 13.113156779999999 12.47763501 21.012123154367067 
Si 12.52487601 14.740185689999999 20.43924150700953 
Si 15.987462119999998 16.11354672 18.43382916606163 
Si 15.67410768 15.54844662 23.272126643249557 
Si 14.28131268 13.94148699 24.262543273433657 
Si 15.709408109999998 13.073718689999998 26.0251899261944 
Si 15.736970789999999 12.90545928 29.933951265095626 
Si 12.560828039999999 12.33850212 27.79550250198909 
Si 14.57676441 13.707269369999999 27.981719116674707 
Si 14.3241228 16.04493324 28.293615617513286 
Si 13.47463188 13.51595961 34.272588691617976 
Si 12.894219179999999 15.9977574 30.178092006741785 
Si 12.57511437 12.773282219999999 32.18075424077168 
Si 14.75782776 15.723075419999999 31.65338686290717 
