&CONTROL
  dt          = 30.D0,
  prefix = 'x1.66_y1.66_z3.17_struc13-scf',
  pseudo_dir = './',
  outdir='./',
  wf_collect= .true.,
  verbosity= 'high',
/

&SYSTEM
ibrav= 6, celldm(1) =30.783621515, celldm(3) =2.1163055416155427, nat=  432, ntyp= 1,
  ecutwfc     = 12.D0, nbnd= 1728,
  degauss     = 0.05D0,
  occupations = "smearing",
  smearing    = "methfessel-paxton",
/
&ELECTRONS
  electron_maxstep=200,
  conv_thr    = 1.D-8,
  mixing_beta = 0.3D0,
  scf_must_converge=.false.,
/
&IONS
/
ATOMIC_SPECIES
Si  28.08  Si.pbe-hgh.UPF
K_POINTS {automatic}
1 1 1 0 0 0
ATOMIC_POSITIONS (angstrom)
Si 0.0021671401499999995 2.7095157 2.6958840435865783 
Si 2.73621501 0.00305848008 2.692726168644379 
Si 1.4925679920000001 1.446055155 1.2784567069488608 
Si -0.001591798527 0.00027436758299999997 5.430062492039913 
Si 0.000193513797 2.71458189 8.145179924603053 
Si 2.71450044 0.000513058437 8.145179924603053 
Si 2.7162434699999998 2.71336014 5.430165915891732 
Si 1.3576183739999999 1.357463619 6.787603971012846 
Si 2.7140606099999998 2.71549413 10.86146949415347 
Si 1.3488722729999998 1.360837278 12.22962915524646 
Si 4.07194614 1.3574913119999998 9.501307944267795 
Si 2.7364593599999996 0.1250433432 13.677804403029894 
Si 4.0587838199999995 1.548817362 17.156017488929052 
Si 1.7481613499999997 3.69238914 15.124359343801498 
Si 3.59746731 2.09373741 14.905238676414838 
Si 2.0886223499999996 1.197082053 18.574475616623232 
Si 0.208117782 2.33098497 17.678721636021027 
Si 2.9370869999999996 3.3640478999999996 22.134462494693754 
Si 0.785311578 2.61247617 22.670853064843072 
Si 4.03413705 1.329907455 21.72621407694787 
Si 0.879642081 2.00160117 24.968655255317547 
Si 2.59519248 0.9879282269999999 29.709363300368206 
Si 2.94243012 1.81607436 26.17337075591964 
Si 2.1883985999999997 2.74761801 28.1916527495453 
Si 2.6812525499999995 3.0448290599999996 34.46172376605711 
Si 1.577600163 1.218806397 31.832517079738086 
Si 3.44113218 2.75972148 32.301302925415214 
Si 1.3559095529999998 4.07297241 4.067418769710589 
Si 2.70708849 5.452132679999999 2.6940810211032047 
Si 1.4533318979999998 6.9046631099999995 1.1552168451216367 
Si -0.00032806431 5.429522159999999 5.430407238212642 
Si 2.7152660699999998 5.4297990899999995 8.144869653047595 
Si 1.357193205 6.787684619999999 6.787121326371025 
Si 1.358403552 4.07215791 9.501687165057799 
Si 1.3516643789999998 6.78546918 12.243729273711086 
Si 2.7449953199999997 5.444997659999999 13.676080672166247 
Si 0.760843998 6.610270229999999 17.97727182160449 
Si 3.76908246 6.32583054 20.313340837251904 
Si 2.7111121199999997 4.2785359199999995 19.948668335738986 
Si 0.512134794 4.5946596600000005 19.10472970489797 
Si 2.61101007 7.69060674 18.874508210749433 
Si 0.905836401 6.679372409999999 23.22934186466433 
Si 3.7837434599999997 5.0716471499999995 23.78879595376923 
Si 3.26285442 6.96068442 22.510270297585823 
Si 0.733932918 6.03409293 25.55724039601806 
Si 2.7111284099999997 6.06447378 29.59604523339213 
Si 0.35907069599999997 5.753139299999999 29.186797051745327 
Si 3.0273336 5.871795659999999 25.954698258557524 
Si 3.59078841 4.6512511199999995 27.95384683959672 
Si 2.84188824 5.04742392 31.745503145741242 
Si 0.6029857529999999 4.64194953 32.704690422125616 
Si 3.04950429 7.920751859999999 34.00565905415369 
Si 1.3544727749999999 9.50477517 4.070900706055153 
Si 2.71218726 10.852055909999999 2.6790914575129405 
Si 1.236731913 12.163889609999998 1.1986445205003302 
Si -3.815346059999999e-05 8.14506516 8.145007551516688 
Si 2.7152009099999996 8.145781920000001 5.430096966657186 
Si 0.000328197888 10.86039639 5.43085540823719 
Si 2.71541268 10.86002172 8.14490412766487 
Si 4.08279528 9.498275459999999 12.242660560575624 
Si 1.3586690789999998 9.505426769999998 9.502583505106893 
Si 2.7150705900000003 8.1454887 10.864985905115308 
Si -0.00203493051 10.86042897 10.859952610993462 
Si 1.367841978 12.226117409999999 12.212633168930914 
Si 2.75214663 9.79201674 16.50337850933546 
Si 1.001823597 9.981990719999999 14.774166181543206 
Si 2.7401734799999997 10.90483551 13.571794954915672 
Si 1.316197791 10.84423671 18.040877490473022 
Si 0.30645562499999995 10.2459213 21.30141784291098 
Si 4.00944141 10.50577938 20.930195164116206 
Si 2.0898603899999997 9.71636598 19.888372230128653 
Si 1.301101848 11.94860097 22.503340899513965 
Si 1.64289537 10.87197858 24.529241783556945 
Si 3.80089683 9.910868579999999 24.693272012541485 
Si 3.8444725799999997 8.181522179999998 26.280655764872954 
Si 3.16711809 8.3611683 29.899042644603796 
Si 0.256670127 9.18340605 27.56021565957455 
Si 2.674818 11.939185349999999 27.83366832378333 
Si 2.5912502999999996 9.48328866 27.8904824930491 
Si 3.7145272499999997 11.09404386 32.34891237186911 
Si 2.16842706 9.09674325 32.00451094531267 
Si 0.538164585 15.687791279999999 -0.0008243398109213592 
Si 4.05133929 14.835123809999999 1.2029400578125358 
Si 1.358916687 14.93359686 4.067935888969682 
Si -0.0001436571117 13.57435926 8.144490432257594 
Si 2.7162271799999997 13.57450587 5.430131441274459 
Si 1.3574896829999998 12.21743484 6.787672920247392 
Si 1.357577649 14.931283679999998 9.502031911230526 
Si 2.7120895199999997 13.57409862 10.85933206788255 
Si 2.7016964999999997 13.98263553 16.361274136936494 
Si 3.96843948 12.40920072 14.813880940641605 
Si 0.14991182009999998 13.6749663 13.618301213616839 
Si 1.180969614 15.2884908 15.046998302641073 
Si 0.0838930113 15.400403099999998 21.19895928037587 
Si 2.33253252 16.20371187 20.60796091646625 
Si 3.13820334 14.10376797 19.895060305879596 
Si 1.5093727559999999 13.21772229 18.42368364067149 
Si 3.41207082 12.610317059999998 21.74134843393068 
Si 3.4973489699999996 15.202984589999998 24.47091073113117 
Si 1.1777621129999998 14.721044939999999 24.697650288935144 
Si 1.353317814 12.713253570000001 25.967867562355778 
Si 1.88318916 13.18041819 29.687230596078997 
Si 3.3638524199999997 15.816970979999999 26.716414927202628 
Si 1.8280638 15.330600449999999 28.53774343234812 
Si 2.22552351 13.93238088 34.304795308230794 
Si 3.1528317599999998 13.41492903 31.921358168450396 
Si 8.138956409999999 0.0217432404 2.6874791318954414 
Si 4.074063839999999 1.35588186 4.075899525559726 
Si 5.41531728 2.70329292 2.7137453427956766 
Si 6.59422458 1.2950631449999999 1.2222355011001875 
Si 5.42991312 0.002764413 5.429752220484457 
Si 5.429294099999999 2.715543 8.145076500751234 
Si 6.787521719999999 1.3574961989999998 6.787259224840117 
Si 6.78403566 1.3624190369999998 12.243143205217445 
Si 5.48091711 2.9292189299999998 13.596513255500355 
Si 7.67066778 2.97085617 21.360541811534034 
Si 6.0255081 1.5065953109999999 20.44451675597535 
Si 5.87761119 2.6974773899999995 18.378004772784877 
Si 5.02455276 0.641154852 23.74522003753626 
Si 5.14597842 2.36105631 25.320227402266756 
Si 6.648274799999999 2.15800146 27.137694750277678 
Si 6.41855322 0.320451993 28.571528557275577 
Si 5.84659503 2.4901708499999997 31.586437261644004 
Si 4.898044619999999 0.7352735850000001 30.27309224201495 
Si 7.62883506 3.11239998 34.41487276118322 
Si 4.172422859999999 4.170223709999999 1.392216049026033 
Si 6.78889008 4.07240226 4.069039076722415 
Si 4.0699261799999995 6.787391399999999 4.070555959882424 
Si 5.88560958 5.06799819 0.04064143681069661 
Si 6.88410513 6.9167177099999995 1.304598809226914 
Si 4.0725814499999995 4.0723696799999995 6.787569496395573 
Si 5.4291312000000005 5.42996199 5.429614322015365 
Si 6.78776607 6.78713076 6.787707394864665 
Si 6.787375109999999 4.0725 9.502169809699618 
Si 4.07458512 6.7877497799999995 9.501928487378708 
Si 4.05422262 4.095990179999999 12.205979567797241 
Si 5.4263619 5.430271499999999 10.859538915586185 
Si 6.786739799999999 6.8185053 12.22662986354372 
Si 6.33620727 4.823436419999999 15.026451430746413 
Si 4.51951389 6.57190728 14.972291807010661 
Si 4.11741153 7.8501835799999995 17.089998596851416 
Si 6.62537106 4.96874322 17.707404517592092 
Si 7.4489282999999995 6.73156557 21.385535909056898 
Si 6.01109145 6.571728089999999 19.565172693195056 
Si 7.51915449 4.81722993 22.79165212376737 
Si 5.919785999999999 4.4845229699999996 24.496249574826763 
Si 6.202173149999999 7.8685912799999995 26.431344316972876 
Si 6.7274442 5.58924561 26.444030976129312 
Si 5.90841558 4.19063508 28.143009064573214 
Si 6.522923249999999 6.55253847 31.499250954560797 
Si 4.58584677 6.29621532 32.94170341587692 
Si 6.6919319999999995 4.37974569 30.358692716703604 
Si 8.15099472 10.85575374 2.6932260505948364 
Si 4.1093154 9.4452678 1.2007336823070691 
Si 5.428544759999999 8.14628691 2.704482013134444 
Si 6.7870167299999995 9.503439389999999 4.07062490911697 
Si 4.073086439999999 12.22064397 4.069004602105142 
Si 6.75042939 12.230922960000001 1.3052055624909173 
Si 4.07223936 9.50283666 6.787431597926481 
Si 5.42991312 8.145048869999998 8.145110975368507 
Si 5.42988054 10.860103169999999 5.430441712829915 
Si 6.788531699999999 9.50259231 9.501894012761435 
Si 5.43188421 10.858083209999998 10.86133159568438 
Si 6.808193729999999 12.20371866 12.226250642753715 
Si 5.0333982299999995 10.857154679999999 16.24316409815948 
Si 5.5674333 8.27501049 13.734515148443842 
Si 6.879413609999999 9.63481824 15.165039392183541 
Si 7.74188766 10.71259722 21.116944165883602 
Si 5.867804609999999 10.683405539999999 19.576066672253294 
Si 6.13460223 8.64528219 18.396069472235883 
Si 7.64106885 8.79101253 24.74239834215539 
Si 6.93672183 8.78690745 22.475416459522904 
Si 4.535673569999999 8.998758899999999 22.665854245338497 
Si 5.24808414 11.72132289 25.30760969234487 
Si 7.51195431 11.023996859999999 25.52000780936331 
Si 7.08398343 8.74878885 28.43514697134392 
Si 6.4306404 12.18812913 29.29718477625321 
Si 7.7923703699999995 10.93257738 27.871418029697175 
Si 8.02020231 8.442992969999999 34.23488078440132 
Si 5.23190817 11.050484399999998 34.28490345406432 
Si 7.1795731499999995 10.62202482 32.96090577769794 
Si 5.5623834 8.49591918 30.239376066322034 
Si 5.734682729999999 10.66649652 31.07028329183389 
Si 5.42243601 13.56803874 2.7078777629358264 
Si 6.78708189 14.93165835 4.06672927736513 
Si 4.07267919 14.93229366 6.7875350217783 
Si 5.430190049999999 13.574587320000001 8.144973076899415 
Si 6.787440269999999 12.21736968 6.78729369945739 
Si 4.07287467 12.220057529999998 9.50113557118143 
Si 6.78815703 14.934167009999998 9.50347984515599 
Si 4.0723370999999995 14.944950989999999 12.23693777410832 
Si 5.426117549999999 16.291629 10.86298637731348 
Si 4.68449901 15.55445763 16.667374263702726 
Si 5.47208793 13.57028676 13.523185744560859 
Si 6.71297868 14.748070049999999 15.093745883663148 
Si 8.01839412 16.27369371 13.782641714156835 
Si 6.47524242 15.44490738 20.184267870182097 
Si 5.05547118 14.443121249999999 18.635392265344475 
Si 5.85377892 12.33664506 17.954690947290725 
Si 6.458251949999999 14.358315509999999 22.286012912225495 
Si 4.70018628 13.364723249999999 23.582775640946274 
Si 7.25364378 16.047686249999998 23.676477650694064 
Si 8.12090709 12.746648069999999 22.22964691298428 
Si 7.31282535 14.70604185 25.61546802459202 
Si 5.4917336699999995 14.945048729999998 27.167239497280566 
Si 4.88786337 12.67461369 27.515984725613396 
Si 7.7572654199999995 14.026797719999998 34.44614123904976 
Si 5.1546121199999995 15.038080919999999 31.68896477341366 
Si 7.234633349999999 14.003845109999999 30.65731185152161 
Si 5.75535474 15.66065214 34.13162930566893 
Si 9.49851981 1.359260406 4.0706938583515155 
Si 10.85971221 2.70958086 2.6936914579280207 
Si 9.4539015 4.02376032 1.230333588697596 
Si 8.1456516 0.000588246561 8.144387008405776 
Si 8.146971090000001 2.71581993 5.4310277813235555 
Si 10.860803639999999 0.001364655654 5.429890118953549 
Si 10.85896287 2.71487511 8.145042026133961 
Si 9.503797769999998 1.357158996 9.499997908811425 
Si 8.14783446 2.7141909299999996 10.86146949415347 
Si 9.2734083 1.329729894 15.444421690563262 
Si 10.651477139999999 2.7982962 14.006485404109885 
Si 12.10935069 2.33746839 21.346717490007595 
Si 11.627117819999999 0.390117807 20.12848793943452 
Si 9.33229665 3.06947583 19.773813076930747 
Si 9.655522829999999 0.8203937219999999 18.847755907745647 
Si 8.19603657 2.28856581 17.654003335436343 
Si 9.96804648 2.60058447 22.301319642294672 
Si 9.575131679999998 0.4903094519999999 23.433948718179096 
Si 10.07788995 3.9701987999999995 25.66700757741503 
Si 10.07196039 0.388480662 25.80976696754218 
Si 10.44158049 0.469044486 29.934965195802178 
Si 10.1628423 2.57518836 28.91910164862113 
Si 9.01679193 2.24238366 26.809944563864054 
Si 10.796164919999999 1.2595476869999997 32.25452086977587 
Si 11.884907069999999 3.48078204 32.760884048280474 
Si 8.53825689 2.2918401 32.3652188658392 
Si 10.87290711 8.135307449999999 2.677043665246929 
Si 12.12997383 6.61535271 1.056378117400183 
Si 8.159661 5.435533169999999 2.6967976209443107 
Si 9.50239683 6.78496419 4.071728096869704 
Si 9.50272263 4.07284209 6.787810818716484 
Si 8.14490226 5.4301086000000005 8.144869653047595 
Si 10.860168329999999 5.4304995599999994 5.430200390509004 
Si 8.14172571 8.143354709999999 10.860676577956193 
Si 9.50251086 6.78665835 9.501342418885068 
Si 9.49614147 4.0620744 12.247314633907468 
Si 10.8611946 5.43111858 10.859849187141643 
Si 11.65710771 4.69619523 15.162764067443527 
Si 8.70377958 6.0129648 17.019877225318304 
Si 8.178557399999999 5.527196999999999 13.59916780103037 
Si 9.98466228 6.49355238 14.96612085051881 
Si 9.47711475 7.079226749999999 20.201608602670376 
Si 10.16277714 5.17604976 18.868371728874852 
Si 11.041052489999998 6.6681811799999995 23.70953880865879 
Si 10.870007489999999 8.069642459999999 21.799713960973726 
Si 9.664189109999999 7.70282424 25.369457155732483 
Si 9.77776299 4.62499164 23.471939746413845 
Si 9.06812172 5.80191156 26.64422507863314 
Si 12.13826544 5.918075549999999 28.683088418770737 
Si 9.77603625 6.010684199999999 28.844705424546174 
Si 8.770031009999999 6.853219289999999 32.64866916905713 
Si 9.062778599999998 4.14994266 30.284158594159557 
Si 10.54520118 5.267827619999999 33.98445716453085 
Si 9.55410129 9.53093691 1.245392101522406 
Si 8.14486968 8.14410405 5.43002801742264 
Si 9.502022160000001 9.50269005 6.787603971012846 
Si 10.859875109999999 8.14454388 8.144973076899415 
Si 8.14491855 10.85984253 8.145697043862146 
Si 10.85860449 10.85920722 5.430165915891732 
Si 9.490733189999998 9.5273694 12.242419238254714 
Si 10.85531391 10.859402699999999 10.865571973608947 
Si 10.91840508 8.26776144 13.608682795397694 
Si 8.19766557 11.1267216 13.887134279111047 
Si 9.02803203 8.49424131 16.04803776439477 
Si 9.20572335 11.06102403 19.196845882251207 
Si 12.04536357 8.74830015 18.06759531885953 
Si 9.41158008 8.808573149999999 18.381659082215805 
Si 11.05882488 10.933245269999999 24.18177211606321 
Si 10.19480328 10.33414794 22.058480438224244 
Si 10.834886249999998 9.585589859999999 26.163786812317767 
Si 11.516508720000001 11.079480599999998 29.941205101528578 
Si 9.33532659 8.30068353 29.030523611647197 
Si 10.109525129999998 10.93190949 28.002731846889713 
Si 10.16891847 8.35250202 31.222385303241996 
Si 10.84347108 11.02872096 34.382535570181226 
Si 11.444946749999998 10.11920139 32.25455534439314 
Si 12.216555179999999 14.92963839 4.070659383734243 
Si 9.50019768 12.220676549999999 4.070487010647878 
Si 9.5386095 15.08007654 1.1940525014795778 
Si 10.85127399 13.582487969999999 2.687061989026439 
Si 8.14475565 13.57388685 5.430751984385371 
Si 9.502250219999999 14.93252172 6.787431597926481 
Si 10.85985882 13.575108599999998 8.144800703813049 
Si 9.50355342 12.21908013 9.502376657403255 
Si 8.14666158 13.569716609999999 10.862951902696205 
Si 9.50589918 14.944103909999999 12.247176735438376 
Si 10.85161608 16.2976563 10.859297593265277 
Si 10.833566759999998 13.804846469999998 15.8128863999762 
Si 8.45610642 13.04824113 15.613588637521467 
Si 11.364702209999999 14.04509139 13.523564965350863 
Si 11.07436554 16.11116838 16.405505070897647 
Si 9.84561084 13.78130742 20.989594929677445 
Si 11.20435974 12.22110009 19.819388520965546 
Si 8.60281416 14.93641503 19.316507278805503 
Si 8.18699562 12.83612904 17.946313615293406 
Si 10.83736233 13.173299459999999 24.87154025845974 
Si 11.067963569999998 15.40256967 22.09485115944717 
Si 8.497206089999999 12.91502151 24.539549694121547 
Si 10.70407755 13.131336419999998 27.196611871197096 
Si 8.42245128 15.61407903 29.28308465778859 
Si 9.13372155 14.902857629999998 27.12828317976217 
Si 10.54466361 12.47983416 32.363564084210104 
Si 8.212961879999998 12.786428249999998 32.49087884579899 
Si 11.276052029999999 16.07373396 34.27173415026607 
Si 12.272006339999999 1.3341477419999999 1.316109883934341 
Si 14.931853829999998 1.3562728199999998 4.074313693165172 
Si 13.57532037 -4.9742166599999996e-05 8.144973076899415 
Si 13.57496199 2.71459818 5.430889882854463 
Si 12.21735339 1.357712856 6.7875350217783 
Si 16.28988597 0.00502834833 10.860711052573466 
Si 14.93252172 1.355837877 9.501997436613253 
Si 13.578643529999999 2.71534752 10.867812823731686 
Si 12.19796829 1.36858806 12.256484882102065 
Si 14.922975779999998 4.06808541 12.269619711283045 
Si 16.253787329999998 2.5625799 13.794156236325989 
Si 15.88190292 0.828292743 15.609210361127806 
Si 13.29141825 0.11911003649999999 18.470258848607205 
Si 13.331133269999999 3.70439487 19.7981866313427 
Si 14.70418479 1.8119855699999998 19.333192993565596 
Si 13.68138456 0.185336217 24.704889958562458 
Si 13.72246794 1.96706637 23.092822380263573 
Si 15.45126048 1.276038054 21.552668853596003 
Si 15.94634616 0.0513995112 25.612365309037457 
Si 16.049543309999997 3.8875433399999997 25.83386472501595 
Si 12.354401159999998 0.0193922676 28.559290068143692 
Si 14.38837056 2.8231710299999997 29.378062228375473 
Si 14.44489686 0.5146385669999999 29.537162587089988 
Si 12.35210427 3.45010797 26.09301042305647 
Si 12.275524979999998 1.0534140269999999 26.361740064698857 
Si 16.262486189999997 3.65225058 28.19303173423622 
Si 12.358294469999999 3.60186561 28.451660313017644 
Si 13.536354689999998 2.79668349 34.44589991672885 
Si 13.993093709999998 3.7157001299999997 31.47177468459428 
Si 15.440688269999999 0.49866948 31.701065364076452 
Si 15.51220137 2.54135403 32.903333166852164 
Si 16.005283379999998 5.74284402 0.11748846142758358 
Si 16.3036836 8.14620546 2.6937948817798394 
Si 12.21888465 4.0762467 4.072003893807886 
Si 14.88363543 4.089620790000001 1.372113899694195 
Si 13.54821381 5.43683637 2.706340195005454 
Si 14.934623129999999 6.78669093 4.0678324651178634 
Si 14.932538009999998 4.07276064 6.7875350217783 
Si 13.57489683 5.430434399999999 8.145248873837598 
Si 12.21764661 6.7870656 6.787224750222844 
Si 16.2906516 5.42846331 10.866744110596226 
Si 12.216050189999999 4.07149002 9.502583505106893 
Si 14.93172351 6.7893462 9.501273469650522 
Si 12.2046309 6.803094959999999 12.212564219696368 
Si 16.187959439999997 8.14029219 13.649087046841554 
Si 13.404682619999999 5.47275582 13.687629668952676 
Si 14.17176243 7.47567648 14.985150839253459 
Si 13.48725663 7.01489754 17.21327982821937 
Si 15.00110262 5.11499484 20.624198461201797 
Si 14.623370099999999 7.47241848 20.5902064885707 
Si 15.235955549999998 8.014940639999999 18.37803924740215 
Si 12.39325281 4.9223167199999995 17.717988225094878 
Si 15.921797129999998 4.675197419999999 22.719910445222432 
Si 13.26774888 6.4444869 24.585642257415437 
Si 14.14854918 4.1045424299999995 24.39303257071165 
Si 13.43219643 6.79128471 26.914092382645535 
Si 15.80441139 6.98345784 27.362227932576186 
Si 15.279335819999998 5.65564365 31.182739493378143 
Si 14.2301295 7.66811025 31.88846938357203 
Si 12.441145409999999 7.6449621599999995 30.278228959988613 
Si 14.10344217 7.3855602 34.30010676028168 
Si 14.935111829999999 12.21557778 4.071279926845155 
Si 12.21714162 9.50383035 4.069004602105142 
Si 14.80638825 9.292174379999999 1.258451086545387 
Si 13.572795419999999 10.85915835 2.682966404494416 
Si 13.576069709999999 8.1464661 5.429717745867184 
Si 14.93276607 9.50255973 6.787672920247392 
Si 13.57621632 10.8598914 8.144180160702138 
Si 12.220122689999998 9.501973289999999 9.50303167513144 
Si 13.57419636 8.14496742 10.85826335474709 
Si 14.92773246 9.51200793 12.21508086675729 
Si 12.63568059 9.40597632 14.879348238842876 
Si 13.744931849999999 10.99247571 13.629160718057808 
Si 13.039183889999999 10.55245023 16.972991745827137 
Si 15.63976836 11.79335727 14.934266304158633 
Si 15.26516352 10.36377945 17.851060247768338 
Si 12.93307083 10.96012377 20.896720310744207 
Si 12.62229021 8.67593997 20.37167188967768 
Si 15.052823369999999 11.457294569999998 20.001138703228364 
Si 15.75516672 8.37134955 22.438080449016336 
Si 13.219839989999999 10.85151834 23.244683069350778 
Si 14.22793035 8.86154823 24.216901751064313 
Si 15.851701259999999 10.10089143 25.519800961659676 
Si 15.417784529999999 10.143929609999999 29.382164707830952 
Si 13.13485506 9.62825337 29.019526208737133 
Si 13.03325433 9.06678594 26.70800312058804 
Si 15.890846129999998 9.41048865 31.590160520309478 
Si 14.435872199999999 10.971673379999999 32.89478346176848 
Si 16.13504952 10.70147115 34.42283639777327 
Si 12.29512185 12.358864619999999 1.2339258438174339 
Si 15.024609089999998 14.98691403 1.4109667933607726 
Si 13.58991621 16.2935838 2.7177306085524258 
Si 16.291466099999997 13.54840929 2.712731789047853 
Si 13.574733929999999 13.57437555 5.43061408591628 
Si 12.21764661 12.21746742 6.787431597926481 
Si 14.93274978 14.932114469999998 6.787328174074663 
Si 12.21776064 14.9320656 9.504272761353267 
Si 14.93183754 12.21784209 9.500549502687791 
Si 13.58074494 13.56896727 10.85567775845162 
Si 12.23180262 12.231085859999999 12.238799403441059 
Si 14.92600572 14.924572199999998 12.238592555737421 
Si 13.620818339999998 16.166196 15.91096668611765 
Si 13.14199008 15.897736799999999 13.564451861436542 
Si 14.03683236 14.300111339999999 17.809966503979023 
Si 15.723450089999998 13.719845249999999 19.52611295182484 
Si 12.28182921 12.7223271 17.46877121682896 
Si 14.24211894 12.936410279999999 23.826752507386708 
Si 12.518294849999998 14.562087119999997 23.815686155242105 
Si 16.25665437 13.81263309 22.920862989306265 
Si 15.258712679999999 12.375838799999999 25.926704869331918 
Si 15.869783159999999 12.447710279999999 29.676129769317114 
Si 14.76054819 13.53964527 27.900618030527333 
Si 15.834873689999998 15.67855485 27.91485604746105 
Si 12.49633593 14.00198805 28.434664326702094 
Si 13.133095739999998 14.33037816 34.406288581482265 
Si 12.30492843 13.18457214 30.667137117444394 
Si 14.519830859999999 12.96361458 31.586506210878547 
Si 15.06794049 14.83062777 32.89274945934938 
