&CONTROL
  dt          = 30.D0,
  prefix = 'x1.66_y.66_z3.15_struc33-scf',
  pseudo_dir = './',
  outdir='./',
  wf_collect= .true.,
  verbosity= 'high',
/

&SYSTEM
ibrav= 6, celldm(1) =30.783621515, celldm(3) =2.104478273085783, nat=  432, ntyp= 1,
  ecutwfc     = 12.D0, nbnd= 1728,
  degauss     = 0.05D0,
  occupations = "smearing",
  smearing    = "methfessel-paxton",
/
&ELECTRONS
  electron_maxstep=200,
  conv_thr    = 1.D-8,
  mixing_beta = 0.3D0,
  scf_must_converge=.false.,
/
ATOMIC_SPECIES
Si  28.08  Si.pbe-hgh.UPF
K_POINTS {automatic}
1 1 1 0 0 0
ATOMIC_POSITIONS (angstrom)
Si 2.70932022 0.00469583685 2.6787608027418957 
Si 2.73447198 2.9339430299999996 0.038785913799955794 
Si 1.3637987999999999 1.356300513 1.1625626682470442 
Si -0.000245456091 0.000200604834 5.4301924853589405 
Si -0.000304697934 2.7152497799999997 8.145323009989479 
Si 2.71546155 -0.00051434046 8.145357291940549 
Si 2.7146796299999996 2.7146633399999995 5.430329613163214 
Si 1.357194834 1.357672131 6.7872778003592495 
Si 2.71186146 2.71547784 10.864293113139698 
Si 1.3416085619999998 1.374864597 12.237593790995438 
Si 1.3592050199999999 4.07372175 9.501551276213075 
Si 4.07390094 1.358074494 9.50309396401116 
Si 2.81079063 0.1181898144 13.516104874146592 
Si 3.8147433299999998 1.7005130999999998 14.970550930181632 
Si 2.73391812 2.94629085 17.87865455737714 
Si 2.0136231899999997 0.6103797839999999 18.625863962867633 
Si 1.87897005 3.0860264699999997 24.635524267138567 
Si 2.4141291299999996 2.17331406 22.543673894885654 
Si 1.224931437 0.170043165 22.978026214924405 
Si 1.054770984 3.71182311 21.472500051797194 
Si 3.66305085 2.0660607 25.662474393348575 
Si 2.0992923 3.7740183299999996 28.67390382106474 
Si 0.1369708812 2.82791142 27.715037649676912 
Si 0.12325877369999999 0.6076544669999999 28.473834354628583 
Si 2.7979703999999996 3.01322646 30.833083945216323 
Si 2.62021392 0.726525855 31.315259586995722 
Si 0.336538368 0.348042366 30.818959781376073 
Si 1.3556342519999998 4.0723696799999995 4.0661822162427805 
Si 2.72209158 5.435777519999999 2.7022747929798263 
Si 1.2990150989999998 6.736615469999999 1.2743698234620702 
Si -0.00037913346 8.135519219999999 2.7074239420303248 
Si -0.001036767276 5.43240549 5.42971253804398 
Si 2.71492398 5.430466979999999 8.145083036331998 
Si 1.3573479599999998 6.7877497799999995 6.787037826701769 
Si 2.7151194599999995 8.146628999999999 5.430055357554666 
Si 1.369379754 6.80226417 12.224600931540452 
Si 3.8072173499999997 6.89560587 15.192972228714499 
Si 0.793503819 4.59369855 15.010797940736131 
Si 2.6283914999999998 5.4288054 13.672430571019259 
Si 2.53237824 7.48173636 17.48118961668817 
Si 2.52198522 4.46209164 19.814624898121277 
Si 1.400553927 6.48988713 19.439717481235423 
Si 1.505940453 5.40878499 24.761956102679445 
Si 0.244390725 5.546028239999999 22.772608764121546 
Si 3.73091499 5.99690286 24.327980884102452 
Si 0.643140603 7.4610480599999995 21.474899788371996 
Si 1.7160537599999999 6.09928551 28.72518961986332 
Si 0.49022311499999993 6.430282019999999 26.749760753439258 
Si 3.89658429 6.79560156 28.218502383069893 
Si 1.8966772799999998 4.2868764 32.59699317354732 
Si 2.4437443500000002 6.743717909999999 32.43597084937826 
Si 0.930349593 7.297773389999999 30.66990185812994 
Si 3.91621374 9.46988199 1.3357345158748057 
Si 1.3540622669999998 9.50145201 4.076329673759076 
Si 0.32437462499999997 10.43677494 0.03734367211850116 
Si 2.7077889600000002 10.85607954 2.7401597771057 
Si 1.446064929 12.15874197 1.2863033706290383 
Si 0.000402193584 8.14498371 8.145014472429862 
Si 2.71498914 10.85976108 8.145083036331998 
Si 1.359292986 9.50400954 9.501962659625898 
Si 2.71401174 8.14490226 10.861173455592459 
Si -7.36632171e-05 10.8571221 10.862818989243749 
Si 0.034782082199999995 8.17821531 13.62405873806151 
Si 0.941076558 9.95897295 15.016591590466719 
Si 2.7336574799999998 10.921923719999999 13.692828331905057 
Si 1.370764404 9.55696833 17.35283799188745 
Si 1.562808843 11.30812704 19.366971181067925 
Si 1.9122016499999999 8.97300441 22.76465535147364 
Si 3.92121477 8.276867549999999 23.74364502813872 
Si 0.472010895 9.78097212 24.367405127831304 
Si 2.36330433 10.8988245 21.52700835399622 
Si 0.88871724 12.06541656 24.863156422233857 
Si 0.43983977399999996 8.7834051 26.50299926964771 
Si 2.39627529 11.94825888 26.67889996058053 
Si 2.0207745 9.914647859999999 27.89758903911703 
Si 2.14562106 8.6612301 34.072831167049145 
Si 3.06983421 10.27635102 31.98149502406226 
Si 1.600267698 9.574757009999999 30.270654255985406 
Si 4.0735262699999994 12.217972409999998 4.070810279637037 
Si 3.31043751 13.05136881 0.09131066231015067 
Si 1.3574587319999998 14.931120779999999 4.07002179476246 
Si 9.223919279999999e-05 13.574587320000001 8.145323009989479 
Si 2.71611315 13.57300719 5.431358071695271 
Si 1.3573561049999998 12.21694614 6.787723465723142 
Si -0.001266839091 16.291466099999997 10.86566439118244 
Si 1.3589671859999999 14.9323914 9.503196809864365 
Si 2.7133275599999997 13.57230672 10.85969933169651 
Si 1.381027104 12.212580419999998 12.219321511075892 
Si 3.97407582 12.582835829999999 14.96701988922157 
Si 0.16474077 13.5692442 16.344777220716228 
Si 2.77322589 15.736074839999999 16.724038445387787 
Si 2.5397738999999997 13.432913189999999 16.660034042742772 
Si 0.14322428639999998 13.627301759999998 13.595433308919258 
Si 1.033875801 15.528589109999999 14.973602023826736 
Si 3.34484199 15.770577059999999 20.362073374735232 
Si 3.4046262899999995 12.46404915 18.604129205890164 
Si 2.7088478099999995 14.801908499999998 22.48227492052185 
Si 1.417068729 12.81684168 22.67545371479323 
Si 0.21334035599999998 16.230916169999997 25.11365463869188 
Si 3.52123011 13.59138231 29.797529049288105 
Si 3.75069105 16.106900399999997 26.25483222586235 
Si 1.5442007759999998 15.63528861 27.05075628382128 
Si 1.71755244 13.556945249999998 28.20108715192706 
Si 3.31765398 12.666533849999999 32.03593476235915 
Si 6.78626739 4.06909539 4.068753362572923 
Si 4.07267919 1.358268345 4.0686162347686485 
Si 5.43616848 2.7193711499999997 2.680111511613997 
Si 6.8756017499999995 1.376760753 1.193944366255211 
Si 4.07280951 4.07245113 6.78751777401673 
Si 8.14495113 -0.000338353074 8.14484306267452 
Si 8.14693851 2.71459818 5.431803737059163 
Si 5.43178647 0.0001043871345 5.430363895114283 
Si 5.43004344 2.71498914 8.145117318283068 
Si 6.78713076 1.358007705 6.787963439380622 
Si 5.4266551199999995 -0.0019191086099999998 10.859527921941167 
Si 6.7865606099999995 1.3652616419999999 12.228303382255858 
Si 5.51827008 2.7803609099999997 13.708906566956216 
Si 5.03217648 0.19222688699999999 16.558902287090497 
Si 7.754300639999999 3.2555565 14.582890627498273 
Si 7.956524699999999 1.4119552979999999 16.17021352587508 
Si 5.060618819999999 2.40826473 17.547490910054776 
Si 4.35446361 1.350315567 21.313774618349733 
Si 5.65878762 2.75032215 19.866390644234816 
Si 7.927886879999999 1.7174546999999998 18.79891925186176 
Si 5.75642988 0.489763737 22.94059032435753 
Si 5.52698523 2.40165099 24.30977716808504 
Si 7.54435512 2.12270103 25.51009112084879 
Si 4.07041488 3.54571398 27.360459429774714 
Si 7.71310323 3.2563058399999996 27.606569556495963 
Si 5.30588106 0.210882195 28.080620375872112 
Si 5.745336389999999 2.48930748 28.590015886799957 
Si 5.10906528 3.5598048299999996 30.592321802861772 
Si 4.2176439 4.2650478 1.2604856332793002 
Si 4.07155518 6.78998151 4.071084535245586 
Si 6.9507801 6.899987879999999 1.1533133978487446 
Si 8.1557514 5.4365757299999995 2.6809959859515664 
Si 5.429180069999999 5.429391839999999 5.429198308777952 
Si 6.787407689999999 6.78726108 6.787483492065661 
Si 5.429766509999999 8.14493484 8.145014472429862 
Si 6.787896389999999 4.0729887 9.501859813772693 
Si 4.07390094 6.78875976 9.500522817681018 
Si 4.0833002700000005 4.07557881 12.246575662175404 
Si 5.42968506 5.431248899999999 10.860282124864675 
Si 6.776086139999999 6.78191796 12.25099803386325 
Si 5.57233659 6.5275496099999994 16.74093944726459 
Si 4.667084999999999 7.9445678399999995 18.433782191030453 
Si 4.75984026 4.7488119300000005 20.757755653968633 
Si 5.70767391 6.924862709999999 20.297314769166704 
Si 8.122601249999999 6.736517729999999 20.007598000686244 
Si 6.0452515799999995 4.48276365 17.698982851826777 
Si 5.19512535 4.50169263 23.115565402611498 
Si 7.4404412099999995 5.159547989999999 23.64487872711018 
Si 6.889513409999999 6.25387761 25.690996976637624 
Si 5.19302394 5.821883099999999 29.89862652298931 
Si 7.320921479999999 6.62033745 29.454503846896017 
Si 4.71548259 5.61601008 26.388771808687245 
Si 8.1168183 5.584423769999999 27.52055614126493 
Si 5.65655589 5.62951449 33.90224417853196 
Si 4.77696105 6.923966759999999 31.98848854208025 
Si 6.97734909 4.28376501 32.36483580091098 
Si 8.169760799999999 10.85474376 2.6965565635415887 
Si 5.4307439099999995 8.13903786 2.677547221674068 
Si 6.785566919999999 9.50334165 4.06642218990026 
Si 5.0828058 11.18728782 0.21958755245753755 
Si 4.0718809799999995 9.50249457 6.787380646212456 
Si 5.42997828 10.862497799999998 5.430055357554666 
Si 6.78879234 9.50332536 9.503882448885737 
Si 4.07357514 9.51158439 12.24115911390657 
Si 5.42657367 10.862693279999998 10.867755590197623 
Si 5.40702567 8.19642753 13.72104237763449 
Si 7.133195519999999 9.21764763 15.104559076908663 
Si 6.6335649299999995 10.577846339999999 17.374675594718127 
Si 4.65001308 10.55277603 21.006162671411477 
Si 4.72036959 10.37088189 18.657197666144306 
Si 5.4547390799999995 8.57982897 21.997082467048415 
Si 7.56730773 8.86115727 22.963113566209575 
Si 6.9397354799999995 8.58311955 25.194080095898737 
Si 4.85468064 9.54721062 25.55842867185547 
Si 5.5561769100000005 10.07326359 29.425021368977053 
Si 7.582099049999999 8.952202080000001 28.913671786838304 
Si 4.640678909999999 11.93687217 25.788597691329834 
Si 4.176365039999999 9.05434038 27.765637809454116 
Si 5.13620442 9.30201354 31.614746711530724 
Si 6.7662144 10.33049898 32.97759139431056 
Si 7.63474833 13.94764461 0.0711919565060512 
Si 4.12606152 14.96075229 1.244602805349233 
Si 5.42057895 13.59120312 2.7233136263506057 
Si 6.795829619999999 12.26254185 1.4365440211870348 
Si 6.783742439999999 14.932309949999999 4.072044429875505 
Si 8.148925890000001 16.3015659 2.7048973622365713 
Si 4.07277693 14.93245656 6.787414928163524 
Si 5.430206339999999 13.574880539999999 8.14484306267452 
Si 6.7872285 12.21805386 6.787586337918867 
Si 8.14410405 13.571329319999998 10.864190267286492 
Si 4.073249339999999 12.21960141 9.502236915234446 
Si 6.7870167299999995 14.93408556 9.502168351332308 
Si 4.08014001 14.93648019 12.205814422354878 
Si 6.7846221 12.23796024 12.256860247495974 
Si 7.99384509 14.042533859999999 16.09201639548768 
Si 5.89217445 12.660620579999998 16.442412217359507 
Si 5.52577977 13.88588922 13.679081269526563 
Si 6.70313952 15.558904799999999 14.90839775289432 
Si 7.839415889999999 12.32965665 20.898243089447625 
Si 4.74578199 13.98602385 19.807494252299016 
Si 5.973575579999999 14.669780309999998 17.881362831511552 
Si 5.59947573 12.60158562 21.55446819680214 
Si 7.91737983 16.077676139999998 22.183816254518902 
Si 5.524053029999999 13.05413811 23.90658714156762 
Si 4.47298965 15.14730537 24.091401139778267 
Si 7.823223629999999 12.611066399999999 24.336174270407838 
Si 6.284372489999999 13.049951579999998 27.298614790047022 
Si 5.582387519999999 12.45357468 29.398864240311735 
Si 7.26395535 15.232078529999999 27.781407506945655 
Si 4.26038886 15.80442768 30.09105111433718 
Si 7.53203988 12.64187079 32.38399941155831 
Si 5.5587670199999994 13.743872999999999 31.43308665281839 
Si 5.979342239999999 15.77932479 34.24005852436162 
Si 12.09996765 1.1954351339999998 1.3204927604297205 
Si 9.50104476 1.357074288 4.078729410333876 
Si 10.85342427 2.69816157 2.7033512462433786 
Si 10.8600543 0.0016303032 5.431426635597409 
Si 10.860380099999999 2.71480995 8.14504875438093 
Si 12.20909436 1.3509297 12.258265807489785 
Si 9.502804079999999 1.3561392419999998 9.502099787430172 
Si 8.14017816 2.71629234 10.85966504974544 
Si 12.21776064 4.07248371 9.50305968206009 
Si 10.863312299999999 -0.0014571095489999998 10.863950293629012 
Si 8.35072641 0.217909701 13.542056311105497 
Si 10.823141159999999 2.75696847 13.703147199176696 
Si 10.426821749999998 3.34981044 16.994557321269852 
Si 12.044825999999999 3.6651196799999997 20.471604208399302 
Si 8.56759518 3.6220814999999997 20.197485727655035 
Si 10.02414924 0.522742842 17.919381515246595 
Si 11.41178031 1.8096398099999997 21.755977505183182 
Si 9.04137354 1.89495054 21.86434275251092 
Si 8.84851623 3.19308435 23.915740422502928 
Si 10.92013182 3.1989487499999996 25.221642784557865 
Si 9.54147654 2.8141789499999996 29.012883753230735 
Si 10.65346452 0.0627189435 26.396108146215916 
Si 11.07944802 2.1293310599999997 27.379177375058156 
Si 8.18276022 2.83274955 34.00365018979278 
Si 9.404998919999999 1.1619526679999999 30.641550684596236 
Si 11.934526409999998 2.45258982 32.31564120112759 
Si 9.80842077 1.4586489539999998 32.92212319748162 
Si 10.87152246 8.1366921 2.684873274617421 
Si 12.235549319999999 6.76741986 1.1675301229568797 
Si 9.57171078 4.083593489999999 1.2556450217884185 
Si 9.49905738 6.786707219999999 4.0685819528175795 
Si 9.50213619 4.07214162 6.787929157429553 
Si 8.14441356 5.4304995599999994 8.145528701695891 
Si 10.860380099999999 5.42919636 5.430398177065351 
Si 10.86062445 5.42992941 10.859596485843305 
Si 8.14674303 8.144201789999999 10.862133350222377 
Si 12.203963009999999 6.79099149 12.238005174408261 
Si 9.50303214 6.7869027 9.504259550347491 
Si 9.50120766 4.0927321800000005 12.243524568530303 
Si 8.21059983 5.5159406099999995 13.760843722825095 
Si 9.03324483 7.5815288999999995 15.099382502297308 
Si 8.38816083 4.61494071 18.10021880713329 
Si 10.736087399999999 6.453153179999999 23.341963407468313 
Si 8.5853187 6.78634884 22.36266519324362 
Si 11.27401578 5.47663284 25.48235702243432 
Si 10.365750539999999 4.8620274299999995 29.876240408941538 
Si 10.41923061 5.99543676 27.719082919903002 
Si 8.650446119999998 5.83991613 31.224343852761884 
Si 12.06336402 4.6011267899999995 31.45509566540441 
Si 9.43345755 7.92519903 32.0326094131055 
Si 11.40793587 4.92906078 34.21678107958606 
Si 9.73096182 9.60896601 1.2158573893782392 
Si 9.503732609999998 12.21601761 4.072592941092602 
Si 12.21813531 9.500588639999998 4.066765009410946 
Si 8.14558644 8.1456516 5.431186661939929 
Si 9.50257602 9.502657469999999 6.78751777401673 
Si 10.85945157 8.14465791 8.145151600234136 
Si 8.145114029999998 10.85976108 8.145802957304438 
Si 10.859467859999999 10.86075477 5.428649797560855 
Si 12.217548869999998 12.21706017 6.78751777401673 
Si 9.49697226 9.532370429999999 12.22586936372999 
Si 10.85720355 10.857529349999998 10.861413429249938 
Si 9.505491929999998 12.21932448 9.50213406938124 
Si 12.21748371 9.50236425 9.501277020604526 
Si 10.87132698 8.27973459 13.633417710703231 
Si 8.18658837 10.918291049999999 13.768557161815524 
Si 10.303180649999998 8.18971605 17.186193427743145 
Si 11.20748742 9.22709583 20.652475782237065 
Si 9.278637389999998 8.76991698 19.29384777943867 
Si 8.33973066 10.98498231 18.993709297833362 
Si 10.02397005 12.14901684 17.741081087738976 
Si 11.46675906 10.33321941 17.205905549607568 
Si 10.75486977 10.34977005 22.702056508822437 
Si 8.53196895 11.032109279999998 22.720465916546257 
Si 11.81903031 12.14039943 23.78382347479108 
Si 11.19517218 8.595434789999999 24.183551024250576 
Si 11.604262949999999 11.432126519999999 26.052877252117423 
Si 9.68785848 9.30799197 29.91635029169176 
Si 10.28975769 11.606103719999998 29.708053156999146 
Si 10.552075559999999 9.32074704 26.29909022469187 
Si 8.16213708 11.95405812 26.562512736702743 
Si 8.2653831 9.61528653 26.74129311152532 
Si 11.11528602 8.166193289999999 28.256966732168824 
Si 8.22869802 8.64099792 33.98445229719438 
Si 11.017904399999999 10.977831 34.03546384038441 
Si 12.21629454 14.93374347 4.069918948909255 
Si 9.45562824 14.899583339999998 1.3128581699267508 
Si 10.85915835 13.569716609999999 2.7012703318135167 
Si 8.146368359999999 13.57660728 5.429609692190774 
Si 9.50223393 14.93270091 6.7880662852338265 
Si 10.86018462 13.57502715 8.145254446087343 
Si 12.21748371 14.93366202 9.502511170842995 
Si 12.22896816 12.2285772 12.2507237782547 
Si 9.52433946 14.91598737 12.242290418291832 
Si 9.52873776 12.417671519999999 15.31522166622501 
Si 10.964896739999999 13.61405799 13.83732675565907 
Si 10.91032524 14.47004862 21.149666918584497 
Si 8.66010609 14.5505538 20.48435709419681 
Si 11.69240814 12.935791259999998 19.538072398851142 
Si 8.33564187 15.116810489999999 18.18520376383227 
Si 10.994886629999998 14.3241228 23.48752457170545 
Si 8.72528238 14.77299375 24.001959529440377 
Si 8.351883 16.18038459 25.871045783649738 
Si 9.06676965 15.31567881 29.573496499055015 
Si 10.20377907 12.562522199999998 27.519150581271116 
Si 10.764122489999998 14.767569179999999 28.042533128234933 
Si 9.57531087 13.388441489999998 31.15108332332835 
Si 11.77934787 14.185429739999998 32.54022226257777 
Si 10.94762934 15.938315189999999 34.08716102259581 
Si 16.285780889999998 2.7111446999999997 2.68172276331422 
Si 13.57318638 -0.00323744202 2.6973587611965937 
Si 12.87004482 3.0426462 0.1463417642629685 
Si 14.93577972 1.357470135 4.068136287453688 
Si 14.75680149 3.96545841 1.235912330753351 
Si 13.57483167 -0.000545003127 8.144911626576656 
Si 13.57422894 2.71480995 5.430329613163214 
Si 12.2175 1.3579881569999999 6.787654901821004 
Si 14.932309949999999 1.357768242 9.50189409572376 
Si 13.57817112 2.71531494 10.861516275103144 
Si 14.94470664 4.05153477 12.219355793026962 
Si 16.21504971 2.73483036 13.79450859877443 
Si 13.574408129999998 0.0476635626 13.92824248989291 
Si 14.31917064 1.8985017599999998 15.335585145159738 
Si 12.60674955 3.67790733 14.906786501194098 
Si 14.47029297 1.285228872 17.890378984642588 
Si 15.37231914 2.47158396 21.407398626717985 
Si 15.81258897 0.22066108199999998 21.39515997018651 
Si 14.102920889999998 3.0026868299999996 19.496488392204974 
Si 12.446944649999999 0.22090054499999998 18.51132796434755 
Si 14.51539998 2.8219655699999997 23.62225263940492 
Si 12.36831282 1.8940220099999998 23.886600764094645 
Si 16.123011209999998 2.25145719 25.35078289423316 
Si 13.194411299999999 1.92917583 28.459915882494744 
Si 14.52344724 3.91911336 28.581719654641365 
Si 16.12006272 0.221622192 34.06731177292711 
Si 15.283424609999999 1.64475243 32.28890127929411 
Si 15.7389093 3.97581885 32.45218621223369 
Si 13.254211889999999 1.259829504 30.850224920750605 
Si 12.22246845 4.07388465 4.070810279637037 
Si 13.56885324 5.431379219999999 2.6960183369098125 
Si 14.93490006 6.7875054299999995 4.071770174266957 
Si 14.933010419999999 4.07238597 6.787312082310319 
Si 13.575043439999998 5.42975022 8.14480878072345 
Si 12.21792354 6.78730995 6.787586337918867 
Si 13.575923099999999 8.145781920000001 10.86329893655871 
Si 16.28833842 5.43115116 10.86182481266276 
Si 14.933205899999999 6.787440269999999 9.501654122066281 
Si 13.9711185 7.959114809999999 16.113853998318355 
Si 12.37782618 4.83524667 16.957841351675416 
Si 13.56049647 5.343804179999999 13.54915267497669 
Si 15.286992119999999 6.4002921299999995 14.796672874361859 
Si 12.828293549999998 7.471082699999999 20.338761648008603 
Si 15.556461299999999 6.48907263 18.517704407246303 
Si 12.347119529999999 7.091493119999999 17.721848913189508 
Si 14.57956629 4.51825956 17.761170311065158 
Si 14.272907039999998 5.12270001 23.29636841254712 
Si 12.43840869 5.611497749999999 21.808051788856332 
Si 13.518745199999998 6.12719028 25.243240413731066 
Si 14.52163905 5.9201118 27.32504617432089 
Si 13.48492716 7.91252541 28.277330211103553 
Si 15.75539478 5.74867584 34.183973252413445 
Si 14.69937924 7.30994202 31.351769864883746 
Si 14.336095949999999 4.8869674199999995 30.79695076879005 
Si 14.03060958 7.733384279999999 34.07036286657221 
Si 14.93478603 12.21510537 4.066490753802397 
Si 14.90608305 9.441879479999999 1.2863582217507479 
Si 13.568560019999998 10.85552568 2.706056092182689 
Si 16.29 10.85928867 5.431495199499546 
Si 13.576086 8.144397269999999 5.4301924853589405 
Si 14.93312445 9.502103609999999 6.787826311576347 
Si 13.575304079999999 10.860103169999999 8.14528872803841 
Si 14.929899029999998 9.50306472 12.233239983209732 
Si 12.437577899999999 9.588505770000001 15.079910354090364 
Si 13.78562427 11.029600619999998 13.687377501685154 
Si 15.61601754 11.827126439999999 15.005449956369436 
Si 15.484883039999998 8.77369626 17.762233051548282 
Si 14.891405759999998 8.575805339999999 21.020526808909203 
Si 12.46474962 10.736087399999999 19.393711102901406 
Si 14.741570339999999 10.303310969999998 19.431078429566146 
Si 13.459188959999999 8.43098724 24.74844901395843 
Si 14.09515056 11.877658019999998 23.30473320860785 
Si 14.71503393 9.599762160000001 23.178575628675524 
Si 14.439162779999998 9.302665139999998 26.693504071735738 
Si 13.82502978 11.52439308 26.76745024019064 
Si 12.584024999999999 11.10541428 30.18299530710308 
Si 15.91523226 10.759659029999998 30.46815257609142 
Si 12.848248799999999 10.289676239999999 32.60059277840952 
Si 15.03560484 11.2866894 32.71091209694817 
Si 14.104289249999999 9.21746844 30.094822128954725 
Si 12.30266412 12.27720285 1.3027861327028054 
Si 14.857001279999999 14.97194352 1.1244034285126219 
Si 16.28858277 13.582716029999998 2.6694121146854974 
Si 13.572893159999998 13.57330041 5.429849665848255 
Si 14.93258688 14.93234253 6.787483492065661 
Si 14.933368799999998 12.218070149999999 9.503231091815435 
Si 13.57098723 13.577324039999999 10.86398457558008 
Si 14.930550629999999 14.93828838 12.263065280639385 
Si 12.28562478 14.938793369999999 15.42818069499594 
Si 12.75982668 14.300600039999999 17.75129710915741 
Si 12.42868356 16.1917713 20.82844503707202 
Si 15.79906827 12.360053789999998 19.745855304277733 
Si 16.09769655 16.2092016 19.081711066226372 
Si 15.241445279999999 14.126443649999999 18.337792728038462 
Si 12.27058911 15.948724499999999 24.662367034825255 
Si 15.40937889 13.20395724 21.901847206979937 
Si 14.1260364 15.239832569999999 22.28769056625666 
Si 14.973523649999999 12.866884559999999 25.25163949174286 
Si 14.40527958 15.22152261 25.425551829513704 
Si 14.289913799999999 16.19946018 27.670402549385635 
Si 13.875300719999998 12.56472135 28.799615735633175 
Si 16.084306169999998 12.90783762 29.47795270142692 
Si 12.94882326 14.668916939999999 28.848021850541997 
Si 13.678436069999998 13.361595569999999 33.97869292941486 
Si 13.31731935 15.23541798 31.074531726592244 
Si 15.60046059 14.48663184 31.223075420572346 
