&CONTROL
  dt          = 30.D0,
  prefix = 'x1.66_y2.00_z3.17_struc6-scf',
  pseudo_dir = './',
  outdir='./',
  wf_collect= .true.,
  verbosity= 'high',
/

&SYSTEM
ibrav= 6, celldm(1) =30.783621515, celldm(3) =2.118483252460307, nat=  432, ntyp= 1,
  ecutwfc     = 12.D0, nbnd= 1728,
  degauss     = 0.05D0,
  occupations = "smearing",
  smearing    = "methfessel-paxton",
/
&ELECTRONS
  electron_maxstep=200,
  conv_thr    = 1.D-8,  mixing_beta = 0.3D0,  scf_must_converge=.false.,
/
&IONS
/
ATOMIC_SPECIES
Si  28.08  Si.pbe-hgh.UPF
K_POINTS {automatic}
1 1 1 0 0 0
ATOMIC_POSITIONS (angstrom)
Si 1.083737862 1.272695346 1.1810457867828172 
Si 1.3606580879999999 4.07100132 4.072535978466077 
Si 4.067613 1.363705947 4.068463787588533 
Si -9.859359599999999e-05 2.71498914 8.145382547761798 
Si 2.7148914 0.00013077041849999998 8.145209997300885 
Si 2.7146307599999995 2.71485882 5.4320610599987535 
Si 1.3569863219999998 1.35848826 6.787997091944442 
Si 2.7151357499999995 2.71366965 10.862879756678934 
Si 1.342577817 1.368449595 12.223129550147446 
Si 3.94336917 0.42828690599999997 16.663128990173618 
Si 2.7080170199999998 0.08456024969999999 13.592006866661599 
Si 2.76016131 3.55540653 16.131742590746274 
Si 0.317044125 0.513977193 16.412171599821907 
Si 3.77898678 1.8578093399999998 14.776186169814595 
Si 3.5412668099999998 3.09843945 20.202691104971954 
Si 1.186004853 2.70738171 19.690423296613762 
Si 2.0693349899999998 1.76419071 17.43929547345199 
Si 3.0604023 2.3042856599999997 23.645383391013794 
Si 0.7922413439999999 2.0428963199999997 24.202652359578067 
Si 3.56817789 1.2491774729999998 21.629062235062285 
Si 0.11968637669999999 1.95470226 26.450605254259045 
Si 0.888313248 3.99825018 27.35963559244034 
Si 1.0753273349999999 0.378374346 27.956384106461485 
Si 3.13359327 1.406498148 28.734552175086446 
Si 2.01469833 3.1636808999999997 34.42350636129232 
Si 0.1514929275 1.322669808 31.757360169542856 
Si 2.52729576 1.97768745 32.455740905041694 
Si 3.14349759 3.12186447 30.388931484227072 
Si 3.89904408 4.07945583 1.18207073652064 
Si 2.70567126 5.42794203 2.704052077002804 
Si 1.34524449 6.706153169999999 1.2135059794897505 
Si 0.0038611046699999997 8.140145579999999 2.679473989350371 
Si 3.1807365299999995 7.755147719999999 0.034300788473491065 
Si 0.000298978515 5.4288542699999995 5.4299559443756165 
Si 2.7151846199999996 5.4305321399999995 8.144968426655607 
Si 1.3577421779999999 6.78700044 6.787617480930433 
Si 4.0735262699999994 6.788841209999999 9.501939761366774 
Si 4.078315529999999 4.078315529999999 12.247700735781441 
Si 1.358253684 4.073493689999999 9.50283702376352 
Si 4.43019582e-05 5.42908233 10.864363690642787 
Si 1.364683347 6.793239509999999 12.220058151943196 
Si 0.9066916259999999 4.57880949 15.05209435681431 
Si 2.70360243 5.52336885 13.68263036873305 
Si 0.0285811308 8.022417749999999 21.30483991900696 
Si 3.7393695 5.1309264599999995 21.564286792035585 
Si 0.212670837 4.3115394600000005 21.17397764945062 
Si 2.8725785999999998 6.833654999999999 20.190129431417493 
Si 0.616486905 6.237441 19.790744134588515 
Si 0.6656240609999999 4.27135203 23.522113341737622 
Si 0.294241383 7.6398471 23.645417901105972 
Si 2.91810915 4.79634615 23.8644534561888 
Si 2.55270816 7.25204736 24.079209759840985 
Si 2.5959092399999997 7.76749554 26.359188020067393 
Si 3.89006829 6.713369639999999 29.54564287165359 
Si 1.6107405389999998 6.546853259999999 30.103394981508423 
Si 1.151038368 4.27043979 29.720816099572357 
Si 3.02099679 4.32608643 26.342761216188485 
Si 0.37973130299999996 7.758927 27.09335572115957 
Si 3.9912129 6.21825138 27.270150923410917 
Si 0.32510278800000003 4.97657871 34.33888761526063 
Si 4.0421191499999996 9.47674008 1.3561223864434742 
Si 1.357595568 9.50453082 4.0705689032116705 
Si 4.07360772 12.212906219999999 4.069982231644567 
Si 2.70974376 10.8447417 2.7151850327409037 
Si 2.10266433e-05 8.14513032 8.145279017485251 
Si 2.71536381 8.14550499 5.430784186587998 
Si -0.00055021104 10.85876739 5.430301045297442 
Si 2.7151520399999995 10.860217200000001 8.14472685601033 
Si 1.3584735989999999 9.503976960000001 9.50218133201205 
Si 2.7147936599999998 8.144609039999999 10.862362105296196 
Si -0.00393739074 10.86189507 10.859980908935599 
Si 3.59093502 8.47728342 16.442402440573844 
Si 0.0901141623 8.22420198 13.589004488641715 
Si 1.5799915349999998 9.281471849999999 15.225300509478672 
Si 2.6758279799999998 10.834332389999998 13.715207895753405 
Si 0.0290504457 12.206406509999999 17.11821357578528 
Si 0.453052593 9.74853873 17.487368031862317 
Si 0.0233730549 11.73953511 20.850445535238954 
Si 3.21009111 9.15794478 20.57191458123336 
Si 1.0479340709999998 9.815686109999998 20.0245154990333 
Si 3.44763189 9.06704658 22.887852357514014 
Si 2.73311991 11.120954939999999 23.820901719854387 
Si 1.44109485 10.85485779 25.726514500084182 
Si 0.18348241499999998 8.283530159999998 29.382272095261264 
Si 2.69623935 10.428353009999999 29.351696153587497 
Si 3.0724894799999998 9.9344565 27.088110187147816 
Si 1.5068526930000001 10.925083979999998 32.61742068691707 
Si 3.00961008 8.9630838 32.515339834241004 
Si 0.627174774 10.33178589 30.504885393960535 
Si 2.70640431 16.291466099999997 2.676823614270749 
Si 1.485900495 12.31747173 1.3370659135402543 
Si 1.355986116 14.933368799999998 4.0709830243178615 
Si -0.00047201415299999997 13.575043439999998 8.144899406471243 
Si 2.71344159 13.575222629999999 5.429300252624147 
Si 1.35773892 12.21696243 6.787686501114798 
Si -0.0053579113199999995 16.2929322 10.859325217184129 
Si 4.08605328 14.936838569999999 12.246941513753423 
Si 1.356805503 14.93305929 9.502871533855703 
Si 2.7155267100000002 13.57401717 10.8637425089835 
Si 1.361210319 12.20590152 12.233206497064758 
Si 3.9246193799999998 12.27787074 15.042845652109378 
Si 2.16114543 13.351772699999998 16.335145074070393 
Si 0.017915253299999996 13.64626332 13.57930715273841 
Si 1.3177046159999999 15.08722785 14.991149534019875 
Si 1.6157317949999999 16.16101578 21.512107532655527 
Si 1.2325909949999998 15.170909579999998 19.413514316940752 
Si 3.0833223299999997 14.833315619999999 17.937793755029332 
Si 2.64587067 14.41862109 22.685036545757 
Si 1.2423861719999998 12.560241599999998 22.70536299005254 
Si 3.13909929 15.12655191 24.93585377808913 
Si 3.63457593 12.505718969999998 29.79780811523169 
Si 0.549323235 12.932272619999999 26.333098390377366 
Si 1.9591331399999998 14.6963493 26.934022625552604 
Si 4.03029261 14.066773379999999 28.01197986496762 
Si 3.1926933899999996 13.28420178 34.46805889030002 
Si 0.186867477 14.11401438 30.93633056642713 
Si 2.4110503199999997 13.5573525 31.74431535469784 
Si 8.14605885 -0.024317874899999998 2.6923393517160368 
Si 5.41487745 2.71435383 2.67878378750672 
Si 6.57897714 1.1147670539999999 1.2957435291608348 
Si 5.43113487 -0.00168234975 5.430439085666173 
Si 5.42975022 2.7152334899999997 8.144795876194694 
Si 6.787358819999999 1.357564617 6.787859051575712 
Si 8.14794849 2.71321353 10.858876585985755 
Si 4.07267919 1.356461784 9.50124955952312 
Si 6.77750337 1.345902606 12.226200948351694 
Si 7.42833774 3.6786403799999996 14.938625173717993 
Si 5.60569851 2.80484478 13.680939374216104 
Si 7.525018889999999 0.23104921499999997 21.010606873058297 
Si 7.44870024 3.66533145 19.813037654138462 
Si 5.39479188 3.1530761099999998 18.69905187848483 
Si 6.07695192 1.308026727 17.475600090428063 
Si 6.158548529999999 0.549732114 24.255073189603408 
Si 4.09737483 0.9553775489999999 25.174698126084756 
Si 8.07052212 2.43905283 21.74287651908043 
Si 7.01507673 2.7372087 23.847888611941162 
Si 4.25514348 2.40124374 26.958766361647513 
Si 6.542780759999999 2.4366256199999996 27.580534692501026 
Si 6.893748809999999 0.400562955 28.737589063198513 
Si 7.05070296 1.88843454 32.4743418447281 
Si 4.73221242 0.8960428529999999 33.021844457204715 
Si 6.79038876 4.071571469999999 4.069464580261828 
Si 4.07194614 6.7869027 4.07043086284294 
Si 4.91091372 5.95863765 0.11913332452624438 
Si 6.761425139999999 6.77369151 1.3690567689935043 
Si 8.13157704 5.43041811 2.71671728083381 
Si 4.07178324 4.0725814499999995 6.787824541483529 
Si 5.42966877 5.43084165 5.430024964559982 
Si 6.78760317 6.787652039999999 6.787410420377338 
Si 6.78776607 4.0728258 9.503113104500981 
Si 5.425156439999999 5.4309231 10.861602883268178 
Si 6.77851335 6.80500089 12.220575803325934 
Si 8.14856751 8.14073202 10.862224064927466 
Si 8.10333018 5.3608109399999995 13.498070395740621 
Si 4.5194976 4.8533285699999995 17.03525131417836 
Si 4.397061959999999 6.55744176 15.164493727052967 
Si 7.674039809999999 5.829213599999999 20.75940791206131 
Si 8.10652302 7.724294459999999 19.385837223010324 
Si 4.23737109 6.7872285 18.30794900377967 
Si 5.79542814 6.17263938 22.16452082536717 
Si 6.424776 5.09251464 24.16503635909906 
Si 5.97124611 6.43722156 26.099465066301306 
Si 6.81663195 4.27408875 29.046661448785688 
Si 7.64268156 5.960380679999999 27.683340257112928 
Si 4.94745219 4.800109139999999 30.428307499407396 
Si 5.800038209999999 5.75129853 32.472374769473696 
Si 7.6587272099999995 4.25300949 32.41129190631053 
Si 6.62209677 8.11929438 32.741484468313445 
Si 8.124360569999999 10.85658453 2.7122068117855473 
Si 5.437911509999999 8.16065469 2.721548693739371 
Si 6.786430289999999 9.50487291 4.075434826209414 
Si 4.85398017 11.371625459999999 0.20775006473727836 
Si 6.856151489999999 12.193912079999999 1.2186376301972999 
Si 4.07269548 9.50246199 6.787341400192973 
Si 5.42960361 8.14495113 8.144795876194694 
Si 5.431314059999999 10.85888142 5.430266535205259 
Si 6.78638142 9.503309069999998 9.502906043947885 
Si 4.07263032 9.504335339999999 12.242938343060246 
Si 5.42950587 10.86109686 10.859704828198138 
Si 6.77624904 12.2090292 12.22909979609503 
Si 8.05781592 10.74939633 13.597183380488987 
Si 4.95585783 10.5642279 16.351640898133667 
Si 5.52227742 8.16691005 13.704095646070614 
Si 6.797800709999999 9.512105669999999 15.214084729519334 
Si 6.554151179999999 10.22795343 21.52580803925201 
Si 5.21167599 10.01452185 19.596555845877145 
Si 5.83923195 11.968882019999999 18.386217892849757 
Si 6.0926880599999995 8.32345695 18.23661664323828 
Si 5.70071808 8.491015889999998 22.90427916139292 
Si 4.81302711 11.947216319999999 24.577190390035593 
Si 6.28952013 8.581897799999998 25.175146757283127 
Si 6.29255007 10.19863143 29.99631016546588 
Si 5.27892111 10.43095941 26.310045648799402 
Si 6.708287159999999 11.37436218 27.988892613297473 
Si 4.27602726 8.94671235 30.228873676684277 
Si 7.90780131 8.843938739999999 30.972876754048485 
Si 5.23710468 11.75059602 31.373745984841314 
Si 5.0638605299999995 9.98068752 32.87531460579748 
Si 4.27467519 15.076623059999998 1.2787783678438793 
Si 5.45495085 13.58098929 2.6983441077558052 
Si 6.79250646 14.92737408 4.074744624365763 
Si 4.07287467 14.93229366 6.787997091944442 
Si 5.429522159999999 13.574847959999998 8.144830386286877 
Si 6.78818961 12.21746742 6.788031602036625 
Si 8.14529322 13.57395201 10.864467220919332 
Si 4.07287467 12.215919869999999 9.502077801735503 
Si 6.78716334 14.93315703 9.502906043947885 
Si 5.4276325199999995 16.2913032 10.859428747460678 
Si 5.5131876 13.5925389 13.737121804289343 
Si 7.485922889999999 14.405328449999999 14.994082891855395 
Si 8.11496124 16.25261445 13.624825964327233 
Si 6.7543552799999995 15.84103131 18.8445119170344 
Si 5.07453048 14.140322729999998 19.2054184610798 
Si 5.5019963700000005 16.19118486 22.110754101746714 
Si 6.12228699 12.33052002 22.64472875808775 
Si 8.023541759999999 13.455067589999999 23.51842076187409 
Si 4.764824999999999 14.02427277 21.606009493484322 
Si 7.11288189 14.880214529999998 25.267323213502795 
Si 4.98612465 13.927396139999999 25.799986486340895 
Si 4.669007219999999 15.99648678 29.24450780726841 
Si 6.82788834 13.48282575 29.183424944105244 
Si 6.28580601 13.7744982 31.496360342366014 
Si 4.43425203 15.278700509999998 31.4854896633285 
Si 8.446267259999999 2.33460135 0.11191967995732002 
Si 9.50321133 1.358528985 4.067877116021429 
Si 10.36606005 0.6574399649999999 0.048827639227286536 
Si 10.85335911 2.7444903299999996 2.7038208593851802 
Si 8.145374669999999 2.07803385e-05 8.144554305549416 
Si 8.14452759 2.7141746399999995 5.430473595758355 
Si 10.861064279999999 -0.001578562902 5.431025757233276 
Si 10.859679629999999 2.71485882 8.144692345918147 
Si 9.50171265 1.356627942 9.501629170537129 
Si 8.627574959999999 1.186407216 17.084048584524528 
Si 8.93877912 1.81478745 14.844240071598641 
Si 10.813301999999998 2.67283062 13.67017222545514 
Si 11.29845078 2.59654455 19.908630609484202 
Si 9.39727746 2.9969364599999997 18.5426176306212 
Si 11.86820982 1.98430119 22.929402508501838 
Si 10.260419399999998 3.34283832 21.87004620877323 
Si 8.20193355 2.56865607 25.85534067420175 
Si 9.910542779999998 2.41785954 29.962214194389492 
Si 9.7533117 0.783708642 26.357876636564455 
Si 11.22871329 4.04726679 26.605175957144812 
Si 10.96888779 2.09613204 27.896025955234155 
Si 8.331455339999998 0.785264337 30.630536639597306 
Si 11.85296238 2.93309595 31.383167240007158 
Si 11.940586289999999 1.0548687239999999 32.77930752934555 
Si 9.49754241 4.21458138 1.245848837883263 
Si 9.50321133 6.78781494 4.070844983949131 
Si 9.50242941 4.07264661 6.787513950653886 
Si 8.14540725 5.42971764 8.145106467024338 
Si 10.861292339999999 5.42940813 5.429748883822521 
Si 9.5110794 4.06428984 12.207979619679293 
Si 10.85748048 5.4324869399999995 10.859014626354485 
Si 9.50288553 6.78564837 9.501353089799668 
Si 10.048225859999999 5.950069109999999 14.764832349486529 
Si 10.9243998 8.13074625 13.85314473420717 
Si 11.938696649999999 4.404327299999999 15.016825042603715 
Si 9.220759020000001 4.923066059999999 16.81966676831379 
Si 10.97905275 7.33282947 21.44912661442232 
Si 11.74983039 6.665477039999999 19.339007027918562 
Si 9.78473511 7.08790932 17.86401117794298 
Si 9.556658819999999 5.60999907 22.174873853021943 
Si 8.642789819999999 5.983300709999999 24.29455273506028 
Si 9.08125146 4.72893813 26.193677617959747 
Si 10.40080662 6.19334397 29.874075418955186 
Si 8.66098575 7.60223349 29.09835756687519 
Si 11.56099671 8.05271715 26.982612835345673 
Si 11.7656154 5.89398264 27.89968402500551 
Si 8.82092097 4.41169038 30.303898617089203 
Si 11.26728801 7.06080276 31.94454290954116 
Si 8.2367127 7.89442722 34.416224731841794 
Si 10.959227819999999 5.64956748 34.23635813138619 
Si 9.43779069 9.50096331 1.3237484689669972 
Si 10.856894039999998 8.154545939999998 2.7003111830102124 
Si 10.570108589999998 11.214215189999999 0.12229272346555944 
Si 8.14394115 8.14622175 5.430128494836529 
Si 9.502413119999998 9.502478279999998 6.787582970838251 
Si 10.860347519999998 8.14429953 8.145313527577432 
Si 8.14506516 10.860103169999999 8.144899406471243 
Si 10.86244893 10.85979366 5.429610843453791 
Si 12.21725565 9.50223393 9.501422109984034 
Si 9.51876828 9.489967559999998 12.24328344398207 
Si 10.86430599 10.86055929 10.863569958522588 
Si 9.16380918 8.474905080000001 15.904493633723996 
Si 9.605805749999998 11.26653867 16.58316910658658 
Si 10.44402399 9.677269979999998 21.565391114985427 
Si 11.99639583 11.47957929 21.192958200151043 
Si 8.512632720000001 9.93377232 20.250763663382283 
Si 8.35207848 11.82548115 18.63924588873242 
Si 9.26928693 11.86012998 24.824110099601942 
Si 12.071085479999999 8.689395509999999 24.743356483894708 
Si 10.075185809999999 9.79296156 23.902966719064555 
Si 8.598497309999999 8.263917 24.981096508940492 
Si 10.368894509999999 12.08695194 28.530286939457767 
Si 11.40769152 10.670422409999999 30.13435053419619 
Si 9.34871697 8.77284918 27.1535068118338 
Si 8.856612359999998 11.07799821 27.06719707128517 
Si 12.0488985 10.13915664 33.12699670808503 
Si 10.25931168 9.1724103 31.578770442498012 
Si 9.49974156 12.21932448 4.069257519708732 
Si 9.65990484 14.921216459999998 1.1971516468044268 
Si 10.880791469999998 13.590567809999998 2.7162928066999648 
Si 8.1420678 13.57737291 5.43054261594272 
Si 9.50226651 14.93208189 6.787928071760077 
Si 10.86026607 13.57499457 8.144899406471243 
Si 9.5021199 12.217516289999999 9.502768003579154 
Si 9.51953391 14.94201879 12.235415142964442 
Si 10.85982624 16.2909774 10.86029149976524 
Si 11.95381377 12.201584669999999 17.214117121960662 
Si 8.94917214 12.55491477 14.707131475357256 
Si 10.82069766 13.489292879999999 13.68263036873305 
Si 8.58639384 15.10959402 17.555145852908904 
Si 11.759799869999998 13.086180539999999 19.431528585060057 
Si 9.49118931 13.799144969999999 19.564703030792625 
Si 11.113771049999999 16.0078572 22.604524500695046 
Si 12.20513589 12.789865439999998 23.165865660136866 
Si 9.08597556 14.85607275 21.75840606056259 
Si 11.156239079999999 15.72173964 24.948380941551406 
Si 11.02068999 13.3566597 25.120241200620644 
Si 9.11049201 13.966817939999999 28.974880457045924 
Si 12.06163728 12.79183653 27.128832095923254 
Si 8.31065301 15.437381399999998 27.274395664749374 
Si 8.84437857 13.01621499 34.49532186312426 
Si 9.71353152 15.13101537 30.911724870700954 
Si 12.0826188 15.43101201 31.447010910544925 
Si 8.34970014 14.06066463 32.48769725040276 
Si 16.278808769999998 2.7126107999999998 2.7077688139308673 
Si 13.57224156 -0.026467666199999997 2.7222354445738044 
Si 13.76904105 2.16523422 -0.0122305492199667 
Si 12.206031839999998 1.3407842879999998 1.450655881959211 
Si 14.93573085 1.3617495179999999 4.072156367452069 
Si 12.21596874 4.07124567 4.07270852892699 
Si 14.92745553 4.01423067 1.2497484782998944 
Si 13.57533666 -0.000208181313 8.145244507393068 
Si 13.57483167 2.7147284999999997 5.430301045297442 
Si 12.217304519999999 1.358030511 6.78744493046952 
Si 14.932994129999999 1.3567778099999999 9.501663680629314 
Si 13.57553214 2.71795392 10.864191140181871 
Si 12.215284559999999 1.340611614 12.247010533937788 
Si 16.26294231 2.7193385699999997 13.722731095849207 
Si 14.839261469999999 1.330676343 15.132606401876265 
Si 13.50664173 4.05306603 17.196585995131915 
Si 13.950169559999999 0.5837668109999999 19.57022464554184 
Si 16.2841356 0.779582385 18.84613389136698 
Si 14.09546007 1.7472491099999998 17.38390677549895 
Si 12.650879159999999 3.25870047 24.84709382099554 
Si 15.916111919999999 0.722407743 22.65946456744971 
Si 13.93673031 1.78039926 21.648491416961075 
Si 13.20426675 1.73726334 28.4196820940126 
Si 13.68136827 3.47472216 29.911691419434195 
Si 14.06459052 1.8217107 26.23384736526027 
Si 15.53354127 0.420918939 34.0531095418967 
Si 12.67432047 4.05809964 33.395209144528025 
Si 15.686471789999999 3.4590186 31.072472880087403 
Si 13.573349279999999 5.439621959999999 2.6803574477102456 
Si 12.267624329999999 6.97469382 1.2042986868954384 
Si 14.93221221 6.78515967 4.068222216943255 
Si 12.21714162 6.78760317 6.787479440561703 
Si 14.932863809999999 4.07207646 6.787651991022616 
Si 13.57509231 5.43002715 8.14514097711652 
Si 12.216115349999999 4.07300499 9.501663680629314 
Si 14.93312445 6.78879234 9.502491922841694 
Si 14.934167009999998 4.06231875 12.233482577802219 
Si 12.199629869999999 6.80430042 12.207910599494927 
Si 15.26824233 5.66233884 16.4720120996665 
Si 13.515601229999998 5.45387571 13.531062043867166 
Si 14.61315627 7.12646775 14.768801010087524 
Si 15.55201413 7.488822509999999 18.017512067971087 
Si 14.1881013 4.09572954 21.32492479265722 
Si 12.670997309999999 4.466734289999999 19.530641569808424 
Si 12.715729649999998 7.25568003 22.959460798792865 
Si 13.50032121 5.04006084 23.421861523947232 
Si 15.44192631 5.7370122 24.49267517428046 
Si 15.610707 5.66225739 26.862759285195576 
Si 14.247624959999998 7.66698624 29.572664273832547 
Si 13.935101309999999 5.53276818 28.608279747790395 
Si 13.716131129999999 7.205262479999999 31.98457461647295 
Si 14.86905588 5.06786787 32.60496254363917 
Si 13.591577789999999 10.83775329 2.7057568755566233 
Si 12.233170979999999 12.19793571 1.4149827996700797 
Si 14.9315769 12.216685499999999 4.069292029800915 
Si 12.218070149999999 9.502168769999999 4.074054422522111 
Si 15.025211819999999 9.55257003 1.1720006916217636 
Si 13.573479599999999 8.14493484 5.430128494836529 
Si 14.93242398 9.50246199 6.787582970838251 
Si 13.57519005 10.860217200000001 8.145244507393068 
Si 13.571638829999998 8.144120339999999 10.86443271082715 
Si 14.941318319999999 9.5246001 12.234897491581703 
Si 12.22009011 12.196925729999998 12.255223935877243 
Si 12.91220334 8.921348819999999 15.184958211717236 
Si 13.74845049 10.82856573 13.885929321780619 
Si 12.61509003 9.827170559999999 17.347222547508867 
Si 14.067571589999998 8.51953968 21.38928611457773 
Si 13.44946383 8.31022947 19.07445266124692 
Si 14.25497175 10.842835769999999 21.65390950143374 
Si 14.17537881 11.745839339999998 23.80620042058461 
Si 13.90845087 10.019718359999999 25.25451996930306 
Si 16.07609601 9.19974492 25.33309944920279 
Si 15.4939077 12.145824 30.02964691451425 
Si 13.5697329 10.98845208 27.29240993286868 
Si 12.71615319 9.28358955 28.667982207266256 
Si 13.35871224 11.65707513 31.116369717343645 
Si 16.15697586 11.28232368 34.4049054216059 
Si 13.468132169999999 8.43742179 34.10622057376569 
Si 12.21663663 14.932407689999998 4.076677189527987 
Si 14.82707655 14.82528465 1.3419283855287794 
Si 16.3054755 13.58478486 2.705687855372258 
Si 16.290325799999998 16.289690489999998 5.430715166403633 
Si 13.574799089999999 13.576558409999999 5.4311983076941885 
Si 12.217744349999998 12.217614029999998 6.787651991022616 
Si 14.932375109999999 14.93270091 6.787582970838251 
Si 12.216538889999999 14.933042999999998 9.502250352196416 
Si 14.933238479999998 12.21699501 9.502422902657328 
Si 13.57548327 13.57660728 10.863466428246038 
Si 14.91997842 14.947036109999999 12.23041117959797 
Si 12.69204399 13.96458621 15.292112047944142 
Si 14.755482 12.652410419999999 15.157281117786809 
Si 13.445733419999998 16.13816091 13.78795517007428 
Si 15.871672799999999 13.4368065 19.29193526218153 
Si 13.695117029999999 14.48578476 19.88813161472775 
Si 14.76901899 15.27070212 23.729864096676746 
Si 15.886089449999998 13.26419766 24.221908991015948 
Si 13.08051162 14.715310859999999 22.1844676586487 
Si 13.46839281 15.89615667 25.64027377971992 
Si 15.988032269999998 16.152072569999998 29.86624162802974 
Si 13.59336969 15.97205178 29.53308119809913 
Si 13.58778222 14.524734149999999 27.63654457211335 
Si 15.102410129999999 12.67966359 27.82113905519796 
Si 14.104989719999999 12.97764027 34.50853922843019 
Si 12.985997039999999 13.504377419999999 32.501984428566345 
Si 15.173988389999998 14.59742013 32.87638441865514 
