&CONTROL
  dt          = 30.D0,
  prefix = 'x1.66_y2.00_z3.18_struc10-scf',
  pseudo_dir = './',
  outdir='./',
  wf_collect= .true.,
  verbosity= 'high',
/

&SYSTEM
ibrav= 6, celldm(1) =30.783621515, celldm(3) =2.120051451958549, nat=  432, ntyp= 1,
  ecutwfc     = 12.D0, nbnd= 1728,
  degauss     = 0.05D0,
  occupations = "smearing",
  smearing    = "methfessel-paxton",
/
&ELECTRONS
  electron_maxstep=200,
  conv_thr    = 1.D-8,  mixing_beta = 0.3D0,  scf_must_converge=.false.,
/
&IONS
/
ATOMIC_SPECIES
Si  28.08  Si.pbe-hgh.UPF
K_POINTS {automatic}
1 1 1 0 0 0
ATOMIC_POSITIONS (angstrom)
Si -0.0055171297799999994 2.7141746399999995 2.6944946635973257 
Si 2.71761183 -0.01067605875 2.742979245999487 
Si 2.9896874099999997 2.12261958 0.09701993219240611 
Si 1.2592088549999998 1.1464902 1.4053794447186985 
Si 4.06254681 4.02657849 1.1604941417076267 
Si 0.0015066295199999999 0.0009271339469999999 5.430280136169666 
Si 0.000771937488 2.71441899 8.144746759310529 
Si 2.71544526 0.000366697674 8.144988508777596 
Si 2.7137348099999996 2.71344159 5.430418278722276 
Si 1.3577519519999999 1.3572551069999998 6.787979678855155 
Si 2.71591767 2.7104931 10.861009235635315 
Si 1.3710625109999999 1.370671551 12.240431694718666 
Si 2.1266757899999997 2.49711039 17.083847731764518 
Si 0.08604035909999999 2.8161826199999997 13.669171045083651 
Si 2.7015336 -0.00208917621 13.757513207477503 
Si 1.518990372 4.0013127 15.252146555437275 
Si 0.961331544 2.45299707 20.35451080734986 
Si 1.515727485 0.244306017 19.601184932331453 
Si 3.89769201 0.1604631789 19.26487688800334 
Si 2.42100351 3.82585311 19.08442817865702 
Si 0.8057473829999999 0.40753344599999997 17.39111130440646 
Si 3.9213939599999996 0.420710427 23.231398536721482 
Si 2.93013117 2.51861319 23.57855077142945 
Si 0.7308524789999999 2.8353233700000002 22.736813662740893 
Si 3.8094002099999997 3.1793844599999996 25.64682106910067 
Si 0.0351673407 3.9368857499999996 29.550418785105133 
Si 3.7106502299999997 2.55195882 29.350561047117164 
Si 0.266004297 3.0049348499999997 27.380199283608018 
Si 2.48591916 2.1998016 27.352294487980874 
Si 3.25145142 0.821397186 30.970800511037233 
Si 1.5819854309999999 1.2030946919999999 32.70811578829395 
Si 1.36177884 4.0736403 4.069541457326767 
Si 2.7084405599999997 5.41657161 2.682186162159809 
Si 1.1868828839999999 6.61800798 1.2285189881764182 
Si 2.7147284999999997 5.4301086000000005 8.145092115692053 
Si 1.357333299 6.787863809999999 6.787530715559173 
Si 1.356730569 4.07170179 9.50306794348276 
Si 1.34527707 6.77041722 12.248582105322633 
Si 3.63141567 7.16056272 15.075255016820657 
Si 0.834497604 5.9699754899999995 16.578902166338207 
Si 2.6938935899999996 5.34874005 13.721354394331934 
Si 0.553687326 6.975931859999999 20.424549081522933 
Si 1.9545556499999999 6.11744886 18.719524625938714 
Si 3.11534847 7.717908779999999 22.95425004054843 
Si 0.995439546 6.89747922 22.69858271130618 
Si 3.7776509999999996 6.95775222 26.524129885086207 
Si 3.47431491 4.79672082 30.176031870235942 
Si 1.457616168 5.87174679 29.400534115523694 
Si 1.5700139100000001 6.3003203999999995 27.0475174812859 
Si 2.6248077 7.94497509 34.355569335078116 
Si 3.97453194 9.39019131 1.1794507534894816 
Si 1.3578448049999998 9.501468299999999 4.070024956260901 
Si 2.72391606 10.848423239999999 2.693752147377049 
Si 1.384149897 12.222631349999999 1.3051052193431911 
Si 0.000242475021 8.14495113 8.144815830586833 
Si 2.7146796299999996 8.145 5.430521885636733 
Si 0.0007088007059999999 10.85945157 5.430832706380105 
Si 2.71497285 10.85994027 8.145264793882815 
Si 4.06596771 9.51764427 12.229483897424354 
Si 1.356087114 9.50278779 9.502722587101236 
Si 2.7157547699999998 8.14789962 10.864013836154575 
Si 0.0022501377 10.8576108 10.86121644946423 
Si 0.375911298 8.24370111 16.006473963962097 
Si 2.36323917 9.451474289999998 15.79318186273285 
Si 2.7585323099999997 10.832735969999998 13.767390399989091 
Si 2.5329646799999996 10.80492894 17.89398473154363 
Si 1.101362013 11.1571839 19.881303493385612 
Si 3.92875704 9.390745169999999 19.239873085980996 
Si 2.68374492 11.59242012 21.72457410849391 
Si 3.83750046 9.50734899 21.613472960557623 
Si 3.13251813 8.71154991 25.075912434803264 
Si 2.74005945 9.30303981 29.63295896028938 
Si 0.692465094 8.15796684 29.443185628641913 
Si 2.20454199 11.597926139999998 29.44415262651018 
Si 0.98183088 8.41495788 26.15090324357317 
Si 1.056098619 12.09503178 27.460460106674205 
Si 0.8280630539999999 11.57083587 31.313773933528765 
Si 3.59648991 9.64667736 31.812226798982422 
Si 1.411536645 9.67122639 33.06832249422354 
Si 4.07171808 12.21909642 4.069817742431987 
Si 4.06101555 15.05515284 1.2905415407343221 
Si 0.00643886685 13.58512695 2.693220298549502 
Si 1.3578969330000001 14.930273699999999 4.074825409964085 
Si -0.000428228262 13.575287789999999 8.14533386515912 
Si 2.71296918 13.57546698 5.430867242018258 
Si 1.357789419 12.21776064 6.787496179921021 
Si 1.3576379219999999 14.932733489999999 9.501824660509273 
Si 2.7159828299999997 13.57590681 10.864013836154575 
Si 1.345441599 12.212694449999999 12.258459297834222 
Si 1.1664193859999998 14.140143539999999 17.023479436274116 
Si 0.830508183 15.35008329 14.96025134177315 
Si 3.38942772 13.085528939999998 17.24198641886438 
Si 0.0970258464 14.81446809 20.485435411585627 
Si 0.5699659229999999 14.403113009999998 22.792588718357027 
Si 1.3312253159999998 12.30470037 23.611014271292714 
Si 2.79474498 14.975625059999999 22.308778963479988 
Si 2.58688458 12.558384539999999 25.645888606870553 
Si 3.4908981299999997 13.50820557 30.01457776187345 
Si 2.15409186 15.42042351 29.633476994861663 
Si 3.7419759 14.51144151 26.43095273335102 
Si 0.0243072864 15.70105134 26.55631709984425 
Si 2.21667804 16.1011989 27.327152543405923 
Si 0.854488692 15.33578067 33.666756032128404 
Si 2.63894742 13.834982969999999 34.39639045937426 
Si 6.78929733 4.0698936 4.074859945602237 
Si 4.0738032 1.360667862 4.072787807313093 
Si 5.4302877899999995 2.72122821 2.693434419506047 
Si 6.705322379999999 1.2184154369999998 1.3255606778208602 
Si 5.42953845 -5.45288202e-05 5.429865708511838 
Si 5.430190049999999 2.71437012 8.14460861675792 
Si 6.787684619999999 1.357737291 6.787599786835479 
Si 8.14486968 2.7140769 10.858591740964647 
Si 4.07329821 1.358401923 9.501962803061884 
Si 5.43045069 0.00288758169 10.86121644946423 
Si 6.79294629 1.352482137 12.22426901606334 
Si 7.37940258 3.6429327 14.868213866096992 
Si 8.13569841 0.04110015869999999 13.724738886870869 
Si 4.59360081 0.800387973 15.051287283942889 
Si 5.49750033 2.70979263 13.64302756700228 
Si 7.985423159999999 2.19136338 19.572865709046482 
Si 6.06624939 2.88261324 18.32827038131012 
Si 4.26869676 1.4677029359999998 17.2968290122504 
Si 5.04476865 0.953447184 21.22152800316598 
Si 7.38191124 0.573088716 21.22225325156718 
Si 4.65620328 3.91649067 19.86724748865758 
Si 4.559538419999999 3.4932764699999996 22.16051746889171 
Si 6.8296313699999995 3.73215303 22.94015950018225 
Si 8.13770208 0.46595264399999997 23.48872357659505 
Si 7.451941949999999 2.3431536 24.704550717750458 
Si 5.58927819 1.69046217 25.9955274075255 
Si 7.630643249999999 1.109678058 29.09071490565847 
Si 5.88192804 2.31748056 28.213613303501845 
Si 7.279039889999999 2.03952429 31.328140759000163 
Si 5.48652087 0.575305785 32.176992209148125 
Si 4.90798152 0.6071690249999999 34.505868432317385 
Si 4.07588832 6.78812445 4.068470852544043 
Si 6.76512297 6.65905878 1.1990117389390036 
Si 4.07253258 4.07253258 6.787634322473631 
Si 5.42898459 5.4275999399999995 5.43017652925521 
Si 6.787358819999999 6.7877171999999995 6.787254430453955 
Si 6.788499119999999 4.07116422 9.502100945614494 
Si 4.07225565 6.7867723799999995 9.504173083903638 
Si 4.07438964 4.07421045 12.239706446317465 
Si 5.43240549 5.42852847 10.861561805845753 
Si 6.76810404 6.80065146 12.237945128771692 
Si 5.50282716 6.9542661599999995 16.699742364233472 
Si 6.688462229999999 4.81102344 16.889239410775716 
Si 5.39229951 6.14916549 20.265547003469266 
Si 7.76651814 6.027055649999999 20.128095163622696 
Si 4.10858235 7.15308561 18.58376503236161 
Si 6.27769359 5.756413589999999 23.97156633360382 
Si 7.03913706 7.946115389999999 23.989179509061547 
Si 4.53945285 5.94739755 22.45130754213496 
Si 5.16544497 5.155768709999999 25.962856693833327 
Si 5.75111934 5.29628625 29.795690887263508 
Si 6.1662536999999995 7.5629583 29.602429456162653 
Si 6.62893857 4.5171518399999995 27.73743592465649 
Si 8.04392055 7.89859746 28.065869843485864 
Si 5.6514734099999995 5.21438013 34.13329796792924 
Si 6.894921689999999 4.4582472 31.80293671231943 
Si 4.13712243 6.601294439999999 32.967616573371124 
Si 8.152656299999999 10.85599809 2.701747147609331 
Si 5.4225663299999995 8.13820707 2.681257153493509 
Si 6.7882059 9.503374229999999 4.0700940275372055 
Si 6.7476438 12.180375089999998 1.3074191070994021 
Si 4.072548869999999 9.502673759999999 6.787081752263193 
Si 5.4299457 8.14542354 8.145230258244663 
Si 5.42950587 10.85969592 5.429589423406618 
Si 6.78717963 9.50283666 9.503482371140588 
Si 5.429359259999999 10.86240006 10.860905628720857 
Si 6.80073291 12.21119577 12.252691846262769 
Si 4.43091258 12.1681413 15.233739060302042 
Si 5.30169453 8.149707809999999 13.659742815868043 
Si 6.94032192 9.02959587 15.10830562253251 
Si 7.63929324 9.61470009 20.53243841511105 
Si 6.176011409999999 9.507446729999998 18.76656216510229 
Si 7.606305989999999 8.265888089999999 17.344419121624416 
Si 6.11769321 9.510590699999998 22.393322205677073 
Si 6.16244184 11.294215379999999 23.942314648088733 
Si 4.21230078 10.831221 25.30591978489828 
Si 8.131691069999999 10.858848839999999 25.242650495803076 
Si 7.153558019999999 8.9311554 26.13926473351581 
Si 5.38340517 10.070103329999998 27.157755238268376 
Si 6.4314874799999995 11.841754859999998 28.2488396544173 
Si 4.39393428 8.33639121 28.315976934985578 
Si 5.45664501 8.14599369 31.83312086006463 
Si 5.74504317 10.531941119999999 34.36796762917483 
Si 5.1911343 11.385309059999999 32.19021935856049 
Si 7.29344025 9.20168343 32.88490371999612 
Si 7.181136989999999 11.69033931 30.47932384449036 
Si 5.419862189999999 13.58134767 2.695789750028041 
Si 6.793597889999999 14.92628265 4.070404848280577 
Si 4.07253258 14.932033019999999 6.7879106075788505 
Si 5.42971764 13.57540182 8.144574081119767 
Si 6.78794526 12.21736968 6.787599786835479 
Si 4.07142486 12.21644115 9.502446301996017 
Si 6.78672351 14.93177238 9.501859196147425 
Si 4.05028044 14.936089229999999 12.231314286246432 
Si 5.47163181 13.66778241 13.628246313873051 
Si 6.405260579999999 15.3003825 15.074909660439133 
Si 4.3051212 13.43600829 21.346236192534313 
Si 4.73608944 14.248569779999999 19.00199161038723 
Si 6.878436209999999 14.31749277 17.532465671364257 
Si 6.36816825 13.309825949999999 22.786165089660678 
Si 7.078053869999999 14.8973679 24.464389890038635 
Si 5.0777559 15.873774209999999 25.097635351201127 
Si 5.100089489999999 13.8450339 28.293563305824666 
Si 7.0724664 15.127154639999999 28.602139232716404 
Si 7.7996357099999996 13.825616219999999 34.4644947378108 
Si 4.17442653 13.543652609999999 32.44150066175739 
Si 6.328583549999999 14.657627969999998 32.60816965148089 
Si 7.64444088 14.030039429999999 30.64606190549017 
Si 8.15925375 -0.011617653329999998 2.693375708921188 
Si 8.51141097 2.15612811 0.12015639225984663 
Si 9.50213619 1.359529191 4.071371846148844 
Si 10.87865748 2.68157835 2.7199508824794636 
Si 9.455009219999999 3.92390262 1.4314883871619164 
Si 8.144397269999999 0.000377929629 8.14460861675792 
Si 8.14459275 2.7156407399999996 5.43103992020902 
Si 10.858620779999999 0.0001104374034 5.429554887768466 
Si 10.86002172 2.7150380100000002 8.144401402929004 
Si 9.500849279999999 1.358572968 9.501375697213291 
Si 10.858343849999999 0.00192713958 10.864048371792727 
Si 9.12640734 1.83715362 15.156586444669571 
Si 10.9079469 2.8062294299999997 13.679428129614916 
Si 9.47227662 1.487500173 17.792657169204475 
Si 8.33678217 3.96218412 21.117644803603547 
Si 11.67654168 1.94517261 20.84022002232528 
Si 11.583330299999998 2.35450773 18.550818033564216 
Si 10.55605032 3.7142177399999996 21.916108757687145 
Si 10.486834109999998 0.297561285 23.532998264706432 
Si 10.977407459999998 2.53166148 23.8958987504119 
Si 9.49558761 2.87702577 25.718862410286583 
Si 12.16947708 4.03092792 29.424674526592227 
Si 9.58378167 1.465621074 27.684561862645158 
Si 11.71159776 1.9580254199999998 28.487446378412265 
Si 10.63518714 3.7360789199999997 32.496930360992 
Si 9.40110561 1.72841787 32.438806881981506 
Si 10.870870859999998 8.13851658 2.7115138260788307 
Si 12.189872159999998 6.643143449999999 1.4034316347269025 
Si 8.1360405 5.42575917 2.702942080689404 
Si 9.502413119999998 6.78825477 4.069541457326767 
Si 11.134377899999999 4.85187876 0.16161608050542703 
Si 9.502380539999999 4.07248371 6.78804875013146 
Si 8.14534209 5.4300760200000004 8.144815830586833 
Si 10.860412679999998 5.429147489999999 5.430072922340753 
Si 10.85782257 5.43054843 10.85607063937952 
Si 12.223266659999998 6.774880679999999 12.187177740687657 
Si 9.50355342 6.78546918 9.50161744668036 
Si 9.50692545 4.07709378 12.21850156449189 
Si 8.20779795 5.48767746 13.599236377825031 
Si 10.10584359 6.39644769 14.841966781101164 
Si 10.91561949 8.11118196 13.500878880366983 
Si 11.61336906 4.538850119999999 15.181866531797132 
Si 10.06961463 7.554194279999999 16.970121875328648 
Si 10.88870841 4.42281645 17.67616846171641 
Si 9.107445779999999 7.78692951 20.89782546676349 
Si 11.319236819999999 7.3018296000000005 20.228697477560647 
Si 11.83693302 6.4481847299999995 18.137219231051017 
Si 8.667876419999999 5.4711593999999995 17.957668448296662 
Si 11.75028651 5.7407914799999995 22.097628071816185 
Si 10.77133896 6.59731968 24.128047310072365 
Si 10.304825939999999 5.07883104 25.939165246060774 
Si 10.32658938 5.51906829 29.412483446324426 
Si 11.463582509999998 7.5793949099999995 29.116340349167555 
Si 8.76950973 5.66823582 27.661077628701523 
Si 9.17820954 5.30083116 31.54198543043986 
Si 10.181608379999998 6.574904639999999 33.32861759897821 
Si 8.43185061 7.85246418 34.50476329189651 
Si 9.52917759 9.44834661 1.314554169941689 
Si 12.17029158 12.19366773 1.3438783802968957 
Si 9.50094702 12.220823159999998 4.071648131254064 
Si 12.21924303 9.50308101 4.074134697201037 
Si 8.14392486 8.14415292 5.430314671807819 
Si 9.50194071 9.502869239999999 6.787461644282868 
Si 10.8597285 8.14472307 8.144435938567158 
Si 8.14508145 10.860168329999999 8.145264793882815 
Si 10.859614469999999 10.85927238 5.430314671807819 
Si 12.21500763 9.500767830000001 9.50165198231851 
Si 8.145781920000001 8.14496742 10.861734484036516 
Si 9.508261229999999 9.492036389999999 12.222680376708329 
Si 10.8636381 10.860282360000001 10.861492734569447 
Si 12.20160096 12.21349266 12.232453962305462 
Si 8.19546642 10.66819068 13.779270659513516 
Si 11.191865309999999 9.67094946 16.60003797688748 
Si 9.82472706 11.47591404 15.684014710533097 
Si 10.93472766 11.306465459999998 20.399683422053204 
Si 8.478945 10.60679367 17.511709752834662 
Si 8.57046222 11.991590279999999 19.398426200738687 
Si 12.131651699999999 10.32404814 24.82152292417265 
Si 9.96407172 10.395382049999998 23.88401849088747 
Si 9.25371369 8.16603039 23.229222791517877 
Si 9.79102305 9.237830939999998 28.944594620635645 
Si 10.41535359 11.4139143 28.16754276220654 
Si 10.716262469999998 10.931567399999999 34.4521655149904 
Si 10.9846728 10.352425319999998 32.15585639859885 
Si 8.91615231 10.11262023 30.996391418908164 
Si 12.13831431 8.469138419999998 31.159917665559803 
Si 9.59925717 15.032135069999999 1.0723039361216458 
Si 10.842868349999998 13.58250426 2.694328892534194 
Si 8.144055179999999 13.57349589 5.431316205314238 
Si 9.50257602 14.931821249999999 6.78704721662504 
Si 10.86007059 13.57476651 8.144815830586833 
Si 9.50312988 12.2178258 9.50275712273939 
Si 8.145847080000001 13.57333299 10.863426730305983 
Si 9.5030973 14.929931609999999 12.25213927605233 
Si 10.760408369999999 13.413658409999998 13.732440334178857 
Si 11.606022269999999 14.666310539999998 17.410451261771808 
Si 10.9473687 16.03970415 21.34115945372591 
Si 8.88678144 15.19148385 20.589249539871755 
Si 12.14991279 13.03502994 19.333775486117386 
Si 9.21556251 15.391345859999998 18.198174632390014 
Si 8.42683329 13.129186139999998 21.583219741536116 
Si 10.45249479 12.2531751 22.532293613602352 
Si 11.80404351 16.08743385 25.38283065106369 
Si 11.190920489999998 12.93916329 29.853883437550312 
Si 8.25155289 14.4813213 26.59544597787092 
Si 10.27910403 15.56641449 27.052870505199525 
Si 8.45753994 12.21802128 27.07038007374279 
Si 11.995092629999998 14.64301584 28.451356636543 
Si 9.85422825 14.143792499999998 31.470013160530243 
Si 10.96004232 16.23943584 31.91086058154569 
Si 9.511779869999998 12.72636702 33.35596982439492 
Si 11.51543358 15.758994869999999 34.25054645945666 
Si 13.594786919999999 0.01348360767 2.685881475442116 
Si 13.13255817 3.1370141699999996 0.032972658776541375 
Si 12.22608483 1.3156455599999999 1.1836606477802598 
Si 14.92726005 1.359216423 4.071924416359283 
Si 13.57564617 -0.0006750233909999999 8.144677688034223 
Si 13.57548327 2.7150868799999994 5.431247134037934 
Si 12.21736968 1.3582439099999999 6.787772465026241 
Si 14.93248914 1.3570808039999998 9.501824660509273 
Si 13.577242589999999 2.7123664499999998 10.863323123391526 
Si 12.21437232 1.3585355009999998 12.238359556429522 
Si 15.30004041 0.916332048 14.689353796105689 
Si 14.85265185 1.163848824 16.95637669134399 
Si 12.96222993 0.286058916 18.220381047722007 
Si 13.995178829999999 1.70530236 21.28631686033989 
Si 15.08465403 3.16382751 19.77790379275731 
Si 14.008194539999998 3.21843159 17.67309478992085 
Si 15.02765532 1.6419831299999998 23.44234221455637 
Si 13.23785673 3.0149532 24.468706844807684 
Si 12.97208538 1.6511544 26.492598847453063 
Si 14.90390019 0.571269123 29.874190392783927 
Si 12.513701069999998 0.22582989899999997 29.856059182753913 
Si 15.082031339999999 1.1701954079999999 27.524489179808764 
Si 16.03287864 2.30612643 31.33339017599933 
Si 14.540160779999999 3.67065828 32.75411725831296 
Si 12.22235442 4.07132712 4.074203768477342 
Si 14.82132618 4.079504699999999 1.3434259634370995 
Si 13.57955577 5.42043234 2.7486327299650357 
Si 14.932847519999997 6.78828735 4.073513055714294 
Si 16.28845245 5.42991312 5.430280136169666 
Si 14.931951569999999 4.07284209 6.788290499598527 
Si 13.57486425 5.43054843 8.144712223672375 
Si 12.21771177 6.787358819999999 6.787841536302546 
Si 16.28980452 5.43444174 10.859800488299982 
Si 12.21722307 4.075171559999999 9.502895265291999 
Si 14.93234253 6.787619459999999 9.501824660509273 
Si 14.92465365 4.079016 12.239084804830721 
Si 16.02905049 7.95458619 13.64288942444967 
Si 14.81187798 5.39559009 16.471323653493467 
Si 13.35149577 5.32254573 13.611082101711306 
Si 14.09518314 7.206207299999999 14.844729632153356 
Si 14.1157737 6.54740712 18.341117638702816 
Si 15.005957039999998 5.49142416 20.232979896691546 
Si 16.20646488 4.93187895 23.52709267058237 
Si 14.07703608 7.747849799999999 23.4061834014108 
Si 14.11803801 5.607506699999999 22.418049722594198 
Si 12.41680815 8.014794030000001 25.06016418380577 
Si 14.28913188 5.03848071 29.335641651435328 
Si 16.27050087 4.919856929999999 25.965515937971062 
Si 12.65143302 4.406770799999999 26.271363549448758 
Si 14.36137803 5.78220066 27.13427100432474 
Si 13.091523659999998 7.741838789999999 27.306949195086766 
Si 15.57824103 5.69827458 34.34223857875129 
Si 12.498078959999999 6.737527709999999 32.60064088236367 
Si 12.65666211 4.525101359999999 31.64977115711351 
Si 13.91835519 7.48220877 34.50051540840376 
Si 16.2917919 8.14166055 2.693776322323756 
Si 14.834993489999999 9.391185 1.256807129387053 
Si 13.571101259999999 10.84596345 2.699163881875531 
Si 14.93219592 9.502347959999998 6.787668858111783 
Si 13.57505973 10.85982624 8.145126651330205 
Si 13.57400088 8.14355019 5.430556421274886 
Si 13.575238919999999 8.144332109999999 10.861458198931297 
Si 14.935111829999999 9.51981084 12.241122407481715 
Si 12.54316968 9.13082193 14.77527846382887 
Si 13.563982529999999 10.928846969999999 13.685644544482349 
Si 15.1065315 8.758628009999999 17.996831861961493 
Si 12.36731913 9.435558959999998 20.148160369389238 
Si 15.98545845 9.19594935 20.1669822921823 
Si 13.078882619999998 10.08093618 17.941609376555796 
Si 13.7800368 11.162755079999998 23.29556575240865 
Si 16.181769239999998 8.457116399999999 24.05144726465033 
Si 15.869310749999999 10.825714979999999 24.359815977713154 
Si 14.1058368 9.43753005 21.705096008575953 
Si 16.022844 10.310592599999998 26.759766544200065 
Si 12.464342369999999 11.32185951 26.954478472103325 
Si 14.0048388 9.817820099999999 27.98374409595944 
Si 16.05586383 9.359598689999999 31.303620455911958 
Si 12.913278479999999 11.905236989999999 31.21741950308356 
Si 13.81879071 9.88734582 30.397508917707317 
Si 16.05208455 11.04572772 34.453339726687574 
Si 13.268628539999998 13.9657428 0.17490643013561696 
Si 12.21477957 14.93040402 4.067987353609909 
Si 14.93068095 12.220692839999998 4.067054891379794 
Si 15.21422469 15.114871979999998 1.12815842370553 
Si 13.574049749999999 13.574815379999999 5.430072922340753 
Si 12.21756516 12.217728059999999 6.78718535917765 
Si 14.932782360000001 14.931951569999999 6.78704721662504 
Si 16.2901629 16.28905518 10.86411744306903 
Si 12.21828192 14.93164206 9.502446301996017 
Si 14.93068095 12.21601761 9.502377230719711 
Si 13.57810596 13.575238919999999 10.85707217288594 
Si 14.934362489999998 14.9191965 12.207070268263443 
Si 12.4682031 14.38231068 15.06365104240145 
Si 14.24210265 12.73192191 15.090830589627393 
Si 13.49989767 16.14239631 13.566600199771008 
Si 16.10872488 13.55163471 13.713445733195034 
Si 12.72133341 14.523561269999998 21.05851979108663 
Si 14.344354979999999 15.9407424 20.188739744218317 
Si 16.12617147 12.982234049999999 18.945007807435765 
Si 13.91662845 12.33236079 17.710358743487294 
Si 13.447313549999999 14.49723663 24.87063260162537 
Si 12.644167679999999 13.224368609999999 23.021249178564098 
Si 15.48584415 15.68077029 24.31654282310819 
Si 15.75190872 13.818432329999998 27.862731219873414 
Si 16.15958226 14.83082325 30.02690698469386 
Si 13.524658469999999 13.472742239999999 27.038054716432143 
Si 16.22749527 13.661022059999999 32.08937529515547 
Si 14.34414321 12.6099261 33.0735028399464 
