&CONTROL
  dt          = 30.D0,
  prefix = 'x1.66_y.66_z3.19_struc5-scf',
  pseudo_dir = './',
  outdir='./',
  wf_collect= .true.,
  verbosity= 'high',
/

&SYSTEM
ibrav= 6, celldm(1) =30.783621515, celldm(3) =2.126766214129715, nat=  432, ntyp= 1,
  ecutwfc     = 12.D0, nbnd= 1728,
  degauss     = 0.05D0,
  occupations = "smearing",
  smearing    = "methfessel-paxton",
/
&ELECTRONS
  electron_maxstep=200,
  conv_thr    = 1.D-8,
  mixing_beta = 0.3D0,
  scf_must_converge=.false.,
/
ATOMIC_SPECIES
Si  28.08  Si.pbe-hgh.UPF
K_POINTS {automatic}
1 1 1 0 0 0
ATOMIC_POSITIONS (angstrom)
Si 0.0008273234879999999 2.73426021 2.725444167938629 
Si 2.7183285899999996 -0.00663797952 2.710758143270447 
Si 2.48152086 2.93456205 0.067784717066602 
Si 1.3537397249999998 1.3969668689999999 1.418782925716943 
Si 1.35479043 4.070952449999999 4.071171136548244 
Si 4.075204139999999 1.357764984 4.072279777240345 
Si 0.00113293692 0.00285614199 5.429879594761935 
Si 5.00992434e-05 2.71484253 8.144732779588832 
Si 2.71500543 0.00014890265459999998 8.144732779588832 
Si 2.71551042 2.71583622 5.430052819870076 
Si 1.3577030819999998 1.3575092309999999 6.78792979756469 
Si -0.00142915428 -0.000832173021 10.86107570034574 
Si 2.71585251 2.7117963 10.862565436275752 
Si 1.366902045 1.3485627629999999 12.232187076302317 
Si 1.358515953 4.07344482 9.503787688018804 
Si 0.22281950699999997 2.8692065700000002 13.581991763957568 
Si 2.87212248 0.0963310779 13.65855726175583 
Si 2.08748205 3.68338077 15.235841161421664 
Si 3.88596321 1.7583588899999998 15.067223841157345 
Si 0.8721682289999999 1.77209136 17.516003259879874 
Si 0.6195624569999999 3.81497139 20.979847167286245 
Si 3.7755007199999997 1.8144290699999999 20.015745505417442 
Si 1.9277586 3.12456861 19.06785771367063 
Si 1.4133464639999997 3.62105523 24.861440745485126 
Si 3.35500695 1.63300734 22.356640326789844 
Si 1.1394464039999999 2.435355 22.8262189499381 
Si 3.34340847 2.05053633 27.849054185590628 
Si 3.01597947 3.9666475799999996 29.380779881815418 
Si 3.5761437 0.2467935 29.39418750518552 
Si 1.565206731 1.752804 26.341198909267654 
Si 1.4702506919999998 0.6719755319999999 30.572395400716427 
Si 3.4078028399999996 3.31747479 31.71207803219681 
Si 3.37698216 1.37078721 33.22267026522841 
Si 4.07046375 6.788531699999999 4.066840508844722 
Si 2.71770957 5.45050368 2.6837211683918207 
Si 1.3946292539999998 6.94243962 1.163234317183213 
Si 0.0013528454039999998 5.43079278 5.430953590432408 
Si 2.71480995 5.42968506 8.145287099934883 
Si 1.357059627 6.78766833 6.787479412283524 
Si 2.7147122099999996 8.14635207 5.430433915107986 
Si 4.08128031 4.094915039999999 12.242961678028678 
Si -0.001267567254 5.430190049999999 10.861768600778303 
Si 1.36977723 6.78616965 12.25564175594459 
Si 2.91569823 5.53936563 13.844115997596324 
Si 2.6515558799999996 5.02702884 17.767422181835528 
Si 1.614998745 5.92423317 21.371439846749485 
Si 1.72074528 6.877426229999999 19.221716254721343 
Si 3.82428927 5.69126988 22.104008829077202 
Si 0.215935353 7.28865099 22.742655157770947 
Si 3.54980277 4.629389939999999 24.25903310941445 
Si 3.8196791999999995 8.03188224 26.531226852898182 
Si 0.607182057 4.4530832700000005 29.670758712843224 
Si 0.19590354 5.54167881 31.972989690078577 
Si 3.1369164299999994 7.57341648 32.343656776478404 
Si 2.33114787 5.1548890499999995 32.79085471565486 
Si 4.05891414 9.64509723 1.2336676461532887 
Si 1.3559176979999998 9.50156604 4.073215192824306 
Si 2.7042377399999995 10.873574999999999 2.711908357988502 
Si -0.00046975798799999996 8.14488597 8.14417845924278 
Si 0.00326186073 10.86065703 5.431057525497293 
Si 2.71485882 10.86018462 8.14476742461046 
Si 1.358647902 9.50435163 9.502852272434843 
Si 2.7143049599999998 8.13933108 10.864436267443674 
Si 4.07424303 12.217939829999999 9.50215937200228 
Si -0.0019480885199999998 10.862562959999998 10.860244219826663 
Si 3.0751284599999997 9.23493132 16.697306753784517 
Si 3.75748398 11.555164889999999 17.12177755877289 
Si 0.1353961269 8.314937279999999 13.613761248790603 
Si 1.389302424 9.787032 15.087837629026108 
Si 2.7734865299999996 11.00270583 13.6426551968285 
Si 2.15070354 10.38937104 20.863474539637213 
Si 2.93576751 8.89256439 19.169332982019547 
Si 3.12196221 9.54458793 22.871777153379146 
Si 1.15461891 9.08011116 24.038240386578106 
Si 1.64519226 8.85102489 26.349479069436786 
Si 2.54475864 8.7941565 30.270464037226898 
Si 0.11377408409999999 8.89570836 29.807398678144736 
Si 1.92891519 11.16409086 27.05464383965662 
Si 0.09824938829999999 12.07356156 28.161448345611866 
Si 3.56237865 12.078562589999999 28.550165488279966 
Si 2.38995477 8.6991858 34.46081404817606 
Si 0.693528831 10.56385323 34.329994446508074 
Si 3.1116180599999996 11.091193109999999 30.666040894177378 
Si 1.088246934 11.88621027 31.889772348127707 
Si 3.2142450599999997 13.26432798 0.09681967034252498 
Si 1.420916427 12.245909759999998 1.2346169197459007 
Si 1.3594607730000001 14.9299479 4.0693349504019505 
Si -0.0001118388321 13.574815379999999 8.144906004696972 
Si 2.7164715299999997 13.57618374 5.429879594761935 
Si 1.358242281 12.216604049999999 6.787652637391665 
Si 4.1006654099999995 14.937408719999999 12.238665695346786 
Si 1.357821999 14.93437878 9.502401887153678 
Si 2.71075374 13.57496199 10.863674076967852 
Si 1.3578350309999998 12.220057529999998 12.226955678036463 
Si 3.7419759 12.695790689999999 15.009851685341092 
Si 0.18488498399999997 13.67035623 13.70861931800854 
Si 2.13441354 14.615273969999999 15.101695637677379 
Si 2.52807768 15.23051469 17.64727324682902 
Si 0.15135837209999997 15.6357936 20.887067799365997 
Si 2.8897319699999997 12.5836992 20.422547349375453 
Si 0.43137060299999996 15.98622408 18.478926991013317 
Si 2.2261588199999998 13.010203979999998 18.235788229226795 
Si 1.8528571799999998 14.21817264 21.774049643090482 
Si 3.1448170799999997 15.726089069999999 23.06890732644345 
Si 0.872976213 13.090464809999999 23.609820049124117 
Si -0.001175180148 15.11575164 24.437628195907685 
Si 2.5036589699999996 12.54940875 25.220363169552996 
Si 2.00743299 16.040632679999998 25.160877667417424 
Si 3.34767645 14.507955449999999 26.24682587035251 
Si 2.9100618899999997 14.40576828 28.482642341126656 
Si 0.5699659229999999 14.2974072 28.821574587715073 
Si 1.34788347 16.275827699999997 32.889419802187014 
Si 0.8648002619999999 14.48365077 31.259336889559844 
Si 5.4317213099999995 2.7047915999999996 2.69842798007298 
Si 6.82969653 1.4368855139999999 1.166175679519445 
Si 8.145863369999999 2.7166995899999997 5.430122109913332 
Si 5.42997828 2.7146959199999996 8.14497529474023 
Si 6.78704931 1.357642809 6.787791217478177 
Si 8.14382712 2.7151357499999995 10.866272453589966 
Si 4.07507382 1.358874333 9.501327891483204 
Si 5.43111858 -0.0018911223899999998 10.858442678701998 
Si 6.782276339999999 1.344574971 12.238076729979106 
Si 7.234258679999999 3.6948652199999996 14.897463235179298 
Si 5.71171383 0.92704761 17.02324711726237 
Si 5.4578504699999995 2.73113253 13.622803599435555 
Si 6.3499560299999995 3.40628787 17.129295528466205 
Si 5.95560771 2.7178073099999995 19.913508046592707 
Si 7.4632635 1.6516756799999999 21.47388517570399 
Si 7.199951939999999 3.0806019 23.339103850121575 
Si 4.8529539 2.69350263 23.96209062903938 
Si 5.006307959999999 1.6505842499999999 26.137174376899342 
Si 6.95915316 2.7682085699999996 26.77554354542006 
Si 8.1249633 2.69549001 28.78388080418362 
Si 6.864850349999999 2.35110312 30.820419110552518 
Si 5.62259124 3.7974922199999996 32.38162772018288 
Si 5.86426968 0.23804576999999996 30.366465392158567 
Si 8.000279639999999 3.18112749 34.57299462820808 
Si 5.219169389999999 0.225484551 34.40697568456588 
Si 4.09691871 4.07093616 1.3166286149441118 
Si 6.786332549999999 4.07465028 4.0729380326512805 
Si 6.029091899999999 4.6466736299999996 -0.001005966706004284 
Si 6.9448342499999995 6.65980812 0.9830628822058989 
Si 5.438856329999999 8.14382712 2.6603080627755014 
Si 8.15809716 5.43295935 2.6897494021551225 
Si 4.0728909600000005 4.07178324 6.7875140573051524 
Si 5.43089052 5.430369239999999 5.430087464891704 
Si 6.78791268 6.7870656 6.787029027002357 
Si 6.78784752 4.07458512 9.50177827676437 
Si 4.07484576 6.78802671 9.502124726980652 
Si 5.42784429 5.4279909 10.860833185194343 
Si 6.770009969999999 6.7943961 12.23911608062795 
Si 4.32071073 7.3371137399999995 15.505275494623966 
Si 5.81486211 7.145869139999999 17.462545991507604 
Si 5.57155467 4.93613064 20.582468769211097 
Si 7.3572318899999996 6.48799749 20.47174328008746 
Si 4.96985094 5.04678861 18.233605592864222 
Si 4.73815827 7.82029143 22.59537917082958 
Si 8.017318979999999 5.441821109999999 23.44785457301241 
Si 6.29926155 6.98046048 24.159844412492994 
Si 4.779127620000001 6.03813285 25.657479407435655 
Si 4.862532419999999 5.561634059999999 29.17384516763034 
Si 6.18001875 5.00365269 27.241172636102707 
Si 4.250663729999999 7.86733695 28.826286310656506 
Si 6.19324623 5.69034135 31.16423630519051 
Si 5.551061849999999 7.60006692 32.60186612267318 
Si 6.786430289999999 9.5027715 4.066563348671696 
Si 4.07196243 12.213574109999998 4.070339656029168 
Si 4.07176695 9.50282037 6.787340832197011 
Si 5.430173759999999 8.14428324 8.145009939761858 
Si 5.43004344 10.86075477 5.430815010345896 
Si 6.78770091 9.50404212 9.502367242132049 
Si 4.07390094 9.52253127 12.23821531006562 
Si 5.42875653 10.86065703 10.860763895151086 
Si 6.7800609 12.209550479999999 12.240571171536335 
Si 5.58189882 8.349374339999999 13.673177460882918 
Si 7.615672739999999 9.22533651 15.022323893127234 
Si 7.27778556 12.21569181 17.33401296126708 
Si 5.59755351 11.25336006 18.664416436810555 
Si 6.33799917 8.50267953 21.056481955127765 
Si 5.302199519999999 8.940147479999998 19.02254202538098 
Si 5.0626713599999995 9.920593709999999 25.84840812162852 
Si 4.09151043 11.211234119999999 24.162650659244875 
Si 7.059287789999999 8.842342319999998 25.351044191134466 
Si 7.90400574 8.36367696 27.546776371884818 
Si 5.627103569999999 11.25598275 27.709954423753512 
Si 6.211670219999999 9.28279134 29.021303137401492 
Si 6.667659899999999 9.50655078 31.525376010642585 
Si 4.93686369 11.549919509999999 34.54503609575414 
Si 5.18072499 11.30710077 32.10464077226564 
Si 4.13072046 15.02545617 1.2934580244791898 
Si 5.4527517 13.593271949999998 2.688723909514929 
Si 6.96747735 12.38733954 1.1802935258329252 
Si 6.7853388599999995 14.926999409999999 4.072210487197089 
Si 4.07284209 14.932016729999999 6.787652637391665 
Si 5.4299457 13.574913119999998 8.144802069632087 
Si 6.787521719999999 12.217581449999999 6.787306187175383 
Si 5.4312326099999995 16.2913032 5.431161460562176 
Si 6.78711447 14.93547021 9.50215937200228 
Si 7.83167814 15.88889133 17.2790659569648 
Si 5.52678975 13.61285253 13.722130876443527 
Si 7.40390274 14.579843219999999 15.131005325974813 
Si 5.20926507 12.560192729999999 20.685606998598168 
Si 6.0483955499999995 14.664306869999999 20.121516756448255 
Si 4.52607876 16.12757241 18.868683484330262 
Si 7.87421133 13.97325249 18.802303622890683 
Si 6.923917889999999 15.675785549999999 22.07182360398463 
Si 5.58815418 12.60028242 23.075836330769086 
Si 5.2855674299999995 14.95052217 23.574793932258036 
Si 7.631017919999999 12.36225294 24.22698646440839 
Si 5.379332669999999 15.598473209999998 25.85675757184091 
Si 7.76487285 15.515508239999999 29.261323847241474 
Si 7.31015379 12.613770539999999 26.633395021679664 
Si 7.34949414 14.94830673 26.95413863191329 
Si 6.05263095 13.40261379 31.231239777019397 
Si 6.287467589999999 15.451798049999999 32.505587607568486 
Si 8.15009877 0.011957120639999999 2.6776513606025647 
Si 9.49879674 1.3558867469999998 4.069127080272182 
Si 10.884473009999999 2.71296918 2.688138408649413 
Si 8.14493484 -0.00012565747619999997 8.1449406497186 
Si 10.85958189 2.7150543000000003 8.14497529474023 
Si 12.209338709999999 1.375442892 12.237591699676312 
Si 9.50428647 1.357199721 9.502263307067164 
Si 9.513636929999999 4.09032126 12.236968089287005 
Si 8.21744163 0.07928733959999999 13.695003824508667 
Si 9.163287899999998 2.06553942 15.081705460197924 
Si 10.98589455 2.93298192 13.707441387273182 
Si 11.729174669999999 0.45503997299999993 17.035268939767345 
Si 11.29314024 3.16037403 21.021836933499593 
Si 9.727964459999999 1.415887704 20.70663652672647 
Si 9.5767281 1.2661272179999998 18.116158969544717 
Si 8.501767289999998 3.37795956 17.922493298643225 
Si 12.15636363 3.23905473 23.25325348652696 
Si 8.54136828 2.06803179 25.073191117676522 
Si 10.592442179999999 3.35059236 25.135967896866767 
Si 9.54030366 0.8472494159999999 29.092775817020414 
Si 12.066084449999998 2.63898 26.91072841981319 
Si 11.45856519 0.41111073 27.69672002549155 
Si 10.51431534 1.7773693199999998 31.115386824694784 
Si 8.713358099999999 3.0478915799999995 32.15338631769648 
Si 9.66295107 4.187621429999999 1.2609228846681724 
Si 9.497379509999998 6.78615336 4.07009714087777 
Si 8.14690593 8.146368359999999 5.4302606899998445 
Si 9.50192442 4.07290725 6.787825862499806 
Si 8.14526064 5.4301086000000005 8.145079229805113 
Si 10.86124347 5.43080907 5.43109217051892 
Si 10.85405958 5.431281479999999 10.860590670042946 
Si 9.505589669999999 6.789509099999999 9.501501116591346 
Si 9.12547881 7.31528514 14.839363533908852 
Si 12.12997383 4.70430765 15.014320893131126 
Si 10.76237946 6.328062269999999 16.204100225885846 
Si 8.16361947 5.508544949999999 13.649203105916223 
Si 11.4837984 8.01867105 17.734959796569928 
Si 10.703556269999998 5.32241541 20.114726332209134 
Si 8.167610519999998 7.11540684 18.35049789583768 
Si 9.676374029999998 5.34186567 18.01859858863978 
Si 11.789415089999999 6.8707473299999995 22.78821336121199 
Si 9.443231549999998 6.61427757 21.830070643063237 
Si 11.098279259999998 7.24799115 25.013359165324665 
Si 9.5048892 5.516657369999999 25.32048728205842 
Si 8.321583599999999 6.0352821 27.32965602134106 
Si 9.42967827 4.68849006 28.904861219709204 
Si 11.83458726 4.18605759 28.70482086482813 
Si 10.0090647 7.05984165 31.363410534530875 
Si 8.57166768 5.28509502 31.014846971929824 
Si 8.86940001 7.76312982 34.43434525165213 
Si 11.84235759 5.46433389 32.14479435233269 
Si 10.76635422 5.92843599 34.411514182399166 
Si 9.5905746 9.570423869999999 1.2263644755940697 
Si 10.87417773 8.164727189999999 2.695885035485472 
Si 8.141253299999999 10.856731139999999 2.6789262973984815 
Si 12.21484473 9.501468299999999 4.069231015337066 
Si 9.502413119999998 9.50251086 6.787340832197011 
Si 10.85994027 8.14486968 8.145183164869998 
Si 8.145228059999999 10.86020091 8.14497529474023 
Si 10.86202539 10.861797329999998 5.431196105583805 
Si 12.2201064 9.50529645 9.502263307067164 
Si 8.146368359999999 8.142100379999999 10.864574847530186 
Si 9.522726749999999 9.518442480000001 12.235582288421877 
Si 10.8546786 10.86215571 10.859100934112934 
Si 12.090307679999999 10.172225339999999 15.132217901731797 
Si 8.836315019999999 10.57944276 16.754540329514256 
Si 11.00278728 8.39295009 13.75528616214169 
Si 8.24707314 10.98113787 13.623115404630209 
Si 10.78194375 11.905579079999999 16.37642456346438 
Si 12.04215444 10.530784529999998 20.973853578544567 
Si 9.75301848 10.43620479 20.383502410000503 
Si 9.5262291 9.12204162 18.41382899537398 
Si 8.511704189999998 9.06439131 21.8424389157845 
Si 8.43839919 10.119022199999998 23.933369906109625 
Si 11.96849106 11.188297799999999 24.634966239101757 
Si 10.38590127 9.5047263 25.027944719430124 
Si 11.51367426 8.42181597 30.2420551194918 
Si 9.75384927 9.7639002 27.264627315744978 
Si 9.407507579999999 12.049989929999999 27.50083707320586 
Si 11.85664392 9.39887388 28.149357233063633 
Si 10.58103918 11.42969931 34.53918108709898 
Si 10.67490216 10.50146253 31.00171650873275 
Si 9.01136736 9.122465159999999 32.33114992367064 
Si 12.2153823 14.93063208 4.07200261706732 
Si 9.50389551 12.2175 4.066979088931235 
Si 9.73459449 15.1065315 1.2935065275094693 
Si 10.86932331 13.5876519 2.707345608640072 
Si 11.56026366 16.05454434 0.1012396822018473 
Si 8.146368359999999 13.57672131 5.4303299800431 
Si 9.50272263 14.931821249999999 6.787548702326781 
Si 10.85984253 13.57509231 8.145079229805113 
Si 10.862497799999998 16.28993484 5.43015675493496 
Si 12.22017156 14.93476974 9.50254046724019 
Si 9.50485662 12.21776064 9.501986146894138 
Si 8.1467919 13.572518489999998 10.8647134276167 
Si 9.51567318 14.954610959999998 12.234542937773034 
Si 10.853522009999999 16.290325799999998 10.860937120259226 
Si 9.19034559 12.857729579999999 14.899611226520245 
Si 10.99615725 13.814571599999999 13.71977501497281 
Si 9.61336431 12.84960087 20.01297390368719 
Si 11.55957948 13.10901912 18.62014009916975 
Si 10.30948488 13.83431508 22.010675140810903 
Si 12.027069899999999 12.30960366 22.620531456531637 
Si 8.52708195 14.43987954 23.401222373900886 
Si 11.133335339999999 16.01056134 21.701468322779462 
Si 8.85490191 15.87121668 25.311133126218813 
Si 11.10184677 15.26490288 25.814698515584308 
Si 10.06666614 12.4867737 29.755777595918758 
Si 11.233877219999998 12.82080015 26.22936477945191 
Si 8.87635584 13.3095816 34.54850059791696 
Si 8.379836639999999 13.801832819999998 30.810787794539888 
Si 11.09948472 16.19962308 32.45393188032088 
Si 8.82533556 14.962625639999999 32.78115410959897 
Si 12.497052689999999 1.5205151159999999 1.291694592878316 
Si 14.92861212 1.358682111 4.075120669013855 
Si 12.216620339999999 4.07256516 4.070235720964283 
Si 13.57489683 1.545295464e-05 8.144663489545575 
Si 13.575923099999999 2.7152334899999997 5.431438620735203 
Si 12.21771177 1.357326783 6.787687282413294 
Si 14.935176989999999 1.358975331 9.50177827676437 
Si 13.57455474 2.71336014 10.863778012032737 
Si 15.142418369999998 2.46415572 16.641147173725248 
Si 13.59543852 0.0443374704 13.609707781260106 
Si 15.239979179999999 1.3150216529999998 14.670676923601276 
Si 13.28674302 2.30358519 20.013251063860217 
Si 13.12247466 2.29262202 17.697127432951962 
Si 13.752115739999999 1.503158121 23.830785997068606 
Si 15.843116429999998 0.6478386389999999 22.871257478054723 
Si 14.26200903 2.6012686499999997 25.926844450594704 
Si 16.09447113 2.1808074599999996 29.622290327585407 
Si 15.71647797 1.421747217 27.365860068942496 
Si 16.02812196 0.475307991 34.62804556757525 
Si 14.36742162 2.31943536 34.54628331653276 
Si 12.352348619999999 3.2863446 30.836632980674505 
Si 14.34805281 1.9993205699999999 31.262766746701033 
Si 15.05523429 4.15917909 1.2859539127945274 
Si 13.57356105 5.4162458099999995 2.701549496521679 
Si 12.339512099999999 6.8810589 1.3123014517427531 
Si 14.93504667 6.7884828299999995 4.067706634385426 
Si 14.93226108 4.0725814499999995 6.78775657245655 
Si 13.57505973 5.43004344 8.145009939761858 
Si 12.21707646 6.78778236 6.787583347348408 
Si 13.57085691 8.14493484 10.861907180864817 
Si 12.21916158 4.07502495 9.501882211829255 
Si 14.93364573 6.78980232 9.503822333040432 
Si 14.947394489999999 4.0760349300000005 12.232983911799764 
Si 12.22518888 6.80803083 12.2434813533531 
Si 13.920652079999998 4.49509518 16.70652232953761 
Si 13.73773167 5.5917379799999996 13.601739426285626 
Si 15.162536519999998 6.9293261699999995 15.087006148507033 
Si 14.338441709999998 5.68592676 18.717596545009798 
Si 14.58430668 4.24618398 20.646562059223218 
Si 12.40981974 6.860419469999999 19.498945717789987 
Si 15.784944839999998 7.54839504 18.771019168360443 
Si 13.43982015 5.1647770799999995 22.69785914480572 
Si 14.9488443 6.30892152 24.22130468086137 
Si 15.668471339999998 4.58910477 25.69406455027501 
Si 12.606163109999999 7.573856309999999 26.835306207728657 
Si 16.14156552 7.92469404 27.57269084806269 
Si 15.6952521 5.57886888 27.885708618473235 
Si 13.37008266 5.98466907 28.457420765381347 
Si 15.876657539999998 5.88815082 34.52528843342609 
Si 15.419446109999999 7.64176932 31.57006808854293 
Si 13.31731935 6.952457969999999 30.686342876851487 
Si 14.08869972 7.6679799299999996 34.504328195341046 
Si 16.294724099999996 8.15198841 2.68900799869228 
Si 15.097067009999998 9.48407058 1.0515041224323547 
Si 13.58673966 10.86430599 2.656576793946147 
Si 14.932798649999999 9.502168769999999 6.787444767261896 
Si 13.57502715 10.85994027 8.14497529474023 
Si 13.57602084 8.146563839999999 5.4316811358866 
Si 14.933352509999999 9.50697432 12.225188781933426 
Si 14.932244789999999 12.217809509999999 9.502505822218563 
Si 12.206227319999998 12.23822088 12.231805981064408 
Si 15.05560896 8.67362679 16.834397104367195 
Si 13.01756706 9.672236369999998 17.25775926866347 
Si 13.65608619 11.00106054 13.569519556171425 
Si 15.889347449999999 10.85085045 16.24134362413613 
Si 16.07722002 10.5285528 21.204346907436804 
Si 12.892964849999998 8.341343369999999 21.319610894393737 
Si 15.24162447 8.35976736 20.97614014997203 
Si 13.057819649999999 11.339469000000001 19.032311921480122 
Si 14.2607547 10.45697454 24.935581091769414 
Si 16.056694620000002 10.96970229 23.48267281974872 
Si 14.54522697 8.206739099999998 25.752545346783364 
Si 12.65581503 11.73850884 27.81738863582248 
Si 15.7565025 11.17883331 30.22341609785584 
Si 14.65494012 12.01651398 26.639838995702505 
Si 12.26317716 11.20839966 32.59133403609821 
Si 12.289550669999999 12.41561898 1.2026949968177019 
Si 14.93045289 12.21442119 4.066390123563556 
Si 15.028388369999998 15.088856849999999 1.3329083106071904 
Si 13.583400209999999 16.299122399999998 2.7255584965100024 
Si 16.2960273 13.57605342 2.6850653952309935 
Si 13.57569504 13.57841547 5.4305724951944985 
Si 12.216848399999998 12.21805386 6.787791217478177 
Si 14.93227737 14.93268462 6.788172312716087 
Si 13.575043439999998 13.57370766 10.86124892545388 
Si 14.94967509 14.931951569999999 12.241956972401463 
Si 12.428048249999998 15.12334278 15.288224434123462 
Si 14.81899671 12.57561936 15.03815666801131 
Si 15.00183567 14.461089119999999 17.201287883409552 
Si 14.564921579999998 14.29012557 21.224995340327197 
Si 13.17251754 16.13827494 20.49332712856181 
Si 15.030734129999999 12.22846317 19.954493107178834 
Si 12.895913339999998 15.09957567 18.40357406897204 
Si 16.21366506 12.54518964 17.921280722886245 
Si 13.572583649999999 14.011371089999999 23.3890619713094 
Si 12.257785169999998 15.936783929999999 23.817274438633618 
Si 14.55345342 14.197305149999998 25.702483290530655 
Si 12.340570949999998 13.25334852 29.567897643629177 
Si 15.029414639999999 15.470319779999999 27.713072475700052 
Si 13.02942618 15.473561489999998 29.001382249965292 
Si 13.36693869 14.22325512 34.52885687065379 
Si 13.905127709999999 12.46121469 31.191398002146993 
Si 13.448649329999999 16.09784316 31.2444048852381 
Si 14.782230179999999 14.37470325 32.30911568991511 
