&CONTROL
  dt          = 30.D0,
  prefix = 'x1.66_y1.66_z3.17_struc45-scf',
  pseudo_dir = './',
  outdir='./',
  wf_collect= .true.,
  verbosity= 'high',
/

&SYSTEM
ibrav= 6, celldm(1) =30.783621515, celldm(3) =2.119710052438847, nat=  432, ntyp= 1,
  ecutwfc     = 12.D0, nbnd= 1728,
  degauss     = 0.05D0,
  occupations = "smearing",
  smearing    = "methfessel-paxton",
/
&ELECTRONS
  electron_maxstep=200,
  conv_thr    = 1.D-8,
  mixing_beta = 0.3D0,
  scf_must_converge=.false.,
/
&IONS
/
ATOMIC_SPECIES
Si  28.08  Si.pbe-hgh.UPF
K_POINTS {automatic}
1 1 1 0 0 0
ATOMIC_POSITIONS (angstrom)
Si 3.2603620499999995 2.44955988 0.20910136869521065 
Si 1.405201464 1.291467942 1.2216464915032121 
Si 4.06771074 1.3600390679999999 4.0737203351568985 
Si 0.000217028412 2.71536381 8.145679636399333 
Si 2.7151357499999995 2.7147936599999998 5.430855941828354 
Si 1.3576167449999998 1.35697329 6.787300946964724 
Si 2.71169856 2.7176607 10.862989496496615 
Si 1.348038225 1.3637971709999999 12.241499220678937 
Si 1.357815483 4.0735262699999994 9.503298664145348 
Si 4.072516289999999 1.3581738629999998 9.50267712276377 
Si 0.336276099 0.8300439179999999 16.064807439214167 
Si 0.00540148707 2.8074511799999997 13.738032747207214 
Si 2.36454237 2.14130421 16.4170142221073 
Si 3.96464391 2.75768523 20.37944411988532 
Si 3.28193001 1.414190286 18.5824643955185 
Si 0.9026126099999999 1.219982535 23.845745874858583 
Si 3.684798 3.9540879899999997 23.979031971129906 
Si 3.22801011 1.64348181 23.782176003554046 
Si 4.00504311 0.22478896799999998 25.459439951813955 
Si 1.417910922 2.89176822 29.6731452181325 
Si 0.683798814 1.230197994 26.24506825812617 
Si 2.58061293 0.299685501 27.30952693422878 
Si 0.365474295 3.2314472999999997 27.48670075805473 
Si 3.3774056999999997 1.9663007399999999 28.829782623487215 
Si 0.397813203 1.225698696 31.082075939935297 
Si 1.360604331 4.06828089 4.069991086867442 
Si 2.71764441 5.428512179999999 2.6934979191675663 
Si 1.427701212 6.823245689999999 1.259377506372558 
Si 4.0726140299999996 4.07253258 6.78685205596692 
Si 2.7146959199999996 5.430190049999999 8.144781854403721 
Si 1.357566246 6.787684619999999 6.7870247063506906 
Si -0.00164853171 5.42966877 10.862747785959334 
Si 1.3549647329999999 6.790828589999999 12.253135856545113 
Si 3.9063582899999996 6.969155219999999 15.027005982365822 
Si 0.30852445500000003 6.2492838299999995 16.737038973465495 
Si 1.424601225 4.19399082 15.328211841892958 
Si 2.75066424 5.40494055 13.712756731023118 
Si 1.87717815 4.145348879999999 20.327407294216698 
Si 2.2478571 8.11325079 20.10368692692605 
Si 1.95507693 6.087735899999999 18.835224557359453 
Si 3.77734149 6.12574047 17.325466011434308 
Si 2.1605264099999997 5.1404724 22.57276006523718 
Si 0.36659178899999995 4.94714268 24.17557716801497 
Si 2.52639981 7.459174709999999 22.355738532836853 
Si 2.2934039399999997 8.11167066 25.98547114108788 
Si 1.320081327 7.85922453 29.60080470733239 
Si 3.6587991599999996 4.90972455 26.084848701986548 
Si 1.3328901539999998 5.00632425 26.384569768213254 
Si 0.765155961 7.04651643 27.42789603734228 
Si 3.73392864 4.18951107 33.1173131939063 
Si 2.5881877799999997 4.67682642 30.90141457835717 
Si 0.841518594 6.3141669 31.342363658508674 
Si 3.13431003 7.97323824 34.49744583169607 
Si 0.008071124849999998 8.145928529999999 2.6877831914647414 
Si 1.357320267 9.50027913 4.0680919326459595 
Si 2.71968066 10.87378677 2.6932527556226113 
Si 1.301109993 12.17526003 1.2513250924734718 
Si 2.71702539 8.14638465 5.429785509448973 
Si 0.00018177848099999998 10.86202539 5.430027219986252 
Si 2.71497285 10.860233489999999 8.145161685248018 
Si 1.357400088 12.21811902 6.787646247732266 
Si 1.356808761 9.50031171 9.502435412226491 
Si 2.71073745 8.14791591 10.861297522735656 
Si 1.380294054 12.225270329999999 12.237977152850005 
Si 3.2182849799999995 8.39855385 17.01462626049274 
Si 0.812473524 8.79721902 16.968045186951286 
Si 0.707704389 10.133113049999999 14.925729267245668 
Si 2.76284916 10.89546876 13.764724496538232 
Si 0.5338933469999999 9.6601329 19.362706009857057 
Si 0.7964539379999999 12.054665159999999 19.317678789769538 
Si 1.0298749769999997 8.282862269999999 23.97053757224836 
Si 0.6227194589999999 10.581267239999999 23.954066725636597 
Si 2.40023376 11.717657639999999 22.96160325956655 
Si 0.837949455 11.13380775 26.281048598104075 
Si 3.35341053 9.032267430000001 29.141243915810357 
Si 2.85687504 10.10089143 27.023203537782717 
Si 0.488235735 10.58806017 34.179872715787425 
Si 1.101933792 11.67082389 30.554974318281996 
Si 3.27121119 10.74089295 30.824377977118488 
Si 2.84284935 10.07859042 33.20291325418003 
Si 2.71974582 16.283190779999998 2.7124100422058572 
Si 4.07075697 12.219894629999999 4.069680316176655 
Si 3.95198658 14.83846326 1.3071671326004106 
Si 2.19232449 13.94946909 0.02705262316317732 
Si 1.3600146329999998 14.931528029999999 4.070267327481476 
Si 2.7146633399999995 16.290488699999997 8.144574673943197 
Si 0.00037448918099999997 13.574913119999998 8.144678264173459 
Si 2.71441899 13.575662459999998 5.429612859065202 
Si 4.089816269999999 14.89710726 12.226962058365407 
Si 1.358571339 14.93248914 9.502297291919474 
Si 2.7169602299999998 13.572730259999998 10.856981263141378 
Si 2.69198766 16.19317224 13.553918377953666 
Si 1.3948980389999999 14.656878629999998 17.124190194033908 
Si 1.07175168 15.17548707 14.875833306335808 
Si 1.91236455 12.411334709999998 17.264693076346866 
Si 2.6776524599999996 12.2277627 20.67795663342563 
Si 0.1412590608 15.735586139999999 20.570395444336206 
Si 3.7509679799999995 14.309282609999999 20.31376791389878 
Si 2.1492048599999998 15.799508099999999 19.337153753058924 
Si 0.264275928 15.393186629999999 22.90148639593744 
Si 1.70264709 13.78482606 24.02102054446305 
Si 3.8890746 14.42811816 24.40596184011919 
Si 0.9880373699999999 13.4560287 26.281739199639162 
Si 0.9410081399999999 14.00006583 30.032292546453235 
Si 2.25205992 14.386252859999999 28.077096010398535 
Si 0.619336026 15.696962549999999 34.35639046815505 
Si 1.5063118649999998 15.577980389999999 31.915908233396415 
Si 3.92901768 15.91119234 32.200332475620996 
Si 5.44778325 2.7048404699999997 2.716564010439391 
Si 6.60728916 1.2651644789999998 1.214844066382629 
Si 8.142947459999998 2.7178235999999996 5.430752351598091 
Si 5.42906604 -0.0001438025814 5.430407050830548 
Si 5.430238919999999 2.7151194599999995 8.144816384480476 
Si 6.7878801 1.3577438069999999 6.787887958269547 
Si 4.073021279999999 4.0764096 12.232348750339067 
Si 6.779441879999999 1.363481145 12.23849510400132 
Si 5.692833719999999 0.058338562499999996 16.519361369606838 
Si 6.6982851 3.86923338 15.349240658636285 
Si 7.2912411 1.92241548 16.69104491122886 
Si 4.07750103 1.160952462 14.957876768703855 
Si 5.3409697199999995 2.70868491 13.670595507306205 
Si 7.615623869999999 2.85405687 18.918165801723113 
Si 7.42103982 3.52779498 25.118179203251913 
Si 5.89790853 3.50840988 23.351758596812584 
Si 5.03139456 1.6000119449999999 22.23819815156546 
Si 6.67963305 0.447038325 29.855429493318073 
Si 6.1359543 0.358774218 26.36606164707299 
Si 6.5626545599999995 2.5622703899999997 27.051380080414166 
Si 4.67956314 3.76224066 27.912974555585684 
Si 7.94605023 2.1292658999999996 28.850569729693262 
Si 4.71623193 1.352443041 30.712983949509347 
Si 5.60863071 2.94682842 32.37053122394259 
Si 7.66426581 2.89544976 34.43415220100557 
Si 4.64144454 0.414925848 34.46916569883436 
Si 4.32458775 4.27436568 1.3881885046965332 
Si 6.78892266 4.06981215 4.076137440529695 
Si 4.06802025 6.789411359999999 4.071165109477086 
Si 6.71605749 6.70054941 1.3259549473623864 
Si 8.116525079999999 5.43090681 2.733815236785804 
Si 8.14477194 5.42992941 8.144989034864247 
Si 5.430711329999999 5.4279909 5.4291294379906425 
Si 6.7877171999999995 6.787407689999999 6.787611717655512 
Si 6.78626739 4.070072789999999 9.503402254375608 
Si 4.07109906 6.78659319 9.50219370168921 
Si 5.43001086 5.431656149999999 10.858327936134794 
Si 6.79172454 6.76715922 12.239634596534207 
Si 7.99842258 5.23324395 13.711168347492425 
Si 7.51273623 5.88127644 16.822190142741423 
Si 5.86184247 4.12378092 19.932279625918056 
Si 6.3864619199999995 7.918536419999999 19.856106276598233 
Si 5.8501625399999995 5.9801404499999995 18.51167773817233 
Si 6.51384972 7.362623879999999 22.159055215644766 
Si 4.582621349999999 8.10158715 23.31305038077109 
Si 6.79560156 5.04222741 21.868450089681176 
Si 4.378116690000001 7.10753877 25.51537867615581 
Si 8.01505467 5.779121849999999 25.673043006615615 
Si 4.717877219999999 5.31283689 29.809573551388457 
Si 5.3017759799999995 7.5479226299999995 29.09497361295969 
Si 6.315518969999999 7.455297689999999 26.852832139077353 
Si 4.98413727 6.3247554 34.13056376618239 
Si 6.41524635 4.8695697 31.353551403377043 
Si 8.12019033 10.851632369999999 2.704616603882428 
Si 4.262995259999999 9.60829812 1.4016552346306823 
Si 5.45123673 8.138174489999999 2.729229642592842 
Si 6.79091004 9.50096331 4.072926143391552 
Si 6.74023185 11.937605219999998 1.0492930663921545 
Si 4.072304519999999 9.50251086 6.7878534281927925 
Si 5.43005973 8.14478823 8.144989034864247 
Si 5.42908233 10.85749677 5.430199870370024 
Si 6.787521719999999 9.501403139999999 9.503609434836134 
Si 4.03987113 9.5154777 12.222611268694374 
Si 5.42686689 10.861667009999998 10.860779571584343 
Si 6.7984034399999995 12.21937335 12.218018768486061 
Si 4.7934954 11.70236133 15.247273341981046 
Si 8.11478205 10.80307188 13.553365896725598 
Si 5.38039152 8.15420385 13.540589768326534 
Si 6.45844743 9.807606269999999 14.920169924888237 
Si 7.76009988 8.667387719999999 17.076953049034124 
Si 6.66827892 11.67336513 20.219673454743504 
Si 4.31181639 8.86006584 19.211049912752483 
Si 4.43907387 11.15803098 19.493195169911285 
Si 7.974802079999999 9.75169899 19.76335849043637 
Si 8.13631743 11.94234561 23.918880577424037 
Si 4.47336432 10.53591588 23.48711649768916 
Si 6.178389749999999 11.95096302 22.49907288144366 
Si 4.74780195 10.778588009999998 25.796349910704965 
Si 6.79118697 9.75956706 26.451627177269966 
Si 7.90022646 11.1552291 28.10213031604535 
Si 5.5198502099999995 10.34546949 34.10038447909919 
Si 6.9064713 8.53604145 30.646375431450437 
Si 6.6418076699999995 8.377246529999999 33.09403992217395 
Si 7.075105379999999 10.94422473 30.265128854006996 
Si 5.4405342 13.55212341 2.6725692396468284 
Si 6.78851541 14.93604036 4.068299113106485 
Si 8.12690181 16.27382403 2.6788364485777207 
Si 4.0711479299999995 14.93327106 6.7879224883463 
Si 5.430271499999999 13.574587320000001 8.145334335631789 
Si 6.787831229999999 12.21712533 6.787646247732266 
Si 4.07175066 12.21862401 9.502159171612456 
Si 6.78753801 14.93281494 9.503229603991839 
Si 5.429522159999999 16.2901629 10.864819590564588 
Si 5.52542139 13.51449351 13.713758103248992 
Si 6.915105 14.81684643 15.124380798812746 
Si 8.08956513 16.21084689 13.62432520445554 
Si 4.27293216 12.47343219 17.503364966872095 
Si 7.450866809999999 13.9222485 19.602413802684907 
Si 5.38117344 14.461496369999999 18.533742457218285 
Si 6.50184399 15.98524668 22.51588902882297 
Si 7.46802018 15.721055459999999 24.675434559109192 
Si 5.056285679999999 14.13675522 22.362471897803925 
Si 7.29348912 13.51514511 25.45840404951133 
Si 5.012433 13.05281862 25.994932382118538 
Si 7.976186729999999 13.59097506 27.68555947008233 
Si 6.201293489999999 15.143998499999999 28.211970490200553 
Si 4.47655716 13.554094499999998 28.26690784231653 
Si 7.73217882 15.637634369999999 31.66321713170897 
Si 5.62120659 14.233990229999998 31.715979088989428 
Si 5.0513172299999995 12.27423807 30.282980903688934 
Si 9.503227619999999 1.3570400790000001 4.0689206544880605 
Si 10.858685939999999 2.7151683299999996 2.697776195677415 
Si 9.35285463 4.03369722 1.3621942629159496 
Si 8.14526064 0.00028847798099999997 8.145230745401527 
Si 10.85994027 2.7146307599999995 8.145576046169069 
Si 9.48861549 4.05089946 12.246816852499089 
Si 12.194808029999999 1.3497714809999999 12.235698167784227 
Si 9.50205474 1.3561767089999999 9.502884303224295 
Si 8.146922219999999 2.7169113599999997 10.861193932505396 
Si 9.19943541 1.0563771779999998 15.429937448010918 
Si 10.63864062 2.47031334 13.723357464586666 
Si 8.98916409 1.418446863 20.236765842736848 
Si 10.9200015 0.865746711 18.881356739903104 
Si 11.550326759999999 2.9547290699999995 17.953844348207763 
Si 9.818015579999999 2.72652246 22.094760212728396 
Si 9.71705016 0.025675809299999998 24.38106565477939 
Si 9.42861942 2.3947929 24.394808625327574 
Si 12.123408959999999 2.60970687 21.665931189517625 
Si 10.89535473 3.3635754899999997 26.03291546654819 
Si 11.51952237 1.520653581 27.312772761443682 
Si 9.90446661 0.864932211 28.789762264529063 
Si 8.21980368 3.8236865399999997 30.419927188096207 
Si 9.62931222 3.03813387 32.075782488768496 
Si 8.78521329 1.154907243 33.276462317666535 
Si 11.083015529999999 2.03779755 30.53632807683471 
Si 8.500708439999999 7.699859459999999 0.04601305377884761 
Si 12.127188239999999 6.81415587 1.3167354168690075 
Si 9.5011425 6.78882492 4.070578098172264 
Si 10.246279679999999 5.86759284 0.10509953991761378 
Si 9.502869239999999 4.07189727 6.787749837962529 
Si 10.86026607 5.43015747 5.430372520753794 
Si 9.50011623 6.787863809999999 9.503436784452363 
Si 10.860298649999999 5.430434399999999 10.868203538086505 
Si 12.229065899999998 6.795666719999999 12.228584971972856 
Si 9.37608417 6.7942332 14.802215182695791 
Si 10.81494729 5.500334789999999 16.155932311768577 
Si 12.066964109999999 4.07994453 14.791959749899787 
Si 9.370545569999999 4.6829351699999995 17.908230116815425 
Si 11.2651866 7.7395907699999995 19.991360587244543 
Si 10.2693789 5.61066696 19.87147216075386 
Si 12.21100029 4.15815282 19.863184942332843 
Si 9.59358825 6.19037919 23.80686500843332 
Si 11.956208399999998 6.162735059999999 24.484379644428042 
Si 9.140775119999999 4.93694514 21.84379561487866 
Si 11.30177394 7.02631683 26.55901571597562 
Si 9.03464577 7.73599068 29.8185168412678 
Si 11.64808305 4.38482817 30.15874168752722 
Si 9.59254569 5.39013294 29.348562496642746 
Si 9.822348719999999 5.25080457 27.055385569317657 
Si 10.8014103 7.5769514099999995 31.64743688663229 
Si 11.048855399999999 5.1948158399999995 32.405751902231906 
Si 12.220383329999999 9.50153346 4.071406820014365 
Si 9.42024636 9.40856643 1.4172628293235938 
Si 12.09928347 12.13763013 1.318503356798824 
Si 10.861797329999998 8.154676259999999 2.7334941070719894 
Si 10.441678229999999 10.97763552 0.07116165397971999 
Si 9.50529645 12.217728059999999 4.072373662163484 
Si 8.1440226 8.14596111 5.431304832826158 
Si 9.5029344 9.502185059999999 6.787749837962529 
Si 10.86033123 8.14475565 8.145196215324773 
Si 8.145 10.86002172 8.144954504787494 
Si 10.85998914 10.858425299999999 5.429543798911693 
Si 8.14967523 8.1443484 10.861435643042674 
Si 12.221018639999999 12.226883039999999 12.231381908189947 
Si 9.47502963 9.50855445 12.189117094242771 
Si 10.85601438 10.86254667 10.859571018897945 
Si 9.502250219999999 12.21837966 9.501434040000618 
Si 11.58965082 9.96102549 14.950936223276255 
Si 10.84617522 8.22674322 13.518732229741108 
Si 9.874297529999998 11.852604 14.716235291577762 
Si 11.92985118 8.95638861 17.013037876962045 
Si 11.04189957 11.23102647 21.514033381875773 
Si 9.80514648 9.19884897 21.195769664432046 
Si 10.35887616 11.69591049 19.193025212686774 
Si 10.08453627 9.30893679 18.36803261887474 
Si 8.45739333 9.73795023 24.787622778483684 
Si 8.61918561 8.18518743 23.001899859138735 
Si 9.74213676 9.67956687 28.502230315396602 
Si 11.73306798 10.38134007 29.620590441312565 
Si 12.07393623 10.560611519999998 25.96420061380727 
Si 10.26766845 9.14424489 26.293030534737795 
Si 8.793977309999999 12.138363179999999 31.689321869735164 
Si 11.05576236 11.244205079999999 31.829237740743302 
Si 11.6014122 9.31866192 33.15274105265613 
Si 9.36530019 14.689474919999999 1.2674920744098017 
Si 10.858653359999998 13.57532037 2.7100309199174912 
Si 8.14364793 13.573284119999999 5.428887727453363 
Si 9.50285295 14.9320656 6.787300946964724 
Si 10.86002172 13.574945699999999 8.144747324326968 
Si 10.85945157 16.288533899999997 5.431132182442388 
Si 8.14640094 13.571508510000001 10.860399740740048 
Si 9.49615776 14.938109189999999 12.223612640920246 
Si 10.86187878 16.290488699999997 10.86060692120057 
Si 10.929042449999999 13.667114519999998 13.627501971516928 
Si 10.56460257 15.79763475 16.86953087797147 
Si 8.32580271 13.032 16.178169681198302 
Si 8.30739501 15.59252736 21.08140605022204 
Si 9.39519234 13.6925595 18.13630127377711 
Si 10.23759711 15.008172479999999 22.408742200654594 
Si 10.23323139 12.770692109999999 23.209218439971128 
Si 11.64221865 12.730032269999999 25.18855149967703 
Si 11.58549687 16.11600651 25.755017408830156 
Si 11.66403096 14.203723409999998 27.115053541948967 
Si 9.85657401 14.74497495 28.537071162841617 
Si 8.69125257 12.728940839999998 34.177490140491386 
Si 11.277599579999999 15.223428539999999 32.34100800831772 
Si 9.54564678 14.249270249999999 30.84661534654821 
Si 10.51537419 16.24697811 34.39944947386757 
Si 16.28591121 2.72305269 2.6725795986698544 
Si 12.22272909 1.4125678019999999 1.2009905995888324 
Si 14.932033019999999 1.3578431759999998 4.06719415065035 
Si 13.574733929999999 0.000220332024 8.145403395785298 
Si 13.574978279999998 2.7157547699999998 5.42902584776038 
Si 12.217972409999998 1.357721001 6.78685205596692 
Si 14.93221221 1.355694525 9.502953363377804 
Si 13.57470135 2.71639008 10.864888650718097 
Si 13.444169579999999 3.21048207 16.520811632830515 
Si 14.535338939999999 1.6933455 14.978353104219114 
Si 14.80010031 0.639894006 17.558336849064826 
Si 15.875582399999999 3.44241909 20.733446466769678 
Si 12.76103214 0.7321116959999999 20.41072836942465 
Si 15.05174823 1.2946966199999999 19.88732146598405 
Si 15.795598499999999 3.01073409 23.089399073633952 
Si 13.530229649999999 2.6022134699999997 23.58324823137293 
Si 13.50162441 0.453150333 24.54259735383567 
Si 14.89165011 0.180325413 26.41730428097626 
Si 14.53616973 0.5341995989999999 30.21906573161686 
Si 14.32767402 3.5872534799999998 27.319506126410754 
Si 13.7549502 1.4049473399999999 28.066736987372266 
Si 13.669264799999999 2.7094016699999997 34.10511509961452 
Si 12.62662335 0.773333541 31.766876422125165 
Si 14.93024112 6.788417669999999 4.066986970189824 
Si 12.21872175 4.0749435 4.069024244718324 
Si 14.97842694 4.139289 1.1448964899015877 
Si 13.574880539999999 5.4256777199999995 2.6827141761972206 
Si 14.93226108 4.07235339 6.786817525890165 
Si 13.57294203 8.1448371 5.430061750063007 
Si 16.290325799999998 5.42988054 5.428715077069591 
Si 13.57538553 5.430369239999999 8.145403395785298 
Si 12.21784209 6.787896389999999 6.787300946964724 
Si 13.57546698 8.145114029999998 10.856048951069015 
Si 12.21699501 4.07171808 9.502642592687017 
Si 14.93327106 6.78830364 9.502124641535701 
Si 14.94516276 4.0716366299999995 12.217362697027731 
Si 12.749938649999999 6.87835476 16.552890074135192 
Si 13.64085504 5.44762035 13.606611275080619 
Si 14.8408416 6.842598209999999 15.136431795599972 
Si 13.545851759999998 7.37832744 20.837796358720954 
Si 14.32658259 5.21646525 19.89294986849499 
Si 14.373986489999998 5.32994139 17.422702707574214 
Si 13.43382543 7.516841309999999 23.250930772690236 
Si 15.41379348 6.95977218 24.38538191437367 
Si 12.975913529999998 4.10455872 25.281679116683186 
Si 13.63927491 5.0448501 29.016970169571888 
Si 14.942637809999999 7.92104508 26.62451927157839 
Si 13.145915969999999 7.14239937 28.06832537090296 
Si 16.230916169999997 5.6936319300000005 34.332288474580594 
Si 13.341461129999999 4.6783250999999995 32.683062948645116 
Si 15.0837255 5.21115471 30.916814992589558 
Si 14.791352579999998 7.01395272 32.771321824828924 
Si 15.097392809999999 9.524046239999999 1.1439607248215482 
Si 13.58770077 10.85202333 2.685141640593043 
Si 14.932049309999998 9.50242941 6.786955646197183 
Si 13.57512489 10.86007059 8.14485091455723 
Si 16.2901629 8.14464162 8.144989034864247 
Si 12.21868917 9.50137056 9.502400882149736 
Si 14.90328117 9.498959639999999 12.217707997795273 
Si 16.2911403 10.858490459999999 10.866649684632563 
Si 15.17931522 11.854330739999998 14.854804489592482 
Si 13.473638189999999 10.78085232 13.65478073215277 
Si 16.1746668 8.198626679999999 13.657681258600123 
Si 13.51253871 11.13468741 21.475428756064545 
Si 14.55361632 9.41421906 20.113769709338285 
Si 13.59043749 10.10812419 18.04217228454508 
Si 14.69147859 11.2497111 23.561943174015575 
Si 13.643477729999999 9.44373654 24.628749895337474 
Si 15.34623885 10.11496599 27.48956675442533 
Si 12.55945968 8.25573942 30.131186686277346 
Si 16.26009156 9.78520752 29.599458034338973 
Si 13.269426750000001 11.17549386 27.95161371147367 
Si 14.52576042 9.3102237 31.151412334057788 
Si 15.659495549999999 11.27342934 32.19687946794557 
Si 13.44257316 8.32653576 34.39181832690488 
Si 13.66872723 13.3766964 0.06711611018719454 
Si 12.21890094 14.93136513 4.068230052952977 
Si 14.92921485 12.22153992 4.07054356809551 
Si 15.03959589 14.94843705 1.2301443433924277 
Si 13.5843939 16.291466099999997 2.6802418227016176 
Si 16.28240886 13.564471229999999 2.702113173317746 
Si 16.290488699999997 16.2890226 5.42968191921871 
Si 13.57541811 13.57416378 5.431857314054227 
Si 12.21706017 12.217516289999999 6.787300946964724 
Si 14.93219592 14.93309187 6.787300946964724 
Si 16.28910405 16.2930951 10.863714628108454 
Si 12.21593616 14.93045289 9.502746182917278 
Si 14.93143029 12.21934077 9.503264134068592 
Si 13.57287687 13.572290429999999 10.860814101661097 
Si 14.91590592 14.94182331 12.229793524659254 
Si 12.259854 14.87394288 15.2930256936804 
Si 13.74349833 13.241424239999999 16.34432841053965 
Si 13.472774819999998 16.2673569 13.684580188391669 
Si 16.225947719999997 13.555935269999999 13.579297984368024 
Si 12.48198444 12.25372896 18.20791665296538 
Si 15.298672049999999 14.635489859999998 17.412032913857157 
Si 12.50356869 14.964808499999998 21.471354207007547 
Si 13.36125348 13.13360073 20.19767779585106 
Si 15.466263569999999 13.83801291 19.54084667583212 
Si 14.18169933 15.0094431 23.16001308059635 
Si 13.907277989999999 13.211336609999998 24.60499320253056 
Si 15.043749839999998 14.119943939999999 26.465577328278673 
Si 14.8700007 14.441834339999998 30.07186401441358 
Si 13.66610454 13.49059608 28.224815678753124 
Si 14.60519046 13.36299651 32.29446146485302 
Si 12.274515 13.17248496 32.61811187427041 
