&CONTROL
  dt          = 30.D0,
  prefix = 'x1.66_y1.66_z3.17_struc40-scf',
  pseudo_dir = './',
  outdir='./',
  wf_collect= .true.,
  verbosity= 'high',
/

&SYSTEM
ibrav= 6, celldm(1) =30.783621515, celldm(3) =2.1138013110639746, nat=  432, ntyp= 1,
  ecutwfc     = 12.D0, nbnd= 1728,
  degauss     = 0.05D0,
  occupations = "smearing",
  smearing    = "methfessel-paxton",
/
&ELECTRONS
  electron_maxstep=200,
  conv_thr    = 1.D-8,
  mixing_beta = 0.3D0,
  scf_must_converge=.false.,
/
&IONS
/
ATOMIC_SPECIES
Si  28.08  Si.pbe-hgh.UPF
K_POINTS {automatic}
1 1 1 0 0 0
ATOMIC_POSITIONS (angstrom)
Si -0.00699608259 2.70857088 2.6802461689508927 
Si 3.09993813 2.40173244 0.04208226420134054 
Si 1.297713528 1.23292494 1.2295732945870526 
Si 0.00014599212029999998 -0.0009160811819999999 5.430489414022366 
Si 1.8754514099999998e-05 2.71498914 8.145217613683192 
Si 2.71539639 0.0007546195889999999 8.144632238686118 
Si 2.71461447 2.7151357499999995 5.429766303731864 
Si 1.357856208 1.356952113 6.787182054297314 
Si -0.000452734938 0.0005213761109999999 10.860875526574661 
Si 2.71393029 2.71541268 10.865420791257817 
Si 1.3421200679999998 1.3537234349999998 12.225591247691842 
Si 4.074471089999999 1.356192999 9.500705070140635 
Si 0.8463502079999999 0.5261914349999999 16.388055116584137 
Si 0.06701461649999998 2.84025924 13.618921476018883 
Si 1.9634337 3.54235824 15.000165432347536 
Si 3.67383483 1.67677857 14.934603432675368 
Si 0.173659545 0.19624888799999998 21.478648260247265 
Si 0.7934077079999999 2.29159575 20.586226860297877 
Si 2.7209675699999996 1.540468737 19.532035358216216 
Si 3.7490783399999996 3.29685165 18.291970077652216 
Si 1.0294612109999999 0.887510151 24.843693647832776 
Si 0.682181217 3.8894981399999997 22.293283653232663 
Si 2.97432594 0.14803146539999998 23.75820180031939 
Si 1.0037832839999998 3.1938825599999996 24.577106987401084 
Si 3.24516348 3.8979852299999997 25.1004322347843 
Si 3.35013624 1.555351281 28.47133137234054 
Si 1.376579934 2.44134972 29.463025485028826 
Si 3.49716978 0.38074617 31.825116899688233 
Si 1.599572115 1.96631703 31.80060001745789 
Si 3.04404714 3.8178547199999997 32.39472120566357 
Si 1.358164089 4.07129454 4.065945862021971 
Si 2.7147447899999997 5.43409965 2.692917815946354 
Si 1.3049886419999999 6.75694539 1.2401754687987443 
Si -0.0013909053599999999 5.4315095399999995 5.429766303731864 
Si 2.7146796299999996 5.43015747 8.145286481329906 
Si 1.3576085999999998 6.7875054299999995 6.787664127824314 
Si 1.3550461829999998 4.07300499 9.502667798071998 
Si 0.0019000655999999998 5.429277809999999 10.855744886894433 
Si 1.352902419 6.76504152 12.226245490335632 
Si 3.5204318999999997 7.5249374399999995 14.89886112403056 
Si 2.76861582 5.4947310300000005 13.724426710785444 
Si 2.69213427 4.79836611 16.79182612927104 
Si 1.0202394419999998 5.50906623 18.260187658693493 
Si 3.1116832199999997 5.379234929999999 19.393094880969787 
Si 0.869229513 6.8677011 24.813908390628768 
Si 1.6765505099999998 7.25286186 22.62687853391753 
Si 2.51385651 5.249175569999999 21.692861075352603 
Si 2.06350317 6.272448209999999 28.163389690056814 
Si 3.8536601399999997 6.78138039 29.622213050409307 
Si 0.61778196 4.64465367 29.163485655644262 
Si 2.80754892 6.046131239999999 25.924158157136006 
Si 0.540060741 5.673937319999999 31.25293005696111 
Si 2.79611334 6.27570621 31.666135937247894 
Si 4.06585368 9.610529849999999 1.3653975108196548 
Si 2.2341083399999997 8.69832243 0.2562668435715288 
Si 1.360705329 9.50365116 4.070009053178125 
Si 0.543520737 10.460493179999999 0.007800879380110871 
Si 2.7098903699999997 10.8660816 2.744279306866001 
Si 1.345969395 12.174478109999999 1.4039427326857403 
Si 0.000261006525 8.14521177 8.14435676809926 
Si 2.7146633399999995 8.145048869999998 5.430868186079296 
Si 0.0007061454359999999 10.8607059 5.430282811082224 
Si 2.71498914 10.859875109999999 8.144907709272976 
Si 1.3572306719999998 9.50229909 9.501979121604853 
Si 2.7151520399999995 8.145798209999999 10.863389195679739 
Si 0.5725658069999999 10.23486039 16.407992300307974 
Si 1.6299122400000001 9.092719619999999 14.716430727883946 
Si 2.84568381 10.91775348 13.64670957146817 
Si 1.245171762 11.47115736 21.47995674553484 
Si 3.1740576299999996 10.26753813 21.135928416372735 
Si 2.5116573599999996 8.833089600000001 19.375946836937885 
Si 2.26036782 10.76195592 17.98633546153342 
Si 3.23876151 9.006740999999998 23.069353164057958 
Si 2.77171092 10.03638303 25.15266834481722 
Si 0.761205636 9.00913563 25.75340082710749 
Si 2.16207396 9.910868579999999 29.379282426624037 
Si 1.062557604 8.417906369999999 27.97407252923875 
Si 1.4583117509999999 12.00827124 28.601112452573947 
Si 3.24197064 8.430759179999999 32.631143836834326 
Si 1.24287813 9.444485879999998 31.48219045287356 
Si 0.271650411 11.66114763 32.182608853783016 
Si 2.70181053 16.27848297 2.705186587208536 
Si 3.95754147 14.84411589 1.3061851081745584 
Si -0.0239550966 13.58722836 2.69842034091884 
Si 1.359104022 14.93566569 4.072453854636488 
Si 0.000171844839 13.574538449999999 8.145011010743048 
Si 2.71366965 13.57238817 5.431419127253012 
Si 1.357675389 12.21745113 6.787870730764458 
Si 1.3582308779999999 14.93520957 9.503425342185857 
Si 2.7171882899999997 13.56983064 10.861082129514806 
Si 1.3740810479999999 12.2119614 12.229964343258212 
Si 2.64083706 16.26574419 13.637343571515004 
Si 1.3025712059999999 14.779297979999999 14.950064219362766 
Si 3.4714967399999996 14.42583756 20.34501792768047 
Si 1.049724342 12.307795469999999 19.28917360207766 
Si 0.39873358799999997 14.439912119999999 18.491032010480374 
Si 2.24458281 15.9687612 18.11253542413768 
Si 1.1269682639999998 13.13829225 23.059608392047863 
Si 2.01420963 15.06565989 22.072941617569732 
Si 2.3878044899999997 12.36520143 24.968481823679383 
Si 3.2418728999999997 13.61185884 29.142308854279563 
Si 0.5639435099999999 12.37725603 26.43339997076611 
Si 0.716704614 16.15883292 26.97728221069359 
Si 2.89676925 15.61161924 27.708794354094632 
Si 0.10590992369999999 15.9490503 34.11114399855152 
Si 2.99481876 13.14313038 34.420497467592895 
Si 2.04089265 15.11811369 30.76782635350442 
Si 1.282146804 13.926369869999998 32.82607371085962 
Si 6.78980232 4.06357308 4.071351972289056 
Si 8.13255444 0.01298418885 2.709363409981768 
Si 4.07539962 1.3534709399999998 4.068115192893477 
Si 5.460961859999999 2.7052640099999996 2.691843480657609 
Si 7.05806604 1.4731861499999999 1.1279969590655534 
Si 5.430646169999999 -0.00181082898 5.4302483772588666 
Si 5.429147489999999 2.7146796299999996 8.144460069569334 
Si 6.787896389999999 1.35741312 6.786493377830169 
Si 4.08870855 4.08509217 12.24466758583175 
Si 6.7795396199999995 1.342774926 12.219083255077326 
Si 7.29756162 3.53735721 15.10215841713166 
Si 5.46710319 2.66835087 13.673051446336453 
Si 5.61623814 0.547762653 18.522883297085816 
Si 6.11098173 2.9572703099999997 18.047283328875725 
Si 4.46890086 0.325076724 20.585813654417592 
Si 7.3580301 3.77872614 20.077467120194775 
Si 4.5114177600000005 1.60616142 22.62161015894387 
Si 4.143850199999999 3.9728377799999994 22.827593290266833 
Si 6.53372352 1.76524956 23.91370494660065 
Si 7.32711168 4.0299831 24.154638408631204 
Si 5.82144327 0.7985260259999999 25.91765016452149 
Si 4.50934893 2.6259805800000002 26.70625358704882 
Si 7.456372829999999 0.555151797 27.590479737039185 
Si 8.136920159999999 2.7512669699999996 27.96522303663594 
Si 5.05908756 3.37769892 31.166742197097957 
Si 6.64249185 3.87047142 32.72463166724921 
Si 4.90306194 1.267958214 30.191576319621145 
Si 4.3139178 0.27313443 34.10308648388593 
Si 4.17299301 4.10672529 1.3497094608980997 
Si 4.06766187 6.7926041999999995 4.071696310522629 
Si 6.68455263 6.716953439999999 1.3745534644503428 
Si 5.41601775 8.15386176 2.710262132771392 
Si 8.16098049 5.422256819999999 2.691378624042286 
Si 4.07269548 4.072304519999999 6.787664127824314 
Si 5.4319982399999995 5.43201453 5.428423384620933 
Si 6.7877497799999995 6.787489139999999 6.787664127824314 
Si 8.145114029999998 8.14394115 5.429904039025294 
Si 6.78675609 4.07393352 9.502736665718713 
Si 4.07269548 6.787521719999999 9.502254592191711 
Si 5.42720898 5.429456999999999 10.861013261868091 
Si 6.783775019999999 6.780354119999999 12.244529850538322 
Si 8.11784457 5.38752654 13.720638990216148 
Si 6.4745582399999995 7.544224799999999 19.7293067322298 
Si 4.31445537 7.34113737 18.76739787674552 
Si 6.33527874 4.68474336 22.125969705539873 
Si 6.53574348 7.0162659 21.99174666209338 
Si 4.88221074 7.2026235 25.59321468084965 
Si 5.49925965 5.09937273 29.63960213120471 
Si 6.6357314999999994 5.59541952 25.905770495463244 
Si 6.15781548 4.076148959999999 27.638893692679453 
Si 5.55044283 5.28809238 34.23768829938935 
Si 7.420323059999999 6.160812839999999 30.45213706096532 
Si 7.22665125 6.362613359999999 32.82993029907563 
Si 8.14638465 10.84806486 2.6923496578609596 
Si 6.789574259999999 9.502022160000001 4.070491126705126 
Si 4.88056545 11.355482069999999 -0.0008284399127693124 
Si 4.07036601 12.21965028 4.0753118619751385 
Si 6.668653589999999 12.15662427 1.3629871431846485 
Si 4.0720927499999995 9.5027715 6.787629694000957 
Si 5.42947329 8.1454887 8.14535534897662 
Si 5.427502199999999 10.859386409999999 5.430041774318723 
Si 8.146075139999999 8.14605885 10.860531188341088 
Si 6.78889008 9.50339052 9.50301213630557 
Si 4.083332850000001 9.506778839999999 12.220219571248114 
Si 5.42556369 10.85920722 10.860944394221375 
Si 4.7824181999999995 8.60224401 16.78538700430324 
Si 4.59311211 11.773402019999999 15.283969004457845 
Si 5.419764449999999 8.21275011 13.657556225825699 
Si 6.4063357199999995 10.030714109999998 15.004779564677406 
Si 7.492911299999999 9.15440985 16.993229562087492 
Si 7.34621985 9.684437579999999 19.371952513428447 
Si 6.00291387 11.67054696 19.401806638279165 
Si 4.54285746 10.975648139999999 17.518001030051707 
Si 6.5515447799999995 10.381046849999999 23.97878487274582 
Si 5.38689123 8.304804899999999 23.547294632256342 
Si 6.503521859999999 10.47937329 26.35306586087369 
Si 7.71991245 8.39125593 29.77465158641178 
Si 4.33506222 9.10226556 29.07010112669945 
Si 4.52326059 9.30634668 26.688038094492843 
Si 7.96910058 8.94351951 27.453880759781043 
Si 6.08625351 9.91039617 30.543799898742268 
Si 7.48080783 8.35040061 34.22119449800123 
Si 7.345698569999999 11.974909319999998 30.294740054399412 
Si 5.44760406 9.51432111 32.951791599936875 
Si 7.8395624999999995 13.69827729 -0.008422478759355626 
Si 5.42582433 13.58760303 2.7152137165701618 
Si 6.78398679 14.93758791 4.074864222271494 
Si 8.14477194 13.57561359 5.4298351713785795 
Si 4.0721253299999995 14.9325543 6.787423091060814 
Si 5.42989683 13.57483167 8.144838841626262 
Si 6.78685383 12.217532579999999 6.787491958707528 
Si 8.15192325 13.564976219999998 10.856399129538222 
Si 4.0730701499999995 12.21756516 9.503253173069071 
Si 6.78623481 14.93261946 9.504974864236932 
Si 4.06832976 14.9491701 12.22066721095176 
Si 6.8008469400000005 12.237406379999998 12.23123839472243 
Si 5.42224053 16.2989595 10.854229798666717 
Si 5.3133093 14.04991323 15.620662929244862 
Si 5.92273449 14.155635329999999 13.401058675637676 
Si 7.594544609999999 14.27715873 16.240402882028324 
Si 4.228346429999999 16.18732413 16.639249857975145 
Si 7.85428866 15.994499399999999 13.574398542417983 
Si 7.3671199199999995 15.29301942 18.35749764350103 
Si 4.4348547599999995 12.26710305 21.061275887334254 
Si 7.642469789999999 13.365945 19.723005342555425 
Si 7.5181607999999995 13.224042809999998 22.11305702178091 
Si 5.5245906 12.417492329999998 23.142215134281862 
Si 4.57893981 13.306681979999999 25.140306602231973 
Si 4.12207047 15.523262279999999 25.604508974910818 
Si 6.47346681 15.917154479999999 29.55103833752991 
Si 5.81808753 13.55168358 29.07158178110381 
Si 6.283215899999999 12.82894515 26.777497167574932 
Si 7.65323748 16.27051716 31.799739171873956 
Si 6.63967368 15.89205159 33.978814815389676 
Si 12.193635149999999 1.44430398 1.359099564527617 
Si 9.49791708 1.358530614 4.074278847274422 
Si 10.58190255 0.261223182 0.12491179327246175 
Si 10.84904226 2.73952188 2.72870144517919 
Si 8.14496742 0.00036208271699999996 8.14487327544962 
Si 8.145781920000001 2.71578735 5.431625730193155 
Si 10.86020091 0.001385104491 5.430730450785867 
Si 10.85982624 2.7150705900000003 8.144632238686118 
Si 12.220872029999999 1.336778577 12.22590115210206 
Si 9.50246199 1.356629571 9.503804114242786 
Si 8.148323159999999 2.7159828299999997 10.862666085389238 
Si 10.30573818 1.4157769319999998 16.85153437897248 
Si 11.548795499999999 3.40338825 17.009516760535462 
Si 9.00740889 1.599674742 14.864496168320043 
Si 10.78194375 2.61851976 13.525640248544143 
Si 11.04191586 2.49168582 21.01454918903849 
Si 8.78294898 1.82910636 20.67069302899317 
Si 9.21116421 0.421287093 18.79198362662258 
Si 12.09327246 1.192791267 22.627257305974457 
Si 8.35082415 0.7093594529999999 22.863817672438643 
Si 10.25261649 1.379464893 24.069449129645413 
Si 9.70076016 3.6461907 24.44068017925973 
Si 10.995847739999999 0.26473530599999995 26.011516766993307 
Si 9.2388735 2.72334591 30.05652686441408 
Si 11.127959639999998 1.345443228 29.496288558391914 
Si 10.119836699999999 3.5905440599999996 26.79009994692368 
Si 11.877723179999998 2.0344906799999998 27.341867532399966 
Si 9.07976907 2.20915206 34.40548432060914 
Si 8.25557652 2.27154276 32.1644277950504 
Si 12.215594069999998 4.0713922799999995 4.07055999435184 
Si 9.70853049 4.178401289999999 1.190776705810459 
Si 9.506811419999998 6.78708189 4.071971781109487 
Si 9.50303214 4.07176695 6.787526392530885 
Si 8.14527693 5.429733929999999 8.14473554015619 
Si 10.85883255 5.42960361 5.429249796381507 
Si 9.502022160000001 6.78711447 9.50239232748514 
Si 9.498959639999999 4.09134753 12.22862142414728 
Si 10.85656824 5.43084165 10.858189688352796 
Si 9.610480979999998 6.8291426699999995 14.931056748869572 
Si 11.15070048 5.67434457 16.375417903412032 
Si 8.63461224 4.827248279999999 17.026044995746933 
Si 10.02989961 6.27267627 20.83762820462903 
Si 12.202513199999999 7.35043896 20.627099808622916 
Si 8.259258059999999 5.93920368 19.24919593315991 
Si 8.776367819999999 7.59604329 22.291045454714443 
Si 10.86134121 4.518308429999999 22.096769823332938 
Si 9.82762668 7.32833343 24.37177809872191 
Si 11.27799054 5.45385942 24.15877046743407 
Si 8.5348197 6.94447587 26.32634521394848 
Si 9.44547957 5.068128509999999 29.88690585055635 
Si 10.09269756 5.77570095 27.696742515919603 
Si 11.96340858 7.25253606 27.98154466890727 
Si 11.78397423 7.86551247 30.31226687048824 
Si 11.25060705 5.680339289999999 31.31845762280992 
Si 11.45242386 5.19711273 34.1134166308931 
Si 9.38297484 9.37862541 1.198737805770651 
Si 10.84422042 8.1334341 2.686681850536359 
Si 12.216278249999998 9.50269005 4.065532656141685 
Si 9.502608599999999 9.502168769999999 6.7875952601776 
Si 10.85964705 8.14529322 8.145045444566406 
Si 8.14558644 10.86013575 8.144838841626262 
Si 10.85964705 10.860152040000001 5.430110641965437 
Si 9.50311359 9.48299544 12.21529553450803 
Si 10.85767596 10.86104799 10.865110886847601 
Si 11.822255729999998 10.016883899999998 14.858883455112815 
Si 10.00994436 11.7734346 14.860329675693817 
Si 10.92887955 8.19005814 13.572263645369835 
Si 8.17544601 10.848895650000001 13.599535233468762 
Si 9.899156069999998 8.57995929 16.656363468183688 
Si 11.43668772 11.29876029 19.210836653939957 
Si 9.07400241 9.600153119999998 21.093023872469622 
Si 11.45384109 9.64543932 20.910145836619364 
Si 8.46071649 11.1330747 22.73135075398337 
Si 12.176791289999999 10.33572807 23.100860112429828 
Si 10.470951359999999 11.78066736 23.741363660697704 
Si 11.772880739999998 8.64463059 24.674279236915194 
Si 9.96387624 12.11710473 25.999155024408058 
Si 9.678654629999999 11.180201669999999 29.709709395560036 
Si 11.81152062 9.32232717 26.892643872881518 
Si 9.807264179999999 10.37133801 27.525262075600587 
Si 11.26808622 10.439593109999999 34.39870085740777 
Si 11.94711858 11.801567429999999 30.258584539874317 
Si 9.755836649999999 9.053151210000001 30.80683987536817 
Si 10.427391899999998 11.070716580000001 32.21676720655339 
Si 12.21217317 12.27031218 1.245306108478972 
Si 9.502673759999999 12.218298209999999 4.06894160465405 
Si 9.434125439999999 14.88687714 1.3550776939594924 
Si 10.854711179999999 13.574310389999999 2.7043670622126337 
Si 9.502217639999998 14.93333622 6.786872149887098 
Si 10.8598914 13.57442442 8.144322334275904 
Si 12.24442737 12.227860439999999 12.231961505012931 
Si 9.50166378 12.21951996 9.499224415736274 
Si 9.51598269 14.921395650000001 12.244943056418608 
Si 10.86226974 16.2913032 10.860772225104592 
Si 8.933273100000001 12.44015172 16.814139246806526 
Si 11.05421481 13.639568129999999 13.741678056287418 
Si 11.98583991 16.0386453 17.369212479325107 
Si 9.88076466 13.08973176 18.848902736632088 
Si 10.92378078 15.17973876 19.41020849117833 
Si 10.82667609 14.087591999999999 23.341759140637024 
Si 8.56616166 14.71506651 23.56860916891447 
Si 11.945815379999999 15.22732185 21.61166611987625 
Si 12.194970929999998 14.690957309999998 25.186688962294166 
Si 10.51117137 15.312437099999999 29.297433228503895 
Si 8.318635109999999 13.81497885 25.858871628050693 
Si 12.0770802 12.879802530000001 26.716721469349416 
Si 9.2830194 15.47189991 27.243352363774928 
Si 9.70227513 14.84471862 31.533806754086054 
Si 11.774232809999999 15.44407659 32.73702784365781 
Si 8.6638365 12.80099151 32.20454319926157 
Si 14.93327106 1.358033769 4.06969914876791 
Si 13.57470135 1.116739773e-05 8.14511431221312 
Si 13.57439184 2.7157058999999997 5.430420546375653 
Si 12.21738597 1.3581103319999999 6.787939598411172 
Si 14.93133255 1.355173245 9.50239232748514 
Si 13.578057089999998 2.71272483 10.863458063326455 
Si 13.61563812 0.14071904729999998 13.814367857394535 
Si 14.5617939 2.0850385499999997 14.975304211883616 
Si 12.607303409999998 3.4780616099999997 14.875859330027929 
Si 15.404508179999999 1.85378571 17.20747681101619 
Si 12.510948059999999 2.69555517 19.180190551152016 
Si 16.10356095 3.53559789 18.750904075357404 
Si 13.80085542 0.785950146 18.54746904696288 
Si 15.394864499999999 0.533264553 23.552218668996424 
Si 14.022057329999999 2.49046407 23.421748912295875 
Si 15.01806051 3.57847317 25.351558108528593 
Si 14.22534024 2.65515597 27.380743318970286 
Si 15.83334243 1.251793647 28.487136497261506 
Si 15.759336959999999 0.96930387 32.152479258345444 
Si 13.050831239999999 3.3227201699999998 34.3607547840681 
Si 13.78472832 2.6432316899999995 32.1775470817495 
Si 12.68262837 0.783032607 31.186679380821797 
Si 14.953894199999999 4.07479689 1.1855875286305242 
Si 13.58625096 5.44516056 2.681795691001968 
Si 12.26179251 6.915675149999999 1.174606582361903 
Si 14.930550629999999 6.78770091 4.072247251696345 
Si 14.932375109999999 4.07240226 6.787526392530885 
Si 13.575010859999999 5.42992941 8.144632238686118 
Si 12.217516289999999 6.787489139999999 6.787319789590742 
Si 12.21821676 4.07430819 9.502839967188784 
Si 14.93476974 6.78687012 9.501979121604853 
Si 14.93804403 4.0886271 12.211507813938734 
Si 12.21934077 6.78053331 12.214847894804386 
Si 16.178755589999998 8.03041614 13.549916094010992 
Si 13.24665333 6.625094129999999 16.85663058482935 
Si 13.44615696 5.2850787299999995 13.576120233585845 
Si 14.7650931 6.616590749999999 14.984980116246998 
Si 15.955712909999999 7.78342716 21.479061466127554 
Si 14.1341814 4.261708349999999 19.77362306289056 
Si 16.078018229999998 7.45493931 19.119965794100217 
Si 13.83424992 6.485537699999999 19.123822382316227 
Si 14.6450358 4.35487086 22.042984191248944 
Si 13.929188039999998 6.657299459999999 22.225552322688987 
Si 13.24424241 6.80788422 24.413856230864447 
Si 15.06005613 5.95094877 25.58426188677677 
Si 14.184598949999998 6.55133301 27.708518883507775 
Si 14.561272619999999 4.52464524 28.762985856176297 
Si 13.60534284 8.031784499999999 32.06060981762835 
Si 16.2751761 5.34968487 34.15883484390128 
Si 15.832251 7.776275849999999 30.918336595398884 
Si 14.64635529 5.79049227 32.40870133794661 
Si 13.32546435 4.56725988 30.790724846036984 
Si 14.93863047 9.56806182 1.2253241607847702 
Si 13.58134767 10.87870635 2.693265597562262 
Si 16.27291179 8.13714822 2.6937201240305777 
Si 13.57611858 8.14268682 5.429628568438436 
Si 14.93221221 9.502608599999999 6.787629694000957 
Si 13.575304079999999 10.85985882 8.145148746036478 
Si 12.216538889999999 9.50127282 9.503941849536213 
Si 13.57701453 8.14485339 10.861736372158592 
Si 14.92607088 9.50080041 12.217637034496322 
Si 16.2958644 10.85735016 10.863113725092882 
Si 13.414472909999999 8.88915978 16.468285925006487 
Si 13.685750279999999 10.9048518 13.636379424461001 
Si 15.22885311 11.888490869999998 15.211416938644156 
Si 15.304894829999999 10.998714779999998 19.447603623344285 
Si 15.31044972 9.29709396 17.81946915354428 
Si 14.42513709 11.028346289999998 23.44457853718172 
Si 15.6230874 10.10629971 21.632498583007376 
Si 15.35541012 10.655468189999999 25.631918298303177 
Si 14.06354796 10.581479009999999 29.43757888956783 
Si 13.502227139999999 10.946717099999999 27.130650459926706 
Si 15.177327839999998 8.412775019999998 28.764604245874086 
Si 13.11711525 8.76147876 34.29688004174043 
Si 12.216685499999999 14.933857499999998 4.067564251719761 
Si 14.93226108 12.214600379999998 4.072832626693418 
Si 14.828444909999998 14.85934704 1.1204352914563052 
Si 13.582585709999998 16.2909774 2.684808650545726 
Si 13.57628148 13.57414749 5.429525266968364 
Si 12.21756516 12.21748371 6.787491958707528 
Si 14.93232624 14.932668329999998 6.7875952601776 
Si 12.217092749999999 14.930843849999999 9.502116856898281 
Si 14.932440269999999 12.21965028 9.503287606892426 
Si 13.56955371 13.57634664 10.857776482472511 
Si 14.9276673 14.93604036 12.253379343141129 
Si 13.93738191 13.36483728 16.73063722516524 
Si 15.74513208 14.904014219999999 16.44449215306664 
Si 12.505588649999998 14.874627059999998 15.371293180491785 
Si 16.22573595 13.396896 13.633073777418709 
Si 13.870039049999999 13.977504179999999 21.045333027119856 
Si 15.116191469999999 15.546605849999999 19.86315100361936 
Si 13.486230359999999 12.441911039999999 19.23803937439217 
Si 15.005826719999998 13.271902829999998 23.049898053861124 
Si 14.441443379999999 14.914488689999999 24.63103035477851 
Si 15.565127579999999 14.34590253 26.679085300419963 
Si 15.745571909999999 12.2730489 29.891347813769436 
Si 14.663753009999999 16.21493568 30.05125848944042 
Si 12.23636382 13.724683379999998 28.898965024614007 
Si 14.564823839999999 14.139426779999999 28.887498561436047 
Si 13.351332869999998 13.74090822 33.99692700647558 
