&CONTROL
  dt          = 30.D0,
  prefix = 'x2.00_y.66_z3.18_struc10-scf',
  pseudo_dir = './',
  outdir='./',
  wf_collect= .true.,
  verbosity= 'high',
/

&SYSTEM
ibrav= 6, celldm(1) =30.783621515, celldm(3) =2.120051451958549, nat=  432, ntyp= 1,
  ecutwfc     = 12.D0, nbnd= 1728,
  degauss     = 0.05D0,
  occupations = "smearing",
  smearing    = "methfessel-paxton",
/
&ELECTRONS
  electron_maxstep=200,
  conv_thr    = 1.D-8,
  mixing_beta = 0.3D0,
  scf_must_converge=.false.,
/
ATOMIC_SPECIES
Si  28.08  Si.pbe-hgh.UPF
K_POINTS {automatic}
1 1 1 0 0 0
ATOMIC_POSITIONS (angstrom)
Si -0.00559175427 2.7141746399999995 2.6942149249282914 
Si 2.71764441 -0.010820958299999999 2.743355684455348 
Si 2.9896059599999996 2.1225055499999996 0.09693324774064359 
Si 1.2589824239999998 1.146773646 1.4052102200917516 
Si 4.062726 4.02657849 1.16046996676092 
Si 0.0015268437809999999 0.000939462219 5.430280136169666 
Si 0.000793814958 2.71441899 8.144746759310529 
Si 2.71544526 0.00037165146299999996 8.144988508777596 
Si 2.71371852 2.71340901 5.430418278722276 
Si 1.35775521 1.357251849 6.787979678855155 
Si 2.71591767 2.71044423 10.861043771273467 
Si 1.371222153 1.370873547 12.24063890854758 
Si 2.12749029 2.4975828 17.08374412485006 
Si 0.08617833539999999 2.81536812 13.670138042951917 
Si 2.70130554 -0.0016506656999999997 13.75706424418152 
Si 1.5190490159999999 4.00116609 15.25207748416097 
Si 0.961442316 2.45366496 20.35464894990247 
Si 1.5166967399999998 0.24373586699999997 19.602117394561567 
Si 3.8969915399999997 0.16148423609999998 19.26667274118726 
Si 2.4231537899999998 3.82564134 19.083599323341364 
Si 0.8052570539999999 0.40716854999999996 17.390558734196023 
Si 3.9213613799999996 0.42081305399999996 23.231156787254413 
Si 2.93014746 2.51858061 23.57855077142945 
Si 0.730839447 2.83535595 22.73667552018828 
Si 3.8093350499999996 3.1793193 25.64682106910067 
Si 0.0351621279 3.9369346199999997 29.550522392019587 
Si 3.7106991 2.55204027 29.350561047117164 
Si 0.266072715 3.0049022699999997 27.380199283608018 
Si 2.48588658 2.1997853099999998 27.352294487980874 
Si 3.2515654499999997 0.8214069599999999 30.970973189227994 
Si 1.5820978319999999 1.203363477 32.70790857446504 
Si 1.3618374839999998 4.07365659 4.069472386050462 
Si 2.7083591099999995 5.41639242 2.681744105991458 
Si 1.18680795 6.6181220099999996 1.2284982667935267 
Si 2.7147284999999997 5.4301086000000005 8.145092115692053 
Si 1.3573316699999998 6.787863809999999 6.787530715559173 
Si 1.356694731 4.0716040499999995 9.50306794348276 
Si 1.344957786 6.77035206 12.249203746809378 
Si 3.62895588 7.15952016 15.074633375333915 
Si 0.835782885 5.97051306 16.57848773868038 
Si 2.69412165 5.349049559999999 13.720905431035954 
Si 0.5536351979999999 6.976208789999999 20.42403104695065 
Si 1.95509322 6.11850771 18.71990451795839 
Si 3.1152181499999996 7.718202 22.954422718739195 
Si 0.9955405439999999 6.89741406 22.698479104391723 
Si 3.7776347099999996 6.95776851 26.524198956362515 
Si 3.4744615199999997 4.79678598 30.176170012788553 
Si 1.457674812 5.8717305 29.400568651161848 
Si 1.570009023 6.300287819999999 27.047552016924055 
Si 2.6247588299999998 7.9448121899999995 34.355500263801815 
Si 3.9748740299999996 9.390337919999999 1.1796372459355047 
Si 1.357849692 9.50145201 4.069990420622748 
Si 2.72403009 10.84826034 2.693465501580384 
Si 1.384044012 12.222843119999999 1.3048531091846785 
Si 0.000245739537 8.14493484 8.144815830586833 
Si 2.7146796299999996 8.145 5.430556421274886 
Si 0.000718375968 10.85945157 5.430832706380105 
Si 2.71497285 10.85994027 8.145299329520967 
Si 4.06481112 9.51709041 12.228447828279782 
Si 1.355986116 9.50269005 9.50251537327232 
Si 2.7155267100000002 8.1477693 10.864013836154575 
Si 0.0025379005499999996 10.85751306 10.861630877122058 
Si 0.374969736 8.24407578 16.005955929389813 
Si 2.36271789 9.44805339 15.794528752620792 
Si 2.75612139 10.82887524 13.766561544673433 
Si 2.5329646799999996 10.80737244 17.895262550155266 
Si 1.101630798 11.156792939999999 19.88119988647115 
Si 3.9286592999999996 9.38628171 19.24570960882875 
Si 2.68457571 11.592599309999999 21.72374525317825 
Si 3.8370117599999998 9.506876579999998 21.611020930248802 
Si 3.13253442 8.7115662 25.075912434803264 
Si 2.73991284 9.30312126 29.633028031565683 
Si 0.692515593 8.15793426 29.44335830683268 
Si 2.2046397300000002 11.59795872 29.44397994831942 
Si 0.981855315 8.414990459999999 26.15090324357317 
Si 1.0560872159999999 12.09506436 27.460391035397897 
Si 0.8279408789999999 11.57064039 31.313912076081376 
Si 3.5964084599999997 9.64674252 31.812088656429815 
Si 1.411442163 9.67135671 33.06832249422354 
Si 4.07170179 12.21911271 4.069783206793834 
Si 4.06130877 15.054875909999998 1.2904103053093428 
Si 0.00652456854 13.58525727 2.6929267456252064 
Si 1.35790182 14.93024112 4.074859945602237 
Si -0.00043401446999999995 13.575287789999999 8.14533386515912 
Si 2.7129366 13.57548327 5.430901777656411 
Si 1.357792677 12.21776064 6.787496179921021 
Si 1.3576395509999999 14.932733489999999 9.501824660509273 
Si 2.71578735 13.57605342 10.863426730305983 
Si 1.3468572 12.213769589999998 12.261118541971957 
Si 1.16840025 14.140013219999998 17.022028939471713 
Si 0.830149803 15.349659749999999 14.960562162516522 
Si 3.38090805 13.089324509999999 17.24367866513385 
Si 0.09783822869999999 14.81420745 20.48536634030932 
Si 0.5700245669999999 14.403113009999998 22.792761396547785 
Si 1.331270928 12.30470037 23.61097973565456 
Si 2.79472869 14.975771669999999 22.308019179440635 
Si 2.58678684 12.55836825 25.645923142508703 
Si 3.49099587 13.50833589 30.01488858261682 
Si 2.15409186 15.420374639999999 29.633442459223513 
Si 3.74204106 14.51149038 26.43095273335102 
Si 0.0243216216 15.701035049999998 26.556351635482404 
Si 2.21664546 16.1011989 27.327152543405923 
Si 0.8543290499999999 15.33561777 33.66699778159548 
Si 2.63886597 13.83495039 34.39639045937426 
Si 6.78931362 4.06986102 4.074894481240389 
Si 4.07381949 1.360710216 4.072822342951246 
Si 5.4302877899999995 2.72130966 2.6931443201455667 
Si 6.70546899 1.2188096549999998 1.3257160881925463 
Si 5.42953845 -5.5287119699999994e-05 5.429831172873686 
Si 5.430206339999999 2.71435383 8.14460861675792 
Si 6.787684619999999 1.3577405489999999 6.787634322473631 
Si 8.14496742 2.7137999699999997 10.858626276602799 
Si 4.0733144999999995 1.358413326 9.50192826742373 
Si 5.430141180000001 0.00297776313 10.860698414891942 
Si 6.7942494899999994 1.3532787179999999 12.224787050635626 
Si 7.375102019999999 3.64400784 14.87308339107648 
Si 8.135030519999999 0.034413765299999996 13.718177115621913 
Si 4.59684252 0.7970322329999999 15.054982597225196 
Si 5.496245999999999 2.709027 13.640920893074984 
Si 8.004808259999999 2.19522411 19.567132793113185 
Si 6.07457358 2.8819453499999996 18.3308950898097 
Si 4.26850128 1.469530674 17.295862014382134 
Si 5.045110739999999 0.9539440289999999 21.220457398383253 
Si 7.3792070999999995 0.574584138 21.223496534540665 
Si 4.656398759999999 3.91794048 19.867972737058782 
Si 4.559668739999999 3.4928203499999997 22.16020664814834 
Si 6.82867026 3.73466169 22.940332178373016 
Si 8.13745773 0.464333418 23.48889625478581 
Si 7.4516976 2.3430395699999997 24.704516182112307 
Si 5.5892944799999995 1.69046217 25.9955274075255 
Si 7.63059438 1.109844216 29.09085304821108 
Si 5.88192804 2.3173991099999998 28.213544232225544 
Si 7.279137629999999 2.03952429 31.32820983027647 
Si 5.486504579999999 0.575211303 32.177026744786275 
Si 4.9077534599999995 0.6071559929999999 34.50573028976478 
Si 4.07593719 6.78814074 4.06843631690589 
Si 6.76528587 6.65910765 1.1991360672363522 
Si 4.07253258 4.07253258 6.787634322473631 
Si 5.42898459 5.427567359999999 5.43017652925521 
Si 6.787358819999999 6.7877171999999995 6.787254430453955 
Si 6.78830364 4.07096874 9.501893731785579 
Si 4.07225565 6.78672351 9.504173083903638 
Si 4.074096419999999 4.07476431 12.239568303764855 
Si 5.432568389999999 5.428447019999999 10.86207984041804 
Si 6.766572779999999 6.80086323 12.237392558561256 
Si 5.503201829999999 6.9494117399999995 16.70026039880576 
Si 6.695694989999999 4.822084349999999 16.89673364425479 
Si 5.39695845 6.14463687 20.269622208771246 
Si 7.74242523 6.055432829999999 20.121049893439604 
Si 4.0995414 7.151912729999999 18.582279999921056 
Si 7.61497227 7.63139259 17.88949509858382 
Si 6.27774246 5.75693487 23.97211890381426 
Si 7.0390719 7.9456104 23.986727478752723 
Si 4.537937879999999 5.94705546 22.45082404320083 
Si 5.16547755 5.155736129999999 25.962856693833327 
Si 5.75108676 5.296367699999999 29.795863565454273 
Si 6.1660908 7.56299088 29.602498527438957 
Si 6.62895486 4.51723329 27.73753953157095 
Si 8.04393684 7.89854859 28.065766236571402 
Si 5.651245349999999 5.21428239 34.13326343229109 
Si 6.89493798 4.45814946 31.802833105404968 
Si 4.13694324 6.60121299 32.967582037732974 
Si 8.15275404 10.85594922 2.7015675622909385 
Si 5.422468589999999 8.138109329999999 2.6808012830698975 
Si 6.7882059 9.50339052 4.070059491899053 
Si 6.74762751 12.18040767 1.3073534893869125 
Si 4.072548869999999 9.502673759999999 6.78704721662504 
Si 5.4299457 8.14542354 8.145230258244663 
Si 5.429489579999999 10.85969592 5.429589423406618 
Si 6.7875054299999995 9.502869239999999 9.503171550397218 
Si 5.4297828 10.8616833 10.863323123391526 
Si 6.80159628 12.21085368 12.250861457440692 
Si 6.22895391 10.77212088 16.66724432873206 
Si 5.30013069 8.15309613 13.656289252052805 
Si 6.92984745 9.04081968 15.121118344287051 
Si 4.4407191599999996 12.1565754 15.252699125647714 
Si 7.642453499999999 9.599354909999999 20.531851309262457 
Si 6.17584851 9.51086763 18.732440954607714 
Si 8.07092937 12.160745639999998 17.317757608970755 
Si 6.113799899999999 9.50936895 22.396050521091116 
Si 6.16312602 11.29506246 23.941796613516445 
Si 4.21236594 10.83109068 25.30588524926013 
Si 8.1313164 10.858653359999998 25.24385924313841 
Si 7.15360689 8.93125314 26.13943741170657 
Si 5.38347033 10.07011962 27.15778977390653 
Si 6.431389739999999 11.841722279999999 28.248874190055453 
Si 4.393999439999999 8.3364075 28.315942399347424 
Si 5.45688936 8.14596111 31.832948181873864 
Si 5.74501059 10.53198999 34.36789855789853 
Si 5.1911343 11.38561857 32.19021935856049 
Si 7.293700889999999 9.201618269999999 32.885076398186875 
Si 7.18082748 11.69038818 30.479600129595582 
Si 5.419731870000001 13.58144541 2.695530732741898 
Si 6.793679339999999 14.9262012 4.070370312642425 
Si 4.07253258 14.932016729999999 6.7879106075788505 
Si 5.4297828 13.57533666 8.144815830586833 
Si 6.78794526 12.21735339 6.787599786835479 
Si 4.07162034 12.216685499999999 9.50220455252895 
Si 6.786446579999999 14.931853829999998 9.502549908910474 
Si 4.04951481 14.935111829999999 12.23217767720024 
Si 5.47475949 13.667424029999998 13.628211778234899 
Si 6.40693845 15.297710939999998 15.076394692879687 
Si 4.30411122 13.43519379 21.347168654764427 
Si 4.73607315 14.242412159999999 18.99784733380894 
Si 6.89133789 14.32545858 17.5129875714463 
Si 6.3690316199999994 13.30971192 22.78678673114742 
Si 7.078249349999999 14.89730274 24.46363010599928 
Si 5.07783735 15.8737905 25.097393601734062 
Si 5.100056909999999 13.8450339 28.29359784146282 
Si 7.07253156 15.127154639999999 28.602173768354554 
Si 7.79966829 13.825599930000001 34.46456380908711 
Si 4.17454056 13.543359389999999 32.44129344792847 
Si 6.328583549999999 14.65761168 32.60792790201383 
Si 7.6444083 14.029974269999999 30.646234583680933 
Si 8.15944923 -0.011774851829999999 2.6930821559968927 
Si 8.51149242 2.1562584300000003 0.12019852573839257 
Si 9.5021199 1.3595568839999999 4.0713373105106925 
Si 10.87891812 2.68112223 2.720016500191953 
Si 9.454553099999998 3.9238537499999997 1.4313260696626 
Si 8.14441356 0.00040964788799999994 8.144643152396071 
Si 8.14457646 2.7156570299999996 5.43103992020902 
Si 10.85860449 0.0001119294045 5.4295203521303135 
Si 10.860038009999998 2.7150705900000003 8.144401402929004 
Si 9.500718959999999 1.3580972999999998 9.502170016890798 
Si 10.859679629999999 0.0017727103799999998 10.864324656897946 
Si 9.128378429999998 1.8433601099999999 15.128957934147648 
Si 10.92197259 2.8197989999999997 13.68208737375265 
Si 10.18937871 0.9758263859999999 17.099941339143538 
Si 11.84455674 2.4863264099999998 18.54646654315701 
Si 8.33795505 3.9598709399999996 21.110599533420455 
Si 11.677030379999998 1.94491197 20.831966004806855 
Si 9.958891499999998 3.29510862 17.302803677650765 
Si 10.55668563 3.71324034 21.913553120463867 
Si 10.48686669 0.298035324 23.533309085449805 
Si 10.9766907 2.53285065 23.89462093180026 
Si 9.4957668 2.87678142 25.719104159753652 
Si 12.169444499999999 4.03117227 29.424501848401462 
Si 9.58381425 1.465609671 27.684561862645158 
Si 11.71163034 1.95787881 28.48751544968857 
Si 10.63502424 3.7360626299999997 32.49710303918276 
Si 9.40097529 1.7283527099999998 32.438910488895964 
Si 10.87101747 8.13841884 2.7114654761854178 
Si 12.18979071 6.64342038 1.4032416887170645 
Si 8.13591018 5.4257102999999995 2.7027763096262722 
Si 9.502413119999998 6.78825477 4.069506921688615 
Si 11.13460596 4.8518136 0.161436149830653 
Si 9.502380539999999 4.07248371 6.78804875013146 
Si 8.14534209 5.43012489 8.144815830586833 
Si 10.86042897 5.4291312000000005 5.430072922340753 
Si 10.8580995 5.42997828 10.856588673951807 
Si 12.22362504 6.77576034 12.185105602398513 
Si 9.50389551 6.78581127 9.501721053594816 
Si 9.50829381 4.07634444 12.219226812893089 
Si 8.20691829 5.4881335799999995 13.603138904936252 
Si 10.10346525 6.40105776 14.847388876291092 
Si 10.91529369 8.11040004 13.501673200044488 
Si 10.07098299 7.580274569999999 16.976510968386844 
Si 11.78299683 4.7229271200000005 15.277702927670056 
Si 11.81368719 6.439599899999999 18.13297134755827 
Si 9.10866753 7.782189119999999 20.90628669811083 
Si 11.32001874 7.298066609999999 20.22500216427834 
Si 11.75025393 5.74162227 22.095970361184868 
Si 10.771110899999998 6.59624454 24.127771024967146 
Si 10.30485852 5.0788962 25.939234317337082 
Si 10.326442769999998 5.518954259999999 29.412656124515188 
Si 11.463566219999999 7.579508939999999 29.116236742253097 
Si 8.769460859999999 5.6682684 27.661043093063373 
Si 9.178258409999998 5.30091261 31.542123572992466 
Si 10.181478059999998 6.5748394800000005 33.3284794564256 
Si 8.4318669 7.8525944999999995 34.504556078067594 
Si 9.52891695 9.44841177 1.3146301483456242 
Si 12.170373029999999 12.193716599999998 1.3438852874245264 
Si 9.50093073 12.220872029999999 4.071613595615911 
Si 12.21927561 9.5030973 4.074169232839189 
Si 8.14390857 8.14415292 5.430314671807819 
Si 9.50192442 9.502869239999999 6.787461644282868 
Si 10.8597285 8.14475565 8.14460861675792 
Si 8.145097739999999 10.860103169999999 8.145195722606509 
Si 10.859614469999999 10.85925609 5.430314671807819 
Si 12.214795859999999 9.50060493 9.501790124871121 
Si 8.14631949 8.14558644 10.861527270207601 
Si 9.508456709999999 9.49338846 12.222818519260938 
Si 10.864501469999999 10.85943528 10.859973166490743 
Si 12.20192676 12.212759609999999 12.23231581975285 
Si 8.18636031 10.66822326 13.759758023957408 
Si 11.127470939999998 9.844177319999998 16.459236180140127 
Si 9.637945919999998 11.73139011 15.435565329664698 
Si 10.95515532 11.29957479 20.408179189038695 
Si 8.687017169999999 11.575217879999999 19.813993534626572 
Si 12.132287009999999 10.32435765 24.821661066725262 
Si 9.964886219999999 10.395447209999999 23.883983955249324 
Si 9.254104649999999 8.16664941 23.22835940056407 
Si 9.7909416 9.237765779999998 28.94452554935934 
Si 10.41545133 11.41397946 28.16799172550252 
Si 10.716327629999999 10.931762879999999 34.45192376552333 
Si 10.98496602 10.35265338 32.15575279168439 
Si 8.91579393 10.112571359999999 30.996840382204148 
Si 12.138346890000001 8.469171 31.159917665559803 
Si 9.59906169 15.03182556 1.0726285711202783 
Si 10.842640289999999 13.58261829 2.69404915386516 
Si 8.14403889 13.573479599999999 5.431316205314238 
Si 9.50257602 14.931821249999999 6.78704721662504 
Si 10.86007059 13.574733929999999 8.144712223672375 
Si 9.5030973 12.217581449999999 9.502031874338188 
Si 8.14508145 13.573349279999999 10.863703015411202 
Si 9.50151717 14.928465509999999 12.252450096795704 
Si 10.75483719 13.41505935 13.743457202749473 
Si 11.613271319999999 14.66038098 17.410796618153334 
Si 10.946570490000001 16.03937835 21.33369975588499 
Si 8.890104599999999 15.19655004 20.591977855285794 
Si 12.15203049 13.037066189999999 19.336365658978814 
Si 9.2061306 15.396819299999999 18.20221530205384 
Si 8.42513913 13.13539263 21.592129936179436 
Si 10.458391769999999 12.257198729999999 22.541411022074584 
Si 11.804157539999999 16.087238369999998 25.383072400530754 
Si 11.190920489999998 12.939342479999999 29.854194258293685 
Si 8.251520309999998 14.48138646 26.59537690659462 
Si 10.27907145 15.566528519999999 27.05293957647583 
Si 8.45750736 12.217972409999998 27.070276466828336 
Si 11.99504376 14.64304842 28.45132210090485 
Si 9.854374859999998 14.143564439999999 31.469736875425024 
Si 10.9600749 16.23940326 31.91096418846015 
Si 9.511714709999998 12.726350729999998 33.35600436003307 
Si 11.515645349999998 15.758994869999999 34.250615530732965 
Si 13.595063849999999 0.01366517601 2.685487769167179 
Si 13.132297529999999 3.1369327199999995 0.03299717907962958 
Si 12.226117409999999 1.3155152399999999 1.1838056974604998 
Si 14.927194889999999 1.359240858 4.071924416359283 
Si 13.57567875 -0.000706798665 8.144574081119767 
Si 13.57548327 2.7150868799999994 5.431281669676086 
Si 12.21736968 1.358253684 6.787772465026241 
Si 14.93265204 1.3573658789999998 9.501824660509273 
Si 13.57667244 2.7120406499999996 10.863703015411202 
Si 12.213883619999999 1.360218258 12.237358022923102 
Si 15.29991009 0.916131681 14.689388331743839 
Si 14.851625579999999 1.1618891369999997 16.954718980712677 
Si 12.966807419999999 0.280499139 18.2238691471754 
Si 13.99526028 1.7063449199999998 21.2864550028925 
Si 15.08678802 3.16338768 19.78035582306613 
Si 14.011794629999999 3.22121718 17.673889109598356 
Si 15.027948539999999 1.6414618499999998 23.442445821470827 
Si 13.23779157 3.01505094 24.468430559702465 
Si 12.9722157 1.65121956 26.49256431181491 
Si 14.904014219999999 0.571529763 29.874293999698384 
Si 12.5134893 0.22574356199999998 29.856404539135436 
Si 15.08206392 1.170172602 27.524489179808764 
Si 16.032764609999997 2.3060286899999998 31.33352831855194 
Si 14.540160779999999 3.67067457 32.75397911576035 
Si 12.22241958 4.07131083 4.074238304115494 
Si 14.821668269999998 4.079374379999999 1.3437471448719167 
Si 13.57960464 5.420302019999999 2.7490851468248323 
Si 14.932863809999999 6.78830364 4.073513055714294 
Si 16.28843616 5.42991312 5.430280136169666 
Si 14.93193528 4.07284209 6.78832503523668 
Si 13.57483167 5.43054843 8.14478129494868 
Si 12.217728059999999 6.787358819999999 6.787841536302546 
Si 16.28978823 5.4348652799999995 10.859696881385522 
Si 12.21722307 4.07533446 9.503482371140588 
Si 14.932244789999999 6.787489139999999 9.501824660509273 
Si 14.923985759999999 4.07903229 12.239844588870076 
Si 16.02932742 7.955188919999999 13.643718279765329 
Si 14.809336739999999 5.395019939999999 16.47346486305892 
Si 13.360569299999998 5.32655307 13.593399854977275 
Si 14.097366 7.20733131 14.845523951830861 
Si 14.107254029999998 6.54838452 18.339977962643783 
Si 15.00584301 5.4915544800000005 20.232496397757416 
Si 16.20664407 4.93187895 23.527127206220523 
Si 14.076628829999999 7.747784639999999 23.406494222154173 
Si 14.117744789999998 5.60683881 22.418291472061263 
Si 12.41695476 8.014891769999998 25.06030232635838 
Si 14.28913188 5.0385295800000005 29.335607115797174 
Si 16.270484579999998 4.91980806 25.965619544885516 
Si 12.65141673 4.40694999 26.271467156363215 
Si 14.36116626 5.78220066 27.13427100432474 
Si 13.091572529999999 7.7418225 27.30698373072492 
Si 15.57837135 5.6984537699999995 34.3423076500276 
Si 12.49816041 6.73775577 32.600848096192586 
Si 12.65695533 4.525068779999999 31.649840228389817 
Si 13.91822487 7.48193184 34.50037726585115 
Si 16.2917919 8.14161168 2.693489676527091 
Si 14.835172679999998 9.3913479 1.2567138831640416 
Si 13.571036099999999 10.845767969999999 2.6989497609189863 
Si 14.93219592 9.502347959999998 6.787668858111783 
Si 13.575043439999998 10.85982624 8.145161186968357 
Si 13.573984589999998 8.1435339 5.430556421274886 
Si 13.57569504 8.144250659999999 10.861043771273467 
Si 14.9354865 9.520218089999998 12.24122601439617 
Si 12.54828474 9.13491072 14.764157988343797 
Si 13.56562782 10.92788586 13.682674479601241 
Si 15.10969176 8.759198159999999 17.995554043349852 
Si 12.36707478 9.43228467 20.144672269935846 
Si 15.98511636 9.1952163 20.16670600707708 
Si 13.06273923 10.08424305 17.925826589920145 
Si 13.779124559999998 11.16260847 23.29546214549419 
Si 16.18178553 8.45708382 24.05144726465033 
Si 15.86932704 10.82576385 24.359746906436847 
Si 14.10497343 9.43886583 21.703645511773548 
Si 16.022844 10.310625179999999 26.75980107983822 
Si 12.4642935 11.321892089999999 26.95430579391256 
Si 14.00477364 9.81780381 27.98370956032129 
Si 16.05578238 9.35969643 31.3034477777212 
Si 12.913017839999998 11.904960059999999 31.217557645636166 
Si 13.819263119999999 9.88747614 30.39743984643101 
Si 16.05211713 11.04548337 34.453201584134966 
Si 13.268661119999999 13.965856829999998 0.17469161846630898 
Si 12.21474699 14.93037144 4.067952817971757 
Si 14.930648369999998 12.220725419999999 4.066951284465337 
Si 15.214175819999998 15.114709079999999 1.1282758448752483 
Si 13.574033459999999 13.574815379999999 5.430072922340753 
Si 12.21756516 12.217728059999999 6.78718535917765 
Si 14.932782360000001 14.931951569999999 6.78704721662504 
Si 16.2901629 16.28907147 10.864186514345336 
Si 12.218004989999999 14.93143029 9.502100945614494 
Si 14.93056692 12.21595245 9.502446301996017 
Si 13.577552099999998 13.57509231 10.85821184894497 
Si 14.93535618 14.91942456 12.206552233691156 
Si 12.471623999999998 14.384982239999998 15.061682511026763 
Si 14.24065284 12.73245948 15.090761518351089 
Si 13.49905059 16.14146778 13.568568731145696 
Si 16.10887149 13.55145552 13.713342126280576 
Si 12.72187098 14.52396852 21.05921050384968 
Si 14.34503916 15.93899937 20.189499528257667 
Si 16.12405377 12.98179422 18.944351630310866 
Si 13.91892534 12.33255627 17.71177470465154 
Si 13.44677598 14.497122599999999 24.870425387796455 
Si 12.64405365 13.22456409 23.02145639239301 
Si 15.48584415 15.680786579999998 24.316473751831886 
Si 15.75190872 13.818481199999999 27.862731219873414 
Si 16.15950081 14.830855829999999 30.0268033777794 
Si 13.524658469999999 13.472742239999999 27.038123787708447 
Si 16.227397529999998 13.6611198 32.08927168824101 
Si 14.344224659999998 12.60997497 33.0735719112227 
