&CONTROL
  dt          = 30.D0,
  prefix = 'x2.00_y1.66_z3.17_struc13-scf',
  pseudo_dir = './',
  outdir='./',
  wf_collect= .true.,
  verbosity= 'high',
/

&SYSTEM
ibrav= 6, celldm(1) =30.783621515, celldm(3) =2.1163055416155427, nat=  432, ntyp= 1,
  ecutwfc     = 12.D0, nbnd= 1728,
  degauss     = 0.05D0,
  occupations = "smearing",
  smearing    = "methfessel-paxton",
/
&ELECTRONS
  electron_maxstep=200,
  conv_thr    = 1.D-8,
  mixing_beta = 0.3D0,
  scf_must_converge=.false.,
/
&IONS
/
ATOMIC_SPECIES
Si  28.08  Si.pbe-hgh.UPF
K_POINTS {automatic}
1 1 1 0 0 0
ATOMIC_POSITIONS (angstrom)
Si 0.0021543199200000003 2.70954828 2.695997809823579 
Si 2.7360846899999998 0.00304038189 2.6928606196517433 
Si 1.4926396679999998 1.446149637 1.2784946290278612 
Si -0.001582381278 0.00027274509899999995 5.430062492039913 
Si 0.00019236861 2.71458189 8.145179924603053 
Si 2.71450044 0.00051002361 8.145179924603053 
Si 2.7162271799999997 2.71337643 5.430165915891732 
Si 1.3576167449999998 1.357463619 6.787603971012846 
Si 2.7140606099999998 2.71549413 10.86146949415347 
Si 1.3489244009999999 1.360819359 12.229560206011914 
Si 4.07194614 1.3574913119999998 9.501307944267795 
Si 2.7363942 0.1249830702 13.677838877647167 
Si 4.05886527 1.548691929 17.156120912780874 
Si 1.7484545699999998 3.69248688 15.124428293036043 
Si 3.5976302099999997 2.09419353 14.905445524118475 
Si 2.08849203 1.1969419589999999 18.574544565857778 
Si 0.208223667 2.33100126 17.678583737551936 
Si 2.9370707099999995 3.3640478999999996 22.134496969311023 
Si 0.785288772 2.6124273000000002 22.670853064843072 
Si 4.03413705 1.329900939 21.726179602330593 
Si 0.879642081 2.00160117 24.968655255317547 
Si 2.5952413500000002 0.9879461459999999 29.709328825750937 
Si 2.94244641 1.8160906499999998 26.173336281302365 
Si 2.18836602 2.74761801 28.19161827492803 
Si 2.6813177099999996 3.0448127699999996 34.46168929143984 
Si 1.577634372 1.2188177999999998 31.832517079738086 
Si 3.44108331 2.75962374 32.30133740003249 
Si 1.3559193269999998 4.07297241 4.067418769710589 
Si 2.70713736 5.45200236 2.694205129725387 
Si 1.4532341579999999 6.90469569 1.1550513669587263 
Si -0.00032608344599999997 5.429522159999999 5.430407238212642 
Si 2.7152660699999998 5.4297990899999995 8.144869653047595 
Si 1.357194834 6.787684619999999 6.787155800988298 
Si 1.358398665 4.07215791 9.501687165057799 
Si 1.351991808 6.785566919999999 12.243694799093811 
Si 2.7447021 5.445144269999999 13.676011722931701 
Si 0.760705533 6.6108078 17.97720287236994 
Si 3.7704345299999997 6.32563506 20.313651108807356 
Si 2.71077003 4.27855221 19.949013081911712 
Si 0.512177148 4.59470853 19.104902077984338 
Si 2.6106354 7.69006917 18.873646345317606 
Si 0.905800563 6.67935612 23.22927291542978 
Si 3.78377604 5.07166344 23.788761479151958 
Si 3.26301732 6.9605540999999995 22.510270297585823 
Si 0.733932918 6.03409293 25.55724039601806 
Si 2.71124244 6.06445749 29.596079708009402 
Si 0.359147259 5.753171879999999 29.186762577128057 
Si 3.02734989 5.8717793700000005 25.954698258557524 
Si 3.59077212 4.6512511199999995 27.95384683959672 
Si 2.84187195 5.04753795 31.74536524727215 
Si 0.6030085589999999 4.641965819999999 32.704690422125616 
Si 3.04952058 7.92070299 34.0055211556846 
Si 1.3544906939999999 9.504758879999999 4.070900706055153 
Si 2.71220355 10.85210478 2.6793052001400324 
Si 1.236668382 12.16380816 1.1985928085744209 
Si -4.0901094899999995e-05 8.145114029999998 8.145042026133961 
Si 2.7152009099999996 8.145781920000001 5.430096966657186 
Si 0.00032625612 10.86039639 5.43085540823719 
Si 2.71541268 10.86002172 8.14490412766487 
Si 4.08294189 9.497314349999998 12.242798459044716 
Si 1.3585338719999998 9.5053779 9.502583505106893 
Si 2.7152497799999997 8.14534209 10.86502037973258 
Si -0.0021613897799999996 10.86055929 10.859849187141643 
Si 1.367723061 12.225905639999999 12.212874491251823 
Si 2.75353128 9.78999678 16.50386115397728 
Si 1.00144404 9.982055879999999 14.773304316111382 
Si 2.73940785 10.904998410000001 13.571898378767491 
Si 1.314330957 10.8439272 18.040222472744837 
Si 0.30646539899999997 10.24587243 21.30138336829371 
Si 4.009506569999999 10.505209229999998 20.92964357023984 
Si 2.0893554 9.71652888 19.888406704745922 
Si 1.301103477 11.94866613 22.503478797983057 
Si 1.64291166 10.871994869999998 24.52920730893967 
Si 3.80086425 9.910868579999999 24.69320306330694 
Si 3.8444888699999997 8.181522179999998 26.280655764872954 
Si 3.16703664 8.36123346 29.89893922075198 
Si 0.25666361099999996 9.18340605 27.560250134191826 
Si 2.67476913 11.939185349999999 27.83363384916606 
Si 2.5912828799999996 9.48327237 27.8904824930491 
Si 3.7144783799999996 11.093946119999998 32.34898132110366 
Si 2.16847593 9.09667809 32.00451094531267 
Si 0.538149924 15.68770983 -0.0007937194558595542 
Si 4.05140445 14.835074939999998 1.2029331628890814 
Si 1.358906913 14.93359686 4.067970363586955 
Si -0.0001428064479 13.57435926 8.144490432257594 
Si 2.7162271799999997 13.57450587 5.430131441274459 
Si 1.3574896829999998 12.21743484 6.787672920247392 
Si 1.3575760199999998 14.931283679999998 9.502031911230526 
Si 2.7121058099999997 13.574114909999999 10.85933206788255 
Si 2.7016150499999996 13.98237489 16.36099833999831 
Si 3.96847206 12.409314749999998 14.814191212197063 
Si 0.15022035269999998 13.675617899999999 13.6180943659132 
Si 1.181018484 15.288604829999999 15.046998302641073 
Si 0.08392086719999999 15.40041939 21.19895928037587 
Si 2.33249994 16.20374445 20.607995391083524 
Si 3.1382847899999997 14.10383313 19.894853458175962 
Si 1.5091121159999998 13.21806438 18.42395943760968 
Si 3.4127224199999997 12.610089 21.74103816237522 
Si 3.4973163899999995 15.2029683 24.470876256513897 
Si 1.177749081 14.72102865 24.697650288935144 
Si 1.353335733 12.713253570000001 25.967867562355778 
Si 1.88318916 13.180320449999998 29.68705822299263 
Si 3.3638524199999997 15.81695469 26.716483876437177 
Si 1.8280800899999998 15.330600449999999 28.53774343234812 
Si 2.22544206 13.93241346 34.30486425746534 
Si 3.15288063 13.414912739999998 31.92132369383312 
Si 8.13898899 0.0216147123 2.687641162596624 
Si 4.07404755 1.355891634 4.075899525559726 
Si 5.41539873 2.7033580799999997 2.7137556851808586 
Si 6.594061679999999 1.295125047 1.2223423724137337 
Si 5.42991312 0.00274805784 5.429752220484457 
Si 5.429294099999999 2.7155267100000002 8.145076500751234 
Si 6.787521719999999 1.3574961989999998 6.787259224840117 
Si 6.7839705 1.362210525 12.243074255982899 
Si 5.48067276 2.9292026399999997 13.59716827322854 
Si 7.67100987 2.9705955299999998 21.3607141846204 
Si 6.02554068 1.5063281549999998 20.444240959037167 
Si 5.8788981 2.70013266 18.376763686563052 
Si 5.02458534 0.641187432 23.74522003753626 
Si 5.145962129999999 2.36105631 25.320227402266756 
Si 6.64825851 2.15800146 27.137694750277678 
Si 6.41855322 0.32047154099999997 28.571528557275577 
Si 5.8466439 2.4902034299999998 31.586402787026728 
Si 4.89796317 0.7353696959999999 30.273023292780405 
Si 7.62888393 3.1124325600000002 34.4147693373314 
Si 4.17239028 4.170256289999999 1.3921988117173965 
Si 6.78889008 4.07240226 4.069073551339688 
Si 4.06994247 6.787391399999999 4.070555959882424 
Si 5.885577 5.06793303 0.0405455973746779 
Si 6.88413771 6.91681545 1.3046608635380053 
Si 4.0725814499999995 4.0723696799999995 6.787569496395573 
Si 5.429147489999999 5.42996199 5.429614322015365 
Si 6.78776607 6.78713076 6.787707394864665 
Si 6.7873262400000005 4.072516289999999 9.502100860465072 
Si 4.0746177 6.78776607 9.502031911230526 
Si 4.0542552 4.09566438 12.20573824547633 
Si 5.426182709999999 5.430646169999999 10.859745763289823 
Si 6.78659319 6.81910803 12.226491965074626 
Si 6.334399079999999 4.820960339999999 15.02593431148732 
Si 4.51936728 6.572868389999999 14.971429941578839 
Si 4.11317613 7.85073744 17.090308868406876 
Si 6.623057879999999 4.95918099 17.70905929922119 
Si 7.44959619 6.73106058 21.387949132266 
Si 6.0075891 6.569854739999999 19.56582771092324 
Si 7.51905675 4.8172462199999995 22.791479750681006 
Si 5.91976971 4.48455555 24.49621510020949 
Si 6.202205729999999 7.868574989999999 26.431378791590152 
Si 6.7274442 5.5892619 26.444030976129312 
Si 5.90841558 4.19061879 28.143043539190487 
Si 6.522988409999999 6.5524895999999995 31.499250954560797 
Si 4.585863059999999 6.29626419 32.941737890494196 
Si 6.69191571 4.37968053 30.358727191320877 
Si 8.150962139999999 10.855770029999999 2.693357054140473 
Si 4.10934798 9.44521893 1.2007991840798877 
Si 5.42856105 8.14628691 2.704544067445535 
Si 6.7870167299999995 9.5034231 4.07062490911697 
Si 4.073086439999999 12.22061139 4.069039076722415 
Si 6.750413099999999 12.230808929999998 1.3052779591871906 
Si 4.07225565 9.50283666 6.787431597926481 
Si 5.42991312 8.14508145 8.145076500751234 
Si 5.42988054 10.860103169999999 5.430441712829915 
Si 6.788662019999999 9.50242941 9.501825063526889 
Si 5.431444379999999 10.85788773 10.861159222598014 
Si 6.807705029999999 12.20160096 12.228525967493727 
Si 7.8876994499999995 8.34966756 16.88242692625118 
Si 5.56640703 8.27514081 13.733480909925655 
Si 6.863384249999999 9.646025759999999 15.1591097580126 
Si 5.0292768599999995 10.85832756 16.239440839494005 
Si 7.7418225 10.71161982 21.116806267414507 
Si 5.868716849999999 10.68782013 19.575721926080565 
Si 6.11855658 8.639645849999999 18.400206426308635 
Si 7.6408733699999996 8.79094737 24.74229491830357 
Si 6.93789471 8.78654907 22.4746580179429 
Si 4.5354618 8.99879148 22.66564739763486 
Si 5.248067849999999 11.72132289 25.307644166962145 
Si 7.51198689 11.023980569999999 25.520042283980587 
Si 7.08395085 8.74878885 28.43514697134392 
Si 6.430689269999999 12.18812913 29.297150301635934 
Si 7.79235408 10.93259367 27.871383555079902 
Si 8.020186019999999 8.44291152 34.234811835166774 
Si 5.23187559 11.05058214 34.2848000302125 
Si 7.17962202 10.622106269999998 32.96083682846339 
Si 5.56231824 8.496049499999998 30.239376066322034 
Si 5.73469902 10.66649652 31.070248817216612 
Si 5.422468589999999 13.56807132 2.7079191324765537 
Si 6.78708189 14.93165835 4.0667637519824025 
Si 4.07267919 14.93229366 6.7875350217783 
Si 5.430190049999999 13.574587320000001 8.144973076899415 
Si 6.787440269999999 12.21736968 6.78729369945739 
Si 4.0728583800000004 12.22004124 9.50113557118143 
Si 6.78815703 14.934167009999998 9.50347984515599 
Si 4.0723370999999995 14.94486954 12.236834350256501 
Si 5.426133839999999 16.291629 10.862951902696205 
Si 4.68423837 15.554701979999999 16.667615586023636 
Si 5.471371169999999 13.57074288 13.523392592264496 
Si 6.71297868 14.74829811 15.093125340552236 
Si 8.0182638 16.27351452 13.782676188774108 
Si 6.475275 15.4450377 20.18440576865119 
Si 5.055422309999999 14.44330044 18.635461214579024 
Si 5.85263862 12.336351839999999 17.95500121884618 
Si 6.458284529999999 14.35842954 22.286219759929136 
Si 4.700137409999999 13.36478841 23.582775640946274 
Si 7.25369265 16.04770254 23.676443176076795 
Si 8.12090709 12.746941289999999 22.229612438367006 
Si 7.312809059999999 14.70600927 25.61546802459202 
Si 5.491749959999999 14.945048729999998 27.167239497280566 
Si 4.88783079 12.674581109999998 27.515984725613396 
Si 7.757412029999999 14.02673256 34.445968865963394 
Si 5.1546121199999995 15.038080919999999 31.688930298796386 
Si 7.23468222 14.003861399999998 30.65727737690434 
Si 5.7552895799999995 15.66073359 34.131560356434385 
Si 9.49855239 1.359250632 4.0706938583515155 
Si 10.85971221 2.70961344 2.6938190140119307 
Si 9.45403182 4.02369516 1.230274981848232 
Si 8.1456516 0.000584770275 8.144387008405776 
Si 8.146971090000001 2.71581993 5.4310277813235555 
Si 10.860803639999999 0.001356596991 5.429890118953549 
Si 10.85896287 2.71487511 8.145042026133961 
Si 9.50378148 1.357162254 9.499997908811425 
Si 8.14804623 2.71401174 10.861262646449834 
Si 9.27326169 1.3296272669999998 15.444490639797808 
Si 10.652552279999998 2.7958201199999997 14.005968284850791 
Si 12.10922037 2.33743581 21.34702776156305 
Si 11.62719927 0.39022369199999996 20.12835004096543 
Si 9.33229665 3.0695246999999997 19.774364670807113 
Si 9.65519703 0.8200744379999999 18.847514585424737 
Si 8.195222069999998 2.2898853 17.6543136069918 
Si 9.968013899999999 2.6006984999999996 22.301388591529218 
Si 9.575115389999999 0.490285017 23.434017667413638 
Si 10.07792253 3.9701987999999995 25.66700757741503 
Si 10.071976679999999 0.388464372 25.809732492924905 
Si 10.4415642 0.468936972 29.934827297333083 
Si 10.1628423 2.57517207 28.9191361232384 
Si 9.01677564 2.2423673699999997 26.809944563864054 
Si 10.79624637 1.259568864 32.254382971306775 
Si 11.88480933 3.48078204 32.760884048280474 
Si 8.53828947 2.29182381 32.36528781507375 
Si 10.87284195 8.13535632 2.677267750259203 
Si 12.12995754 6.615369 1.0563539851680919 
Si 8.159579549999998 5.435500589999999 2.6969044922578567 
Si 9.50239683 6.78498048 4.071728096869704 
Si 9.50272263 4.07284209 6.787810818716484 
Si 8.14493484 5.4300760200000004 8.144835178430322 
Si 10.860168329999999 5.4304995599999994 5.430200390509004 
Si 8.14180716 8.14345245 10.861021324128922 
Si 9.502347959999998 6.7865606099999995 9.500928723477793 
Si 9.49470795 4.06042911 12.245384055340185 
Si 10.86121089 5.43069504 10.860400781018008 
Si 11.65293747 4.69855728 15.158696062605324 
Si 8.69802921 6.02457957 17.001536728929114 
Si 8.18109864 5.52897261 13.601856821177657 
Si 9.986242410000001 6.4868897699999994 14.973532893232488 
Si 9.48488508 7.07559408 20.208296678421323 
Si 10.163705669999999 5.1732967499999996 18.874611634601248 
Si 11.04132942 6.668621009999999 23.709676707127883 
Si 10.8698283 8.068453289999999 21.80226508265192 
Si 9.66417282 7.70269392 25.369457155732483 
Si 9.777844439999999 4.62461697 23.472077644882937 
Si 9.06812172 5.80186269 26.64422507863314 
Si 12.13826544 5.91805926 28.683088418770737 
Si 9.77605254 6.01073307 28.844739899163443 
Si 8.76990069 6.853154129999999 32.648738118291675 
Si 9.06286005 4.14999153 30.284055170307738 
Si 10.545087149999999 5.26774617 33.98445716453085 
Si 9.554231609999999 9.5309532 1.2453403895964967 
Si 8.14486968 8.144120339999999 5.43002801742264 
Si 9.502022160000001 9.50269005 6.787603971012846 
Si 10.859875109999999 8.14457646 8.144938602282142 
Si 8.14488597 10.859809949999999 8.145731518479419 
Si 10.85860449 10.85920722 5.430131441274459 
Si 9.4920201 9.52860744 12.243970596031994 
Si 10.85469489 10.85889771 10.865571973608947 
Si 10.926761849999998 8.268266429999999 13.626816444083248 
Si 8.20219419 11.1263958 13.887961669925597 
Si 9.2317059 11.06374446 19.216255091775857 
Si 9.64749186 8.74434168 18.39727608384044 
Si 12.023860769999999 8.77374513 18.05708056059129 
Si 11.05854795 10.93329414 24.182082387618667 
Si 10.19534085 10.334441159999999 22.0595491513597 
Si 10.834886249999998 9.58560615 26.16389023616959 
Si 11.51644356 11.07949689 29.94113615229403 
Si 9.33534288 8.30066724 29.030454662412648 
Si 10.109557709999999 10.9318932 28.002731846889713 
Si 10.168837019999998 8.352599759999999 31.222316354007454 
Si 10.843389629999999 11.02859064 34.3825700447985 
Si 11.44496304 10.119152519999998 32.254624293627685 
Si 12.216555179999999 14.929654679999999 4.0706938583515155 
Si 9.500213969999999 12.220660259999999 4.070487010647878 
Si 9.538576919999999 15.08017428 1.194031816709214 
Si 10.85133915 13.5824391 2.687227467189349 
Si 8.14475565 13.57388685 5.430751984385371 
Si 9.502250219999999 14.93252172 6.787431597926481 
Si 10.85985882 13.575157469999999 8.144766229195776 
Si 9.50381406 12.2192919 9.50196296199598 
Si 8.14716657 13.5702216 10.862710580375296 
Si 9.506078369999999 14.944331969999999 12.246763040031102 
Si 10.85164866 16.297493399999997 10.859297593265277 
Si 10.83405546 13.804667279999999 15.812196907630742 
Si 8.45639964 13.04778501 15.613829959842375 
Si 11.36475108 14.045563799999998 13.523633914585409 
Si 11.074316669999998 16.11124983 16.405401647045828 
Si 9.845496809999998 13.7815029 20.989836251998355 
Si 11.20838337 12.224700180000001 19.820457234101006 
Si 8.60286303 14.9369526 19.31674860112641 
Si 8.18818479 12.83476068 17.947072056873413 
Si 10.83731346 13.17331575 24.87154025845974 
Si 11.06794728 15.40271628 22.094954583298986 
Si 8.497271249999999 12.91502151 24.53972206720791 
Si 10.70406126 13.13130384 27.19657739657982 
Si 8.42248386 15.61411161 29.283050183171312 
Si 9.13372155 14.902857629999998 27.12828317976217 
Si 10.544516999999999 12.47989932 32.363564084210104 
Si 8.212961879999998 12.786477119999999 32.49098226965081 
Si 11.27600316 16.07371767 34.27173415026607 
Si 12.27205521 1.334129823 1.316178833168887 
Si 14.931853829999998 1.3562793359999998 4.074313693165172 
Si 13.57532037 -4.94429193e-05 8.144973076899415 
Si 13.57496199 2.71459818 5.430889882854463 
Si 12.21735339 1.3577112269999998 6.7875350217783 
Si 16.28988597 0.00499863537 10.860711052573466 
Si 14.93252172 1.355847651 9.501997436613253 
Si 13.57862724 2.71533123 10.86774387449714 
Si 12.19813119 1.3683974669999999 12.256140135929334 
Si 14.92318755 4.0677759 12.269171541258498 
Si 16.25360814 2.5625473199999997 13.794156236325989 
Si 15.881935499999999 0.8281884869999999 15.609175886510533 
Si 13.291581149999999 0.11927521709999998 18.470293323224478 
Si 13.33090521 3.70423197 19.7981866313427 
Si 14.70395673 1.81208331 19.33329641741741 
Si 13.68140085 0.185336217 24.704889958562458 
Si 13.72250052 1.96708266 23.09285685488085 
Si 15.451244189999999 1.2760331669999998 21.552668853596003 
Si 15.946329869999998 0.0514182447 25.612365309037457 
Si 16.049543309999997 3.8875596299999997 25.83386472501595 
Si 12.35438487 0.0193960143 28.559221118909143 
Si 14.388354269999999 2.82326877 29.378200126844565 
Si 14.4448317 0.514570149 29.537266010941803 
Si 12.35212056 3.4502057099999996 26.09301042305647 
Si 12.27550869 1.053418914 26.36177453931613 
Si 16.262486189999997 3.65223429 28.19303173423622 
Si 12.35827818 3.60186561 28.451694787634914 
Si 13.53637098 2.79676494 34.44600334058067 
Si 13.99314258 3.7156349699999995 31.471602311507915 
Si 15.44067198 0.498666222 31.701099838693725 
Si 15.512233949999999 2.54133774 32.90329869223489 
Si 16.00539741 5.742827729999999 0.11752259129868377 
Si 16.3035207 8.14620546 2.693918990402022 
Si 12.21888465 4.076230409999999 4.072003893807886 
Si 14.8835214 4.0895882100000005 1.3720725301534675 
Si 13.54837671 5.436787499999999 2.7063919069313633 
Si 14.93460684 6.78669093 4.067866939735136 
Si 14.932538009999998 4.07276064 6.7875350217783 
Si 13.57489683 5.430434399999999 8.145248873837598 
Si 12.217662899999999 6.7870656 6.787224750222844 
Si 16.2906516 5.4285773399999995 10.866744110596226 
Si 12.21596874 4.07155518 9.502617979724167 
Si 14.93187012 6.7893462 9.501342418885068 
Si 12.20339286 6.804251549999999 12.214046628239103 
Si 16.188773939999997 8.14003155 13.648190706792457 
Si 13.40544825 5.4716481 13.687250448162672 
Si 14.189518529999999 7.45779006 14.988908572536205 
Si 13.4822556 7.01725959 17.216175696070295 
Si 15.00102117 5.11506 20.624198461201797 
Si 14.62306059 7.472939759999999 20.589413572373424 
Si 15.2368515 8.01454968 18.377660026612148 
Si 12.39403473 4.92187689 17.71705741042851 
Si 15.92178084 4.6752137099999995 22.71987597060516 
Si 13.2677163 6.44445432 24.585711206649982 
Si 14.148581759999999 4.10452614 24.392998096094374 
Si 13.432163849999998 6.79123584 26.914092382645535 
Si 15.804395099999999 6.98345784 27.362227932576186 
Si 15.279238079999999 5.6555947799999995 31.18270501876087 
Si 14.23006434 7.66814283 31.888400434337484 
Si 12.44124315 7.644864419999999 30.278056586902252 
Si 14.10344217 7.385576489999999 34.30003781104713 
Si 14.935095539999999 12.215594069999998 4.071279926845155 
Si 12.21714162 9.50383035 4.069004602105142 
Si 14.80629051 9.2921418 1.2584304017750232 
Si 13.572795419999999 10.85915835 2.683156014889417 
Si 13.57605342 8.14644981 5.429717745867184 
Si 14.93276607 9.50255973 6.787672920247392 
Si 13.576232609999998 10.85985882 8.144214635319411 
Si 12.22028559 9.502315379999999 9.502721403575984 
Si 13.57421265 8.14501629 10.85719464161163 
Si 14.92893792 9.51213825 12.214425849029105 
Si 13.120780499999999 10.580306129999999 16.91324723409317 
Si 13.74986772 10.99609209 13.627092241021431 
Si 15.64006158 11.79420435 14.932749420998624 
Si 12.77551395 9.365935499999999 14.921062525743107 
Si 15.27270579 10.36228077 17.857162255025642 
Si 12.93385275 10.960547309999999 20.896272140719656 
Si 12.620563469999999 8.67587481 20.370706600394037 
Si 15.052481279999999 11.4572457 20.001414500166547 
Si 15.755443649999998 8.371398419999998 22.43828729671997 
Si 13.219839989999999 10.851241409999998 23.244579645498956 
Si 14.227685999999999 8.86148307 24.216798327212494 
Si 15.851701259999999 10.1009403 25.519766487042403 
Si 15.417703079999999 10.14389703 29.38213023321368 
Si 13.13487135 9.62831853 29.019526208737133 
Si 13.03325433 9.06676965 26.707934171353493 
Si 15.890846129999998 9.410456069999999 31.59005709645766 
Si 14.43579075 10.9716408 32.894817936385756 
Si 16.13511468 10.7015526 34.42283639777327 
Si 12.29510556 12.35888091 1.233939633664343 
Si 15.02477199 14.98686516 1.4110081629015 
Si 13.589818469999999 16.2935838 2.7177133712437893 
Si 16.291466099999997 13.548555899999998 2.7127455788947623 
Si 13.574733929999999 13.57437555 5.43061408591628 
Si 12.21763032 12.21746742 6.787466072543754 
Si 14.93274978 14.932114469999998 6.787328174074663 
Si 12.217614029999998 14.931967859999999 9.504307235970538 
Si 14.93187012 12.21776064 9.500549502687791 
Si 13.58128251 13.568950979999999 10.855953555389803 
Si 12.22970121 12.230059589999998 12.238661504971967 
Si 14.9260383 14.924621069999999 12.2384891318856 
Si 13.62073689 16.16624487 15.910863262265831 
Si 13.14197379 15.89785083 13.564589759905633 
Si 14.03622963 14.30087697 17.810000978596292 
Si 15.723368639999999 13.719584609999998 19.52625085029393 
Si 12.28474512 12.7182546 17.465427178953487 
Si 14.24216781 12.93639399 23.826649083534893 
Si 12.518294849999998 14.56213599 23.815720629859378 
Si 16.25663808 13.81263309 22.920862989306265 
Si 15.25872897 12.375855089999998 25.926704869331918 
Si 15.86983203 12.447661409999998 29.67609529469984 
Si 14.760531899999998 13.53961269 27.900618030527333 
Si 15.834873689999998 15.67855485 27.91485604746105 
Si 12.496352219999999 14.002020629999999 28.434664326702094 
Si 13.133095739999998 14.330329289999998 34.406288581482265 
Si 12.3049773 13.184621009999999 30.66710264282712 
Si 14.519830859999999 12.963712319999999 31.586575160113096 
Si 15.06795678 14.830595189999999 32.892680510114836 
