&CONTROL
  dt          = 30.D0,
  prefix = 'x2.00_y2.00_z3.17_struc6-scf',
  pseudo_dir = './',
  outdir='./',
  wf_collect= .true.,
  verbosity= 'high',
/

&SYSTEM
ibrav= 6, celldm(1) =30.783621515, celldm(3) =2.118483252460307, nat=  432, ntyp= 1,
  ecutwfc     = 12.D0, nbnd= 1728,
  degauss     = 0.05D0,
  occupations = "smearing",
  smearing    = "methfessel-paxton",
/
&ELECTRONS
  electron_maxstep=200,
  conv_thr    = 1.D-8,  mixing_beta = 0.3D0,  scf_must_converge=.false.,
/
&IONS
/
ATOMIC_SPECIES
Si  28.08  Si.pbe-hgh.UPF
K_POINTS {automatic}
1 1 1 0 0 0
ATOMIC_POSITIONS (angstrom)
Si 1.083856779 1.272711636 1.1809698645800155 
Si 1.360700442 4.070985029999999 4.072535978466077 
Si 4.06754784 1.3637873969999998 4.068394767404168 
Si -9.99108054e-05 2.71498914 8.145382547761798 
Si 2.71487511 0.000132517521 8.145209997300885 
Si 2.7146307599999995 2.71484253 5.4320610599987535 
Si 1.3569798059999998 1.358501292 6.788031602036625 
Si 2.7151520399999995 2.7135719099999998 10.862914266771119 
Si 1.342335096 1.3685326740000001 12.223164060239627 
Si 3.943809 0.42854591699999994 16.663819192017268 
Si 2.7084568499999997 0.0845856621 13.591903336385052 
Si 2.75864634 3.55346802 16.125151163139403 
Si 0.31723146 0.5142394619999999 16.412137089729725 
Si 3.7791170999999997 1.85639211 14.776393230367692 
Si 3.54082698 3.09694077 20.20372640773743 
Si 1.186687404 2.7074468699999996 19.689905645231022 
Si 2.06988885 1.76438619 17.439916655111272 
Si 3.0604023 2.3042042099999995 23.64534888092161 
Si 0.7922543759999999 2.0429451899999997 24.202652359578067 
Si 3.56794983 1.248999912 21.62909674515447 
Si 0.11968637669999999 1.95471855 26.450605254259045 
Si 0.888313248 3.9983479199999996 27.35963559244034 
Si 1.075415301 0.37836457199999995 27.956384106461485 
Si 3.13362585 1.406437875 28.734621195270815 
Si 2.01477978 3.1636320299999996 34.42374793193759 
Si 0.1517916861 1.3225981319999998 31.7576707603725 
Si 2.52740979 1.9777689 32.455326783935504 
Si 3.1433346899999997 3.12186447 30.389242075056718 
Si 3.89910924 4.079309219999999 1.1822501889999892 
Si 2.70555723 5.42790945 2.703903683606419 
Si 1.345190733 6.70634865 1.2135301365542783 
Si 0.00391210866 8.140080419999999 2.678997750078252 
Si 3.1806713699999998 7.75470789 0.034278080832834935 
Si 0.00030285716399999996 5.42883798 5.4299559443756165 
Si 2.7151846199999996 5.43054843 8.144968426655607 
Si 1.357745436 6.78700044 6.787617480930433 
Si 4.07357514 6.788873789999999 9.50190525127459 
Si 4.0788693899999995 4.07867391 12.247528185320528 
Si 1.358263458 4.07350998 9.50283702376352 
Si 3.57622515e-05 5.42906604 10.864225650274056 
Si 1.364388498 6.79353273 12.220196192311926 
Si 0.906141024 4.57964028 15.051231604509747 
Si 2.7012240899999997 5.52131631 13.681111924677017 
Si 0.0282364344 8.023460309999999 21.30539208048188 
Si 3.7397115899999998 5.13001422 21.565943276460345 
Si 0.21274902899999998 4.3111485 21.174288240280266 
Si 2.8699233299999998 6.83394822 20.191613365381347 
Si 0.617205294 6.23771793 19.79129629606344 
Si 0.6656305770000001 4.27133574 23.52207883164544 
Si 0.294537861 7.63981452 23.645417901105972 
Si 2.91801141 4.79631357 23.864487966280983 
Si 2.55267558 7.252145099999999 24.07927878002535 
Si 2.5959092399999997 7.76746296 26.35915350997521 
Si 3.89003571 6.7134185099999995 29.54567738174577 
Si 1.6106558309999999 6.546836969999999 30.103464001692785 
Si 1.1511344789999998 4.27055382 29.72074707938799 
Si 3.02102937 4.326135299999999 26.342761216188485 
Si 0.379718271 7.75884555 27.093390231251746 
Si 3.99118032 6.2182188 27.27004739313437 
Si 0.324882873 4.97651355 34.33899114553718 
Si 4.04215173 9.47700072 1.3565503115865378 
Si 1.357597197 9.504563399999999 4.0705689032116705 
Si 4.07362401 12.212841059999999 4.069947721552384 
Si 2.7096785999999997 10.84452993 2.7151850327409037 
Si 2.13076458e-05 8.14513032 8.145279017485251 
Si 2.71536381 8.14550499 5.430784186587998 
Si -0.0005575627169999999 10.8587511 5.430301045297442 
Si 2.7151683299999996 10.860217200000001 8.14472685601033 
Si 1.3584866310000001 9.50400954 9.50218133201205 
Si 2.7146470499999995 8.14493484 10.861844453913458 
Si -0.00380698929 10.861927649999998 10.859497767645042 
Si 3.58938747 8.47858662 16.44271303140349 
Si 0.088137045 8.22504906 13.589487629932272 
Si 1.58107482 9.28109718 15.224955408556845 
Si 2.67652845 10.83384369 13.715656526951777 
Si 0.0295248105 12.20676489 17.11848965652274 
Si 0.451285128 9.7476102 17.487575092415415 
Si 0.023180832899999997 11.73977946 20.851101226990423 
Si 3.21136173 9.15849864 20.5708447683757 
Si 1.048996179 9.81470871 20.02420490820366 
Si 3.44785995 9.067079159999999 22.887852357514014 
Si 2.73307104 11.12097123 23.820936229946568 
Si 1.4410182870000001 10.854776339999999 25.72644547989982 
Si 0.183545946 8.283416129999999 29.382410135629993 
Si 2.69619048 10.428353009999999 29.351558113218765 
Si 3.07258722 9.9344565 27.088110187147816 
Si 1.506828258 10.924953659999998 32.61738617682489 
Si 3.0094308899999995 8.9632467 32.51509826359573 
Si 0.627169887 10.331932499999999 30.50464382331526 
Si 2.7062902799999997 16.291466099999997 2.676312864906447 
Si 1.485530712 12.317504309999999 1.3369520302360518 
Si 1.355964939 14.93338509 4.0709830243178615 
Si -0.00047832001199999997 13.575043439999998 8.144899406471243 
Si 2.7134253 13.575238919999999 5.429265742531965 
Si 1.3577421779999999 12.21696243 6.787686501114798 
Si -0.00542966877 16.2930951 10.859325217184129 
Si 4.08598812 14.936936309999998 12.247045044029973 
Si 1.3567957290000001 14.93305929 9.502871533855703 
Si 2.71557558 13.57395201 10.863811529167863 
Si 1.361268963 12.205657169999999 12.233413557617855 
Si 3.9246030899999997 12.27839202 15.043294283307754 
Si 2.16112914 13.35167496 16.33500703370166 
Si 0.0183870117 13.647126689999999 13.57930715273841 
Si 1.3167891179999998 15.0864948 14.991356594572972 
Si 1.6157774069999997 16.16112981 21.511934982194614 
Si 1.2323613059999998 15.17030685 19.413341766479835 
Si 3.08376216 14.83346223 17.938760037610447 
Si 2.6459846999999996 14.41865367 22.68527811640228 
Si 1.242399204 12.560257889999999 22.705432010236905 
Si 3.13911558 15.126568199999998 24.93585377808913 
Si 3.6344130299999997 12.505718969999998 29.798187726245697 
Si 0.549308574 12.9323052 26.333029370193 
Si 1.9591005599999998 14.6963493 26.93398811546042 
Si 4.0303089 14.066871119999998 28.01208339524417 
Si 3.19280742 13.28420178 34.467920849931296 
Si 0.186965217 14.113786319999999 30.93667566734896 
Si 2.4114738599999996 13.557271049999999 31.744384374882205 
Si 8.146075139999999 -0.0246436749 2.6920391139140483 
Si 5.414681969999999 2.71435383 2.6782971952069454 
Si 6.57900972 1.114934841 1.2957124700778706 
Si 5.43115116 -0.0017049439799999998 5.430439085666173 
Si 5.429733929999999 2.7152334899999997 8.144795876194694 
Si 6.787358819999999 1.357566246 6.787859051575712 
Si 8.1484209 2.7127737 10.85797932358901 
Si 4.07269548 1.356448752 9.501284069615304 
Si 6.77779659 1.346462982 12.227270761209354 
Si 7.417472309999999 3.67696251 14.935346714960646 
Si 5.60535642 2.8054963799999997 13.681457025598844 
Si 7.52464422 0.231072021 21.010192751952108 
Si 7.448130089999999 3.6661296599999997 19.814107466996123 
Si 5.39202258 3.14993214 18.702226806965626 
Si 6.0759582299999995 1.3077726029999999 17.475427539967146 
Si 6.158646269999999 0.5497500329999999 24.255073189603408 
Si 4.09729338 0.9554850629999999 25.17473263617694 
Si 8.070147449999999 2.4387759 21.74246239797424 
Si 7.01510931 2.73715983 23.84771606148025 
Si 4.25517606 2.40126003 26.958731851555328 
Si 6.542748179999999 2.4366093299999996 27.580534692501026 
Si 6.893748809999999 0.400540149 28.737554553106335 
Si 7.05078441 1.8886626 32.47444537500465 
Si 4.7320821 0.8958457439999999 33.02170641683598 
Si 6.79042134 4.071571469999999 4.069430070169646 
Si 4.07192985 6.7869027 4.070396352750757 
Si 4.91066937 5.95860507 0.11905981802989549 
Si 6.761490299999999 6.7737729600000005 1.368984297799921 
Si 8.13139785 5.43041811 2.71673798688912 
Si 4.07176695 4.0725814499999995 6.787824541483529 
Si 5.42966877 5.43085794 5.430024964559982 
Si 6.78760317 6.787652039999999 6.787410420377338 
Si 6.78784752 4.0729887 9.503251144869711 
Si 5.42481435 5.431444379999999 10.861499352991633 
Si 6.7792952699999995 6.80392575 12.222439348303793 
Si 8.14871412 8.14050396 10.862086024558735 
Si 8.10513837 5.36213043 13.501003753576141 
Si 4.52282076 4.8448089 17.04622552349242 
Si 4.40717805 6.56487 15.166598842676105 
Si 6.64864947 6.00657912 16.99073329526283 
Si 7.671270509999999 5.830305029999999 20.758717710217656 
Si 8.104503059999999 7.72805745 19.380936789920398 
Si 4.22976366 6.79091004 18.314643961663087 
Si 5.79570507 6.17197149 22.164969456565547 
Si 6.42472713 5.09251464 24.16489831873033 
Si 5.9711972399999995 6.43722156 26.09960310667004 
Si 6.816648239999999 4.274137619999999 29.04673046897005 
Si 7.64268156 5.96036439 27.683305747020743 
Si 4.94745219 4.800206879999999 30.42848004986831 
Si 5.80029885 5.751282239999999 32.47234025938152 
Si 7.65867834 4.25278143 32.411257396218346 
Si 6.62168952 8.11914777 32.74186407932745 
Si 8.12408364 10.856535659999999 2.7121688506841464 
Si 5.4380092499999995 8.16086646 2.721634968969828 
Si 6.786414 9.50490549 4.075469336301597 
Si 4.8540942000000005 11.371755779999999 0.20774040191146723 
Si 6.856118909999999 12.19405869 1.2187963766213397 
Si 4.07269548 9.50246199 6.787341400192973 
Si 5.42957103 8.14496742 8.144761366102511 
Si 5.43133035 10.85888142 5.430266535205259 
Si 6.78626739 9.503292779999999 9.503216634777527 
Si 4.07253258 9.50467743 12.243317954074254 
Si 5.42991312 10.86052671 10.860843661240164 
Si 6.77675403 12.209420159999999 12.230928830980709 
Si 8.06574915 10.753305929999998 13.602118323671096 
Si 4.95095454 10.56409758 16.343116905364568 
Si 5.52053439 8.1681318 13.701852490078746 
Si 6.78001203 9.535840199999999 15.223402454408628 
Si 6.55393941 10.22554251 21.52515234750054 
Si 5.20703334 10.01934369 19.5986264514081 
Si 5.832324989999999 11.96730189 18.388978700224364 
Si 6.107414219999999 8.313275699999998 18.229714624801765 
Si 5.700522599999999 8.4908367 22.904106610932008 
Si 4.813059689999999 11.947232609999999 24.577190390035593 
Si 6.28943868 8.58188151 25.17518126737531 
Si 6.2925989399999995 10.19854998 29.996275655373694 
Si 5.27892111 10.430926829999999 26.310045648799402 
Si 6.7083523199999995 11.374411049999999 27.988927123389658 
Si 4.27592952 8.94641913 30.229011717053005 
Si 7.90853436 8.84405277 30.972083021928285 
Si 5.23726758 11.75084037 31.37343539401167 
Si 5.064007139999999 9.98050833 32.87552166635058 
Si 4.27456116 15.07680225 1.2786092683921846 
Si 5.455276649999999 13.581070739999998 2.698123243165837 
Si 6.7925716199999995 14.92729263 4.074779134457945 
Si 4.0728909600000005 14.93229366 6.787997091944442 
Si 5.42957103 13.574815379999999 8.144933916563424 
Si 6.7882059 12.21748371 6.788031602036625 
Si 8.14521177 13.574587320000001 10.864122119997507 
Si 4.0728258 12.215919869999999 9.501974271458955 
Si 6.78708189 14.933205899999999 9.502871533855703 
Si 5.42755107 16.291466099999997 10.859463257552859 
Si 5.5131876 13.59281583 13.736880233644065 
Si 7.492748399999999 14.39490285 14.995670356095795 
Si 8.11481463 16.25207688 13.625585186355249 
Si 6.75536526 15.84101502 18.844857017956222 
Si 5.07470967 14.14095804 19.20559101154072 
Si 5.50193121 16.191233729999997 22.1105815512858 
Si 6.122352149999999 12.330438569999998 22.644349147073743 
Si 8.02350918 13.45511646 23.51855880224282 
Si 4.76484129 14.024305349999999 21.606009493484322 
Si 7.11288189 14.880247109999999 25.26739223368716 
Si 4.98614094 13.92728211 25.79995197624871 
Si 4.66899093 15.99643791 29.244473297176228 
Si 6.8277906 13.482662849999999 29.183286903736512 
Si 6.2855453699999995 13.77440046 31.496222301997285 
Si 4.434138 15.278716799999998 31.485869274342512 
Si 8.446202099999999 2.33429184 0.11173919217520513 
Si 9.503227619999999 1.3585436459999998 4.067808095837065 
Si 10.36610892 0.65754585 0.048893208402433434 
Si 10.853261369999998 2.74488129 2.703672465988795 
Si 8.145374669999999 -3.0848373e-05 8.1445888156416 
Si 8.1445113 2.71415835 5.430473595758355 
Si 10.86108057 -0.00159969429 5.431025757233276 
Si 10.859679629999999 2.71484253 8.144692345918147 
Si 9.50164749 1.3566507479999999 9.501560150352764 
Si 8.62765641 1.1849345999999998 17.085498008396193 
Si 8.94055473 1.8143150399999999 14.84289417800352 
Si 10.81271556 2.6726025599999996 13.670655366745697 
Si 11.29862997 2.59717986 19.907422756257812 
Si 9.393188669999999 2.99667582 18.544550195783426 
Si 11.86825869 1.9842034499999999 22.929471528686204 
Si 10.259914409999999 3.3423170399999997 21.870667390432516 
Si 8.201949840000001 2.56867236 25.85534067420175 
Si 9.91062423 2.41789212 29.96245576503477 
Si 9.75327912 0.783672804 26.357876636564455 
Si 11.22864813 4.04729937 26.605210467236994 
Si 10.968969239999998 2.09614833 27.89606046532634 
Si 8.33153679 0.7854011729999999 30.630605659781672 
Si 11.8529298 2.93324256 31.383132729914976 
Si 11.940618869999998 1.054769355 32.77948007980646 
Si 9.49786821 4.21427187 1.2456176202656397 
Si 9.50321133 6.78781494 4.070810473856948 
Si 9.502413119999998 4.07264661 6.787513950653886 
Si 8.145439829999999 5.429701349999999 8.145071956932155 
Si 10.86132492 5.42940813 5.429714373730339 
Si 9.51212196 4.06383372 12.207634518757468 
Si 10.858083209999998 5.43292677 10.858462464879564 
Si 9.50304843 6.7859253 9.502146821919867 
Si 10.05200514 5.95762767 14.76514294031617 
Si 10.93977756 8.11575945 13.836027728484611 
Si 11.938729229999998 4.40496261 15.013063442555813 
Si 9.20984472 4.937596739999999 16.823842489467886 
Si 10.97908533 7.33339962 21.44895406396141 
Si 11.75059602 6.665672519999999 19.34080155271206 
Si 9.821240999999999 7.100322299999999 17.86829042937362 
Si 9.55773396 5.6109276 22.17373501997992 
Si 8.64261063 5.9832844199999995 24.294449204783728 
Si 9.08125146 4.72892184 26.193643107867565 
Si 10.40070888 6.19318107 29.874075418955186 
Si 8.66092059 7.60216833 29.09825403659864 
Si 11.56096413 8.05268457 26.982647345437858 
Si 11.765647979999999 5.89398264 27.899615004821147 
Si 8.82082323 4.411608929999999 30.304174697826664 
Si 11.26736946 7.060542119999999 31.94454290954116 
Si 8.236794149999998 7.89439464 34.416569832763614 
Si 10.95932556 5.649420869999999 34.23635813138619 
Si 9.437823269999999 9.500767830000001 1.323475839238755 
Si 10.85686146 8.154676259999999 2.7001144754847717 
Si 10.5699294 11.21423148 0.12229410386924675 
Si 8.14392486 8.146238039999998 5.430128494836529 
Si 9.502413119999998 9.502478279999998 6.787582970838251 
Si 10.860380099999999 8.144332109999999 8.14541705785398 
Si 8.14506516 10.86011946 8.14486489637906 
Si 10.86248151 10.85979366 5.4295763333616085 
Si 12.21694614 9.50172894 9.50190525127459 
Si 9.519077789999999 9.4885992 12.249495260574935 
Si 10.864501469999999 10.85992398 10.862465635572743 
Si 9.15512661 10.97812422 16.56667328252331 
Si 11.152557539999998 9.68837976 16.621958450199802 
Si 11.798618939999999 12.160387259999998 16.96888840691126 
Si 10.44451269 9.67681386 21.564079731482487 
Si 11.99574423 11.48122458 21.19254407904485 
Si 8.51310513 9.92733777 20.25804529283281 
Si 8.29055115 11.77854966 18.68269409479029 
Si 9.269400959999999 11.86034175 24.824006569325395 
Si 12.07079226 8.6889231 24.743736094908716 
Si 10.07492517 9.79314075 23.902897698880192 
Si 8.59854618 8.263868129999999 24.981061998848308 
Si 10.368813059999999 12.08688678 28.530286939457767 
Si 11.407903289999998 10.67037354 30.1341434736431 
Si 9.34871697 8.77286547 27.15347230174162 
Si 8.856644939999999 11.07799821 27.06730060156172 
Si 12.04878447 10.1392218 33.126755137439744 
Si 10.259327970000001 9.17268723 31.579046523235473 
Si 9.49969269 12.219357059999998 4.06922300961655 
Si 9.659660489999998 14.92146081 1.1972482750625377 
Si 10.8810684 13.590763289999998 2.716310061746056 
Si 8.142035219999999 13.57740549 5.43054261594272 
Si 9.502250219999999 14.9320656 6.787893561667894 
Si 10.86026607 13.57499457 8.144830386286877 
Si 9.502168769999999 12.21746742 9.502871533855703 
Si 9.51751395 14.94006399 12.23631240536119 
Si 10.85982624 16.2906516 10.860567580502702 
Si 10.81278072 13.484682809999999 13.69281084592691 
Si 8.99307369 12.51329382 14.816114346469838 
Si 8.584667099999999 15.11154882 17.556284685950928 
Si 11.756232359999998 13.069369259999998 19.399537729606806 
Si 9.488908709999999 13.794551189999998 19.562494384892943 
Si 11.11346154 16.00852509 22.604973131893416 
Si 12.20482638 12.78953964 23.166176250966508 
Si 9.08579637 14.85553518 21.75840606056259 
Si 11.15628795 15.72177222 24.94831192136704 
Si 11.02075515 13.35657825 25.119930609791005 
Si 9.11049201 13.96691568 28.974880457045924 
Si 12.061588409999999 12.79183653 27.12886660601544 
Si 8.31060414 15.437479139999999 27.274430174841555 
Si 8.8443297 13.01616612 34.49525284293989 
Si 9.71358039 15.130966499999998 30.9118284009775 
Si 12.08266767 15.43096314 31.44676933989965 
Si 8.34983046 14.060713499999999 32.48776627058712 
Si 16.27866216 2.7125782199999997 2.7076721856727564 
Si 13.57220898 -0.026821973699999998 2.722332072831916 
Si 13.769155079999999 2.1653482499999996 -0.012420837868261437 
Si 12.20557572 1.3407842879999998 1.45061792085781 
Si 14.93577972 1.361808162 4.072156367452069 
Si 12.21595245 4.07122938 4.07270852892699 
Si 14.92753698 4.01411664 1.2499244797700253 
Si 13.57533666 -0.000210963645 8.145244507393068 
Si 13.57483167 2.7147122099999996 5.430301045297442 
Si 12.217304519999999 1.358037027 6.78744493046952 
Si 14.933010419999999 1.3567680359999998 9.501663680629314 
Si 13.57553214 2.7179865 10.864225650274056 
Si 12.215219399999999 1.341033525 12.246941513753423 
Si 16.26297489 2.71948518 13.722834626125755 
Si 14.83950582 1.330875081 15.132640911968448 
Si 13.506169319999998 4.05251217 17.196171874025723 
Si 13.950136979999998 0.5838531479999999 19.5697069941591 
Si 16.28384238 0.779338035 18.846271931735707 
Si 14.09526459 1.7470373399999999 17.383561674577123 
Si 12.650879159999999 3.25873305 24.847059310903358 
Si 15.916258529999999 0.7225983359999999 22.659775158279352 
Si 13.93673031 1.7804318399999999 21.64842239677671 
Si 13.20420159 1.73729592 28.419613073828238 
Si 13.68118908 3.4746895799999997 29.91144984878892 
Si 14.064557939999998 1.8216618299999998 26.233812855168086 
Si 15.53372046 0.421036227 34.05314405198889 
Si 12.67440192 4.05821367 33.395036594067115 
Si 15.68652066 3.4589860199999998 31.072507390179588 
Si 13.5733167 5.4397522799999996 2.679895012474999 
Si 12.26777094 6.97454721 1.2042986868954384 
Si 14.93221221 6.78512709 4.06815319675889 
Si 12.21712533 6.78760317 6.787479440561703 
Si 14.932863809999999 4.072060169999999 6.787651991022616 
Si 13.57509231 5.43004344 8.14514097711652 
Si 12.21609906 4.073021279999999 9.501629170537129 
Si 14.933140739999999 6.788808629999999 9.502491922841694 
Si 14.934232169999998 4.06212327 12.233689638355314 
Si 12.19549221 6.80900823 12.212534951847394 
Si 15.268584419999998 5.66119854 16.47270230151015 
Si 13.515601229999998 5.45255622 13.529405559442402 
Si 14.613384329999999 7.122835079999999 14.771596327554313 
Si 15.545644739999998 7.492650659999999 18.016614805574342 
Si 14.18798727 4.096234529999999 21.32468322201194 
Si 12.6716652 4.467907169999999 19.53033097897878 
Si 12.715534169999998 7.25471892 22.962739257550208 
Si 13.50022347 5.03994681 23.422034074408145 
Si 15.44195889 5.73689817 24.492640664188276 
Si 15.61078845 5.66230626 26.86265575491903 
Si 14.24747835 7.6670025299999995 29.57328545549183 
Si 13.935117599999998 5.53280076 28.60821072760603 
Si 13.71614742 7.205132159999999 31.98454010638077 
Si 14.868860399999999 5.068128509999999 32.60520411428444 
Si 13.591789559999999 10.837460069999999 2.705632639224766 
Si 12.233268719999998 12.198098609999999 1.414931034531806 
Si 14.9315769 12.216685499999999 4.069257519708732 
Si 12.21808644 9.502152480000001 4.074088932614293 
Si 15.02509779 9.552553739999999 1.171886808317561 
Si 13.57346331 8.14493484 5.430128494836529 
Si 14.93242398 9.50246199 6.787582970838251 
Si 13.575222629999999 10.860217200000001 8.145244507393068 
Si 13.57246962 8.14340358 10.862707206218023 
Si 14.94092736 9.52401366 12.23631240536119 
Si 12.219764309999999 12.196225259999999 12.253912552374306 
Si 12.89649978 8.929086569999999 15.176330688671593 
Si 13.75004691 10.829657159999998 13.890174063119078 
Si 13.45040865 8.30508183 19.088360228396496 
Si 14.06898882 8.5144572 21.38462725213308 
Si 14.254939169999998 10.839854699999998 21.651528305073143 
Si 14.175867509999998 11.7455787 23.806441991229885 
Si 13.908630059999998 10.019702070000001 25.25469251976397 
Si 16.076014559999997 9.19981008 25.33296140883406 
Si 15.493875119999998 12.145775129999999 30.029715934698615 
Si 13.5697329 10.98840321 27.292375422776495 
Si 12.71616948 9.28370358 28.667982207266256 
Si 13.35841902 11.65707513 31.11668030817329 
Si 16.15700844 11.282372549999998 34.405112482159 
Si 13.46821362 8.43742179 34.10649665450315 
Si 12.216620339999999 14.932407689999998 4.076746209712352 
Si 14.827157999999999 14.82544755 1.3419042284642517 
Si 16.3058013 13.58491518 2.705563619040401 
Si 16.290325799999998 16.2896742 5.430715166403633 
Si 13.574799089999999 13.5765747 5.4311983076941885 
Si 12.21776064 12.21763032 6.787651991022616 
Si 14.932375109999999 14.93270091 6.787582970838251 
Si 12.216652919999998 14.932994129999999 9.502112311827686 
Si 14.93315703 12.2170113 9.502388392565146 
Si 13.575923099999999 13.576981949999999 10.861982494282188 
Si 14.919929549999999 14.94679176 12.23120491171817 
Si 12.69095256 13.96572651 15.28296687351576 
Si 14.756394239999999 12.65148189 15.158799561842843 
Si 13.44602664 16.13819349 13.788507331549201 
Si 15.871395869999999 13.437327779999999 19.291555651167517 
Si 13.695540569999999 14.484481559999999 19.88564688809061 
Si 14.76921447 15.27063696 23.72982958658456 
Si 15.88610574 13.26411621 24.22183997083158 
Si 13.08049533 14.714887319999999 22.18391549717378 
Si 13.46837652 15.89615667 25.64027377971992 
Si 15.9879834 16.152235469999997 29.86644868858284 
Si 13.59336969 15.971937749999999 29.533046688006944 
Si 13.58776593 14.524734149999999 27.636510062021166 
Si 15.10244271 12.6796473 27.821208075382327 
Si 14.10508746 12.977477369999999 34.50881530916765 
Si 12.98594817 13.50449145 32.50177736801325 
Si 15.17403726 14.597452709999999 32.876280888378595 
