&CONTROL
  dt          = 30.D0,
  prefix = 'x2.00_y.66_z3.17_struc13-scf',
  pseudo_dir = './',
  outdir='./',
  wf_collect= .true.,
  verbosity= 'high',
/

&SYSTEM
ibrav= 6, celldm(1) =30.783621515, celldm(3) =2.1163055416155427, nat=  432, ntyp= 1,
  ecutwfc     = 12.D0, nbnd= 1728,
  degauss     = 0.05D0,
  occupations = "smearing",
  smearing    = "methfessel-paxton",
/
&ELECTRONS
  electron_maxstep=200,
  conv_thr    = 1.D-8,
  mixing_beta = 0.3D0,
  scf_must_converge=.false.,
/
ATOMIC_SPECIES
Si  28.08  Si.pbe-hgh.UPF
K_POINTS {automatic}
1 1 1 0 0 0
ATOMIC_POSITIONS (angstrom)
Si 0.0021822084 2.7094668299999998 2.695753040040941 
Si 2.73636162 0.00307975482 2.6925710328666512 
Si 1.492484913 1.4459443829999998 1.2784153374081333 
Si -0.001602872469 0.000276276771 5.430062492039913 
Si 0.000188193483 2.71458189 8.145214399220325 
Si 2.71448415 0.000516629205 8.145179924603053 
Si 2.7162434699999998 2.71334385 5.430200390509004 
Si 1.3576183739999999 1.357463619 6.787603971012846 
Si 2.71396287 2.7155267100000002 10.861538443388016 
Si 1.348970013 1.3609969199999998 12.228939662901004 
Si 4.07194614 1.3574913119999998 9.501307944267795 
Si 2.7369806399999996 0.1246336497 13.677735453795348 
Si 4.0583276999999995 1.547905122 17.156500133570876 
Si 1.7482102199999998 3.69304074 15.123945648394223 
Si 3.5974184399999998 2.0944541699999997 14.905273151032109 
Si 2.08787301 1.197248211 18.57423429430232 
Si 0.21118518899999997 2.3308057799999995 17.678273465996476 
Si 2.93747796 3.3639990299999996 22.13435907084193 
Si 0.7860853529999999 2.6121177899999997 22.67095648869489 
Si 4.033469159999999 1.329868359 21.725593533836953 
Si 0.879642081 2.00161746 24.968655255317547 
Si 2.59512732 0.9879070499999999 29.70939777498548 
Si 2.94241383 1.81607436 26.17337075591964 
Si 2.18844747 2.74761801 28.1916527495453 
Si 2.68115481 3.0448290599999996 34.46179271529166 
Si 1.577561067 1.2187933649999998 31.832517079738086 
Si 3.4411973399999995 2.75983551 32.30123397618067 
Si 1.35589815 4.0729887 4.067384295093316 
Si 2.7070233299999997 5.45227929 2.6939362277106587 
Si 1.453445928 6.9046305299999995 1.1554064555166377 
Si -0.000330392151 5.429522159999999 5.430407238212642 
Si 2.7152660699999998 5.4297990899999995 8.144869653047595 
Si 1.3571899469999997 6.78770091 6.787121326371025 
Si 1.358421471 4.07207646 9.50172163967507 
Si 1.351692072 6.785420309999999 12.244108494501086 
Si 2.7447835499999997 5.445111689999999 13.676390943721703 
Si 0.7607185649999999 6.61116618 17.977133923135398 
Si 3.77066259 6.326074889999999 20.313237413400085 
Si 2.71080261 4.27798206 19.948771759590805 
Si 0.513708408 4.59518094 19.10479865413252 
Si 2.6103096 7.69008546 18.873163700675786 
Si 0.90569142 6.67927467 23.229169491577963 
Si 3.78364572 5.07166344 23.78872700453468 
Si 3.26249604 6.9605215199999995 22.510442670672187 
Si 0.733932918 6.03407664 25.55724039601806 
Si 2.7109818 6.06447378 29.596010758774856 
Si 0.358981101 5.7531230099999995 29.186831526362603 
Si 3.02731731 5.871828239999999 25.954732733174797 
Si 3.59078841 4.651267409999999 27.95384683959672 
Si 2.84190453 5.0472936 31.74570999344488 
Si 0.60295806 4.64194953 32.70465594750834 
Si 3.0494879999999998 7.920800729999999 34.00579695262278 
Si 1.354451598 9.50479146 4.070900706055153 
Si 2.71217097 10.85200704 2.6788432402685753 
Si 1.236806847 12.16398735 1.1987031273496942 
Si -3.84188247e-05 8.14506516 8.145007551516688 
Si 2.7152009099999996 8.145798209999999 5.430096966657186 
Si 0.000330481746 10.86039639 5.43085540823719 
Si 2.71542897 10.86002172 8.14490412766487 
Si 4.0832514 9.4972329 12.243039781365626 
Si 1.3586772239999998 9.50544306 9.502583505106893 
Si 2.7152171999999997 8.14550499 10.865158278201672 
Si -0.00204908652 10.86042897 10.859952610993462 
Si 1.3679136539999999 12.22616628 12.21259869431364 
Si 2.75346612 9.789866459999999 16.503723255508188 
Si 1.001048193 9.98195814 14.773924859222296 
Si 2.7396847799999997 10.90509615 13.571346784891126 
Si 1.3158133469999997 10.84462767 18.040808541238473 
Si 0.306488205 10.24603533 21.301590215997347 
Si 4.00934367 10.50514407 20.92971251947439 
Si 2.08930653 9.71654517 19.888406704745922 
Si 1.3010969609999998 11.94856839 22.503340899513965 
Si 1.64287908 10.871962289999999 24.529241783556945 
Si 3.80089683 9.91085229 24.693306487158758 
Si 3.8444399999999996 8.181522179999998 26.280655764872954 
Si 3.1672158299999995 8.36108685 29.899146068455618 
Si 0.256678272 9.18340605 27.560181184957276 
Si 2.67486687 11.93916906 27.83366832378333 
Si 2.5912014299999995 9.48332124 27.8904824930491 
Si 3.71457612 11.09415789 32.34887789725184 
Si 2.16837819 9.096824699999999 32.00454541992995 
Si 0.5381808749999999 15.687889019999998 -0.0008603485486629212 
Si 4.0512741299999995 14.835188969999999 1.2029469527359904 
Si 1.358926461 14.93361315 4.067901414352409 
Si -0.00014465748059999998 13.574342969999998 8.144490432257594 
Si 2.7162434699999998 13.57450587 5.430131441274459 
Si 1.3574896829999998 12.21743484 6.787672920247392 
Si 1.357577649 14.931283679999998 9.502031911230526 
Si 2.7120732299999997 13.57409862 10.85933206788255 
Si 2.7016639199999997 13.982602949999999 16.36086044152922 
Si 3.9682928699999995 12.409298459999999 14.81488070454252 
Si 0.1489077045 13.675292099999998 13.619059655196843 
Si 1.180855584 15.28769259 15.046825929554707 
Si 0.0837856602 15.40012617 21.19837321188223 
Si 2.33196237 16.20379332 20.607754068762617 
Si 3.1382847899999997 14.103784259999998 19.894991356645054 
Si 1.509265242 13.217803739999999 18.423752589906037 
Si 3.41282016 12.60997497 21.740865789288858 
Si 3.4973815499999996 15.202984589999998 24.470945205748443 
Si 1.177776774 14.721044939999999 24.697650288935144 
Si 1.353296637 12.713269859999999 25.967867562355778 
Si 1.8831728699999999 13.18053222 29.68743744378263 
Si 3.3638524199999997 15.81700356 26.71631150335081 
Si 1.8280638 15.330600449999999 28.53774343234812 
Si 2.2256212499999997 13.932332009999998 34.30472635899625 
Si 3.1527503099999996 13.41496161 31.921392643067666 
Si 8.13890754 0.021894411599999997 2.687286074038713 
Si 4.07408013 1.355870457 4.075934000176999 
Si 5.41520325 2.70321147 2.713738447872222 
Si 6.5944037699999996 1.29498984 1.222111392478005 
Si 5.42991312 0.0027836351999999997 5.429752220484457 
Si 5.429294099999999 2.715543 8.145076500751234 
Si 6.787521719999999 1.3574961989999998 6.787259224840117 
Si 6.784719839999999 1.362389715 12.244729037612 
Si 5.48090082 2.9287139399999997 13.597650917870363 
Si 7.671205349999999 2.9679402599999998 21.358266486794022 
Si 6.0228202500000005 1.5055820729999998 20.446412859925363 
Si 5.880527099999999 2.70138699 18.37697053426669 
Si 5.024226959999999 0.640794843 23.74553030909172 
Si 5.146027289999999 2.3610726 25.320158453032214 
Si 6.64829109 2.15800146 27.13772922489495 
Si 6.41853693 0.32042755799999995 28.571528557275577 
Si 5.84652987 2.4901382699999997 31.586471736261277 
Si 4.89814236 0.735162813 30.27319566586677 
Si 7.62878619 3.11235111 34.41497618503504 
Si 4.17247173 4.17017484 1.3922332863346694 
Si 6.788906369999999 4.07240226 4.069004602105142 
Si 4.06990989 6.787391399999999 4.070555959882424 
Si 5.88564216 5.068063349999999 0.04075416880917906 
Si 6.88407255 6.916619969999999 1.3045229650689136 
Si 4.0725814499999995 4.0723696799999995 6.787569496395573 
Si 5.4291312000000005 5.42996199 5.429614322015365 
Si 6.78776607 6.78713076 6.787707394864665 
Si 6.787358819999999 4.07248371 9.502100860465072 
Si 4.07463399 6.78776607 9.502031911230526 
Si 4.0539619799999995 4.095957599999999 12.20560034700724 
Si 5.426133839999999 5.430646169999999 10.859745763289823 
Si 6.786642059999999 6.81961302 12.226560914309173 
Si 6.340572989999999 4.82205177 15.029071501659155 
Si 4.5183573 6.573177899999999 14.971188619257928 
Si 4.112899199999999 7.851177269999999 17.090308868406876 
Si 6.629036309999999 4.95940905 17.7114725224303 
Si 7.452121139999999 6.733471499999999 21.388155979969643 
Si 6.00716556 6.572868389999999 19.565724287071422 
Si 7.519789799999999 4.81757202 22.791927920705554 
Si 5.9198837399999995 4.484913929999999 24.496421947913127 
Si 6.20215686 7.86862386 26.431344316972876 
Si 6.72734646 5.58935964 26.444237823832946 
Si 5.908399289999999 4.19066766 28.143009064573214 
Si 6.52285809 6.55257105 31.49921647994352 
Si 4.585830479999999 6.29615016 32.94166894125965 
Si 6.6919319999999995 4.37981085 30.358658242086328 
Si 8.151027299999999 10.85572116 2.6930743622788356 
Si 4.10928282 9.44533296 1.2006543906873415 
Si 5.42852847 8.146303199999998 2.704406168976443 
Si 6.7870167299999995 9.503439389999999 4.07062490911697 
Si 4.073086439999999 12.220660259999999 4.068970127487869 
Si 6.75042939 12.231069569999999 1.3051159284860079 
Si 4.07223936 9.50283666 6.787431597926481 
Si 5.42989683 8.14508145 8.145076500751234 
Si 5.42988054 10.860103169999999 5.430441712829915 
Si 6.788629439999999 9.50239683 9.501790588909616 
Si 5.431444379999999 10.85788773 10.861193697215286 
Si 6.80803083 12.20147064 12.228629391345546 
Si 7.897913279999999 8.350221419999999 16.891562699828505 
Si 5.56643961 8.275108229999999 13.732653519111105 
Si 6.86294442 9.64641672 15.16086796349352 
Si 5.02849494 10.85896287 16.238854771000366 
Si 7.74236007 10.71232029 21.1182197267227 
Si 5.86941732 10.68724998 19.57610114687057 
Si 6.11956656 8.63772363 18.401171715592277 
Si 7.6411503 8.79119172 24.74284651217994 
Si 6.935418629999999 8.78736357 22.47689886806564 
Si 4.5353477700000004 8.99867745 22.665681872252133 
Si 5.2480515599999995 11.72132289 25.307575217727596 
Si 7.51190544 11.023996859999999 25.51986991089422 
Si 7.0839997199999996 8.74878885 28.435112496726642 
Si 6.43055895 12.18814542 29.297253725487757 
Si 7.7923703699999995 10.932561089999998 27.871486978931717 
Si 8.0202186 8.443090709999998 34.234949733635865 
Si 5.23194075 11.05037037 34.28504135253341 
Si 7.179507989999999 10.621927079999999 32.96094025231521 
Si 5.562448559999999 8.49577257 30.239376066322034 
Si 5.73466644 10.66649652 31.07035224106843 
Si 5.42237085 13.567989869999998 2.707829498471644 
Si 6.78708189 14.93165835 4.066694802747857 
Si 4.07267919 14.93229366 6.7875350217783 
Si 5.430190049999999 13.574587320000001 8.144973076899415 
Si 6.787440269999999 12.21736968 6.78729369945739 
Si 4.07287467 12.22007382 9.50113557118143 
Si 6.78815703 14.934183299999999 9.503514319773261 
Si 4.0723370999999995 14.94503244 12.237075672577411 
Si 5.426084969999999 16.291629 10.86298637731348 
Si 4.68409176 15.554506499999999 16.66716741599909 
Si 5.471306009999999 13.57101981 13.523220219178134 
Si 6.71323932 14.74963389 15.092366898972232 
Si 8.018231219999999 16.27416612 13.782779612625927 
Si 6.47574741 15.44521689 20.18378522554028 
Si 5.055520049999999 14.44310496 18.635978333838118 
Si 5.853078449999999 12.33612378 17.955035693463458 
Si 6.4583822699999995 14.35834809 22.286150810694586 
Si 4.70021886 13.36469067 23.58270669171173 
Si 7.25357862 16.04763738 23.676615549163156 
Si 8.12054871 12.74684355 22.22968138760155 
Si 7.312874219999999 14.706058139999998 25.61546802459202 
Si 5.491701089999999 14.94503244 27.167239497280566 
Si 4.8879122399999995 12.67462998 27.515984725613396 
Si 7.75708623 14.026879169999999 34.446348086753396 
Si 5.15462841 15.03806463 31.68899924803093 
Si 7.234568189999999 14.003796239999998 30.657346326138885 
Si 5.7554199 15.66057069 34.13173272952075 
Si 9.49848723 1.3592734379999998 4.0706938583515155 
Si 10.85969592 2.70954828 2.693543217073747 
Si 9.453754889999999 4.02382548 1.2304025379321417 
Si 8.1456516 0.0005923337219999999 8.144387008405776 
Si 8.146987379999999 2.71581993 5.4310277813235555 
Si 10.86081993 0.001374133176 5.429890118953549 
Si 10.85894658 2.71485882 8.145007551516688 
Si 9.503862929999999 1.3574017170000001 9.500480553453245 
Si 8.14789962 2.71432125 10.860848951042557 
Si 9.274108769999998 1.3296582179999998 15.438905751799595 
Si 10.6468182 2.78622531 13.99328162569436 
Si 12.10452885 2.33878788 21.345476403785767 
Si 11.62692234 0.39441999599999994 20.12745370091633 
Si 9.33390936 3.0600602099999996 19.782155934310797 
Si 9.651401459999999 0.817443603 18.853168422657493 
Si 8.19212697 2.2898853 17.661691175088205 
Si 9.96664554 2.5968866399999997 22.295493431975547 
Si 9.575750699999999 0.491922162 23.43367292124091 
Si 10.077775919999999 3.97063863 25.667766018995035 
Si 10.07196039 0.38771991899999997 25.810490934504912 
Si 10.441613069999999 0.46917154799999994 29.93510309427127 
Si 10.16282601 2.57518836 28.919067174003853 
Si 9.01674306 2.2422533399999995 26.810289310036783 
Si 10.79608347 1.259521623 32.25465876824496 
Si 11.88500481 3.48078204 32.76091852289775 
Si 8.5382406 2.29187268 32.365115441987385 
Si 10.87300485 8.135226 2.676781658155655 
Si 12.12997383 6.61533642 1.0564091445557287 
Si 8.15975874 5.435565749999999 2.6966700648604007 
Si 9.50239683 6.7849479 4.071728096869704 
Si 9.50272263 4.07284209 6.787810818716484 
Si 8.14491855 5.4300760200000004 8.144835178430322 
Si 10.860168329999999 5.43051585 5.430200390509004 
Si 8.14166055 8.14372938 10.860676577956193 
Si 9.50229909 6.786576899999999 9.500859774243247 
Si 9.494300699999998 4.05803448 12.245590903043823 
Si 10.86088509 5.43072762 10.861676341857107 
Si 9.98932122 6.48436482 14.978738560440696 
Si 8.69139918 6.043704029999999 16.996020790165446 
Si 8.18015382 5.5287934199999995 13.60354607742403 
Si 11.69141445 4.64168889 15.063856390487528 
Si 9.47677266 7.07481216 20.21157176706225 
Si 11.04064524 6.668816489999999 23.70833219705424 
Si 10.865641769999998 8.06785056 21.8017824380101 
Si 9.66409137 7.70251473 25.369732952670667 
Si 9.77740461 4.62580614 23.469181777032013 
Si 9.06817059 5.802139619999999 26.64422507863314 
Si 12.138281730000001 5.91809184 28.683088418770737 
Si 9.77601996 6.01061904 28.8446709499289 
Si 8.77019391 6.853284449999999 32.64860021982258 
Si 9.06269715 4.14989379 30.284262018011376 
Si 10.5453315 5.26792536 33.98445716453085 
Si 9.55395468 9.530904329999998 1.2454541558334973 
Si 8.14486968 8.14410405 5.43002801742264 
Si 9.502022160000001 9.50269005 6.787603971012846 
Si 10.8598914 8.14459275 8.144938602282142 
Si 8.14493484 10.859809949999999 8.145765993096692 
Si 10.858588199999998 10.85919093 5.430165915891732 
Si 9.49027707 9.52800471 12.24297083213108 
Si 10.85502069 10.859174639999999 10.866089092868041 
Si 10.91630367 8.263802969999999 13.619680198307757 
Si 8.20369287 11.12559759 13.887685872987413 
Si 9.22878999 11.081207339999999 19.225873509995 
Si 9.61022034 8.813671919999999 18.53676038532666 
Si 12.05034831 8.752551839999999 18.06321704246587 
Si 11.059052939999999 10.93334301 24.18177211606321 
Si 10.19529198 10.3347018 22.060376542174254 
Si 10.834951409999999 9.585524699999999 26.163442066145038 
Si 11.51657388 11.07944802 29.941274050763123 
Si 9.3353103 8.30071611 29.030592560881743 
Si 10.10947626 10.931925779999998 28.002697372272443 
Si 10.16899992 8.35238799 31.222454252476545 
Si 10.84356882 11.02886757 34.38246662094668 
Si 11.44493046 10.11925026 32.25445192054132 
Si 12.216538889999999 14.9296221 4.070659383734243 
Si 9.50018139 12.220692839999998 4.070452536030605 
Si 9.538642079999999 15.07994622 1.1940731862499416 
Si 10.85122512 13.58253684 2.6868689311697103 
Si 8.144739359999999 13.57387056 5.430751984385371 
Si 9.502250219999999 14.93252172 6.787431597926481 
Si 10.85985882 13.575108599999998 8.144800703813049 
Si 9.503797769999998 12.21921045 9.501928487378708 
Si 8.147133989999999 13.570189019999999 10.862779529609842 
Si 9.50612724 14.94503244 12.248314397808382 
Si 10.85182785 16.2978192 10.85898732170982 
Si 10.831188419999998 13.80434148 15.811886636075286 
Si 8.45713269 13.047866459999998 15.613933383694196 
Si 11.365076879999998 14.045791859999998 13.523530490733588 
Si 11.080474289999998 16.11248787 16.408780159538573 
Si 9.84592035 13.78164951 20.990594693578362 
Si 11.20813902 12.22655724 19.82111225182919 
Si 8.60426397 14.93973819 19.316920974212778 
Si 8.18720739 12.83479326 17.94693415840432 
Si 10.837264589999998 13.17325059 24.871574733077015 
Si 11.0679147 15.402618539999999 22.094989057916262 
Si 8.497238669999998 12.91492377 24.53951521950427 
Si 10.70409384 13.131369 27.196611871197096 
Si 8.422402409999998 15.61404645 29.28311913240586 
Si 9.13368897 14.902857629999998 27.128248705144898 
Si 10.54485909 12.479769 32.363564084210104 
Si 8.21294559 12.78639567 32.49077542194717 
Si 11.276117189999999 16.07375025 34.27173415026607 
Si 12.271957469999998 1.334168919 1.3160271448528862 
Si 14.93183754 1.3562646749999998 4.0743481677824445 
Si 13.57532037 -3.40679286e-05 8.145007551516688 
Si 13.57496199 2.71458189 5.430889882854463 
Si 12.21735339 1.357714485 6.7875350217783 
Si 16.28978823 0.005172286769999999 10.861021324128922 
Si 14.93261946 1.3557759749999998 9.50196296199598 
Si 13.57874127 2.7150380100000002 10.867605976028049 
Si 12.19656735 1.367988588 12.25514037202842 
Si 14.923855439999999 4.06865556 12.268378625061219 
Si 16.255953899999998 2.56429035 13.793053048573254 
Si 15.88017618 0.8277046739999999 15.61041697273236 
Si 12.59446689 3.27960054 16.911971673254076 
Si 13.2939432 0.1165823172 18.466121894534453 
Si 13.326099659999999 3.70512792 19.81449312531279 
Si 14.702686109999998 1.80903708 19.330400549566487 
Si 13.681026179999998 0.18542744099999997 24.704855483945185 
Si 13.722858899999999 1.96708266 23.092063938683573 
Si 15.45049485 1.277328222 21.55232410742327 
Si 15.94634616 0.0513775197 25.61239978365473 
Si 16.049543309999997 3.8875270499999997 25.83386472501595 
Si 12.35441745 0.0193877064 28.559359017378235 
Si 14.388386849999998 2.82304071 29.377855380671836 
Si 14.44497831 0.514720017 29.53705916323817 
Si 12.35203911 3.4500102299999997 26.09301042305647 
Si 12.2754924 1.053436833 26.36163664084704 
Si 16.26250248 3.6522831599999996 28.19303173423622 
Si 12.358310759999998 3.6018819 28.4515913637831 
Si 13.5363384 2.79660204 34.44576201825976 
Si 13.993028549999998 3.71579787 31.47191258306337 
Si 15.44070456 0.49867436699999995 31.700996414841907 
Si 15.512168789999999 2.54135403 32.903333166852164 
Si 16.005153059999998 5.742860309999999 0.117448470871547 
Si 16.3036836 8.14622175 2.693646640925566 
Si 12.21890094 4.07627928 4.072003893807886 
Si 14.88376575 4.08966966 1.3721587166966498 
Si 13.54803462 5.43688524 2.70628158815609 
Si 14.93463942 6.78669093 4.0678324651178634 
Si 14.932538009999998 4.07276064 6.7875350217783 
Si 13.57489683 5.43045069 8.145214399220325 
Si 12.21764661 6.7870656 6.787224750222844 
Si 16.2906516 5.42852847 10.86667516136168 
Si 12.21600132 4.07155518 9.502755878193257 
Si 14.931674639999999 6.789443939999999 9.501204520415977 
Si 12.203050769999999 6.803176409999999 12.21401215362183 
Si 16.18838298 8.14065057 13.648363079878823 
Si 13.41735624 5.473928699999999 13.675666976758972 
Si 14.17187646 7.473786839999999 14.984151075352544 
Si 13.48564392 7.01242146 17.21814074925485 
Si 15.00123294 5.114603879999999 20.625508496658167 
Si 14.6220669 7.4724021899999995 20.589861742397968 
Si 15.238578239999999 8.0176122 18.378901112833972 
Si 12.289469219999999 5.15910816 18.161021531669135 
Si 15.92215551 4.67568612 22.71987597060516 
Si 13.26784662 6.4441611 24.585780155884528 
Si 14.148516599999999 4.1045424299999995 24.392412027600738 
Si 13.4322453 6.79134987 26.914057908028266 
Si 15.80442768 6.98345784 27.362193457958917 
Si 15.27944985 5.65570881 31.182739493378143 
Si 14.230210949999998 7.668061379999999 31.88857280742385 
Si 12.44104767 7.64509248 30.278366858457705 
Si 14.10342588 7.385543909999999 34.30014123489895 
Si 14.935128119999998 12.215561489999999 4.071279926845155 
Si 12.21714162 9.50384664 4.068970127487869 
Si 14.80648599 9.29220696 1.2584752187774781 
Si 13.572779129999999 10.85914206 2.6827457669438695 
Si 13.576069709999999 8.1464661 5.429717745867184 
Si 14.93276607 9.50255973 6.787672920247392 
Si 13.57621632 10.8598914 8.144180160702138 
Si 12.2202693 9.50226651 9.502652454341439 
Si 13.574717639999998 8.145244349999999 10.857401489315267 
Si 14.927504399999998 9.511910189999998 12.215184290609107 
Si 12.63017457 9.405552779999999 14.880589325064701 
Si 13.74607215 10.99309473 13.629160718057808 
Si 13.039297920000001 10.553883749999999 16.974370730518054 
Si 15.6397032 11.79418806 14.93433525339318 
Si 15.2655219 10.36410525 17.851025773151065 
Si 12.93373872 10.95976539 20.896341089954205 
Si 12.621638609999998 8.67558159 20.371430567356764 
Si 15.053165459999999 11.45753892 20.000587109351994 
Si 15.755313329999998 8.37108891 22.438425195189062 
Si 13.21944903 10.851045929999998 23.24437279779532 
Si 14.227816319999999 8.861645969999998 24.21662595412613 
Si 15.85171755 10.100842559999998 25.519835436276946 
Si 15.41786598 10.14396219 29.382233657065495 
Si 13.13482248 9.628188210000001 29.01949173411986 
Si 13.03325433 9.06683481 26.708072069822585 
Si 15.890846129999998 9.410504940000001 31.59029841877857 
Si 14.43598623 10.97170596 32.89474898715121 
Si 16.13496807 10.701373409999999 34.42287087239054 
Si 12.29512185 12.35884833 1.2339051590470702 
Si 15.0244299 14.98697919 1.4109185288965906 
Si 13.59001395 16.2935838 2.717747845861062 
Si 16.291466099999997 13.54821381 2.712717999200944 
Si 13.574733929999999 13.57435926 5.43061408591628 
Si 12.21764661 12.21746742 6.787431597926481 
Si 14.93274978 14.932114469999998 6.787328174074663 
Si 12.217793219999999 14.932049309999998 9.504238286735992 
Si 14.93183754 12.21784209 9.500515028070518 
Si 13.58074494 13.568999849999999 10.85567775845162 
Si 12.232128419999999 12.231509399999998 12.238385708033782 
Si 14.92626636 14.9244093 12.238592555737421 
Si 13.61822823 16.1663589 15.913483333178574 
Si 13.14177831 15.89728068 13.563589996004719 
Si 14.03647398 14.301838079999998 17.810173351682657 
Si 15.723140579999999 13.72012218 19.52600952797302 
Si 12.28179663 12.723206759999998 17.468460945273502 
Si 14.24211894 12.9363777 23.82661460891762 
Si 12.51832743 14.56246179 23.81541035830392 
Si 16.25673582 13.81269825 22.920897463923538 
Si 15.2586801 12.37580622 25.926670394714645 
Si 15.869734289999998 12.44775915 29.67616424393439 
Si 14.760580769999999 13.539661559999999 27.900618030527333 
Si 15.834873689999998 15.67855485 27.914821572843778 
Si 12.49631964 14.001939179999999 28.43462985208482 
Si 13.13311203 14.33042703 34.40632305609954 
Si 12.304846979999999 13.18452327 30.66720606667894 
Si 14.51981457 12.96350055 31.586402787026728 
Si 15.0679242 14.830660349999999 32.8928528832012 
