&CONTROL
  dt          = 30.D0,
  prefix = 'x2.00_y1.33_z3.18_struc7-scf',
  pseudo_dir = './',
  outdir='./',
  wf_collect= .true.,
  verbosity= 'high',
/

&SYSTEM
ibrav= 6, celldm(1) =30.783621515, celldm(3) =2.1265850812889053, nat=  432, ntyp= 1,
  ecutwfc     = 12.D0, nbnd= 1728,
  degauss     = 0.05D0,
  occupations = "smearing",
  smearing    = "methfessel-paxton",
/
&ELECTRONS
  electron_maxstep=200,
  conv_thr    = 1.D-8,
  mixing_beta = 0.3D0,
  scf_must_converge=.false.,
/
ATOMIC_SPECIES
Si  28.08  Si.pbe-hgh.UPF
K_POINTS {automatic}
1 1 1 0 0 0
ATOMIC_POSITIONS (angstrom)
Si 0.00283415049 2.71894761 2.734212056815876 
Si 2.71528236 0.01599862077 2.6884533452660597 
Si 1.362124188 1.476797643 1.2975395535811056 
Si 0.00041697187199999996 0.000758822409 5.430698898340851 
Si -0.000421054146 2.7150705900000003 8.14466266467231 
Si 2.7150380100000002 0.0001424415519 8.145286221949846 
Si 2.71388142 2.71578735 5.430802824553774 
Si 1.3575043439999999 1.357813854 6.7878020287549905 
Si 2.71943631 2.7094668299999998 10.865104498275942 
Si 1.353527955 1.340733789 12.220233030644552 
Si 1.357336557 4.07259774 9.503359330351262 
Si 2.7937024200000002 3.61274733 17.062259216920886 
Si 0.28966877999999996 2.94679584 13.564068247875573 
Si 2.3168126699999996 3.64519701 14.70296097322325 
Si 3.62051766 1.5628625999999999 14.558780673828645 
Si 3.19098294 0.9207694439999999 19.733474667670187 
Si 1.435812003 2.59781517 19.952273987943208 
Si 0.5637985289999999 3.3074075699999996 17.822929811372287 
Si 3.6021262499999995 1.405049967 17.406601402404398 
Si 0.519861141 1.287222768 23.10785487505372 
Si 1.91267406 2.8480458599999996 24.197244080979274 
Si 3.5465447699999997 4.04671293 22.931942438646754 
Si 3.0320739899999998 1.88089227 26.115514119104414 
Si 3.7623384 2.66932827 30.189594876024767 
Si 0.30122164799999995 2.60257185 28.12617456051774 
Si 0.14589128519999997 0.24251248799999997 28.206752017603723 
Si 2.65409712 3.19872069 28.089765743923863 
Si 2.2544708399999998 3.28056165 34.49304078486527 
Si 3.15819117 0.428593158 30.871142980371104 
Si 1.076957964 0.45170052299999996 32.60490934848768 
Si 2.74054815 3.82059144 32.029331339251414 
Si 3.97860444 4.17999771 1.2539667567097617 
Si 4.06976328 6.787407689999999 4.070997612603648 
Si 1.35843939 4.07100132 4.078237805437255 
Si 0.462719079 4.99563801 0.12227438581407185 
Si 2.7137673899999997 5.42670399 2.7451554870366244 
Si 1.355733621 6.725440529999999 1.4210627860537972 
Si 3.09552354 7.71704541 0.23951354661204427 
Si 0.0026008288199999997 5.42891943 5.430317835560135 
Si 2.715543 5.42981538 8.144766590885231 
Si 1.357646067 6.787375109999999 6.78804452325181 
Si 2.7141746399999995 8.14345245 5.430629614198903 
Si -0.0040593051 5.429277809999999 10.858903567571561 
Si 1.3434086069999998 6.80065146 12.233119881046953 
Si 3.7980297899999997 7.1465859 15.157603512688603 
Si 2.8807887599999997 5.599263959999999 13.52350238276479 
Si 1.579817232 7.89542091 18.18279164465224 
Si 0.70496604 6.13898424 21.33026628715479 
Si 2.4752655 4.51353546 20.826570575189976 
Si 3.74612985 7.3659307499999995 19.05597968562783 
Si 3.8364416099999996 4.97566647 18.876152695200776 
Si 1.83350466 7.876280159999999 22.525937366829176 
Si 2.78010027 7.40377242 24.665119891556767 
Si 0.299094174 4.48848144 24.77947336784259 
Si 1.405377396 6.11458182 26.040756529942097 
Si 1.66943178 6.495344279999999 29.726672881596585 
Si 2.79414225 5.56204131 27.87411885210949 
Si 0.6597270809999999 4.81299453 31.01927247585677 
Si 3.91906449 5.89953753 32.387946057976286 
Si 1.9712529 7.602999119999999 32.72283095808385 
Si -0.00586793493 8.15073408 2.695052659786644 
Si 1.35795069 9.50301585 4.0713093912424165 
Si 2.68482006 10.86622821 2.706172764569361 
Si 1.2748146749999998 12.18576708 1.2190787270316485 
Si -0.000260726337 8.14514661 8.145078369524 
Si -0.000567199881 10.85982624 5.430421761773059 
Si 2.71534752 10.859598179999999 8.144801232956207 
Si 4.0805472599999995 9.49653243 12.217877369818305 
Si 1.3579914149999999 9.50285295 9.502250784080086 
Si 2.71893132 8.14366422 10.859527124849096 
Si -0.00164950911 10.85951673 10.86351096301113 
Si 1.349633016 12.21153786 12.232496323769418 
Si 2.78985798 10.63113093 16.922235966043186 
Si 0.24677069399999998 8.160003089999998 13.934010923809014 
Si 2.179602 9.039206969999999 15.166229388361177 
Si 2.67371028 10.739573459999999 13.568467790889297 
Si 3.77207982 8.3510685 21.23146710073638 
Si 3.3812175599999996 10.7116524 20.864053295984057 
Si 1.1359473119999999 11.43266409 20.265680804046763 
Si 0.9032055659999999 10.14244722 18.2576185179565 
Si 3.5766324 12.03544296 22.756341780878554 
Si 0.557583894 9.657200699999999 23.42666585422925 
Si 2.1777286499999997 11.04618384 24.374576842296182 
Si 3.09464388 9.48459186 25.85337756804267 
Si 3.20302125 10.05536088 29.99445609022712 
Si 0.763844616 11.85594345 27.74809099790536 
Si 1.96778313 9.78173775 27.96231756480979 
Si 0.377475138 8.25417558 28.777480136903606 
Si 1.99353762 9.82583478 31.98013959846805 
Si -0.00383764707 13.58770077 2.6855364828900328 
Si 1.356149016 14.92960581 4.067845184144996 
Si -0.000722121039 13.57505973 8.145043727453025 
Si 2.71578735 13.575711329999999 5.430387119702084 
Si 1.357486425 12.217597739999999 6.787386323903299 
Si -0.0019353171599999998 16.2927693 10.860323892481503 
Si 1.357782903 14.93371089 9.503705751061002 
Si 2.71893132 13.57457103 10.861605649107547 
Si 2.43533871 16.01585559 13.647139934071696 
Si 3.0528111599999996 13.04677503 16.505665062578476 
Si 1.220207337 14.32352007 15.543931888192839 
Si 2.8927944899999996 14.8701636 20.031050057338533 
Si 0.809542953 13.768666379999999 19.659894908920993 
Si 0.7831091699999999 15.25014414 22.82999082376969 
Si 4.0614716699999995 15.263355329999998 24.128479570095493 
Si 2.88354177 14.30283177 22.336964869664932 
Si 1.455741189 12.787324199999999 25.72142591970196 
Si 3.66583644 12.33324045 29.777077094864037 
Si 1.607640552 13.33935972 29.384097441732756 
Si 3.5308412099999997 13.903400969999998 26.029359288591593 
Si 3.5212789799999995 16.001797319999998 27.078736902541944 
Si 2.18357676 15.619210379999998 28.987653581504052 
Si 2.88681606 13.35625245 34.610027058545136 
Si 0.21003837299999997 13.142218139999999 31.256847798597807 
Si 1.8461457 14.333114879999998 32.71396258791445 
Si 6.79068198 4.07269548 4.0709629705326735 
Si 4.07166921 1.359001395 4.069646571835655 
Si 5.42092104 2.7157221899999997 2.6724972073753452 
Si 6.701298749999999 1.237737006 1.1508269187982871 
Si 5.43056472 2.71497285 8.144558738459388 
Si 6.788043 1.3571133839999998 6.7878713128969395 
Si 4.07370546 1.358512695 9.501557942660604 
Si 6.765758279999999 1.377211986 12.18281959399242 
Si 7.32030246 3.6796829399999997 14.93741850957661 
Si 8.13403683 0.1021423725 13.471643202516416 
Si 5.07879846 0.329356107 16.008066355105118 
Si 5.50774674 2.74248666 13.595938953171835 
Si 5.32318104 1.302139521 20.8492264896071 
Si 6.89808195 2.28534039 19.290783642690933 
Si 6.78937878 0.6981079499999999 17.53342602424093 
Si 7.646086169999999 3.19878585 23.276284624130263 
Si 5.2139240099999995 1.78577496 25.229716364294216 
Si 5.39026326 2.58219306 22.913131794107766 
Si 6.41250963 3.38428008 26.515630038856383 
Si 5.923923659999999 0.00979560054 26.663586323987175 
Si 7.47518778 2.76276771 28.583484539448104 
Si 7.504965899999999 0.42819894 28.385609030043497 
Si 7.71618204 2.9754662400000003 32.080705530506144 
Si 6.076349189999999 3.47257188 30.346315605112032 
Si 4.74465798 5.99312358 0.007183137342712518 
Si 6.652200689999999 6.73928703 1.271412503652367 
Si 4.0720113 4.072548869999999 6.787732744613042 
Si 5.42950587 5.42903346 5.430213909347213 
Si 6.78757059 6.787456559999999 6.787559534258171 
Si 6.78895524 4.07381949 9.501904363370345 
Si 4.07245113 6.78812445 9.501315448163783 
Si 4.09776579 4.08090564 12.217184528398823 
Si 5.429245229999999 5.42947329 10.85963105106202 
Si 6.78263472 6.8087313 12.25348941877978 
Si 7.275830759999999 5.081502599999999 16.877513052415498 
Si 6.032235869999999 7.003070999999999 16.187754777248276 
Si 6.99847722 5.991690059999999 20.713775992097993 
Si 7.847756369999999 7.908355169999999 19.62792027741181 
Si 6.1716294 4.5355595399999995 18.999617036152813 
Si 5.62674519 7.20698922 22.335821681322784 
Si 4.50089442 5.953050179999999 24.00411453529813 
Si 7.839399599999999 7.04747754 25.4254787073694 
Si 5.96401335 5.62431798 25.826391394753774 
Si 6.29916381 5.75685342 29.652504207640828 
Si 4.991207129999999 6.4927541699999995 27.76880695634793 
Si 5.776075619999999 7.14663477 31.49878802228159 
Si 8.14198635 10.874128859999999 2.6828932928747014 
Si 4.084847819999999 9.61512363 1.3204552835305365 
Si 5.43315483 8.16777342 2.7053725327298572 
Si 6.78827106 9.498633839999998 4.0698197821905255 
Si 4.7846173499999995 11.57158521 0.1336401028799959 
Si 4.07248371 12.21940593 4.069161582842016 
Si 4.0723370999999995 9.50239683 6.787420965974274 
Si 5.429391839999999 8.145309509999999 8.145043727453025 
Si 5.43048327 10.86000543 5.4307681824828 
Si 6.787375109999999 9.502657469999999 9.502008289583268 
Si 5.430678749999999 10.8576108 10.86358024715308 
Si 4.07131083 12.21727194 9.501350090234759 
Si 6.811402859999999 12.209273549999999 12.227715717974977 
Si 5.46221619 8.35181784 13.891712955149522 
Si 6.14119968 10.31099985 15.16674901942579 
Si 4.4368095599999995 11.98435752 14.863180551478907 
Si 5.06115639 11.65119444 19.484675313933508 
Si 5.13833841 10.22544477 17.47910725695339 
Si 5.82743799 8.159840189999999 18.245251298618715 
Si 6.64772094 10.54648809 24.571967362707152 
Si 7.285490729999999 8.469952919999999 23.50758973202497 
Si 5.151060899999999 10.42173927 26.443505247088105 
Si 5.3557447499999995 9.15313923 30.20341706234347 
Si 8.06174181 8.27041671 27.44864493640441 
Si 5.82356097 8.7521283 27.938449177908574 
Si 6.97673007 10.421934749999998 31.4500466284209 
Si 7.826807429999999 8.35940898 32.45837338826683 
Si 5.94858672 12.091513139999998 32.78463241270181 
Si 4.101300719999999 15.02016192 1.2024297477214498 
Si 5.42186586 13.59356517 2.69943488176488 
Si 6.7645202399999995 12.34213479 1.2061988050434422 
Si 6.78757059 14.93403669 4.073561125855739 
Si 8.14410405 13.57569504 5.430421761773059 
Si 4.07284209 14.93258688 6.787698102542068 
Si 5.42988054 13.574668769999999 8.144628022601337 
Si 6.7872285 12.21818418 6.787455608045248 
Si 5.43136293 16.289006309999998 5.430317835560135 
Si 8.14371309 13.572518489999998 10.859249988281304 
Si 6.78810816 14.932440269999999 9.501869721299371 
Si 4.04602875 14.93675712 12.219921252005784 
Si 5.428300409999999 16.2960273 10.86087816561709 
Si 8.03828421 14.33070396 16.214394529827434 
Si 5.41013706 13.56738714 13.48082335132458 
Si 6.498178739999999 15.21121104 14.682279656851653 
Si 6.95084526 12.30393474 20.83931885730848 
Si 7.67736297 14.4782262 20.0851956142712 
Si 4.338694889999999 13.69570347 18.54826549343001 
Si 6.46379055 14.650704719999998 18.05499704482843 
Si 6.71615523 15.88087665 21.686144282272707 
Si 5.92058421 12.22683417 23.00753143751245 
Si 6.14859534 14.5072224 23.503813746288785 
Si 7.43278491 15.091235189999999 25.318607918414006 
Si 7.03705194 15.1506774 30.139606367609005 
Si 4.82772069 12.52894851 27.64454584776349 
Si 6.930417599999999 13.22376588 28.593149677249908 
Si 7.818727589999999 13.986610289999998 34.25886038507971 
Si 5.11351245 15.5427777 31.74038182525564 
Si 4.1302480500000005 13.37736429 31.899873920020838 
Si 5.823202589999999 15.74830863 34.25387192685942 
Si 12.110360669999999 1.374004485 1.302701222156261 
Si 9.49948092 1.3574668769999998 4.070547265680983 
Si 10.85169753 2.74755285 2.7084418202181713 
Si 12.21626196 4.07179953 4.0730761368621 
Si 8.14478823 0.000461086821 8.145009085382052 
Si 8.144120339999999 2.7151357499999995 5.430872108695723 
Si 10.86049413 -0.000888761223 5.430317835560135 
Si 10.86013575 2.7151683299999996 8.144939801240103 
Si 9.50156604 1.357672131 9.502631846860805 
Si 8.14275198 2.71808424 10.858938209642535 
Si 8.96399604 0.252633465 16.67419873786794 
Si 9.03840876 1.8222971399999999 14.938838834486553 
Si 10.89123336 2.70979263 13.673814328721827 
Si 11.45204919 3.9250266299999996 18.581591165707184 
Si 8.92880964 2.3729642999999996 20.54087741586578 
Si 10.97867808 1.7936919 19.518035628281662 
Si 11.86267122 2.9552992199999997 24.94599780301555 
Si 8.35870851 1.076583294 22.457588560797085 
Si 8.47752777 3.29504346 25.495005343814615 
Si 10.09261611 1.5626052179999999 25.824312870495323 
Si 9.82057311 3.45740589 28.97102538743644 
Si 10.87368903 0.23733063899999998 29.940414459507373 
Si 9.78613605 0.12240550349999998 27.784430530357294 
Si 12.17265363 2.79088425 28.626717844023904 
Si 8.311825889999998 2.47695966 34.4646689287374 
Si 10.249782029999999 0.8235784169999999 34.40078894986099 
Si 9.867504599999998 3.44461824 31.397841027462785 
Si 11.23190613 1.4980886729999998 32.14070559743345 
Si 8.432713979999999 7.80883956 0.07541163146230837 
Si 10.855541969999999 8.151027299999999 2.7253125087826047 
Si 12.072128039999999 6.784475489999999 1.2750984200040214 
Si 9.43596621 4.09820562 1.2654367464093181 
Si 8.120239199999999 5.4248958 2.7019880023956784 
Si 9.50299956 6.7899978 4.070408697397087 
Si 9.502185059999999 4.07222307 6.787559534258171 
Si 8.14550499 5.42965248 8.144731948814258 
Si 10.86013575 5.430173759999999 5.429902130708445 
Si 10.860787349999999 5.4254659499999995 10.859076777926433 
Si 12.218298209999999 4.07579058 9.501869721299371 
Si 12.226035959999999 6.793777079999999 12.232080618917728 
Si 9.504563399999999 6.788417669999999 9.504017529699771 
Si 9.519582779999999 4.06727091 12.221064440347932 
Si 10.19219688 6.299147519999999 15.329254974365744 
Si 8.28458901 5.4849896099999995 13.603283072218364 
Si 10.907474489999998 7.984103669999999 13.817267144625974 
Si 12.04438617 4.43285109 14.881921911875947 
Si 11.695780169999999 7.34009481 17.03897974522623 
Si 8.631614879999999 4.51270467 21.586894748931634 
Si 9.130707899999999 6.57193986 17.586878739754113 
Si 11.37551877 7.6849704 19.302527304751184 
Si 10.655826569999999 5.524118189999999 22.157657510302492 
Si 11.18914488 5.13734472 24.37613573549002 
Si 10.812813299999998 7.83692352 21.720474574608136 
Si 9.46750365 5.4029043 25.85746533241763 
Si 8.501669549999999 6.72319251 29.170702284531707 
Si 10.262504519999998 5.60512836 28.112594868695858 
Si 9.64214874 7.520750909999999 31.087378787392037 
Si 10.44501768 5.576213609999999 32.34731090872356 
Si 10.09256724 5.984457299999999 34.63226726811057 
Si 9.62134641 9.550533779999999 1.2941446306256343 
Si 9.50019768 12.218770619999999 4.068953730416171 
Si 12.219047549999999 9.50169636 4.075293229404449 
Si 8.1453258 8.1453258 5.4307335404118255 
Si 9.50306472 9.502022160000001 6.787836670825965 
Si 10.86042897 8.14493484 8.14483587502718 
Si 8.14454388 10.86059187 8.145147653665948 
Si 10.86137379 10.858718519999998 5.430698898340851 
Si 8.141253299999999 8.14644981 10.8647580775662 
Si 9.50800059 9.4913685 12.262253862736252 
Si 10.862823599999999 10.86077106 10.863407036798206 
Si 10.749999059999999 11.827908359999999 17.292490420615394 
Si 8.263965869999998 10.914446609999999 13.859565113285468 
Si 9.916390889999999 10.00963485 16.02895552390256 
Si 8.745074729999999 8.997765209999999 21.62226430339629 
Si 9.05385168 11.32974387 21.358464932927784 
Si 10.58806017 12.210886259999999 19.699352227760603 
Si 9.872375309999999 12.073105439999999 23.49875600392655 
Si 11.675531699999999 10.55793996 23.901227584504767 
Si 8.660252700000001 11.384576009999998 25.46337713301517 
Si 11.691121229999998 9.123247079999999 25.810629252460515 
Si 8.15210244 11.58748425 29.79128034396346 
Si 10.2798045 10.81009287 29.115448181327864 
Si 9.75847563 9.861754229999999 26.994383459719774 
Si 11.546221679999999 10.26540414 34.50170130260882 
Si 11.24962965 9.284355179999999 30.684456859891164 
Si 11.52564741 11.16990639 32.259631827087865 
Si 9.46426194 15.00414885 1.1261929421285362 
Si 10.85120883 13.58118477 2.678576890831317 
Si 8.13928221 16.28727957 2.685907153049456 
Si 9.501842969999998 14.93276607 6.787628818400119 
Si 10.85994027 13.574847959999998 8.145147653665948 
Si 9.501908129999999 12.217728059999999 9.502008289583268 
Si 9.502152480000001 14.93788113 12.222450123186901 
Si 10.85964705 16.28933211 10.860912807688065 
Si 9.36129285 12.473090099999999 15.341795404058402 
Si 10.812357180000001 13.63494177 13.706620369934392 
Si 10.63344411 16.18634673 18.220482217872163 
Si 11.62581462 15.038928 21.65015117053052 
Si 10.09062873 14.52955599 19.86764340855325 
Si 10.67584698 14.39635266 23.706123440778093 
Si 9.275330519999999 16.223064389999998 24.306851593541626 
Si 11.99331702 13.95624573 25.612511248559084 
Si 11.24521506 12.96011223 29.081880014553867 
Si 8.23356873 13.35346686 26.646369214712998 
Si 10.31730408 14.11893396 27.257974977762437 
Si 10.72411425 14.37346521 30.887494037870926 
Si 8.467085879999999 13.86928971 31.596305452073956 
Si 14.15045511 2.1852546299999998 0.20292320556625923 
Si 14.9345091 1.358799399 4.0696119297646804 
Si 13.574978279999998 0.000138803832 8.144939801240103 
Si 13.57507602 2.7144027 5.430491045915007 
Si 12.2173371 1.357431039 6.787143829406481 
Si 14.93318961 1.355386644 9.50242399443496 
Si 13.57507602 2.71345788 10.86534699277276 
Si 12.218102729999998 1.3519070999999998 12.231318493356294 
Si 14.947199009999999 4.08624876 12.236341593647552 
Si 13.26898692 3.9236419799999998 16.95899120334681 
Si 15.020422559999998 2.01982968 16.945134374957128 
Si 13.65833421 0.078327207 13.62389510444801 
Si 15.224389649999999 1.4790945329999998 14.705420560262418 
Si 12.460220999999999 0.9118132019999999 21.226478642516096 
Si 15.809363549999999 2.24384976 21.18366104279199 
Si 14.58937287 0.5120680049999999 20.210495984984867 
Si 14.13229176 3.8702759399999995 21.847264554373695 
Si 13.20381063 2.10325077 23.210326120995397 
Si 15.020210789999998 1.26526059 24.62413832159429 
Si 15.371358029999998 3.0262584599999998 26.142119229612597 
Si 15.39121554 3.4144654500000002 30.006580815068087 
Si 14.83461882 0.00442727991 29.962585384930858 
Si 13.233409559999998 3.71853459 26.711149887434747 
Si 12.87644679 0.510113205 28.77602516992269 
Si 15.95895462 0.484083414 34.64553518129368 
Si 15.320973059999998 1.5925967369999998 31.546698006438906 
Si 13.439999339999998 2.63445138 32.65430894169688 
Si 14.96270709 4.07271177 1.3908756854068827 
Si 13.55324742 5.44097403 2.6983505849433875 
Si 14.93038773 6.790633109999999 4.067810542074023 
Si 14.933140739999999 4.0718809799999995 6.7878020287549905 
Si 13.5752715 5.42988054 8.144939801240103 
Si 12.21712533 6.78809187 6.787698102542068 
Si 13.57343073 8.146107719999998 5.430248551418187 
Si 14.933042999999998 6.787896389999999 9.501904363370345 
Si 13.72720833 5.59866123 13.646308524368317 
Si 15.171381989999999 6.7166928 15.331679919333938 
Si 15.412262219999999 5.25688074 17.34646276719319 
Si 12.297597929999998 4.93950267 20.55137396337096 
Si 15.949799639999998 6.74335953 19.206603410223636 
Si 15.37539795 5.541059789999999 22.967277351040433 
Si 14.116180949999999 7.51172625 23.63832890788159 
Si 12.45385161 6.934604129999999 25.15759157252594 
Si 13.2054885 4.37235003 30.060899582355628 
Si 15.82140186 7.264704689999999 26.81635785698338 
Si 13.729749570000001 6.049991969999999 26.86710849096058 
Si 12.54919698 6.29023689 28.829962874429512 
Si 13.95528462 7.144614809999999 32.38479362951764 
Si 12.74990607 5.0878231199999995 32.275151474884304 
Si 16.25404797 6.25076622 32.74857001681767 
Si 12.24757134 12.135919679999999 1.33625206789477 
Si 14.898948029999998 9.515054159999998 1.2209632556926449 
Si 13.58778222 10.84487202 2.720504189331386 
Si 14.93229366 9.50264118 6.787732744613042 
Si 13.574799089999999 10.86031494 8.144697306743284 
Si 12.21824934 9.50311359 9.502216142009113 
Si 13.575238919999999 8.144462429999999 10.860670313191244 
Si 14.94149751 9.49306266 12.254043691915369 
Si 14.93276607 12.21696243 9.501765795086447 
Si 12.20471235 12.2145678 12.249540222688722 
Si 13.94930619 8.45716527 16.63664673293191 
Si 15.270865019999999 10.452576239999999 16.855099632495193 
Si 12.25324026 9.30618378 15.196402632179701 
Si 13.45514904 10.714372829999999 13.68465729693675 
Si 14.86786671 11.98779471 14.96606750227227 
Si 13.916449259999998 10.008575999999998 20.694618926849262 
Si 12.98558979 12.01307679 19.918255474246546 
Si 13.983792119999999 8.20735812 19.112446261315768 
Si 13.16593638 11.99896965 24.951332681945576 
Si 15.71271498 10.98082836 21.91187201674057 
Si 12.720893579999998 9.03075246 22.43486336223801 
Si 15.3681489 8.8472619 25.11141369191734 
Si 14.78019393 11.27637783 28.161266978414602 
Si 13.259440979999999 8.17580439 30.161396230251775 
Si 15.087472199999999 9.666909539999999 29.87452524051445 
Si 13.81846491 10.21754412 26.2821424804903 
Si 16.165071989999998 10.85950044 32.00684863518916 
Si 15.73335441 11.337400169999999 34.532324893350015 
Si 13.239746369999999 8.37618768 34.53031565323351 
Si 12.21991092 14.93289639 4.070339413255139 
Si 14.932994129999999 12.216490019999998 4.070166202900268 
Si 14.837388119999998 14.97479427 1.182403166491267 
Si 13.549060889999998 16.28436366 2.6935422654921695 
Si 13.573903139999999 13.57406604 5.430179267276239 
Si 12.218233049999998 12.2170113 6.787975239109862 
Si 14.932668329999998 14.931984149999998 6.7875248921871965 
Si 12.21699501 14.93221221 9.50294362549957 
Si 13.57652583 13.57374024 10.863788099578924 
Si 14.93582859 14.93377605 12.230383157439991 
Si 12.51977724 15.356762189999998 17.165700440849836 
Si 12.381572879999998 14.87653299 14.889958872341962 
Si 12.76096698 13.020580709999999 16.426404004189514 
Si 16.22545902 13.48165287 13.686943673621048 
Si 13.55917698 13.660598519999999 21.514423536453616 
Si 15.54973353 14.84779743 21.074919582003986 
Si 14.57129097 16.217704979999997 17.938668970497076 
Si 16.02009099 14.29323696 17.558264389129427 
Si 14.4959823 12.418241669999999 17.950100853918563 
Si 14.687845919999999 12.69344493 23.346711954420805 
Si 16.16437152 14.093472689999999 24.635223784306035 
Si 15.35415579 15.74496918 26.14187673511578 
Si 13.36925187 15.089980859999999 27.14715499271598 
Si 13.565367179999999 13.24394919 28.698565499224387 
Si 13.91358222 13.16763054 34.55335263043135 
Si 12.73322511 13.26778146 32.23125997096 
Si 14.40268947 14.11223877 30.726997323047474 
