&CONTROL
  dt          = 30.D0,
  prefix = 'x2.00_y.66_z3.15_struc29-scf',
  pseudo_dir = './',
  outdir='./',
  wf_collect= .true.,
  verbosity= 'high',
/

&SYSTEM
ibrav= 6, celldm(1) =30.783621515, celldm(3) =2.101198140089011, nat=  432, ntyp= 1,
  ecutwfc     = 12.D0, nbnd= 1728,
  degauss     = 0.05D0,
  occupations = "smearing",
  smearing    = "methfessel-paxton",
/
&ELECTRONS
  electron_maxstep=200,
  conv_thr    = 1.D-8,
  mixing_beta = 0.3D0,
  scf_must_converge=.false.,
/
ATOMIC_SPECIES
Si  28.08  Si.pbe-hgh.UPF
K_POINTS {automatic}
1 1 1 0 0 0
ATOMIC_POSITIONS (angstrom)
Si 0.023921376299999998 2.7083428199999995 2.707102659389202 
Si 2.71173114 -0.005358074219999999 2.6742672423576255 
Si 1.3217901479999998 1.363060863 1.128346508899848 
Si -0.00042930991799999997 0.000305395146 5.430457018983337 
Si 0.000582936021 2.7147122099999996 8.144812701273604 
Si 2.7147122099999996 1.2550972589999999e-05 8.144983843862114 
Si 2.71399545 2.71591767 5.430251647877125 
Si 1.357284429 1.357926255 6.787686202905024 
Si -0.0031277451599999997 0.0009944605169999998 10.86067443834276 
Si 2.71502172 2.71725345 10.857046215466344 
Si 1.3623522479999999 1.3720187339999999 12.237619248460827 
Si 3.23677413 0.8697019229999999 16.630815267001243 
Si 1.292554485 2.11913352 17.073355772371045 
Si 1.1085312419999998 4.05375021 15.444728671589806 
Si 2.86826175 0.7143034679999999 20.215875982596256 
Si 1.401699114 2.40875343 19.51799073516916 
Si 0.6540076619999999 3.4421258699999995 24.694129867626266 
Si 0.680879646 1.2759614910000001 23.651221161762503 
Si 2.8635865199999997 0.991202517 22.63535298488336 
Si 1.68770916 1.6908694199999998 27.508843563818942 
Si 1.78926102 1.512489033 29.895563874665186 
Si 2.02276188 3.86630118 26.66045552405593 
Si 2.72264544 2.81193093 33.84752007150847 
Si 0.762984504 3.6130405499999996 30.360181773952814 
Si 3.7667692799999997 1.377003474 31.2699415459556 
Si 4.0364991 4.14414342 1.2157935259250454 
Si 1.359571545 4.06971441 4.073296292097055 
Si 2.70324405 5.431525829999999 2.7016569022228056 
Si 1.3123647539999999 6.7569291 1.2909525050952069 
Si 2.8608498 8.10406323 0.015063696812530584 
Si 0.001054790532 5.4300760200000004 5.430354333430231 
Si 2.71482624 5.429766509999999 8.145360357556836 
Si 1.3577503229999999 6.7874728499999994 6.78713854662179 
Si 4.05104607 4.0643387099999995 12.236968906624488 
Si 1.355738508 4.0701705299999995 9.501802285571376 
Si 1.359356517 6.76838097 12.258738243882993 
Si 1.069920684 7.9324480799999995 16.81311635228236 
Si 2.73838158 5.27489748 13.908415883050992 
Si 0.0270923877 5.64468048 17.089237804584798 
Si 1.74014667 7.7731970399999994 19.720144360717466 
Si 2.7070396199999998 4.36078413 19.78651345654174 
Si 0.8114358509999999 5.69117214 19.491429405432367 
Si 0.8886879179999999 5.3433806399999995 23.32194282146878 
Si 3.02901147 6.24833901 23.035176300161005 
Si 1.399956084 5.1633761400000004 28.644888066349978 
Si 3.21180156 6.75222129 29.19887662535766 
Si 1.4987109509999998 4.42327257 32.522397237191306 
Si 3.41757684 5.74769844 31.483595953451793 
Si 1.357686792 9.50102847 4.06970229773834 
Si 2.72521926 10.86943734 2.714287225254862 
Si -0.00025973101799999995 8.145244349999999 8.144812701273604 
Si 2.7162108899999997 8.14622175 5.429772448629296 
Si -0.000731217375 10.86088509 5.430251647877125 
Si 2.7152009099999996 10.8600543 8.14491538682671 
Si 1.356981435 9.50088186 9.502007656677588 
Si 2.7151194599999995 8.14915395 10.86084558093127 
Si 1.080272979 9.176124419999999 14.832072433240812 
Si 2.6391591899999995 10.706407019999999 13.777971002088481 
Si 4.041549 10.61379837 18.062628390995695 
Si 2.94629085 11.323912049999999 20.10059433497575 
Si 0.6651044099999999 11.099908260000001 19.426052936621453 
Si 0.00563827851 8.93931669 18.743981264372703 
Si 3.22576209 8.38081404 17.978871208178777 
Si 2.4823027799999995 8.158651019999999 21.834097613996075 
Si 1.4018848199999998 10.03408614 22.96593200884976 
Si 2.43471969 11.81442024 24.18532295198529 
Si 3.78695259 10.027570139999998 21.916109142410185 
Si 0.9152878589999999 8.971212509999999 24.999208645904634 
Si 2.11716243 10.7847945 29.53558255399273 
Si 3.07975482 8.865180899999999 25.998202163556666 
Si 2.24793855 8.774413019999999 28.277102643641452 
Si 1.546430877 9.257297490000001 32.6106725843449 
Si 0.24389225099999998 10.869746849999999 34.074934343120894 
Si 3.43943802 10.020027869999998 31.309270112795254 
Si 0.00730318167 13.571964629999998 2.684792511551006 
Si 1.5236541989999999 12.266158229999998 1.2566213018400507 
Si 1.355096682 14.935242149999999 4.069531155149829 
Si -4.46385096e-05 13.575369239999999 8.144983843862114 
Si 2.71544526 13.57318638 5.430114733806317 
Si 1.357620003 12.217597739999999 6.7875835173519175 
Si 1.3573903139999999 14.932228499999999 9.502418398890013 
Si 2.71593396 13.575792779999999 10.860195239094931 
Si 1.366520859 12.20210595 12.24802471784225 
Si 2.67799455 16.20273447 13.565309221605645 
Si 0.0171944208 13.56870663 13.65656244979931 
Si 1.183901814 15.12111105 14.989763214294156 
Si 3.06913374 14.83320159 16.9139535654326 
Si 3.1645605599999995 13.55355693 20.782049893905867 
Si 2.21806269 14.971405949999998 19.20011049127022 
Si 2.29190526 13.793752979999999 22.930094750815712 
Si 3.39861528 15.56074557 24.166052296519037 
Si 0.6606002249999999 12.33040599 25.752407177938245 
Si 2.3255929799999997 15.938412929999998 26.30629305139282 
Si 1.450839528 13.96748583 27.237616789547896 
Si 2.83825557 12.792129749999999 28.617265652564424 
Si 0.11902532849999999 12.673831769999998 32.33961695266236 
Si 2.98308996 13.35118626 33.90570855160196 
Si 0.725146092 15.78704625 30.581434912378864 
Si 2.00104731 14.16770622 31.90210803939476 
Si 3.89247921 13.9558059 30.344162827668253 
Si 8.1622674 -0.00375362325 2.709591072626141 
Si 4.0745362499999995 1.357841547 4.067272072981495 
Si 5.42132829 2.7161457299999996 2.6803325356944288 
Si 6.84544896 1.297397502 1.2678071814250809 
Si 5.4293429699999995 -0.000973268856 5.4301831908417215 
Si 5.43015747 2.7150705900000003 8.144812701273604 
Si 6.78727737 1.3577014529999998 6.7875835173519175 
Si 8.14710141 2.71534752 10.857901928408895 
Si 4.07051262 1.357056369 9.501562685947462 
Si 6.8066461799999995 1.3536403559999999 12.222524472154223 
Si 7.583190479999999 3.6387298799999996 16.85182880580338 
Si 4.5558894599999995 0.659391507 14.713231019779295 
Si 5.38801524 2.6297924399999997 13.568287102645723 
Si 6.36855921 0.032105635199999996 18.042433565551484 
Si 5.821036019999999 3.2500178999999996 18.373526017283414 
Si 7.2020696399999995 3.30340023 20.289467295655662 
Si 4.4927657100000005 1.321180902 18.5034574704804 
Si 4.5092349 2.6776524599999996 22.802251237198558 
Si 6.43497354 1.6704254699999999 21.80353154768814 
Si 5.36393862 3.28046391 24.919935398906688 
Si 7.31153844 0.306742329 25.30288405495722 
Si 5.78847231 1.6164078299999998 26.5046815399939 
Si 7.03705194 2.7333968399999997 28.124306540619504 
Si 8.064983519999998 2.59551828 33.913033454390195 
Si 4.6248939 3.57977637 31.513853963100406 
Si 6.7862511 4.07287467 4.069565383667531 
Si 4.073461109999999 6.785664659999999 4.071071438446422 
Si 5.5875840299999995 5.561878409999999 0.1500585061761412 
Si 6.99471423 6.91932411 1.401972702261806 
Si 8.16515073 5.412694589999999 2.713469163681783 
Si 4.07232081 4.07267919 6.787378146245705 
Si 5.43009231 5.4296199 5.430251647877125 
Si 6.787375109999999 6.7877171999999995 6.787412374763408 
Si 6.78757059 4.06942119 9.502076113712992 
Si 4.07025198 6.786462869999999 9.50234994185461 
Si 5.430401819999999 5.432421779999999 10.862728149404884 
Si 6.79087746 6.797328299999999 12.224235898039327 
Si 5.30910648 8.01336051 13.609600923512097 
Si 6.39856539 4.325255639999999 14.905424146676307 
Si 4.69782423 6.15662631 15.111240223618733 
Si 8.075229929999999 5.371855559999999 13.578966400168762 
Si 5.14146609 7.037410319999999 17.6786528794141 
Si 6.54463782 5.37035688 21.243895283259626 
Si 7.08113268 6.99380199 19.591034391945332 
Si 4.175159579999999 4.854387419999999 17.928931800851487 
Si 7.55478072 4.219940789999999 24.72777650052738 
Si 4.19969232 4.742019 21.637660150904008 
Si 7.5985030799999995 6.0874101 23.319991795959766 
Si 6.252053129999999 7.81289577 24.274556697634537 
Si 4.127169240000001 6.94398717 24.99513545229809 
Si 5.02794108 5.66030259 28.123656198783166 
Si 5.95218681 4.12254288 29.656477678516367 
Si 4.11899166 4.854257099999999 26.136143089895928 
Si 7.1761848299999995 6.47786511 27.626452750643185 
Si 6.6086249399999994 4.140070919999999 32.76555662694667 
Si 7.955970839999999 5.019861239999999 31.044478299852198 
Si 4.65473718 7.21102914 33.032470607987264 
Si 8.184421799999999 10.834560449999998 2.706024461081588 
Si 4.15784331 9.57775437 1.3515198671689843 
Si 5.44116951 8.14863267 2.710823299263415 
Si 6.7858275599999995 9.499399469999998 4.071824465835867 
Si 4.072923540000001 12.217744349999998 4.077506399774407 
Si 6.773398289999999 12.12337638 1.4289755798769535 
Si 4.0730701499999995 9.50270634 6.7875492888342155 
Si 5.4297990899999995 8.1453258 8.145120757932922 
Si 5.4302877899999995 10.862465219999999 5.43083353267806 
Si 6.787652039999999 9.50153346 9.50238417037231 
Si 4.05015012 9.492671699999999 12.230362802707992 
Si 5.432389199999999 10.859598179999999 10.864439575289985 
Si 8.0198928 10.83358305 13.660327586746535 
Si 6.79540608 8.96174802 16.950270022714474 
Si 6.16293054 9.8577306 14.825569014877424 
Si 4.47515622 11.61921717 15.145057999108358 
Si 7.1682190199999996 9.210789539999999 20.540978443730328 
Si 6.25817817 10.594006019999998 18.834515693694627 
Si 6.04547964 9.583602479999998 22.656780036964847 
Si 6.36209208 11.34455148 24.194770022871058 
Si 4.26340251 10.89770049 25.341870336619856 
Si 7.34942898 8.42878809 26.350516296263866 
Si 6.28992738 9.611099999999999 28.12273202880521 
Si 6.40762263 11.893329 28.467960858348082 
Si 5.74872471 10.644814529999998 34.060797965309945 
Si 7.64549973 9.20109699 30.142693772473987 
Si 6.55766982 8.7987177 32.49039357313989 
Si 5.09091822 8.727758459999999 29.994005091576284 
Si 4.304355569999999 11.77304364 32.634974831913354 
Si 7.544680919999999 13.890645899999999 0.156366137418275 
Si 4.115831399999999 14.841558359999999 1.2294062074151508 
Si 5.42240343 13.560219539999999 2.715772742923131 
Si 6.78828735 14.931918989999998 4.070523782163189 
Si 5.995811429999999 15.740049599999999 0.05297034256980746 
Si 4.0723696799999995 14.93257059 6.787857345493533 
Si 5.43009231 13.57486425 8.144470416096583 
Si 6.78693528 12.217548869999998 6.78813117363515 
Si 8.14469049 13.57634664 10.861256323143694 
Si 4.07121309 12.218037569999998 9.5021787992661 
Si 6.787391399999999 14.93056692 9.502897598137842 
Si 4.06586997 14.90531742 12.216637167109472 
Si 6.784263719999999 12.223380689999999 12.226563437243065 
Si 5.43142809 16.28977194 10.863241577170413 
Si 5.27787855 13.388767289999999 13.632294430748557 
Si 6.189711299999999 15.104250899999998 14.88177224094419 
Si 8.03186595 16.15963113 13.651496629179407 
Si 5.668708229999999 14.265690569999999 17.200035516386333 
Si 5.41629468 14.03469837 20.990672709299858 
Si 6.431634089999999 16.09378695 20.37890641241112 
Si 6.4719029699999995 12.897623789999999 19.24536059167233 
Si 5.6916445499999995 15.02623809 24.593087283369815 
Si 6.33158091 13.42626687 23.045855597684046 
Si 4.51638621 16.199150669999998 27.520207431696022 
Si 4.92174657 16.05206826 29.86325215395445 
Si 5.607848789999999 14.24521404 26.76745387039254 
Si 4.50618867 12.25361493 27.182953846777725 
Si 7.884115649999999 13.5057132 27.226013322046903 
Si 7.20153207 16.15736682 30.595365919083598 
Si 5.5798137 12.33763875 30.67491299422316 
Si 7.430732369999999 12.58739703 32.288445318697796 
Si 12.162537539999999 1.308466557 1.274878793182324 
Si 9.50593176 1.3534790849999998 4.07353589172097 
Si 10.85062239 2.7052802999999996 2.7025023466100464 
Si 9.43425576 3.9363970499999996 1.263590228044188 
Si 8.14527693 -0.00021934973699999999 8.144607330167391 
Si 8.14659642 2.71531494 5.430080505288615 
Si 10.858555619999999 -0.000396625662 5.431107360819676 
Si 10.86002172 2.71498914 8.144949615344412 
Si 9.49985559 1.358289522 9.5021787992661 
Si 10.863442619999999 -0.0018353943 10.865569116374154 
Si 9.61742052 0.749559915 15.100252869436375 
Si 10.72862658 2.5375095899999995 13.700785694670358 
Si 8.445436469999999 1.358027253 17.091017687505303 
Si 9.469409579999999 2.9110229999999997 19.808488164906457 
Si 9.96503283 0.8060292 18.823802167653884 
Si 8.191410209999999 1.098473796 23.315713231247006 
Si 9.333665009999999 3.00669417 23.823356377286114 
Si 10.27074726 3.7730572199999997 21.807467827223878 
Si 10.98784935 3.16524474 25.464853400723324 
Si 10.24031754 2.45456091 29.44730720683914 
Si 12.13978041 1.043315856 29.35670432048181 
Si 8.44266717 0.995752314 28.877265473029198 
Si 10.411997849999999 3.9224365199999998 27.59034166446752 
Si 8.80583643 1.48494753 31.813353492993347 
Si 12.219796889999998 4.07131083 4.06802510037094 
Si 12.16955853 6.76624698 1.343318714327573 
Si 9.504367919999998 6.78659319 4.073775491344883 
Si 11.00070216 5.12473626 0.008007727487876894 
Si 9.50262489 4.07272806 6.7875150603165135 
Si 8.1448371 5.42966877 8.144538873131987 
Si 10.859549309999998 5.4312651899999995 5.430662390089549 
Si 12.21191253 6.792620489999999 12.180457623898404 
Si 9.501842969999998 6.78711447 9.501768057053674 
Si 9.49799853 4.05146961 12.23132120120365 
Si 10.86313311 5.430711329999999 10.862043579050841 
Si 10.85523246 8.09614629 13.481654724341833 
Si 11.55179286 4.44562245 14.862809642137254 
Si 9.014413589999998 7.9698825 16.508790601393432 
Si 9.78496317 6.44655573 14.830292550320307 
Si 9.866885579999998 4.775576399999999 16.68267147131985 
Si 10.43931618 7.587751679999999 20.17302187843329 
Si 9.210919859999999 6.60781044 18.418776117685525 
Si 11.581766459999999 5.5265454 18.353023135179885 
Si 9.98705691 6.72438168 23.938809167495126 
Si 9.69735555 6.06326832 21.77128828401281 
Si 11.63104371 5.27287752 24.715693833778555 
Si 11.855357009999999 5.7170732399999995 28.192421290846582 
Si 8.17977915 6.93919791 29.660893157299927 
Si 10.444675590000001 7.261805069999999 29.22721783801496 
Si 8.18891784 4.47219144 26.982374733043713 
Si 9.59037912 6.24643308 32.72687840194336 
Si 11.23693974 7.28679393 31.440262650041 
Si 8.27834994 7.95771387 33.90451055348239 
Si 9.55724526 9.492981209999998 1.0422823239898138 
Si 10.84006647 8.15066892 2.6928327903592173 
Si 9.507625919999999 12.21666921 4.074015090968798 
Si 8.144397269999999 8.144185499999999 5.430662390089549 
Si 9.502869239999999 9.502103609999999 6.787412374763408 
Si 10.86042897 8.145179189999999 8.144675787202795 
Si 8.14485339 10.86020091 8.144812701273604 
Si 10.85850675 10.86062445 5.430046276770913 
Si 8.14361535 8.14542354 10.860058325024122 
Si 9.48216465 9.50971104 12.22765874980953 
Si 10.86220458 10.861227179999998 10.858244213585914 
Si 10.371549779999999 9.901778760000001 16.09945175819462 
Si 9.42176133 11.976912989999999 15.137356582625397 
Si 9.52437204 9.74482461 20.490217551978187 
Si 10.725938730000001 10.48351095 18.401764544387603 
Si 10.51065009 10.577422799999999 22.556079737885415 
Si 10.515325319999999 8.98004169 24.323982677196295 
Si 8.3487879 11.753381609999998 25.59533251020354 
Si 9.37937475 9.69126309 26.299173519710795 
Si 10.658400389999999 9.448590959999999 28.43181554365472 
Si 11.440939409999999 10.29366729 33.915805964324065 
Si 11.28580974 11.16234783 31.60312193726735 
Si 9.45966816 10.779907499999998 29.991403724230924 
Si 9.43946856 14.82051168 1.321857433728388 
Si 10.85617728 13.54484178 2.7030226200791176 
Si 8.14465791 13.573903139999999 5.430491247501039 
Si 9.50257602 14.93268462 6.78796003104664 
Si 10.85984253 13.57512489 8.145052300897518 
Si 12.20485896 12.20166612 12.223517099167584 
Si 9.50096331 12.215659229999998 9.501836514089078 
Si 9.49369797 14.92201467 12.235394394810195 
Si 10.71811953 13.37785299 13.641091159797982 
Si 11.90274462 14.11683255 17.31699436137424 
Si 8.70946479 15.71304078 20.137389991505454 
Si 8.62961121 13.40155494 20.006842424989838 
Si 10.536844409999999 12.73814469 18.85026081183757 
Si 12.082635089999998 15.979919849999998 18.74196178182828 
Si 8.5454082 13.67222958 22.36730946275861 
Si 11.81179755 15.39211149 22.68224605413517 
Si 9.7766064 12.42035937 23.841429034632792 
Si 11.538728279999999 13.87187982 24.501902512211554 
Si 9.53023644 15.80485122 22.291151010871545 
Si 11.08676223 15.063916859999999 26.54424970645747 
Si 9.17118855 12.96384264 29.15879503112856 
Si 8.82196353 15.77290653 26.954375805563433 
Si 11.32034454 13.64852763 28.414358999626675 
Si 12.21890094 13.363354889999998 31.95351927298324 
Si 11.77745823 15.149520809999999 30.219810622856706 
Si 8.48080206 14.236303409999998 31.024249245890285 
Si 10.12241052 15.75516672 31.946194370195 
Si 11.156890679999998 15.833684519999998 34.20801481994646 
Si 15.599222549999999 0.55491885 0.009624306150427012 
Si 13.91855067 2.39573772 0.18881579905534943 
Si 14.93107191 1.356898356 4.06987344032685 
Si 13.57519005 -7.55898354e-05 8.145154986450624 
Si 13.574847959999998 2.71384884 5.430046276770913 
Si 12.217614029999998 1.357049853 6.78744660328111 
Si 14.932912679999998 1.356851115 9.501939199642184 
Si 13.57540182 2.7141909299999996 10.865774487480365 
Si 12.23059716 1.3487729039999998 12.25418585102862 
Si 14.91981552 4.073428529999999 12.259765099414054 
Si 16.25707791 2.65611708 13.793373835054403 
Si 15.68582019 0.5853941819999999 15.104462977113727 
Si 15.639524009999999 0.64912392 17.479545591941275 
Si 15.63471846 2.9011023899999997 20.66690516035617 
Si 13.49535276 3.05149167 19.72924914642621 
Si 13.46508594 1.4455729709999998 18.02312868156753 
Si 15.255275489999999 1.03133619 22.079892599614496 
Si 12.470011289999999 2.95611372 21.869695272406208 
Si 13.08614796 1.0504916009999998 23.12085027996924 
Si 12.957978240000001 1.94683419 25.318355344958547 
Si 14.763610709999998 3.5194870799999998 25.57452157144069 
Si 14.878227149999999 3.2613883199999996 29.580319226629303 
Si 12.710956679999999 0.409010949 27.0907422200884 
Si 15.007341689999999 0.0356338863 27.154201891908002 
Si 15.6167343 2.27227581 27.52202154313423 
Si 13.71059253 1.80234189 30.9828327394708 
Si 12.594222539999999 3.33203805 32.63322917751055 
Si 15.0214977 4.09423086 1.341295808931382 
Si 13.58261829 5.43066246 2.7008491092050373 
Si 14.931251099999999 6.78851541 4.0709002958579115 
Si 14.9325543 4.07259774 6.787172775139493 
Si 13.57476651 5.430304079999999 8.144983843862114 
Si 12.21776064 6.787521719999999 6.78778888845813 
Si 13.573626209999999 8.147052539999999 10.857901928408895 
Si 16.2960273 5.42802348 10.862967749028797 
Si 12.216685499999999 4.07269548 9.502452627407713 
Si 14.93213076 6.78781494 9.502897598137842 
Si 13.962403349999999 7.33594086 15.098438757998167 
Si 15.93152226 7.86942207 13.58324496488152 
Si 13.855475789999998 5.4455515199999995 16.68318489908538 
Si 13.3639902 5.49043047 13.686307031682391 
Si 12.68639136 6.865485659999999 20.089059324510163 
Si 13.387122 4.484474099999999 23.401216068466727 
Si 13.863360149999998 6.276162329999999 22.04426071268666 
Si 16.03397007 7.01286129 24.523021507633718 
Si 15.851978189999999 5.15813076 21.399326982144636 
Si 14.84460459 5.8217202 26.171090406469723 
Si 13.845522599999999 5.395117679999999 29.51816023848238 
Si 12.69906498 6.67332882 26.23434470718311 
Si 15.650992169999999 6.34630707 28.281415436871914 
Si 14.66616393 6.97053987 33.07060117670734 
Si 16.263007469999998 5.4635031000000005 34.0883519220601 
Si 16.02737262 8.11341369 31.565607481865904 
Si 13.11081102 5.7020538599999995 31.74718976827528 
Si 12.214893599999998 12.16480185 1.240783766699312 
Si 16.28688861 8.14791591 2.6965465845298895 
Si 13.273222319999999 8.51538573 0.06186462289468515 
Si 12.217532579999999 9.50182668 4.069770754773744 
Si 14.980235129999999 9.59446791 1.2958198003124384 
Si 13.58817318 10.87328178 2.7054904962054356 
Si 13.57553214 8.14449501 5.430320104912529 
Si 14.93226108 9.502185059999999 6.787686202905024 
Si 13.574685059999998 10.85945157 8.144744244238199 
Si 14.92836777 9.50181039 12.226050009477534 
Si 16.2911403 10.85894658 10.863241577170413 
Si 12.21411168 9.49974156 9.501425771876653 
Si 12.33807858 9.169640999999999 14.911071852097145 
Si 13.504051619999998 10.79593686 13.629966891544816 
Si 13.1114952 10.63059336 18.512288428047526 
Si 14.09392881 8.70894351 19.553006508778356 
Si 16.148374739999998 11.25078624 21.6208539487123 
Si 12.68857422 11.41080291 22.140511304464823 
Si 14.26797117 8.15457852 23.392727396076623 
Si 14.29975296 9.790355159999999 21.681164596903315 
Si 12.712145849999999 8.77159485 25.1422153928638 
Si 12.638547629999998 10.271301119999999 29.567449303973333 
Si 13.59949473 10.84914 26.013502310969482 
Si 15.87436065 10.27885968 26.440845354479578 
Si 13.110843599999999 12.06771345 28.120678317743085 
Si 16.11888984 8.682912089999999 28.28685777118654 
Si 14.85446004 9.50699061 30.135779611898172 
Si 16.264571309999997 11.34554517 30.431582461879287 
Si 12.218803199999998 14.935062959999998 4.073227835061651 
Si 14.93032257 12.21622938 4.071447952141145 
Si 14.797005209999998 14.89930641 1.2829498776564676 
Si 13.562793359999999 16.28978823 2.7113709555466476 
Si 13.575369239999999 13.57551585 5.42932747789917 
Si 12.217597739999999 12.21735339 6.787309689210301 
Si 14.932098179999999 14.93312445 6.787720431422726 
Si 12.216457440000001 14.930860139999998 9.501802285571376 
Si 14.9304366 12.21609906 9.502076113712992 
Si 13.575857939999999 13.57605342 10.86399460455986 
Si 14.938956269999998 14.92774875 12.23166348638067 
Si 12.5753913 14.287258529999999 14.855382053795909 
Si 14.36704695 12.61926027 14.84839943618469 
Si 13.641962759999998 16.155509759999997 13.792278522487939 
Si 13.86601542 12.481756379999998 17.18268165791139 
Si 16.102616129999998 12.74863545 17.947004458198172 
Si 15.23220885 15.182165969999998 20.949838087681314 
Si 12.91469571 14.759538209999999 20.649380159292722 
Si 12.60412686 12.500261819999999 20.01488612664982 
Si 16.20087741 14.917257989999998 18.79713815236399 
Si 16.270566029999998 13.54666626 22.35728050707191 
Si 13.392009 12.46781214 24.26706065225779 
Si 15.43958055 13.689562139999998 24.50806364539792 
Si 16.270305389999997 15.857158409999998 25.21919532917571 
Si 14.902759889999999 13.00764645 29.370977612363568 
Si 16.091995049999998 14.828819579999998 28.601041335173655 
Si 12.85385256 14.078583629999999 34.18443137124975 
Si 14.486126849999998 13.86443529 31.522068807348898 
Si 15.13697751 16.23694347 31.949069565681974 
