&CONTROL
  dt          = 30.D0,
  prefix = 'x2.00_y1.33_z3.15_struc17-scf',
  pseudo_dir = './',
  outdir='./',
  wf_collect= .true.,
  verbosity= 'high',
/

&SYSTEM
ibrav= 6, celldm(1) =30.783621515, celldm(3) =2.1024929778250487, nat=  432, ntyp= 1,
  ecutwfc     = 12.D0, nbnd= 1728,
  degauss     = 0.05D0,
  occupations = "smearing",
  smearing    = "methfessel-paxton",
/
&ELECTRONS
  electron_maxstep=200,
  conv_thr    = 1.D-8,
  mixing_beta = 0.3D0,
  scf_must_converge=.false.,
/
ATOMIC_SPECIES
Si  28.08  Si.pbe-hgh.UPF
K_POINTS {automatic}
1 1 1 0 0 0
ATOMIC_POSITIONS (angstrom)
Si 0.00259719615 2.70453096 2.7045924259038046 
Si 1.3801344119999999 1.291008564 1.3052115607674957 
Si 4.07277693 1.3567436009999998 4.069572982144665 
Si -0.0014430757139999998 0.00035629325099999996 5.430892255011448 
Si 0.000306934551 2.71495656 8.144831399650386 
Si 2.71539639 -0.000559719513 8.144728650818559 
Si 2.71590138 2.71547784 5.431063503064491 
Si 1.3573153799999997 1.3574896829999998 6.7874850816142205 
Si 2.71173114 2.71593396 10.862914747172985 
Si 1.363225392 1.365646086 12.24087933079563 
Si 4.07253258 1.356691473 9.502451714571421 
Si 1.76161689 2.0866838399999996 16.48550207276172 
Si 2.96605062 0.1382602347 13.58890975474621 
Si 0.28237737599999996 0.1534201974 16.215546641943394 
Si 1.124593182 0.631820682 20.477088691550215 
Si 3.262887 3.2510604599999997 18.90862777372159 
Si 1.0854580859999998 2.2892174099999996 18.777075019373306 
Si 0.6681685589999999 2.06869968 22.309374359898193 
Si 2.55389733 2.25479664 23.78974527924106 
Si 2.66449014 0.28395750599999997 25.000058018933775 
Si 2.20128399 3.93965505 25.40988885947832 
Si 1.07149104 3.35740158 29.95186672074975 
Si 3.8144989799999998 3.2699731499999998 26.99742681041603 
Si 3.8573090999999997 0.887141997 26.920193938493252 
Si 2.3819400899999996 2.92227939 34.10059055301128 
Si 1.427618133 1.07132814 30.18349683729686 
Si 3.22458921 1.9522750499999997 31.94697503793182 
Si 3.9848435099999997 4.08901806 1.1481222967493112 
Si 4.07469915 6.7816736099999995 4.072758195931281 
Si 1.3576933079999998 4.07030085 4.071045715400842 
Si 2.7241278299999996 5.43535398 2.6922009167855516 
Si 1.403390016 6.79017699 1.2447335983545296 
Si 2.7143049599999998 5.430466979999999 8.144865649260995 
Si 1.35801585 6.78717963 6.787587830446046 
Si 2.71642266 8.145537569999998 5.43027576202049 
Si 4.06657044 4.08098709 12.250195224881216 
Si 1.358128251 4.07316789 9.501424226253159 
Si 0.000505786581 5.43188421 10.86109951781072 
Si 1.35987291 6.76538361 12.227967227596123 
Si 2.71627605 8.14441356 10.861510513138027 
Si 3.54721266 7.41871035 15.060615522605058 
Si 0.06250016879999999 6.24361491 16.223013057056104 
Si 1.1386107269999999 4.1135182200000004 15.129491489539296 
Si 2.68732872 5.42600352 13.77351515592748 
Si 3.4511342399999996 4.16224161 21.135811452388687 
Si 3.45590721 7.800873749999999 21.194378286529684 
Si 3.01156488 7.19452737 18.88468729590606 
Si 0.809415891 7.887536549999999 18.846327732024236 
Si 3.6285812099999997 5.15288538 17.654064537122345 
Si 1.0749314879999998 4.21640586 21.505809995795232 
Si 1.83040956 7.27371306 22.89072725037146 
Si 2.57701284 6.2540730899999994 24.882650353766913 
Si 3.1762241999999996 4.15517175 29.12597161052987 
Si 2.30136975 7.53189327 26.844433799826653 
Si 0.037597320000000004 7.677998279999999 27.365884121345175 
Si 3.2895374399999997 6.45546636 28.68654910641935 
Si 0.695946267 4.80794463 34.18059764339337 
Si 2.41487847 7.31691414 30.691076066518836 
Si 0.397826235 6.51419181 31.769151059651087 
Si 1.358074494 9.500490899999999 4.068237247330923 
Si 2.7060459299999997 10.87745202 2.702492924773487 
Si 0.000274517451 8.14488597 8.144899898871603 
Si -0.00050412663 10.86134121 5.430721006958405 
Si 2.71492398 10.85994027 8.145105396535255 
Si 4.072923540000001 9.511779869999998 12.23002220423265 
Si 1.3567957290000001 9.50255973 9.502451714571421 
Si 1.345567032 12.20477751 12.238584606884842 
Si 0.25723864799999996 8.86682619 16.759909952959184 
Si 4.03889373 10.76461119 17.081582295796753 
Si 1.6980696 8.98362549 14.88378478303198 
Si 3.9148128 12.11827761 15.021125721573148 
Si 2.6198718299999997 10.76731533 13.639462180004756 
Si 0.300187233 11.12825286 19.50652322611889 
Si 2.45719989 11.87593128 18.71706970158674 
Si 0.669821994 9.24231069 22.850381209074325 
Si 2.0039957999999998 11.06099145 23.242984495482656 
Si 3.7402002899999998 10.18786374 21.84673061979493 
Si 2.4619891499999995 11.39636997 25.517603884842902 
Si 3.14805879 10.73514258 29.02318852909295 
Si 3.3637221 9.69377175 26.881800125000822 
Si 2.74466952 8.349390629999998 34.05911427456407 
Si 0.11006501399999999 10.996906589999998 33.92437630642916 
Si 1.67594778 9.44854209 30.218705437002676 
Si 1.84884984 10.1331945 32.59573116208314 
Si 0.43961823 15.821108639999999 0.0693701888153211 
Si 2.73039948 16.28736102 2.712377362395178 
Si 4.00297428 14.891861879999999 1.2880182562418934 
Si -0.000984210849 13.56043131 2.714333015160939 
Si 1.308916161 12.240175679999998 1.2477646888934057 
Si 1.3572697679999999 14.933108159999998 4.068682492268837 
Si 0.000327306825 13.575010859999999 8.144797150039777 
Si 2.71531494 13.57359363 5.429762017861359 
Si 1.3572828000000001 12.217532579999999 6.787724828888482 
Si 4.09209687 14.91579189 12.225946500570206 
Si 1.355841135 14.93315703 9.501252978200114 
Si 2.71639008 13.57760097 10.864113483544292 
Si 2.21394132 13.30700778 15.968949445560249 
Si 1.4798536469999999 15.07613436 14.781378447311758 
Si 0.1376037477 14.71434975 17.921656744808665 
Si 3.84290874 12.24367803 20.598400812326478 
Si 3.28966776 15.962147459999999 20.556787535436822 
Si 2.4049415699999996 14.131477259999999 18.10050821140766 
Si 2.88412821 14.002851419999999 21.87371931295464 
Si 0.874191447 13.10822091 22.66337833515044 
Si 3.62364534 14.66407881 24.019457417594083 
Si 0.38501577899999995 16.272015839999998 25.402251196312566 
Si 1.78838136 12.64317399 29.55066678207862 
Si 3.55859937 14.194486979999999 29.40301671074421 
Si 0.2489112 12.29756535 26.010353032671276 
Si 0.37600577999999996 15.8817726 27.670568657320796 
Si 2.55098142 16.13472372 28.561983272635253 
Si 2.228472 14.03810298 34.077677563514015 
Si 1.057566348 12.86532072 31.980573905939025 
Si 6.783563249999999 4.07300499 4.067449506286922 
Si 5.41140768 2.7316701 2.6925536877748217 
Si 6.854506199999999 1.48455657 1.3415812222729488 
Si 5.42887056 0.00038826074699999997 5.4309950038432735 
Si 5.43035295 2.71451673 8.14500264770343 
Si 6.78730995 1.357667244 6.787656329667264 
Si 8.14618917 2.71099809 10.862264004571418 
Si 5.432258879999999 -0.0027812568599999998 10.858873293121151 
Si 6.7893462 1.359874539 12.230672946834217 
Si 7.0856450099999995 3.88448082 15.149904257462122 
Si 8.05330359 0.065197467 13.785365521198115 
Si 4.67501823 1.0328462729999999 15.1174013769944 
Si 5.5103857199999995 2.7677198699999996 13.675116024648485 
Si 4.76101314 1.82477322 17.56481005187589 
Si 7.07937336 0.668961882 20.429995476963157 
Si 7.095989159999999 2.19579426 18.666003532169064 
Si 4.600361159999999 2.7558118799999995 22.707765830499408 
Si 6.61706316 3.3161064299999996 24.105423940222096 
Si 5.104178279999999 0.7322843699999999 21.685586201880668 
Si 6.8138789399999995 3.6370682999999997 29.348936575592962 
Si 7.0322301 1.242347076 28.895197734247976 
Si 4.82732973 3.7863498599999996 30.772418891714665 
Si 6.87457548 0.599351454 31.255817895846842 
Si 4.784763959999999 0.210139371 32.32039854239924 
Si 8.02764684 3.0390623999999997 34.15295820763209 
Si 6.98572215 7.01095536 1.2421922772473588 
Si 4.073037569999999 4.0720927499999995 6.786800089402045 
Si 5.430190049999999 5.43217743 5.4308580054008395 
Si 6.787684619999999 6.78757059 6.78724533433996 
Si 6.78709818 4.0720927499999995 9.502006469633509 
Si 4.072060169999999 6.78678867 9.502109218465334 
Si 5.430238919999999 5.4324543599999995 10.863291492889683 
Si 6.768625319999999 6.79446126 12.243756298086767 
Si 6.03502146 5.15019753 17.18936582038255 
Si 6.87091023 5.5454418 21.102281083602705 
Si 7.300168019999999 7.621846649999999 20.185453257216537 
Si 7.473786839999999 4.47439059 19.0679912118842 
Si 6.5053300499999995 7.41387222 17.842266147417533 
Si 6.069116429999999 8.0747901 24.61574313829277 
Si 4.73276628 5.966847809999999 21.93639610036869 
Si 8.04870981 4.96116837 23.05389239531164 
Si 4.81827249 6.1017453 24.35287737687046 
Si 5.53780179 7.25910093 28.421457120307473 
Si 5.63515083 4.45275747 25.93363390490763 
Si 6.869216069999999 5.40520119 27.729614986010315 
Si 6.9457790699999995 5.375520809999999 33.7273040469863 
Si 4.8101112 5.23226655 32.82938200565617 
Si 4.1222170799999995 7.476083729999999 32.288751902196736 
Si 4.10714883 9.53119755 1.3739882038309668 
Si 5.4358426799999995 8.12928015 2.7031128427255062 
Si 6.78814074 9.502038449999999 4.0701209759144055 
Si 4.0728909600000005 9.502217639999998 6.787896076941526 
Si 5.42988054 8.145179189999999 8.145071146924648 
Si 5.429180069999999 10.86018462 5.4309265046220565 
Si 6.787554299999999 9.50285295 9.5027599610669 
Si 5.427225269999999 10.85896287 10.86246950223507 
Si 6.359404229999999 11.138662169999998 17.141313616698447 
Si 5.361478829999999 8.198203139999999 13.726661688614683 
Si 6.99927543 9.56200194 15.106304503157158 
Si 7.13858751 9.722784240000001 21.23629980991482 
Si 7.31106603 11.35248471 19.50196802790792 
Si 4.3373916900000005 8.308942559999998 17.26879066738429 
Si 7.859273399999999 9.24138216 17.246631169320416 
Si 5.72476212 9.94291101 23.091532717370676 
Si 6.11391393 12.05686431 24.092340588969545 
Si 7.96268232 11.900757239999999 25.496095129380592 
Si 6.396822359999999 12.158057789999999 28.761898249758644 
Si 5.66331624 8.99146098 26.761926487870127 
Si 7.3838497499999995 10.57664088 27.35992468909925 
Si 4.2490836 11.60976897 32.21651947342284 
Si 7.6330053 8.965543590000001 33.92858900853404 
Si 8.07307965 8.26943931 31.64708544744143 
Si 5.6773907999999995 10.607836229999998 34.04418144433864 
Si 5.20178796 10.72984833 30.226959593159393 
Si 5.96626137 8.45099136 30.44951356289518 
Si 4.07344482 12.21859143 4.073134941647977 
Si 5.4190314 13.56184854 2.689594521418224 
Si 6.748930709999999 12.26536002 1.1417621440592625 
Si 6.78766833 14.93149545 4.065086283154916 
Si 5.74538526 16.03478457 0.14840527524833103 
Si 4.0725 14.932603169999998 6.7874850816142205 
Si 5.4301086000000005 13.57561359 8.145379393420127 
Si 6.78716334 12.21736968 6.787313833561176 
Si 4.073249339999999 12.21728823 9.501972220022898 
Si 6.78815703 14.934427649999998 9.501869471191073 
Si 6.79214808 12.220725419999999 12.239817592866759 
Si 7.34600808 12.85882101 15.947885935035856 
Si 7.721964989999999 14.896390499999999 16.97051080859251 
Si 5.493916529999999 13.53495375 13.827081546919597 
Si 6.30493047 15.41573199 15.049107653440512 
Si 6.016646339999999 13.105907729999998 20.28053017626648 
Si 6.52238568 15.02315928 18.995895781552736 
Si 4.39574247 15.910231229999999 18.44475104763641 
Si 5.65862472 15.49193661 23.368029823815274 
Si 6.78401937 13.687362989999999 22.419692355669042 
Si 7.05738186 15.88807683 25.206274924409183 
Si 4.2751475999999995 12.951006119999999 25.474004130537935 
Si 7.98293079 13.552041959999999 29.716606145478107 
Si 5.904115019999999 16.081113329999997 27.263820281731043 
Si 5.07431871 13.78440252 27.619228491018248 
Si 7.565646149999999 14.21297613 34.09555586025179 
Si 6.9542335799999995 14.49368541 31.650304910838656 
Si 4.51726587 14.074950959999999 31.645201718857948 
Si 9.5008167 1.3556928959999999 4.070052476693188 
Si 10.868753159999999 2.70998811 2.676069350188821 
Si 8.14477194 -7.98350094e-05 8.145139646145864 
Si 8.14700367 2.7151031699999995 5.4300702643568375 
Si 10.86072219 0.00211437684 5.430618258126578 
Si 10.85971221 2.71536381 8.145208145367082 
Si 12.206976659999999 1.3693716089999999 12.246941511873382 
Si 9.50262489 1.358730981 9.50166397352742 
Si 10.85604696 0.00164387277 10.865517717579252 
Si 8.97973218 1.92049326 15.156034937761092 
Si 10.86810156 2.78824527 13.887943104971383 
Si 9.17141661 1.5231426929999998 17.558782120408747 
Si 10.70555994 2.17320003 21.26883693999315 
Si 10.753077869999998 2.68482006 18.850026689969983 
Si 8.82779535 0.859864392 22.116960047498125 
Si 8.16244659 1.5045053039999998 24.415314417010247 
Si 11.78917074 0.5330983949999999 25.90219276236878 
Si 9.740817269999999 1.72818981 26.290823093946493 
Si 10.22515155 3.96387828 27.013181631296064 
Si 9.29298888 0.684494397 28.40275683291508 
Si 8.706451139999999 3.9468552299999997 30.760534276833422 
Si 8.78368203 1.9095138 32.05523805706615 
Si 10.6754886 0.977134473 30.424579846371994 
Si 12.219128999999999 4.068394919999999 4.068134498499097 
Si 12.16499733 6.85729179 1.3000878190204237 
Si 9.67050963 4.22875368 1.1873963252343878 
Si 8.162690940000001 5.44729455 2.690998755453184 
Si 9.5011425 6.7875054299999995 4.074778922957198 
Si 9.50207103 4.073037569999999 6.787622080056655 
Si 8.14527693 5.429701349999999 8.144899898871603 
Si 10.85984253 5.43276387 5.430378510852316 
Si 9.503911800000001 6.78713076 9.501766722359246 
Si 9.52039728 4.07080584 12.242694560157895 
Si 10.860347519999998 5.42852847 10.857914304024105 
Si 10.913257439999999 8.110367459999999 13.632989003599699 
Si 9.1520478 7.081116389999999 15.082021529235542 
Si 12.17664468 4.181512679999999 15.53233540951965 
Si 8.147133989999999 5.44566555 13.631721768007173 
Si 10.80709551 5.85102591 20.70604733846984 
Si 9.671601059999999 7.8097680899999995 20.134215839745817 
Si 9.83774277 4.8159756 18.842217778751184 
Si 9.243288089999998 7.353257129999999 17.656770256360435 
Si 11.26477935 6.18686055 17.201524432148666 
Si 11.96264295 5.075084339999999 23.891843368465803 
Si 11.84761926 7.479048509999999 24.055625006396944 
Si 8.16806664 6.87635109 24.549264644101147 
Si 10.27390752 4.30802082 22.41085595613198 
Si 8.91413235 5.9680532699999995 26.65547869809807 
Si 10.62135693 4.24333323 29.384898666732173 
Si 11.47869963 6.43469661 29.255298140188586 
Si 10.35087777 7.640808209999999 27.565319603920045 
Si 8.76509514 5.89227219 32.28347746216299 
Si 10.73045106 5.691660839999999 33.779603202385886 
Si 9.549898469999999 9.457322399999999 1.1316174093969449 
Si 10.83587994 8.14628691 2.710298411031226 
Si 8.15759217 10.871489879999999 2.670568862725053 
Si 8.1467919 8.14472307 5.430378510852316 
Si 9.50229909 9.502217639999998 6.787348083171785 
Si 10.859972849999998 8.14491855 8.14500264770343 
Si 8.14462533 10.86011946 8.14500264770343 
Si 10.859907689999998 10.86114573 5.430584008515969 
Si 8.144201789999999 8.14648239 10.86472997653525 
Si 9.520332119999999 9.49589712 12.227727480321862 
Si 10.8597285 10.85912577 10.858667795457498 
Si 9.503439389999999 12.216278249999998 9.501972220022898 
Si 8.247252329999998 10.891494 13.617747926878794 
Si 11.335461659999998 9.46963764 17.05017540286851 
Si 10.72932705 11.11950513 21.395834496130473 
Si 9.54685224 12.144569670000001 19.65040584028633 
Si 10.6469811 11.834685 17.361607112134056 
Si 9.358963379999999 9.3644694 21.86036196481722 
Si 11.06649747 12.092832629999998 23.49910308361504 
Si 9.75112884 8.515011059999999 23.984659813215572 
Si 9.91077084 10.71989514 24.958615990097165 
Si 10.99340424 11.201932529999999 27.008831930748748 
Si 9.51622704 9.770399909999998 28.179038376418596 
Si 11.58460092 10.208209949999999 34.150731982942524 
Si 9.49325814 12.192853229999999 30.838657638632025 
Si 11.81849274 9.82155051 31.63047438629618 
Si 9.71434602 9.813861629999998 30.528698662622656 
Si 12.218803199999998 14.932880099999998 4.068476994605184 
Si 9.501126209999999 12.2175 4.070292223967449 
Si 9.65625588 14.94082962 1.081126633437496 
Si 10.85893029 13.555870109999999 2.6747438902582616 
Si 8.171715599999999 16.295375699999997 2.685621566587607 
Si 8.14519548 13.57401717 5.430892255011448 
Si 9.502413119999998 14.93274978 6.78693708784448 
Si 10.85984253 13.57507602 8.144762900429168 
Si 8.143696799999999 13.5772263 10.865003973420121 
Si 9.49382829 14.94325683 12.249955477606955 
Si 12.038358869999998 15.28912611 16.827004940141766 
Si 9.444485879999998 12.233447909999999 15.146479296401246 
Si 10.86389874 13.56720795 13.637544201810664 
Si 10.00921131 14.41409247 20.051605778957462 
Si 9.855694349999998 15.563466 17.8643913958708 
Si 12.1911102 15.92042877 23.7352198991519 
Si 10.37073528 14.314039289999998 23.92825070454293 
Si 8.94982374 14.78597688 22.146551711064102 
Si 8.66230524 14.203723409999998 25.670185900104972 
Si 11.216137409999998 13.422292109999999 27.894766608365806 
Si 9.203312429999999 14.643667439999998 27.94117483074069 
Si 11.73731967 15.368344379999998 31.36055320508846 
Si 11.52952443 13.115877209999999 30.227267839654868 
Si 11.610485729999999 15.54515604 33.869987924782436 
Si 13.57602084 0.00740051442 2.6950950088819927 
Si 12.26456181 1.2552503849999999 1.098172664637481 
Si 14.933075579999999 1.3587782219999998 4.074059681134414 
Si 13.57532037 -0.00021528212399999998 8.144899898871603 
Si 13.576753889999999 2.71531494 5.431029253453882 
Si 12.21784209 1.3572143819999998 6.787211084729351 
Si 16.2927693 -0.004864405769999999 10.859489786112109 
Si 14.93375976 1.357831773 9.502896959509336 
Si 13.571834309999998 2.72070693 10.861818759633504 
Si 16.14167955 2.6781248699999995 13.62761181473412 
Si 13.683860639999999 0.0664496793 13.536713348178445 
Si 14.7825234 1.2458135879999999 15.24412493624685 
Si 13.51534059 0.6169642019999999 17.640878437037966 
Si 13.74626763 3.42972918 20.051811276621116 
Si 16.001373779999998 3.97669851 19.63283579004403 
Si 12.83992461 2.8683757799999996 17.767396498626763 
Si 14.62806162 2.3344384499999995 22.9248741121484 
Si 12.821761259999999 1.14994368 21.880911731182483 
Si 15.17032314 1.77306876 25.143529637773913 
Si 15.420162869999999 0.571625874 29.511793474037663 
Si 13.93834302 2.2656457800000003 28.79327089307628 
Si 16.275925439999998 3.6342012599999998 26.03066305176228 
Si 13.319828009999998 2.13995214 26.523275201148216 
Si 15.74659818 3.7103732999999997 28.335730344953717 
Si 13.947123329999998 2.46322719 34.14501229797086 
Si 12.24576315 2.8020917699999996 30.358889093224374 
Si 13.70427201 3.7364210099999995 32.06455395115173 
Si 16.28770311 8.14493484 2.6847756012055704 
Si 15.02938206 4.10211522 1.2960395150464672 
Si 13.5713619 5.44027356 2.6927591854384745 
Si 14.93159319 6.78828735 4.070052476693188 
Si 16.28973936 5.42944071 5.429145524870401 
Si 14.93283123 4.07207646 6.787690579277873 
Si 13.574750219999999 5.42999457 8.14503689731404 
Si 12.217304519999999 6.787391399999999 6.787861827330917 
Si 13.57540182 8.144120339999999 5.429522270587097 
Si 12.216913559999998 4.072923540000001 9.501732472748637 
Si 14.93283123 6.78638142 9.502143468075943 
Si 14.90916186 4.08841533 12.23639263180588 
Si 12.22036704 6.763608 12.227693230711253 
Si 13.46464611 5.444965079999999 13.837082433217358 
Si 14.61462237 7.22995812 14.920089370277276 
Si 15.79227534 5.99849928 18.45386144405834 
Si 14.663052539999999 7.130295899999999 21.267501205179407 
Si 13.095726479999998 5.71070385 20.137606551196086 
Si 13.59193617 6.919633619999999 18.15325261174517 
Si 16.23049263 5.923174319999999 22.600119304356046 
Si 15.261905520000001 5.3479907099999995 24.76031074467239 
Si 14.02191072 4.6108030499999995 22.865553786574008 
Si 14.89005369 7.4791788299999995 25.567950812437793 
Si 15.22054521 5.93664615 28.48807261294153 
Si 12.49335486 7.982132579999999 26.29486454799833 
Si 12.360167820000001 4.2943698 26.102518734819476 
Si 13.09009014 6.029710919999999 27.549975778367315 
Si 16.11263448 4.28798412 31.85179537005005 
Si 12.63004425 7.54547913 31.105667602937995 
Si 12.790500749999998 5.878670039999999 32.738620537542936 
Si 14.92726005 7.246720529999999 30.410640254854226 
Si 12.334967189999999 12.152942729999998 1.1664458384250032 
Si 13.29332418 8.52185286 0.10923570807561116 
Si 12.21564294 9.50413986 4.067860501614226 
Si 15.02139996 9.62809047 1.253104203187313 
Si 13.58998137 10.86600015 2.702688147553957 
Si 13.57514118 10.85977737 8.144831399650386 
Si 14.93208189 9.5030973 6.787793328109699 
Si 12.21557778 9.503569709999999 9.5027599610669 
Si 13.5755973 8.14368051 10.864181982765508 
Si 14.927830199999999 9.533054609999999 12.222007795350198 
Si 16.28819181 10.861797329999998 10.858702045068107 
Si 12.69103401 9.091465289999999 15.045648442769027 
Si 13.553784989999999 10.863507779999999 13.701077229489933 
Si 16.270566029999998 8.15839038 13.506368193179075 
Si 15.139600199999999 10.54008612 17.7608890726111 
Si 12.80776815 10.15547922 20.8308529195282 
Si 16.16490909 9.07387209 20.641075827145006 
Si 13.335287219999998 9.24760494 18.654392914172693 
Si 13.289772959999999 8.547248969999998 22.519118975266302 
Si 14.984079569999999 9.139960619999998 23.977741391872602 
Si 14.632036379999999 11.045890619999998 25.195691794731072 
Si 15.874442099999998 9.065482739999998 29.225261231684694 
Si 14.443414469999999 10.837394909999999 28.743506208861735 
Si 13.13633745 10.24953768 26.85621566587607 
Si 13.22945109 11.51618292 30.65186026237179 
Si 14.93113707 12.2183145 4.075361166337547 
Si 14.947068689999998 14.89906206 1.3436122241820487 
Si 13.576232609999998 13.574408129999998 5.4316457464448415 
Si 12.217793219999999 12.217809509999999 6.787587830446046 
Si 14.93221221 14.93252172 6.787793328109699 
Si 12.217614029999998 14.932179629999998 9.50248596418203 
Si 14.93327106 12.21720678 9.50221196729716 
Si 13.57540182 13.575010859999999 10.863222993668465 
Si 12.20811696 12.201372899999999 12.230159202675084 
Si 14.954317739999999 14.929296299999999 12.204026749780592 
Si 12.67876764 14.62082886 14.688664751393816 
Si 14.41326168 12.914679419999999 14.889435968782426 
Si 16.288403579999997 13.59193617 13.616377942454443 
Si 13.6440153 12.333843179999999 21.35120725350724 
Si 15.82001721 12.94440867 20.79769929645891 
Si 13.57628148 16.04488437 20.081163192912832 
Si 12.35935332 14.017805639999999 20.19983809367222 
Si 15.788398319999999 15.224259329999999 20.09496578598817 
Si 12.514922819999999 13.26714615 17.895524291914175 
Si 14.838137459999999 12.83143752 17.205257639705025 
Si 13.755227129999998 14.373123119999999 24.639238371170386 
Si 13.355731169999999 12.31411599 23.698470066968692 
Si 16.12100754 14.15532582 24.576013589986594 
Si 14.763610709999998 14.62363074 28.38364555019539 
Si 12.86988192 14.80471038 26.86871677374827 
Si 16.0076943 12.59959824 28.293363576630668 
Si 13.459531049999999 13.871521439999999 34.058566280794324 
Si 14.802853319999999 13.25481462 31.985129104149994 
Si 14.07239343 15.187655699999999 30.69028832547483 
