&CONTROL
  dt          = 30.D0,
  prefix = 'x2.00_y.66_z3.18_struc7-scf',
  pseudo_dir = './',
  outdir='./',
  wf_collect= .true.,
  verbosity= 'high',
/

&SYSTEM
ibrav= 6, celldm(1) =30.783621515, celldm(3) =2.1265850812889053, nat=  432, ntyp= 1,
  ecutwfc     = 12.D0, nbnd= 1728,
  degauss     = 0.05D0,
  occupations = "smearing",
  smearing    = "methfessel-paxton",
/
&ELECTRONS
  electron_maxstep=200,
  conv_thr    = 1.D-8,
  mixing_beta = 0.3D0,
  scf_must_converge=.false.,
/
ATOMIC_SPECIES
Si  28.08  Si.pbe-hgh.UPF
K_POINTS {automatic}
1 1 1 0 0 0
ATOMIC_POSITIONS (angstrom)
Si 0.00286679565 2.71899648 2.7344441586914026 
Si 2.71528236 0.01619155953 2.6881277097989025 
Si 1.3623001199999998 1.476730854 1.297418306332696 
Si 0.000421950096 0.000767869875 5.4307335404118255 
Si -0.000368751843 2.7150380100000002 8.144593380530361 
Si 2.7150380100000002 0.00014417236439999998 8.145286221949846 
Si 2.71388142 2.71578735 5.430802824553774 
Si 1.3575043439999999 1.357817112 6.7878020287549905 
Si 2.7193385699999997 2.7094179599999997 10.865277708630813 
Si 1.353563793 1.3403656349999997 12.220094462360654 
Si 1.357274655 4.07235339 9.503567182777108 
Si 2.79184536 3.6108739799999996 17.062501711417706 
Si 0.2909394 2.94699132 13.563895037520703 
Si 2.3143203 3.64444767 14.704519866417089 
Si 3.62043621 1.5625872989999998 14.55839961104793 
Si 3.1912272899999996 0.920552787 19.733405383528236 
Si 1.4353835759999998 2.5979129100000002 19.95120008374301 
Si 0.564652125 3.30812433 17.82518154598561 
Si 3.6022239899999997 1.405491426 17.406358907907578 
Si 0.519825303 1.28749644 23.107647022627877 
Si 1.9120387499999998 2.8481435999999998 24.197036228553426 
Si 3.54669138 4.04687583 22.931873154504807 
Si 3.0320414099999997 1.88087598 26.11554876117539 
Si 3.7624035599999996 2.66908392 30.189664160166714 
Si 0.301177665 2.60258814 28.126139918446768 
Si 0.14581455929999998 0.242538552 28.20682130174567 
Si 2.65406454 3.19873698 28.089800385994835 
Si 2.2544219699999997 3.28054536 34.49304078486527 
Si 3.15812601 0.428681124 30.871246906584027 
Si 1.0770100919999999 0.45176405399999997 32.6048747064167 
Si 2.74025493 3.8207869199999998 32.02940062339336 
Si 3.9787510499999996 4.17962304 1.2539979345736383 
Si 4.0697307 6.787407689999999 4.070997612603648 
Si 1.3584507929999998 4.070985029999999 4.078307089579203 
Si 0.462486132 4.99560543 0.12207484748526047 
Si 2.7137510999999996 5.4266551199999995 2.745522692988951 
Si 1.35562122 6.7256523 1.421184033302207 
Si 3.0954746699999998 7.7172246 0.2392817911572269 
Si 0.00263217078 5.42891943 5.430317835560135 
Si 2.715543 5.42981538 8.144766590885231 
Si 1.357647696 6.787375109999999 6.78804452325181 
Si 2.7141746399999995 8.143419869999999 5.430629614198903 
Si -0.00418175703 5.4299457 10.85897285171351 
Si 1.343271771 6.800993549999999 12.232981312763057 
Si 3.7970523899999997 7.145038349999999 15.157776723043472 
Si 2.88069102 5.59853091 13.52301739377115 
Si 1.5791444549999998 7.89519285 18.18254915015542 
Si 0.704539242 6.13896795 21.330231645083813 
Si 2.4751025999999996 4.513730939999999 20.826224154480233 
Si 3.74775885 7.3660122 19.05746929467972 
Si 3.8365230599999998 4.97602485 18.875148075142523 
Si 1.83374901 7.87644306 22.52583344061625 
Si 2.78008398 7.40377242 24.665119891556767 
Si 0.29976695099999995 4.48823709 24.779923714765253 
Si 1.405362735 6.114646979999999 26.040860456155023 
Si 1.66936662 6.49539315 29.72674216573853 
Si 2.79417483 5.56209018 27.874084210038514 
Si 0.6601082669999999 4.813092269999999 31.01951497035359 
Si 3.91898304 5.8998633300000005 32.38815391040213 
Si 1.97152983 7.602917669999999 32.72283095808385 
Si -0.0059401485 8.15079924 2.694810165289825 
Si 1.357955577 9.50301585 4.071274749171442 
Si 2.6844616799999996 10.86630966 2.706061909942244 
Si 1.274762547 12.18578337 1.219362792013637 
Si -0.000263894742 8.14514661 8.145078369524 
Si -0.000574305579 10.85982624 5.430421761773059 
Si 2.71536381 10.859598179999999 8.144801232956207 
Si 4.0812966 9.4964184 12.217946653960254 
Si 1.357997931 9.50285295 9.502216142009113 
Si 2.71899648 8.14366422 10.859527124849096 
Si -0.0016439216399999998 10.8595656 10.86351096301113 
Si 1.3496199839999998 12.21148899 12.23260024998234 
Si 2.7896950799999995 10.630381589999999 16.9226170288239 
Si 0.24813742499999997 8.15910714 13.93404556587999 
Si 2.17886895 9.0391581 15.166264030432151 
Si 2.67470397 10.7398341 13.568433148818322 
Si 3.77061372 8.35114995 21.23195208973002 
Si 3.3812338499999997 10.7118153 20.86419186426795 
Si 1.135564497 11.43258264 20.265680804046763 
Si 0.9039435029999999 10.14353865 18.258103506950143 
Si 3.57664869 12.035410379999998 22.75623785466563 
Si 0.55754154 9.656940059999998 23.42649264387438 
Si 2.1777612299999998 11.04616755 24.374611484367158 
Si 3.09466017 9.48459186 25.853412210113646 
Si 3.20302125 10.055442329999998 29.994421448156146 
Si 0.763833213 11.85594345 27.74809099790536 
Si 1.9677505499999999 9.78167259 27.962352206880766 
Si 0.37745070299999994 8.254159289999999 28.77744549483263 
Si 1.9934561699999997 9.82586736 31.980174240539025 
Si -0.0038851324199999995 13.587863669999999 2.685176205351901 
Si 1.356134355 14.92957323 4.067775900003048 
Si -0.000730898091 13.57505973 8.145043727453025 
Si 2.71580364 13.575727619999999 5.430387119702084 
Si 1.357484796 12.217597739999999 6.787386323903299 
Si -0.00190114074 16.2924435 10.860185324197607 
Si 1.357786161 14.933727179999998 9.503705751061002 
Si 2.71898019 13.57455474 10.861605649107547 
Si 2.43540387 16.01575785 13.647036007858775 
Si 3.05369082 13.04627004 16.505665062578476 
Si 1.22051196 14.323796999999999 15.543689393696019 
Si 2.89272933 14.870147309999998 20.031084699409508 
Si 0.809757981 13.769089919999999 19.659756340637095 
Si 0.7829755919999999 15.25022559 22.82999082376969 
Si 4.0614716699999995 15.263241299999999 24.12837564388257 
Si 2.88352548 14.30283177 22.337034153806883 
Si 1.4557542209999998 12.787356779999998 25.72135663556001 
Si 3.66578757 12.33330561 29.77704245279306 
Si 1.6076340359999999 13.339245689999998 29.38402815759081 
Si 3.5308249199999997 13.90349871 26.029428572733536 
Si 3.5213278499999996 16.00181361 27.078736902541944 
Si 2.18360934 15.61922667 28.987722865646003 
Si 2.8870441199999997 13.35615471 34.610408121325854 
Si 0.210326706 13.14213669 31.257159577236575 
Si 1.8458524799999998 14.3330823 32.71358152513373 
Si 6.790730849999999 4.07269548 4.0709629705326735 
Si 4.07165292 1.359020943 4.0696119297646804 
Si 5.420807009999999 2.7157221899999997 2.6719810405178293 
Si 6.70141278 1.2377793599999998 1.1507645630705334 
Si 5.43056472 2.71497285 8.144558738459388 
Si 6.78805929 1.357108497 6.7878713128969395 
Si 4.07372175 1.358524098 9.501523300589628 
Si 6.765644249999999 1.377321129 12.182057468430987 
Si 7.3134280799999996 3.6756756 14.935582479814979 
Si 8.134199729999999 0.1015199316 13.47157391837447 
Si 5.07894507 0.32912315999999997 16.007754576466354 
Si 5.508887039999999 2.74364325 13.597913551217363 
Si 5.32362087 1.3022144549999999 20.85012718345243 
Si 6.899124509999999 2.28574764 19.28929403363904 
Si 6.7890204 0.6966532529999999 17.532317477969755 
Si 7.64719389 3.19987728 23.276284624130263 
Si 5.21380998 1.78585641 25.229958858791036 
Si 5.39023068 2.5817858099999995 22.913305004462636 
Si 6.412591079999999 3.38423121 26.515595396785407 
Si 5.923956239999999 0.00975987657 26.663620966058147 
Si 7.47518778 2.76276771 28.583484539448104 
Si 7.50494961 0.42822826199999997 28.385747598327395 
Si 7.71618204 2.97538479 32.08098266707393 
Si 6.07651209 3.47258817 30.34645417339593 
Si 4.74480459 5.99315616 0.007187952590577932 
Si 6.652396169999999 6.7393359 1.271374397374295 
Si 4.0720113 4.072548869999999 6.787732744613042 
Si 5.429489579999999 5.42901717 5.430213909347213 
Si 6.78757059 6.787456559999999 6.787559534258171 
Si 6.78928104 4.073493689999999 9.501592584731577 
Si 4.0725 6.78833622 9.501350090234759 
Si 4.09787982 4.080693869999999 12.217253812540772 
Si 5.42953845 5.42875653 10.86011604005566 
Si 6.783253739999999 6.81107706 12.25224230422471 
Si 7.28703828 5.06820996 16.869129671239744 
Si 6.03174717 7.00610094 16.1878587034612 
Si 7.000106219999999 5.9898492899999995 20.713394929317275 
Si 7.854989129999999 7.92861993 19.65598035490091 
Si 6.171759719999999 4.540071869999999 19.001037361062753 
Si 5.6257515 7.20785259 22.33578703925181 
Si 4.501106189999999 5.95316421 24.0041491773691 
Si 7.83887832 7.047363509999999 25.42585977015012 
Si 5.96394819 5.624334269999999 25.8263567526828 
Si 6.29922897 5.75691858 29.652538849711803 
Si 4.99122342 6.492737879999999 27.768841598418906 
Si 5.77617336 7.14676509 31.49858016985575 
Si 8.141953769999999 10.87429176 2.6825053016797904 
Si 4.0849455599999995 9.614814119999998 1.3203929278027828 
Si 5.4332037 8.16805035 2.705254749688545 
Si 6.78828735 9.49858497 4.069785140119552 
Si 4.784633639999999 11.57161779 0.13341111879085646 
Si 4.07248371 12.21943851 4.069126940771041 
Si 4.0723370999999995 9.50239683 6.787420965974274 
Si 5.429359259999999 8.1453258 8.145043727453025 
Si 5.4304995599999994 10.86000543 5.430802824553774 
Si 6.7870167299999995 9.50251086 9.501904363370345 
Si 5.43054843 10.857333869999998 10.863407036798206 
Si 4.07129454 12.21727194 9.501315448163783 
Si 6.81614325 12.2072373 12.23260024998234 
Si 5.464105829999999 8.351768969999998 13.891712955149522 
Si 6.1393752 10.30958262 15.165294052444874 
Si 4.436679239999999 11.983901399999999 14.863977319111314 
Si 5.061498479999999 11.65166685 19.484294251152793 
Si 5.140048859999999 10.22779053 17.47820656310806 
Si 5.82691671 8.156549609999999 18.241024965959866 
Si 6.64791642 10.54643922 24.57169022613936 
Si 7.28760843 8.47042533 23.508317215515433 
Si 5.15104461 10.42170669 26.443505247088105 
Si 5.35579362 9.15305778 30.203590272698342 
Si 8.06172552 8.27036784 27.448575652262463 
Si 5.82359355 8.75209572 27.938449177908574 
Si 6.97663233 10.421788139999999 31.450081270491875 
Si 7.82670969 8.35916463 32.45813089377001 
Si 5.94850527 12.09152943 32.78480562305668 
Si 4.1013984599999995 15.019852409999999 1.2024574613782293 
Si 5.42176812 13.59379323 2.699244350374522 
Si 6.7647645899999995 12.3421185 1.2062507681499037 
Si 6.78757059 14.934052979999999 4.073595767926713 
Si 8.14408776 13.57569504 5.430421761773059 
Si 4.07284209 14.93258688 6.787698102542068 
Si 5.42988054 13.574668769999999 8.144628022601337 
Si 6.7872285 12.21818418 6.787455608045248 
Si 5.431379219999999 16.28899002 5.430317835560135 
Si 8.1435339 13.572779129999999 10.859007493784484 
Si 6.78810816 14.932440269999999 9.501835079228396 
Si 4.04570295 14.93680599 12.219955894076758 
Si 5.42828412 16.2960273 10.860912807688065 
Si 8.036948429999999 14.3324307 16.213251341485286 
Si 5.409648359999999 13.56797358 13.479506952627561 
Si 6.49762488 15.21243279 14.683145708626009 
Si 6.9520670099999995 12.30342975 20.83949206766335 
Si 7.6781123099999995 14.47755831 20.085160972200224 
Si 4.338629729999999 13.695752339999999 18.54778050443637 
Si 6.46527294 14.65031376 18.054373487550894 
Si 6.71649732 15.881039549999999 21.685693935350045 
Si 5.92063308 12.22668756 23.0074621533705 
Si 6.14867679 14.50715724 23.503744462146837 
Si 7.43285007 15.09133293 25.318538634272056 
Si 7.03672614 15.15061224 30.139744935892896 
Si 4.82773698 12.528932219999998 27.644511205692517 
Si 6.930352439999999 13.2237333 28.593080393107957 
Si 7.81836921 13.98662658 34.258721816795806 
Si 5.11362648 15.542793989999998 31.74038182525564 
Si 4.13034579 13.37752719 31.899631425524017 
Si 5.8233492 15.74824347 34.25387192685942 
Si 12.11071905 1.3738122629999998 1.3024829771091235 
Si 9.49943205 1.3574668769999998 4.07051262361001 
Si 10.85159979 2.7479438099999998 2.7083621434549303 
Si 12.21624567 4.07178324 4.0730761368621 
Si 8.14478823 0.000466690581 8.145009085382052 
Si 8.144120339999999 2.7151357499999995 5.430872108695723 
Si 10.86049413 -0.0008995891859999999 5.430317835560135 
Si 10.8600543 2.7150868799999994 8.14483587502718 
Si 9.50145201 1.357944174 9.502770415144699 
Si 8.14340358 2.7179865 10.857621810945517 
Si 8.963523630000001 0.25352289899999997 16.674579800648658 
Si 9.03909294 1.82400759 14.934889638395495 
Si 10.90177299 2.72399751 13.687082241904944 
Si 8.954547839999998 2.37806307 20.525461694282264 
Si 11.177481239999999 1.83976002 19.490876244637892 
Si 11.862410579999999 2.9555924399999998 24.946656002364062 
Si 8.36041896 1.076428539 22.456757151093704 
Si 8.47765809 3.29505975 25.495247838311432 
Si 10.09289304 1.562636169 25.824139660140453 
Si 9.82070343 3.45740589 28.971129313649364 
Si 10.87381935 0.237346929 29.940760880217116 
Si 9.786119759999998 0.1223206326 27.78446517242827 
Si 12.172751369999999 2.79093312 28.626648559881954 
Si 8.311711859999999 2.4768619199999997 34.46463428666643 
Si 10.249847189999999 0.823516515 34.40085823400293 
Si 9.86752089 3.4445205 31.39777174332084 
Si 11.23188984 1.498204332 32.14070559743345 
Si 8.43269769 7.80888843 0.07553114660716934 
Si 10.8554931 8.15110875 2.7254372202381116 
Si 12.07224207 6.784377749999999 1.274883639163981 
Si 9.435868469999999 4.098059009999999 1.265502566344169 
Si 8.11992969 5.42484693 2.701828648869197 
Si 9.50299956 6.79001409 4.070408697397087 
Si 9.502168769999999 4.07220678 6.7875248921871965 
Si 8.14555386 5.429489579999999 8.144766590885231 
Si 10.86013575 5.430173759999999 5.429902130708445 
Si 10.85984253 5.42585691 10.861640291178523 
Si 12.21828192 4.0752692999999995 9.501904363370345 
Si 12.22642692 6.79763781 12.230833504362657 
Si 9.504270179999999 6.78797784 9.502770415144699 
Si 9.51748137 4.06225359 12.217738801534411 
Si 10.17422901 6.022445579999999 14.985259209591975 
Si 8.2813473 5.47300017 13.594241491694099 
Si 10.90395585 7.9697521799999995 13.829634363963761 
Si 9.66057273 5.572124819999999 17.212501878735974 
Si 12.04766046 4.53687903 14.917083613914757 
Si 8.630718929999999 4.51325853 21.588453642125476 
Si 11.937996179999999 7.18968924 19.7490289575376 
Si 9.95406966 7.5987148499999995 18.438276918086938 
Si 10.64429325 5.51387178 22.17123720212438 
Si 11.191050809999998 5.1369700499999995 24.37585859892223 
Si 10.82514483 7.84371645 21.744342961509357 
Si 9.467324459999999 5.40239931 25.85684177514009 
Si 8.501767289999998 6.72319251 29.170633000389756 
Si 10.262423069999999 5.60512836 28.112560226624883 
Si 9.641904389999999 7.5207834899999995 31.087690566030805 
Si 10.44518058 5.57611587 32.34710305629771 
Si 10.092730139999999 5.984620199999999 34.632509762607384 
Si 9.621297539999999 9.550403459999998 1.2939056003359124 
Si 9.500165099999998 12.21878691 4.068919088345197 
Si 12.219063839999999 9.50169636 4.075327871475423 
Si 8.14534209 8.1453258 5.4307335404118255 
Si 9.50306472 9.502022160000001 6.787836670825965 
Si 10.86049413 8.14495113 8.144905159169129 
Si 8.14457646 10.860510419999999 8.145147653665948 
Si 10.86139008 10.85870223 5.430698898340851 
Si 8.14180716 8.14677561 10.865589487269581 
Si 9.50663223 9.490456259999998 12.264955944272238 
Si 10.86223716 10.86137379 10.863718815436975 
Si 11.03329845 9.5087988 17.155099967131733 
Si 8.254208160000001 10.92159792 13.855893053762204 
Si 10.732878269999999 11.818753379999999 17.287294109969267 
Si 8.73965016 8.9989218 21.621640746118754 
Si 9.053411849999998 11.332219949999999 21.358707427424605 
Si 10.589102729999999 12.21686469 19.69741227178605 
Si 9.87188661 12.07343124 23.49972598191383 
Si 11.67600411 10.557891089999998 23.90074259551113 
Si 8.66022012 11.384510849999998 25.46292678609251 
Si 11.69141445 9.12280725 25.809901768970054 
Si 8.15210244 11.587728599999998 29.79159212260223 
Si 10.27982079 10.81002771 29.115378897185913 
Si 9.758524499999998 9.86173794 26.994348817648802 
Si 11.546205389999999 10.26553446 34.501805228821745 
Si 11.24958078 9.284762429999999 30.68449150196214 
Si 11.52563112 11.16969462 32.25977039537177 
Si 9.464375969999999 15.00437691 1.1261929421285362 
Si 10.8510948 13.581266219999998 2.678136936529944 
Si 8.13921705 16.28724699 2.68555380392552 
Si 9.501842969999998 14.93276607 6.787628818400119 
Si 10.85994027 13.574847959999998 8.145147653665948 
Si 9.50194071 12.21790725 9.501835079228396 
Si 9.503292779999999 14.938272089999998 12.222588691470797 
Si 10.859467859999999 16.28962533 10.860912807688065 
Si 9.36205848 12.47214528 15.354439759963984 
Si 10.81107027 13.638330089999998 13.706481801650495 
Si 10.640872349999999 16.199574209999998 18.22959308253838 
Si 11.62653138 15.03728271 21.651779347866302 
Si 10.09061244 14.5301913 19.86892516517929 
Si 10.67605875 14.396320079999999 23.706019514565167 
Si 9.27572148 16.22298294 24.3070248038965 
Si 11.993333309999999 13.95622944 25.61244196441714 
Si 11.24521506 12.96014481 29.081880014553867 
Si 8.233552439999999 13.35345057 26.646334572642026 
Si 10.31728779 14.11895025 27.257974977762437 
Si 10.72416312 14.373188279999999 30.887736532367747 
Si 8.46713475 13.86912681 31.596478662428826 
Si 14.15016189 2.18518947 0.2029297875597443 
Si 14.93454168 1.35881406 4.069577287693706 
Si 13.574978279999998 9.47765232e-05 8.144870517098155 
Si 13.57507602 2.7144027 5.430491045915007 
Si 12.2173371 1.357434297 6.787143829406481 
Si 14.93331993 1.3554224819999998 9.502458636505931 
Si 13.57421265 2.71352304 10.86534699277276 
Si 12.218917229999999 1.352625489 12.232738818266236 
Si 14.947036109999999 4.08538539 12.236168383292682 
Si 15.225122699999998 1.480115916 14.705836265114108 
Si 15.03589806 2.01552912 16.939764853956127 
Si 13.65782922 0.0771957036 13.622925126460732 
Si 13.50185247 3.9511232099999996 16.766935561865864 
Si 12.467665529999998 0.9044322029999999 21.23839551493122 
Si 15.809070329999999 2.2422859199999996 21.18300284344348 
Si 14.59056204 0.510474843 20.21150060504312 
Si 12.85942374 3.3453469799999995 18.87698410490416 
Si 14.13458865 3.87900738 21.85253014916177 
Si 13.20312645 2.1029412599999997 23.209494711292013 
Si 15.02056917 1.265719968 24.625073657510598 
Si 15.37119513 3.02629104 26.140941399199473 
Si 15.391378439999999 3.41430255 30.006511530926144 
Si 14.834488499999999 0.0044177991299999995 29.96248145871794 
Si 13.23336069 3.7182902399999995 26.710976677079874 
Si 12.8764305 0.510116463 28.77605981199366 
Si 15.958808009999998 0.484052463 34.64553518129368 
Si 15.321038219999998 1.592826426 31.546698006438906 
Si 13.439771279999999 2.63445138 32.65430894169688 
Si 14.962853699999998 4.07264661 1.3905639067681148 
Si 13.55298678 5.44110435 2.6981496609317372 
Si 14.930355149999999 6.790665689999999 4.067741257932074 
Si 14.93315703 4.0718809799999995 6.7878020287549905 
Si 13.575369239999999 5.42989683 8.144766590885231 
Si 12.21712533 6.78809187 6.787732744613042 
Si 13.573414439999999 8.14612401 5.430248551418187 
Si 14.932928969999999 6.78823848 9.501973647512292 
Si 13.73147631 5.60371113 13.642428612419206 
Si 15.17323905 6.72105852 15.331194930340299 
Si 15.433699859999999 5.2647488099999995 17.340157910275888 
Si 12.31136298 4.929353999999999 20.542263098704748 
Si 15.95289474 6.74445096 19.20847408205624 
Si 15.377466779999999 5.54167881 22.96824732902771 
Si 14.114356469999999 7.51096062 23.63808641338477 
Si 12.45393306 6.93471816 25.15797263530666 
Si 13.205472209999998 4.372398899999999 30.060864940284652 
Si 15.821287829999997 7.264704689999999 26.815976794202662 
Si 13.729847309999998 6.050040839999999 26.866935280605706 
Si 12.549180689999998 6.29023689 28.830032158571463 
Si 13.9553172 7.144663679999999 32.38500148194348 
Si 12.75005268 5.087562479999999 32.27508219074235 
Si 16.253999099999998 6.25070106 32.748639300959624 
Si 12.24758763 12.13595226 1.3359021829779305 
Si 14.898915449999999 9.515054159999998 1.2209875051423267 
Si 13.587945119999999 10.84469283 2.720570009266237 
Si 14.93229366 9.50264118 6.787732744613042 
Si 13.574799089999999 10.86033123 8.144697306743284 
Si 12.2184774 9.50312988 9.501696510944502 
Si 13.575743909999998 8.14382712 10.860254608339556 
Si 14.941481219999998 9.49138479 12.254875101618747 
Si 14.93270091 12.21692985 9.501904363370345 
Si 12.205087019999999 12.2160339 12.2472884880754 
Si 13.94995779 8.467020719999999 16.643679073339673 
Si 15.26972472 10.44812907 16.850769373623418 
Si 12.27449871 9.28782495 15.200074691702968 
Si 13.45272183 10.71391671 13.688675777169758 
Si 14.868730079999999 11.98758294 14.967626395466109 
Si 13.918697279999998 10.01227383 20.696697451107713 
Si 12.98677896 12.013321139999999 19.92099219785351 
Si 13.99745943 8.2099971 19.10250398694618 
Si 13.16580606 11.99939319 24.951332681945576 
Si 15.71292675 10.981317059999999 21.910867396682317 
Si 12.71822202 9.031159709999999 22.440025030813167 
Si 15.36836067 8.847571409999999 25.11162154434318 
Si 14.78017764 11.276475569999999 28.161301620485578 
Si 13.25955501 8.175788099999998 30.16177729303249 
Si 15.08752107 9.66692583 29.874698450869325 
Si 13.818481199999999 10.217625570000001 26.28207319634835 
Si 16.16513715 10.859484149999998 32.00684863518916 
Si 15.73322409 11.33743275 34.53215168299514 
Si 13.239697499999998 8.37608994 34.53024636909156 
Si 12.2199435 14.93289639 4.070304771184165 
Si 14.932994129999999 12.216490019999998 4.070131560829293 
Si 14.837713919999999 14.974745399999998 1.182576376846138 
Si 13.548751379999999 16.2842985 2.6932824499598627 
Si 13.57388685 13.57406604 5.430179267276239 
Si 12.21824934 12.2170113 6.787975239109862 
Si 14.932668329999998 14.931967859999999 6.7875248921871965 
Si 12.21699501 14.93219592 9.502839699286648 
Si 13.57678647 13.57336557 10.863753457507949 
Si 14.93573085 14.93382492 12.230556367794863 
Si 12.51811566 15.35342274 17.163621916591385 
Si 12.38198013 14.875930259999999 14.88912746263858 
Si 12.763491929999999 13.023594359999999 16.427477908389715 
Si 16.225833689999998 13.481571419999998 13.687012957762997 
Si 13.55974713 13.659751439999999 21.514388894382645 
Si 15.54999417 14.847944039999998 21.07467708750717 
Si 14.56837506 16.219496879999998 17.939015391206823 
Si 16.02049824 14.292634229999999 17.558991872619888 
Si 14.49710631 12.415781879999999 17.948611244866672 
Si 14.687503829999999 12.6933309 23.346469459923988 
Si 16.1644041 14.09344011 24.635223784306035 
Si 15.35415579 15.74513208 26.141772808902857 
Si 13.36923558 15.089980859999999 27.14715499271598 
Si 13.565416049999998 13.24399806 28.69853085715341 
Si 13.91341932 13.167369899999999 34.55317942007648 
Si 12.733143659999998 13.267928069999998 32.23150246545682 
Si 14.40277092 14.11205958 30.726997323047474 
