&CONTROL
  dt          = 30.D0,
  prefix = 'x2.00_y.66_z3.17_struc19-scf',
  pseudo_dir = './',
  outdir='./',
  wf_collect= .true.,
  verbosity= 'high',
/

&SYSTEM
ibrav= 6, celldm(1) =30.783621515, celldm(3) =2.114852743146671, nat=  432, ntyp= 1,
  ecutwfc     = 12.D0, nbnd= 1728,
  degauss     = 0.05D0,
  occupations = "smearing",
  smearing    = "methfessel-paxton",
/
&ELECTRONS
  electron_maxstep=200,
  conv_thr    = 1.D-8,
  mixing_beta = 0.3D0,
  scf_must_converge=.false.,
/
ATOMIC_SPECIES
Si  28.08  Si.pbe-hgh.UPF
K_POINTS {automatic}
1 1 1 0 0 0
ATOMIC_POSITIONS (angstrom)
Si 2.7083591099999995 -0.0026975588399999998 2.7111072682858395 
Si 3.0235868999999997 2.4945528599999998 0.07584376903566917 
Si 1.3872808349999999 1.364176728 1.3476729790591544 
Si 1.360127034 4.07046375 4.074996310068178 
Si 4.0707081 1.356983064 4.069863118341485 
Si 0.0017155487699999999 -8.762439869999999e-05 5.431433611109014 
Si -0.000231813216 2.7147447899999997 8.145479545531009 
Si 2.7151846199999996 0.000226869201 8.144997232214406 
Si 2.71290402 2.7142235099999996 5.430021122110395 
Si 1.357286058 1.357338186 6.787939814052224 
Si 2.7153801 2.7150705900000003 10.860524557537392 
Si 1.348474797 1.363186296 12.225643498277064 
Si 1.8401672699999998 3.6080558099999998 15.255053439854413 
Si 3.6234172799999995 1.82812896 14.828826271782962 
Si 2.04055056 3.87679194 17.74682183722524 
Si 3.28596993 3.36194649 21.46562976298282 
Si 1.505166678 2.69695611 19.98151723684719 
Si 2.2178672099999996 0.48187774799999994 19.46899043605516 
Si 3.80896038 2.06400816 23.401842121530482 
Si 2.5098003 0.05494454099999999 23.62391295287453 
Si 0.311889969 0.53427942 24.37439247350729 
Si 3.1911784199999995 3.2125671899999997 25.370989589411828 
Si 2.47280571 1.92331143 30.05952288914897 
Si 0.0311495751 1.68254523 30.018043943921196 
Si 0.554306346 1.213919397 26.667103274926223 
Si 0.16608795299999998 0.0644453577 34.25334052985718 
Si 2.6689536 3.8629943099999995 31.36910689657704 
Si 1.252744983 3.3765260399999995 33.240172506432245 
Si 0.1086101541 5.08814892 0.030177482946009353 
Si 2.7088803899999996 5.4165879 2.721511455543969 
Si 1.224954243 6.6204189 1.3926659213078865 
Si 0.013189296239999999 8.13086028 2.7234165931445466 
Si 3.03358896 7.5120846299999995 0.23584294359010793 
Si 0.000734248944 5.42940813 5.430124474963952 
Si 2.7152497799999997 5.43009231 8.145307290775078 
Si 1.357419636 6.78726108 6.787457500735621 
Si 1.358245539 4.071050189999999 9.502226905132517 
Si 0.0016455343499999998 5.43100455 10.867173591116263 
Si 1.366151076 6.783253739999999 12.260749017535455 
Si 2.8313648999999996 5.41362312 13.87546509961668 
Si 1.563255189 6.166758689999999 17.77004177832451 
Si 2.52780075 7.23072375 19.85539230455576 
Si 2.49339627 5.176310399999999 22.698284796412867 
Si 1.263972051 4.12034373 24.393719457122558 
Si 0.995229405 6.55400457 21.565537521421813 
Si 0.3275919 5.49365589 26.04040602190426 
Si 2.66750379 7.02149499 28.90090294981734 
Si 1.74104262 7.2623263499999995 26.79918822177281 
Si 1.68594984 5.91292791 30.716089116849076 
Si 2.72354139 7.29655164 32.359089429853896 
Si 4.0442531399999995 9.42703929 1.3648467782253053 
Si 1.3572290429999998 9.502478279999998 4.07048323546283 
Si 2.71213839 10.86816672 2.697599050325864 
Si -0.0001473226875 8.14498371 8.144962781263219 
Si 2.71639008 8.145928529999999 5.42964216164735 
Si -0.000764747082 10.85992398 5.429676612598535 
Si 2.7147936599999998 10.86008688 8.145169486970335 
Si 1.3576444380000001 9.502478279999998 9.501813493718288 
Si 2.7150868799999994 8.14602627 10.863728495997675 
Si -0.0024513029099999997 10.8580995 10.865003181191552 
Si 0.851209515 9.98972847 14.941446431209535 
Si 2.7762395399999997 10.904395679999999 13.79391969815975 
Si 0.631195146 9.34453044 17.21686285513317 
Si 0.41213374199999997 11.536773479999999 18.238505812549825 
Si 2.93097825 9.5641848 19.935456315111697 
Si 0.5165216909999999 9.80289846 19.749593433463982 
Si 3.73355397 10.398591179999999 22.200158493216527 
Si 1.9968770699999998 11.92714704 22.758367255281005 
Si 0.8982876149999999 8.41728735 22.98963649059168 
Si 3.10914198 8.63726751 23.690058779151382 
Si 0.384647625 10.44961146 21.97874222994501 
Si 3.2735080799999996 8.95205547 25.974294646578596 
Si 2.32964919 9.28940508 29.664646086656653 
Si 0.04741351109999999 9.320975099999998 28.978899903302125 
Si 1.99339101 10.86238377 26.563922676124577 
Si 0.33316959599999996 9.141084629999998 26.686878120906908 
Si 3.01782024 11.31247647 28.630531884910717 
Si 2.1569589 9.496125179999998 31.98295394480668 
Si 4.05736659 15.05849229 1.1790941396213892 
Si 0.01602585765 13.587309809999999 2.7120374439678576 
Si 1.5302972609999999 12.43042659 1.2727214896591987 
Si 1.3571280449999998 14.931967859999999 4.075995387652568 
Si -1.306907604e-06 13.574733929999999 8.145066134116778 
Si 2.713914 13.57615116 5.43029672971988 
Si 1.35772263 12.21756516 6.787457500735621 
Si -0.001418622795 16.294235399999998 10.859525479953001 
Si 4.06350792 14.9307624 12.229191946249207 
Si 1.357603713 14.932945259999999 9.502605865595562 
Si 2.71318095 13.57346331 10.859801087562486 
Si 1.381273083 12.2197806 12.241215328213073 
Si 2.66281227 16.2898371 13.612500989215015 
Si 0.0658109484 13.5446463 13.701418894225718 
Si 0.954175347 15.35363451 15.095304379205583 
Si 1.2465450089999999 15.07745385 17.754194340779016 
Si 2.76499944 15.517072079999998 21.43793119822939 
Si 1.506621375 13.612412699999998 21.205697336285514 
Si 2.07182736 13.07454948 18.955843518141787 
Si 1.67984109 12.63786345 25.0319233278406 
Si 2.9240387099999996 14.68988217 25.314145519955158 
Si 3.3141516299999996 15.080614109999999 29.24858194918503 
Si 2.49266322 16.11092403 27.212909694563795 
Si 3.0952466100000002 16.27572996 31.270232666673625 
Si 2.9059730999999998 13.77725121 33.916685834868964 
Si 2.5090509599999997 13.08823308 30.141550603922504 
Si 0.424361016 13.874535089999998 30.952870504349487 
Si 1.493437878 15.22732185 32.649614301204245 
Si 8.1360405 -0.021245743799999998 2.71563756836678 
Si 5.43670605 2.73080673 2.703738209827184 
Si 6.743587589999999 1.2853917719999999 1.3699971954275911 
Si 8.14403889 2.71596654 5.430572337329368 
Si 5.4309231 -0.00079340445 5.42964216164735 
Si 5.4295547399999995 2.71544526 8.145066134116778 
Si 6.78730995 1.3573919429999999 6.787423049784435 
Si 4.07232081 1.359850104 9.502261356083704 
Si 5.42872395 -0.00046448165699999996 10.863349535534631 
Si 6.80369769 1.365299109 12.245004932843518 
Si 5.0530602600000005 0.615830418 16.289477700161022 
Si 6.4518825600000005 2.6515233 16.716945102475165 
Si 5.49730485 2.8635213599999996 13.61811649425831 
Si 4.37103054 3.3960414599999997 18.112725389770254 
Si 7.2485612999999995 3.6630019799999998 20.636085309378515 
Si 5.9576113799999995 0.21239390699999997 19.987132741890484 
Si 4.30031565 1.085818095 18.53350930755434 
Si 7.0954353 1.549980468 21.62661905787434 
Si 6.120755729999999 1.9623096899999999 23.754447606917754 
Si 6.6636036899999995 3.96754353 25.042258613196356 
Si 5.99437791 0.38745765 25.53011853293931 
Si 6.276194909999999 0.528439455 29.15546102812965 
Si 8.11419561 2.94782211 26.69245917499902 
Si 4.11511464 1.4367698549999999 26.641885178658175 
Si 7.59737907 0.689251077 27.25828159727557 
Si 4.54505661 2.12986863 28.819013038848553 
Si 7.801215839999999 0.454639239 30.94987327159632 
Si 6.73174476 1.95880734 32.66253340789894 
Si 5.129606969999999 3.96070173 31.584390890537474 
Si 5.04302562 0.757744011 34.23342788007175 
Si 4.10289714 4.15629576 1.2994037513526469 
Si 6.788710889999999 4.07149002 4.074066134386159 
Si 4.07333079 6.785599499999999 4.068760687903537 
Si 4.992999029999999 6.0268113 0.1840872796235916 
Si 6.82989201 6.90062319 1.4067598054380215 
Si 8.141057819999999 5.41608291 2.699614430970237 
Si 4.07220678 4.07235339 6.787664206442736 
Si 5.42989683 5.4283655699999995 5.4310201996947844 
Si 6.787440269999999 6.78766833 6.787423049784435 
Si 6.78858057 4.073037569999999 9.501985748474217 
Si 4.07373804 6.788417669999999 9.502399159888448 
Si 4.0682483099999995 4.08807324 12.229329750053951 
Si 5.42535192 5.42807235 10.860662361342133 
Si 6.796106549999999 6.8027365799999995 12.221784991744247 
Si 6.5964726 4.55199615 15.068260382524684 
Si 4.80786318 6.395975279999999 15.251642795687012 
Si 6.389654759999999 8.078211 21.08377542003876 
Si 5.05581327 4.32435969 20.163866121473944 
Si 4.8363381 6.66735039 19.84071619935058 
Si 7.79403195 7.0130893499999996 17.948394352613704 
Si 5.37763851 7.415403479999999 17.551037081636004 
Si 6.18834294 7.49245518 23.358812883499347 
Si 4.10952717 6.50256075 23.83092871855036 
Si 7.74579726 5.85386037 24.02381959423999 
Si 4.58801334 5.0850864 25.73007185362204 
Si 5.546940479999999 4.19441436 29.304151333447823 
Si 4.56181902 5.898201749999999 28.011896154466243 
Si 6.1207394399999995 7.577163179999999 28.36202117136813 
Si 7.86411153 4.28435145 28.66091762385664 
Si 6.22866069 7.63779456 30.852411530691523 
Si 4.91588217 6.233254469999999 32.222215800792476 
Si 5.426117549999999 8.16482493 2.738964307414725 
Si 6.786365129999999 9.5027715 4.075754230994266 
Si 5.515631099999999 10.71090306 0.08511141941417717 
Si 4.07280951 9.50304843 6.787939814052224 
Si 5.43001086 8.145032579999999 8.144997232214406 
Si 5.432356619999999 10.86072219 5.4304689844758105 
Si 5.42771397 10.86202539 10.864830926435623 
Si 6.7899978 9.50345568 9.502743669400306 
Si 4.05935397 9.495880829999999 12.24879453747396 
Si 8.06868135 10.83812796 13.627659407736793 
Si 5.4662724 8.14169313 13.655185717734295 
Si 6.304148549999999 9.9008991 14.954124381245933 
Si 4.797242099999999 11.82044754 15.025782359712519 
Si 6.97031181 10.43824104 21.028722800043756 
Si 5.968737449999999 11.32441704 19.049481203464953 
Si 4.571022869999999 9.611099999999999 18.19971404151455 
Si 6.62395383 9.53733888 24.57010832719416 
Si 5.892858629999999 11.25396279 22.930139697893697 
Si 5.50686708 9.263797199999999 26.711958413370212 
Si 6.70338387 11.09762766 29.751221326986716 
Si 5.302346129999999 11.28900258 27.877985307206806 
Si 7.47179946 9.90125748 33.3918255935524 
Si 6.0113358 9.80073189 31.528304742006895 
Si 4.11255711 10.693326149999999 32.630769630905576 
Si 4.074471089999999 12.2165226 4.070758843072317 
Si 5.41100043 13.60420254 2.7005687223180845 
Si 6.74521659 12.27168054 1.3260653424753834 
Si 6.78760317 14.933173319999998 4.0747896043610625 
Si 4.07227194 14.93263575 6.787560853589179 
Si 5.42981538 13.57486425 8.144928330312034 
Si 6.7877171999999995 12.21720678 6.78804316690578 
Si 8.14438098 13.5746199 10.8592843232947 
Si 4.0721742 12.218493689999999 9.501916846571845 
Si 6.78879234 14.93120223 9.502054650376587 
Si 6.790584239999999 12.238921349999998 12.223231931694054 
Si 5.69353419 12.72952728 17.1739025190044 
Si 7.4578878 14.2843752 16.902739082220503 
Si 5.52333627 13.71155364 13.633447167536017 
Si 6.56785107 15.3966564 15.012415390652405 
Si 4.90824216 14.634984869999998 20.98273078021063 
Si 4.44572019 13.2203124 19.099710690293936 
Si 7.7369029199999995 15.69416067 18.71051829474728 
Si 6.10356978 13.73317047 22.901717663165364 
Si 5.26140936 14.462685539999999 25.028891644136245 
Si 6.18549219 13.30588377 26.869364809338407 
Si 5.5680849 14.625764729999998 28.755829994373688 
Si 7.8235657199999995 14.440335659999999 31.85948173575656 
Si 4.10090976 12.83396247 31.83636514751085 
Si 6.178797 13.256476199999998 30.578147508300898 
Si 8.47767438 2.2445339399999997 0.05241126556758328 
Si 9.50242941 1.3586446439999997 4.065625651345624 
Si 10.862611829999999 2.7372575699999997 2.7002414382818194 
Si 10.36718406 0.614721069 0.23764093873249792 
Si 9.476463149999999 4.08181788 1.1873038012889794 
Si 8.145162899999999 8.37455868e-05 8.144997232214406 
Si 10.86011946 -0.000637937577 5.430055573061581 
Si 10.86026607 2.71453302 8.145066134116778 
Si 12.198750209999998 1.380834882 12.209554904073268 
Si 9.5027715 1.358133138 9.504087256496552 
Si 8.14236102 2.71498914 10.862867222218028 
Si 10.8600543 -0.0033168720599999995 10.860248949927904 
Si 8.30539134 0.1306648593 13.731529025562159 
Si 9.97731549 0.9123524009999999 15.28778184348098 
Si 10.86731964 2.66642865 13.755989200904118 
Si 8.6091021 1.4302375649999999 17.443171153473077 
Si 10.582521569999999 0.202167045 20.366196557788495 
Si 8.7254127 4.0368249 17.651943917659388 
Si 10.724342309999999 2.80389996 19.40618635204334 
Si 10.499540309999999 2.25596952 23.38089594320948 
Si 9.15975297 0.6546641489999999 22.254418741334256 
Si 10.28931786 2.52688851 25.77258432738539 
Si 12.18353535 1.2374665919999999 29.72383282079396 
Si 11.06307657 0.32768801099999995 26.42167469867816 
Si 11.04002622 0.35265895199999997 32.52758903210393 
Si 9.5071698 3.68507493 30.278837644398156 
Si 9.99189504 1.393894575 30.72880151783666 
Si 9.505948049999999 6.785322569999999 4.070965548779432 
Si 9.5027715 4.07269548 6.787629755491551 
Si 8.14478823 5.4302877899999995 8.144446016995433 
Si 10.86137379 5.42968506 5.430262278768696 
Si 10.8629865 5.42965248 10.861213576561108 
Si 12.223527299999999 6.77422908 12.239802839214452 
Si 9.50153346 6.787554299999999 9.500848867085082 
Si 9.50656707 4.06889991 12.240457407286982 
Si 9.82811538 6.7562774999999995 15.079456941660087 
Si 8.275743539999999 5.5815404399999995 13.62976091575913 
Si 8.399759309999999 7.13146878 20.322891712147868 
Si 10.53756117 5.17318272 18.672449993686907 
Si 10.545005699999999 4.21526556 22.02979853960245 
Si 11.666523329999999 5.97624714 23.16102997274133 
Si 8.4852981 5.26452075 21.835185116353532 
Si 11.19619845 6.19945272 25.496804463142585 
Si 9.00384138 7.0292653199999995 25.704061385476717 
Si 9.305238959999999 7.9317639 29.40051064391467 
Si 11.38172526 6.894058319999999 29.702335427253985 
Si 11.38548825 4.58692191 29.148536386941295 
Si 11.63915613 4.2394725 26.775451516405752 
Si 8.1632448 6.55690419 27.87795085625562 
Si 8.42235354 7.36725024 31.536883028852174 
Si 11.44919844 6.0194808 32.01082476431604 
Si 9.25097697 5.242121999999999 32.08799489497237 
Si 8.489859299999999 7.8537348 34.430762928464354 
Si 10.341804239999998 5.97080628 34.32155341320518 
Si 9.52031583 9.5125455 1.3971032038206253 
Si 10.87460127 8.14794849 2.709629322479966 
Si 8.13100689 10.873086299999999 2.7081789374350413 
Si 10.97136387 10.690882649999999 0.018970898583810007 
Si 8.1448371 8.146042559999998 5.4298833183056505 
Si 9.50259231 9.50251086 6.787629755491551 
Si 10.860103169999999 8.14464162 8.144928330312034 
Si 8.14465791 10.860445259999999 8.14479052650729 
Si 10.861634429999999 10.85889771 5.430985748743598 
Si 8.14545612 8.142312149999999 10.860765714195692 
Si 9.5096133 9.50213619 12.240939720603585 
Si 10.86046155 10.86111315 10.86303947697396 
Si 9.332052299999999 8.31176073 16.757562773923294 
Si 11.05037037 8.22039012 13.686570534264613 
Si 9.653242229999998 11.96197506 14.948095464788405 
Si 9.325438559999998 10.88484768 20.96626322554379 
Si 10.1799468 8.705457449999999 20.44526149076004 
Si 11.206330829999999 8.21631762 18.34130745088843 
Si 11.57674914 8.18276022 22.276708506751504 
Si 10.4992308 11.8850211 22.84177300810197 
Si 10.881052109999999 9.79102305 23.875473798433674 
Si 8.928532709999999 9.42467724 25.248344203190168 
Si 8.8832628 10.306015109999999 29.245619167383047 
Si 9.352105289999999 11.04292584 27.044892405630357 
Si 11.67856164 11.17746495 27.115447953659 
Si 10.073182139999998 11.231824679999999 31.11069031173191 
Si 9.204697079999999 11.524914359999999 33.2707305001341 
Si 9.502380539999999 12.21600132 4.070724392121131 
Si 9.44666874 14.94087849 1.2580901706905643 
Si 10.85824611 13.585631939999999 2.6968617999704865 
Si 8.144055179999999 13.57541811 5.429607710696164 
Si 9.502185059999999 14.9325543 6.787457500735621 
Si 10.85984253 13.575173759999998 8.144824977458477 
Si 12.22046478 12.215496329999999 12.248208871303802 
Si 9.50334165 12.21981318 9.501641238962357 
Si 9.49327443 14.934167009999998 12.23690895931484 
Si 11.778223859999999 15.42579921 15.04517824523016 
Si 9.34936857 13.00547988 16.957137134142975 
Si 10.839349709999999 13.564911059999998 13.704932891246676 
Si 11.437160129999999 13.33758411 18.313643337086184 
Si 9.016938539999998 14.55990426 20.319412166078095 
Si 12.17732886 14.803863299999998 20.152049445217195 
Si 9.50236425 12.5051814 19.28936317657209 
Si 8.373092579999998 14.673673619999999 22.646780624390008 
Si 9.60139116 13.533862319999999 24.328710512234842 
Si 12.20653683 13.45461147 22.055223341577616 
Si 11.534134499999999 14.647886549999999 25.23976591634489 
Si 11.07856836 14.34862296 29.066129711704722 
Si 8.576799029999998 13.285537559999998 26.514175502612193 
Si 9.42226632 15.36752988 27.60454810764464 
Si 11.783469239999999 14.451901559999998 31.982816141001937 
Si 8.15796684 13.497828839999999 34.103754499808176 
Si 9.829548899999999 13.516415729999999 30.858716054758535 
Si 16.2934209 2.7053454599999998 2.719795798174913 
Si 12.2797278 1.441347345 1.3184413469779528 
Si 14.93371089 1.3564080269999998 4.07106890163299 
Si 12.214470059999998 4.07484576 4.074203938190903 
Si 14.89075416 3.9334974299999996 1.342401983527718 
Si 13.57499457 -4.7299644e-05 8.144756075556105 
Si 13.57556472 2.71601541 5.429435455940235 
Si 12.217304519999999 1.357813854 6.787733108345108 
Si 14.932798649999999 1.356290739 9.50195129752303 
Si 13.57556472 2.7152334899999997 10.861316929414667 
Si 16.298144999999998 2.68108965 13.783756667559922 
Si 13.9062843 0.0189214866 16.54999579302849 
Si 15.44472819 0.6783253739999999 14.774944984128279 
Si 12.793775039999998 1.67117481 15.333636059509358 
Si 12.459308759999999 3.9353707799999995 15.295705562253728 
Si 15.71836761 3.01751073 21.110750514817283 
Si 13.750828829999998 1.6638931799999999 20.810820533793194 
Si 12.499365869999998 3.50937099 17.70365479538936 
Si 12.659121899999999 1.337257503 22.92021782395217 
Si 16.038335789999998 2.58194871 23.419446557586458 
Si 13.862333879999998 3.06243855 24.06230130671459 
Si 13.68447966 3.13357698 26.39273589968204 
Si 15.29026641 3.6965268 29.432756734224636 
Si 15.920477639999998 3.51964998 27.169570397971984 
Si 13.044966839999999 1.134543114 27.51711159353493 
Si 15.265554479999999 0.45402999299999997 28.19679440948075 
Si 13.77865215 2.66385483 34.17513687066528 
Si 13.09217526 3.3355566899999998 30.239012344827298 
Si 15.7988565 1.82720043 32.57644048088548 
Si 13.57074288 5.422501169999999 2.693285791237394 
Si 12.251399489999999 6.83386677 1.2217788681406687 
Si 14.931023039999998 6.78828735 4.069828667390299 
Si 14.932375109999999 4.07245113 6.787560853589179 
Si 13.57540182 5.42986425 8.145135036019148 
Si 12.217532579999999 6.78760317 6.787595304540365 
Si 14.931918989999998 6.7888575 9.501710140864729 
Si 13.57870869 8.14379454 10.861730340828895 
Si 12.21720678 4.07334708 9.502640316546747 
Si 14.93501409 4.0655930399999995 12.25802739239177 
Si 13.55350806 5.343804179999999 13.781207297172168 
Si 14.5240011 7.152971579999999 15.164964202503391 
Si 15.702631469999998 7.06722102 17.368343687497394 
Si 15.22308645 5.33618046 21.231501098723722 
Si 14.227620839999998 6.3629880299999995 19.315442546619785 
Si 12.5112087 5.93928513 17.7091669475791 
Si 13.923274769999999 5.361527699999999 23.268895900904255 
Si 14.74922664 6.6067027199999995 25.117740647244577 
Si 14.839408079999998 7.777888559999999 29.93725646339036 
Si 12.91985964 7.63764795 26.194711832265725 
Si 13.037799239999998 7.98117147 28.51377761134184 
Si 13.06822896 4.25084292 32.437844304264765 
Si 15.67198998 5.69333871 30.62400172432928 
Si 14.887186649999999 5.770178639999999 32.87836861707835 
Si 13.96426041 7.84286937 34.118086095501496 
Si 12.239377469999999 12.20692779 1.317390592966784 
Si 15.967588319999999 11.30744286 0.184225083428335 
Si 12.21725565 9.501289109999998 4.075547525287152 
Si 15.030962189999999 9.40956012 1.2732485892123426 
Si 13.577324039999999 10.837867319999999 2.703521168834713 
Si 13.57541811 10.85933754 8.145410643628637 
Si 13.57246962 8.146107719999998 5.429848867354465 
Si 14.931918989999998 9.50220135 6.787491951686807 
Si 12.21688098 9.50117508 9.502778120351492 
Si 14.933368799999998 9.49964382 12.231362356173916 
Si 12.884103089999998 8.9974557 15.168926061889765 
Si 13.625542439999998 10.81646226 13.750511499665567 
Si 15.297841259999998 11.848010219999999 15.03584203745879 
Si 16.25903271 8.16386382 13.710100533924553 
Si 14.60247003 8.60830389 19.969907266297554 
Si 13.035469769999999 9.60899859 17.543767930935786 
Si 13.16530107 12.00217878 17.294411946252538 
Si 14.412610079999999 10.751253389999999 22.311400614595666 
Si 14.559008309999998 10.942888949999999 24.59739348053336 
Si 15.55348023 8.742973319999999 24.60194100608989 
Si 13.928959979999998 8.497238669999998 22.232542387331232 
Si 12.61702854 9.89469261 25.4361018871531 
Si 14.971601429999998 11.21455728 29.11170832012361 
Si 12.817607309999998 10.29226635 28.95147694615818 
Si 12.39585921 10.800791279999999 31.25631448239454 
Si 15.31209501 12.062321459999998 31.2271689776913 
Si 14.006011679999999 9.012735719999998 31.995976404354938 
Si 16.154059949999997 10.22567283 32.51439431779974 
Si 14.11075638 12.93932619 0.049955601767055234 
Si 12.21727194 14.93234253 4.07048323546283 
Si 14.93242398 12.21321573 4.067313747953731 
Si 15.02602632 14.94628677 1.259550891020845 
Si 13.57958835 16.2829953 2.693764659458878 
Si 13.57545069 13.57562988 5.430021122110395 
Si 12.217548869999998 12.21699501 6.787629755491551 
Si 14.93309187 14.93265204 6.788112068808152 
Si 12.21740226 14.932880099999998 9.503053727960978 
Si 14.93214705 12.21795612 9.501744591815916 
Si 13.57650954 13.57269768 10.861075772756363 
Si 14.932863809999999 14.91167052 12.23625439124231 
Si 13.46207229 16.257012749999998 13.543392381136181 
Si 13.08782583 13.358744819999998 15.384933525825103 
Si 15.253760519999998 15.105749579999998 18.335691945845134 
Si 14.164741439999998 12.62681883 21.053320779190457 
Si 14.40355284 15.742297619999999 20.413876674229723 
Si 14.796907469999999 12.790386719999999 18.733772686797735 
Si 15.627778919999999 14.26627701 21.827537005190273 
Si 12.96615582 15.248010149999999 23.511981812471674 
Si 15.230791619999998 14.86175796 24.06112997437427 
Si 15.642798299999999 12.94994727 25.451053599967764 
Si 12.98532915 15.36270804 30.08742815960952 
Si 15.18327369 14.70666087 29.266599796655235 
Si 12.3211044 13.40466633 27.189758655366894 
Si 14.698971989999999 13.080006629999998 27.656327887276987 
Si 13.358370149999999 12.688671959999999 32.31065139248658 
