&CONTROL
  dt          = 30.D0,
  prefix = 'x2.00_y.66_z3.16_struc22-scf',
  pseudo_dir = './',
  outdir='./',
  wf_collect= .true.,
  verbosity= 'high',
/

&SYSTEM
ibrav= 6, celldm(1) =30.783621515, celldm(3) =2.1107125888071807, nat=  432, ntyp= 1,
  ecutwfc     = 12.D0, nbnd= 1728,
  degauss     = 0.05D0,
  occupations = "smearing",
  smearing    = "methfessel-paxton",
/
&ELECTRONS
  electron_maxstep=200,
  conv_thr    = 1.D-8,
  mixing_beta = 0.3D0,
  scf_must_converge=.false.,
/
ATOMIC_SPECIES
Si  28.08  Si.pbe-hgh.UPF
K_POINTS {automatic}
1 1 1 0 0 0
ATOMIC_POSITIONS (angstrom)
Si 0.013537820789999998 2.71852407 2.6854482542199474 
Si 1.388191446 1.533692097 1.0262789489231754 
Si 0.0001463746095 2.7151357499999995 8.144799775525017 
Si 2.71555929 -5.42610126e-05 8.144696625000803 
Si 2.7130180499999996 2.7142072199999996 5.429946745202179 
Si 1.3575124889999999 1.3572306719999998 6.787063808790953 
Si 2.71712313 2.7124967699999996 10.858036780968488 
Si 1.378332738 1.370725308 12.221411643026304 
Si 4.07401497 1.3613683319999998 9.502776426815585 
Si 2.8377017099999997 3.5594138699999998 17.022346491565372 
Si 0.22928175 2.92317534 13.569313926451873 
Si 2.68486893 0.0285948144 13.705953987528684 
Si 3.95082999 2.16378441 19.99119049601363 
Si 1.8255062699999998 2.76025905 18.917737374016124 
Si 0.280398141 1.0275275879999999 18.609523607661682 
Si 1.63235574 3.30613695 24.803746970280923 
Si 2.3391625499999997 3.86328753 22.63005597349808 
Si 2.11595697 0.10059074999999999 22.67664562693519 
Si 3.58440273 1.9343560499999999 22.2858426741926 
Si 1.374760341 1.63429425 27.953929596299158 
Si 2.11615245 3.5193730499999996 29.131633514769966 
Si 2.71707426 1.6212769109999998 26.031685194044435 
Si 2.71324611 3.1566762 34.0998441300777 
Si 0.5649974729999999 3.6097011 30.912492931833988 
Si 0.0758898972 1.319533983 31.582283669070097 
Si 4.07033343 6.78814074 4.068153524515658 
Si 1.357067772 4.07064294 4.072417079516545 
Si 2.7164552399999997 5.43312225 2.6950997049356644 
Si 1.2908310029999999 6.84593766 1.3253191953240948 
Si -0.00674493966 8.15161374 2.73770430978727 
Si 0.000427641822 5.43120003 5.433900848630421 
Si 2.7147773699999997 5.430190049999999 8.144593474476588 
Si 1.3574489579999998 6.7865280299999995 6.788095314033103 
Si 2.71393029 8.14441356 5.43163153709769 
Si 1.35850455 4.07232081 9.50250135875101 
Si 1.362862125 6.79134987 12.246305302870192 
Si 0.8008457219999999 6.26332581 16.501745795852234 
Si 1.54860885 4.28941764 15.199367277113556 
Si 2.8172903399999996 5.487628589999999 13.654172424372753 
Si 2.30624046 8.06449482 15.98767796667271 
Si 3.1745789099999997 6.60701223 19.843341411305452 
Si 0.23384295 4.393885409999999 19.612593688636483 
Si 0.9266256989999999 6.562768589999999 19.043718547590718 
Si 0.1601214147 4.24675413 21.937812805491166 
Si 0.470986254 8.03507508 23.630547291367503 
Si 2.67382431 7.16413023 23.895919206664644 
Si 3.5184608099999997 5.79440187 22.115609925729768 
Si 1.96398756 5.5806282 25.539691577046923 
Si 2.53632042 5.52688749 27.793530531144825 
Si 1.66943178 7.500144059999999 28.80186128885459 
Si 1.546541649 4.84166493 32.75565526552387 
Si 3.5044676999999997 6.48923553 32.57713609161577 
Si 2.6823439799999997 8.09481051 34.2361403560738 
Si 4.06446903 9.52341093 1.2384939607415164 
Si 1.359900603 9.50497065 4.074995842621919 
Si 2.7047590199999996 10.84666392 2.7057929759459536 
Si 4.07487834 12.216620339999999 4.072176394960043 
Si 1.108627353 11.92939506 1.3156299227494985 
Si -0.00040781200499999994 8.14495113 8.14507484358959 
Si -0.0006216703829999999 10.85819724 5.429946745202179 
Si 2.7153801 10.85984253 8.145624979718738 
Si 1.3581184769999999 9.50365116 9.50229505770258 
Si 2.7115356599999996 8.146172879999998 10.86260978754202 
Si -0.0017317247399999999 10.856454209999999 10.863778826816455 
Si 1.3948866359999998 12.2131017 12.22667231976127 
Si 0.11180055059999999 8.27797527 13.690618942928719 
Si 3.0114182699999996 10.89499635 13.868863048772253 
Si 1.1133335340000001 10.05177708 15.055506679341692 
Si 3.3256034999999997 9.705044430000001 17.390731397045233 
Si 3.2396574599999997 10.56950586 21.229409388690573 
Si 0.9449600939999999 11.027580659999998 21.159404566256654 
Si 3.79547226 8.88396327 19.625349970131072 
Si 0.373814775 11.59072596 18.928293110994126 
Si 2.03025528 11.673023039999999 17.252681612137483 
Si 3.06553365 11.93530833 24.921304184377956 
Si 3.07534023 10.744134659999999 27.009792848159204 
Si 1.1412138689999998 9.51876828 27.6043524697345 
Si 3.08635227 8.14490226 30.64595197726241 
Si 0.1167657426 10.33750368 31.48367176792055 
Si 1.7817350399999998 12.148935389999998 32.19582298710096 
Si 2.02442346 9.35153514 32.331947295556695 
Si 3.59772795 12.11435172 30.629826111976797 
Si 2.6907170399999996 16.2966789 2.6827113269774423 
Si 3.72628863 14.59691514 1.4266130101032315 
Si 1.354208877 14.940520109999998 4.070354069032244 
Si 3.3062184e-05 13.574847959999998 8.145109227097661 
Si 2.7155267100000002 13.57455474 5.428090035766309 
Si 1.357115013 12.21706017 6.787992163508888 
Si 1.360063503 14.93364573 9.50184807209765 
Si 2.7161620199999996 13.57243704 10.861715816332156 
Si 0.11710538909999998 13.58035398 13.607101401822637 
Si 0.681334137 15.51506841 14.836380582400947 
Si 3.4791856199999995 15.35948262 17.637811286048247 
Si 2.07980946 14.68043397 21.117834904998006 
Si 1.388277783 15.245810999999998 18.866265262432837 
Si 3.94522623 13.01588919 17.859481762586295 
Si 0.636046308 13.097502089999999 22.151093706059733 
Si 0.8687375549999999 12.683589479999998 24.456301621216706 
Si 2.5588820699999997 15.8003226 24.914874468368552 
Si 2.19188466 16.064122859999998 29.13538131714978 
Si 0.7856878769999999 14.56470981 25.856638754451566 
Si 1.3745485709999998 14.139882899999998 28.09266705136834 
Si 3.2035913999999996 12.63160809 28.36147731747265 
Si 3.7866430799999997 16.271461979999998 32.482340759862176 
Si 2.93739651 12.722066459999999 34.35548551259056 
Si 1.68326199 15.88582881 31.466067411787858 
Si 0.14359341779999998 13.937886899999999 31.788481566975896 
Si 6.78926475 4.07204388 4.070629137096818 
Si 8.130990599999999 -0.0148480092 2.7259554650791804 
Si 4.0718809799999995 1.35946566 4.068600510120589 
Si 5.42654109 2.71352304 2.6982973711863303 
Si 6.60414519 1.122708429 1.3612362078557603 
Si 8.145309509999999 2.71546155 5.430049895726394 
Si 5.4319656599999995 -0.00082435545 5.430668798871684 
Si 5.43009231 2.71484253 8.14483415903309 
Si 6.787586879999999 1.3572828000000001 6.787476410887813 
Si 5.4291312000000005 -0.0018928165499999998 10.864569647502105 
Si 6.797816999999999 1.3725058049999999 12.246305302870192 
Si 4.3579333799999995 0.8846203049999999 15.327514611696664 
Si 5.44224465 2.66967036 13.78744290165854 
Si 7.42154481 3.2294925 17.514408875579026 
Si 5.719809959999999 3.77264997 19.34966300241243 
Si 7.03053594 0.478298835 19.194387079960773 
Si 5.84654616 2.4033125699999998 23.00462991043084 
Si 7.330011299999999 0.92703132 21.526895500526653 
Si 6.616672199999999 2.1762136799999996 25.283671975945275 
Si 7.63176726 1.109399499 29.255242226287617 
Si 4.78300464 2.6583813899999997 26.696387172085938 
Si 5.3973819899999995 1.576195965 28.67237299745668 
Si 4.24719396 2.2460000399999998 32.510053867367944 
Si 6.67062468 2.30303133 32.73547214628581 
Si 4.202298719999999 2.92560255 30.216054975842333 
Si 7.21547631 0.378330363 31.443752515049344 
Si 4.184477459999999 4.17388896 1.237723770160711 
Si 6.893944289999999 6.84240273 1.2334911603170884 
Si 5.4389052 8.15260743 2.684289529997932 
Si 8.14438098 5.418738179999999 2.6959833610931065 
Si 4.0725 4.0723370999999995 6.787098192299024 
Si 5.42898459 5.4296199 5.429740444153749 
Si 6.78794526 6.78659319 6.787270109839382 
Si 6.78937878 4.07404755 9.501229168952358 
Si 4.07359143 6.787521719999999 9.502019989638006 
Si 4.07955357 4.06150425 12.245720783232976 
Si 5.43085794 5.42877282 10.861922117380585 
Si 6.805131209999999 6.764503949999999 12.219761234638865 
Si 5.756592779999999 6.09039117 16.25267166338106 
Si 6.739498799999999 4.248089909999999 15.18771126787726 
Si 4.13059014 7.077614039999999 14.852815899259204 
Si 7.57967184 7.70367132 16.458732027254577 
Si 4.41006138 5.16186117 17.93725725784441 
Si 7.505031059999999 7.3904472 20.834377264455167 
Si 6.95247426 5.09754825 20.913424949511935 
Si 5.628260159999999 4.94725671 22.81792746160168 
Si 8.065895759999998 7.75226439 23.163172266149306 
Si 6.14968677 6.867749969999999 24.22631033572531 
Si 7.789763969999999 4.195473209999999 25.7468865966868 
Si 5.1984648 4.97452617 29.75617555538376 
Si 6.555568409999999 6.08576481 26.388895459401002 
Si 7.98447834 7.6401729 27.498141813301118 
Si 4.779388259999999 4.989920219999999 27.457741191316902 
Si 5.480526149999999 5.59967121 34.07797621894412 
Si 7.45363611 5.093068499999999 30.271962559966866 
Si 7.224012269999999 4.607333279999999 32.59491236528882 
Si 8.142018929999999 10.85065497 2.667837021385638 
Si 6.788662019999999 9.50171265 4.068944345201306 
Si 4.07214162 9.50270634 6.7876827119362435 
Si 5.42991312 8.14488597 8.145281144638021 
Si 5.4288542699999995 10.8580995 5.431150167984687 
Si 6.78831993 9.50282037 9.503051494880157 
Si 4.05052479 9.52503993 12.209205497660863 
Si 5.42318535 10.86254667 10.861715816332156 
Si 4.84164864 10.70599977 15.651029039142998 
Si 5.52170727 8.26168527 13.432811399407347 
Si 6.80838921 9.42537771 14.99860197348308 
Si 6.094023839999999 9.09705276 20.052943276510348 
Si 6.490734209999999 11.276947980000001 20.82901343719599 
Si 8.118137789999999 8.4867642 18.731825745872612 
Si 4.470383249999999 8.49577257 24.672814571544006 
Si 6.24697065 11.82536712 23.117373433397844 
Si 4.2642495899999995 10.5340914 23.425621583260355 
Si 6.76642617 9.67930623 27.580559082148906 
Si 6.785452889999999 10.29249441 29.88844891093547 
Si 8.02139148 11.54662893 26.84657433534299 
Si 4.5667874699999995 8.898005249999999 27.051190591877493 
Si 4.5762193799999995 9.9983133 30.770764111562567 
Si 4.88556648 11.368611809999999 34.33017925064981 
Si 7.90892532 8.425448639999999 31.722877833575154 
Si 5.423006159999999 13.582830060000001 2.7122364453585845 
Si 6.67556055 12.243010139999999 1.2503287642197847 
Si 6.78753801 14.933205899999999 4.075855430323712 
Si 5.03325162 15.972735959999998 0.10267809481410219 
Si 4.07256516 14.93263575 6.787751478952386 
Si 5.42981538 13.57476651 8.144971693065376 
Si 6.786984149999999 12.21763032 6.787545177903956 
Si 4.0721742 12.21973173 9.500060129677921 
Si 6.78763575 14.931739799999999 9.501744921573433 
Si 4.0584906 14.9340204 12.246545987426696 
Si 6.803404469999999 12.221556210000001 12.252047348718163 
Si 5.71259349 12.86577684 16.128065830129334 
Si 5.6275108199999995 13.804097129999999 13.645954765943621 
Si 6.404071409999999 15.6133134 14.983301312391188 
Si 7.9264370699999995 13.1031873 17.13605275275838 
Si 4.41343341 14.46350004 21.1597140178293 
Si 4.4883999900000005 12.33366399 20.198694967226153 
Si 4.769011529999999 16.22901024 19.494727022966803 
Si 7.74283248 15.105081689999999 22.520785184846314 
Si 5.65023537 14.09741487 23.16698883554526 
Si 4.23587241 14.099711759999998 25.146413011723173 
Si 4.486673249999999 15.77803788 28.91876521629826 
Si 4.91707134 13.992409529999998 27.45554064680032 
Si 7.171867979999999 13.48678422 27.929929907665134 
Si 7.33449105 12.652084619999998 30.135356882398124 
Si 5.35721085 15.31082439 31.050198881661025 
Si 5.55080121 13.042637369999998 31.669308327999495 
Si 8.39658276 2.1246395399999995 0.16342171934891617 
Si 9.502478279999998 1.3594233059999998 4.0669157182250775 
Si 10.3495257 0.63430002 0.16849741281045594 
Si 10.867645439999999 2.7338855399999997 2.690158794825766 
Si 9.400177079999999 4.02009507 1.2125825490587068 
Si 8.14459275 -1.63879029e-05 8.14504046008152 
Si 10.860103169999999 2.7150543000000003 8.144937309557305 
Si 9.50339052 1.358975331 9.503842315565805 
Si 8.14052025 2.7137999699999997 10.85889636867028 
Si 10.86213942 -0.00362488338 10.863297457703451 
Si 8.32394565 0.214654959 13.680338274015291 
Si 10.23710841 1.100117457 15.181178401343642 
Si 10.901023649999999 2.80679958 13.64155367691045 
Si 11.03101785 1.120642857 19.706151214099492 
Si 9.47998179 1.8389781 21.348513860650833 
Si 10.76327541 2.3792522399999996 17.43515488947383 
Si 10.5977853 0.843044967 23.18999140244521 
Si 10.73838429 2.80440495 24.4553388829907 
Si 8.324532089999998 0.53190108 25.938574654186354 
Si 12.210104340000001 1.7803015199999999 29.543135339371698 
Si 8.63053974 3.22752141 29.45160644088492 
Si 10.180223729999998 1.9179031500000001 26.485788185146966 
Si 9.4366341 3.9082479299999995 27.412423727678448 
Si 11.846788469999998 0.6387439319999999 27.493775107776013 
Si 10.524464009999999 2.8803000599999997 30.772483286966153 
Si 10.56209391 0.7180289910000001 32.16453399475574 
Si 12.20972967 4.07753361 4.069047495725521 
Si 9.50793543 6.7819505399999995 4.067465854354224 
Si 9.50272263 4.07256516 6.78720134282324 
Si 8.14457646 5.43012489 8.145006076573447 
Si 10.862106840000001 5.43066246 5.431047017460473 
Si 10.86064074 5.428414439999999 10.862128418429016 
Si 8.14355019 8.14410405 10.862506637017804 
Si 9.5032602 6.78910185 9.50253574225908 
Si 9.49798224 4.07227194 12.215635213670264 
Si 8.21095821 5.3886505499999995 13.666000351149405 
Si 9.43234983 6.8368967099999995 15.08617676854162 
Si 10.255711589999999 4.7019456 16.028525574261852 
Si 10.75366431 4.7964601799999995 20.179680887262517 
Si 11.45955888 6.944769089999999 19.509649465469902 
Si 11.45222838 7.91804772 17.399189740030863 
Si 9.40822434 4.397110829999999 18.200394245116893 
Si 12.02159646 7.25550084 23.107505366581275 
Si 9.20748267 4.426514279999999 23.890796063961968 
Si 9.930155939999999 6.60290715 24.02729859100649 
Si 9.00063225 4.135884389999999 21.587135406668217 
Si 10.00699587 7.32676959 26.27735535921651 
Si 10.88347932 6.561611999999999 29.87084455480278 
Si 8.57626146 7.109249219999999 29.77364237748417 
Si 10.98918513 5.69157939 27.679274133822666 
Si 11.037338369999999 4.98708576 31.750075188459842 
Si 8.543942099999999 7.67017908 34.040223127081426 
Si 9.3348216 5.39749602 33.57656152073497 
Si 9.65672829 9.34648524 1.0607209089585663 
Si 10.88543412 8.14379454 2.6821439990942597 
Si 9.50223393 12.21844482 4.067018868749292 
Si 12.20689521 9.509515559999999 4.075030226129991 
Si 8.14358277 8.14570047 5.429706060645677 
Si 9.50308101 9.50298327 6.787717095444315 
Si 10.860298649999999 8.14470678 8.145143610605734 
Si 8.14486968 10.86026607 8.14507484358959 
Si 10.86137379 10.8598914 5.432216056734909 
Si 12.218428529999999 9.502673759999999 9.501951222621862 
Si 9.505622249999998 9.50773995 12.231073408794446 
Si 10.858620779999999 10.85893029 10.862678554558164 
Si 9.503976960000001 12.219959789999999 9.502982727864014 
Si 11.57924151 11.45998242 16.27158259282048 
Si 10.90589436 8.19579222 13.606895100774206 
Si 8.26513875 10.86081993 13.764199650202093 
Si 11.86913835 8.584113239999999 21.15703210419971 
Si 9.42440031 10.30712283 19.587081125647302 
Si 11.43162153 10.522020509999999 18.408414468950493 
Si 10.222105319999999 10.19003031 21.826650923895464 
Si 9.14815449 9.72957717 23.861570082101046 
Si 8.18471502 11.743851959999999 24.514203448809397 
Si 10.74258711 9.4605804 25.66677302287981 
Si 11.093375969999999 10.4993937 29.725299165135404 
Si 10.33512534 11.05717959 27.426864801068547 
Si 11.19484638 10.58270076 34.087019081566964 
Si 9.09842112 10.33970283 31.171400747613657 
Si 9.460710719999998 11.842015499999999 32.98932558637894 
Si 9.49030965 14.960051819999999 1.3233799654688525 
Si 10.87109892 13.56815277 2.6929472973303783 
Si 8.142165539999999 13.574717639999998 5.431150167984687 
Si 9.50205474 14.933140739999999 6.7876139449201 
Si 10.860217200000001 13.574978279999998 8.145006076573447 
Si 10.85925609 16.28763795 5.430668798871684 
Si 12.217728059999999 12.23056458 12.24087270859487 
Si 8.14400631 13.57584165 10.86078746161422 
Si 9.495555029999998 14.93494893 12.235130662746903 
Si 11.88591705 15.668520209999999 14.68815327910398 
Si 9.56739393 12.29707665 15.338001581658524 
Si 10.858979159999999 13.64535108 13.705575768939896 
Si 9.34901019 13.87833066 21.07097018349632 
Si 8.24260968 12.292824959999999 19.70952079789052 
Si 10.325774879999999 15.216456419999998 19.339382333499 
Si 8.42577444 15.374387969999999 17.840330148590375 
Si 10.873151459999999 12.46913163 22.299561693913198 
Si 9.273897 15.477585119999999 24.236040868509594 
Si 10.130865029999999 13.220882549999999 24.446433554400137 
Si 11.397054149999999 12.97218312 26.49249296922094 
Si 8.426507489999999 15.53591961 27.897093657456693 
Si 10.76827644 14.8677201 27.890148188826213 
Si 8.236614959999999 13.503269699999999 34.1979058950981 
Si 9.407442419999999 13.381159859999999 31.146128869180977 
Si 8.860277609999999 15.32799405 32.357047256449015 
Si 11.37230964 14.27249979 30.09543762952692 
Si 12.293329949999999 1.496339127 1.2492284919614913 
Si 14.93460684 1.3556668319999998 4.068772427660948 
Si 13.574587320000001 -2.8420022699999997e-05 8.144868542541161 
Si 13.57595568 2.71625976 5.4289496234681005 
Si 12.216604049999999 1.357289316 6.787132575807096 
Si 16.28977194 -0.0006838656030000001 10.863331841211524 
Si 14.932440269999999 1.358538759 9.50226067419451 
Si 13.57175286 2.71334385 10.858208698508845 
Si 12.21365556 1.385620884 12.214259873347398 
Si 14.92646184 4.09325346 12.24764625968499 
Si 14.781057299999999 1.2566953079999998 16.910875158397022 
Si 13.73427819 0.171815517 13.455779582799222 
Si 15.483921929999998 1.122012846 14.654663742242175 
Si 12.838751729999998 3.96597969 21.031532299738117 
Si 13.0324887 1.615396221 20.930376018991264 
Si 15.10387623 0.6653731949999999 20.382956186982227 
Si 13.22671437 2.97963648 17.45667896552669 
Si 12.71349792 3.9671199899999996 24.84294416948262 
Si 16.11040275 0.49232289599999995 22.5447161064642 
Si 12.88708416 0.611669952 23.028216996968006 
Si 15.919907489999998 2.5948666799999995 23.548542624616573 
Si 13.923926369999998 2.0455678799999997 24.578053623298487 
Si 13.87303641 3.25026225 28.766721343605344 
Si 14.857343369999999 0.075365685 29.96949083946039 
Si 13.977911429999999 0.629341344 26.439920585379358 
Si 15.30074088 1.5007211369999998 28.109171135242743 
Si 15.75303273 1.228888278 33.80868458372681 
Si 13.84105914 2.70932022 34.09303619547951 
Si 14.97336075 4.12190757 1.2685967220582623 
Si 13.58760303 5.43268242 2.702062365320178 
Si 12.934439189999999 7.2700478099999994 1.3755466239151888 
Si 14.941741859999999 6.77784546 4.080462820405315 
Si 14.933433959999999 4.0729887 6.78782024596853 
Si 13.574880539999999 5.43051585 8.14504046008152 
Si 12.21715791 6.787684619999999 6.7876827119362435 
Si 16.28519445 5.4324869399999995 10.861922117380585 
Si 12.219552539999999 4.07243484 9.502776426815585 
Si 14.933287349999999 6.78905298 9.501435470000787 
Si 12.2233644 6.78366099 12.240322572465722 
Si 15.10736229 7.1130284999999995 15.243343783937219 
Si 13.628523509999999 5.58188253 13.817837922793895 
Si 12.49325712 4.319977679999999 15.545677970411404 
Si 15.4970028 8.04362733 19.798849151860715 
Si 14.20012332 4.387646339999999 19.139854836159106 
Si 13.74445944 6.69206232 18.847904469122565 
Si 15.59060514 5.96127663 23.277222362423036 
Si 13.31766144 5.32285524 22.9825900817569 
Si 16.06664781 4.91148387 25.29508730062507 
Si 15.680037239999999 6.63087708 29.153638959935833 
Si 14.247559799999998 8.10689769 26.36197317258089 
Si 14.89391442 5.94220104 26.999374645213486 
Si 12.97837332 4.65084387 27.0792131509559 
Si 16.084517939999998 5.7325487399999995 34.240610212123116 
Si 14.832957239999999 4.71209427 30.377176094666172 
Si 13.34473542 4.8020802300000005 32.40404951198299 
Si 13.92030999 6.8132925 33.64185580256307 
Si 12.293704619999998 12.173859089999999 1.2576593281406647 
Si 14.93584488 12.21732081 4.073689269315196 
Si 16.105760099999998 10.24052931 0.06905171159017136 
Si 14.576275709999999 9.13163643 1.5035564244660122 
Si 13.581266219999998 10.857268709999998 2.7225171142720135 
Si 14.932847519999997 9.502380539999999 6.787717095444315 
Si 13.57525521 10.85964705 8.144971693065376 
Si 13.57595568 8.14488597 5.428193186290524 
Si 13.578252569999998 8.14394115 10.86116568020301 
Si 14.94617274 9.49161285 12.219692467622721 
Si 12.407685749999999 9.64069893 14.994063350417619 
Si 13.695605729999999 10.93070403 13.560958733990457 
Si 15.50491974 11.85066549 14.90360034068106 
Si 13.800399299999999 8.510905979999999 16.670878272056772 
Si 15.014395259999999 9.9370629 18.487324619974974 
Si 13.15588545 10.287525959999998 19.9744801110908 
Si 12.787731449999999 8.851204079999999 24.65686062379875 
Si 15.782615369999998 9.28585386 21.895314789514583 
Si 14.063368769999999 10.34006121 23.275159351938733 
Si 13.102763759999998 11.87221716 21.7684740282382 
Si 15.278684219999999 11.34127719 25.0217384114553 
Si 16.15190967 9.215676539999999 25.656939339571313 
Si 14.26559283 8.51470155 28.712842386457037 
Si 12.31607079 8.48410893 30.027323900036944 
Si 15.7565025 10.31288949 29.15233238662911 
Si 12.91928949 8.931530069999999 32.50458688958455 
Si 14.524750439999998 10.67341977 32.80499559960672 
Si 12.216473729999999 14.93358057 4.07272653108919 
Si 14.81287167 14.71490361 1.391803146531474 
Si 13.56999354 16.2906516 2.6907570678662127 
Si 16.3033578 13.546796579999999 2.7196220228923793 
Si 16.28817552 16.28754021 5.42956852661339 
Si 13.573854269999998 13.574473289999998 5.429396609073032 
Si 12.216490019999998 12.21732081 6.787957780000816 
Si 14.93252172 14.93283123 6.787785862460458 
Si 12.219259319999999 14.933238479999998 9.50208875665415 
Si 14.93257059 12.218607719999998 9.502054373146079 
Si 13.57243704 13.574733929999999 10.858758834637992 
Si 14.940210599999999 14.90699529 12.220173836735725 
Si 13.40241831 15.546068279999998 16.48620445020384 
Si 15.38569323 14.067506429999998 16.198552021676253 
Si 14.27350977 14.77289601 19.7721675495971 
Si 15.91257699 13.740517259999999 18.456070011137825 
Si 12.357724319999999 14.55884541 18.359177285391862 
Si 14.47042329 15.2275662 23.40134682656176 
Si 14.64457968 13.60213371 21.75860596142163 
Si 14.74823295 14.83657362 25.697202427523237 
Si 15.758962289999998 14.152491359999999 29.47515914391401 
Si 13.85150103 12.74241267 26.4495823511475 
Si 14.47527771 12.32493255 28.741655766221097 
Si 13.99920246 12.85233759 32.183410540687085 
Si 13.296924269999998 13.80008979 34.24532075272893 
Si 12.636283319999999 12.290528069999999 30.217946068786276 
Si 12.53626272 16.21421892 30.972629687451338 
Si 15.907722569999999 15.2179551 33.80424911118556 
