&CONTROL
  dt          = 30.D0,
  prefix = 'x2.00_y.66_z3.15_struc18-scf',
  pseudo_dir = './',
  outdir='./',
  wf_collect= .true.,
  verbosity= 'high',
/

&SYSTEM
ibrav= 6, celldm(1) =30.783621515, celldm(3) =2.1064596431380656, nat=  432, ntyp= 1,
  ecutwfc     = 12.D0, nbnd= 1728,
  degauss     = 0.05D0,
  occupations = "smearing",
  smearing    = "methfessel-paxton",
/
&ELECTRONS
  electron_maxstep=200,
  conv_thr    = 1.D-8,
  mixing_beta = 0.3D0,
  scf_must_converge=.false.,
/
ATOMIC_SPECIES
Si  28.08  Si.pbe-hgh.UPF
K_POINTS {automatic}
1 1 1 0 0 0
ATOMIC_POSITIONS (angstrom)
Si 0.0175664844 2.6943171299999995 2.711801934837029 
Si 1.3725595619999997 1.3636293839999998 1.176847612159635 
Si -0.001432760886 -0.0011457913589999998 5.431084371287963 
Si -0.0001410068916 2.7151683299999996 8.145099573804336 
Si 2.71497285 -0.00039356477099999996 8.145168202259509 
Si 2.7130506299999997 2.71485882 5.43060397210175 
Si 1.3572290429999998 1.357434297 6.787354216653035 
Si 2.71702539 2.71459818 10.862717770217314 
Si 1.352565216 1.35985662 12.218781730216865 
Si 4.085825219999999 4.060608299999999 12.236522185879199 
Si 1.468792737 2.10986451 16.79413789394723 
Si 2.71173114 0.0550126332 13.61832181656879 
Si 1.292341086 3.8183597099999997 15.013984395203416 
Si 3.81700764 1.40851485 16.90854152872135 
Si 3.79273554 0.754608186 20.77825991635842 
Si 2.2125566699999997 2.50869258 20.701293103881408 
Si 2.21486985 3.48395859 18.600301577201776 
Si 2.12678982 3.54230937 24.662699107630196 
Si 2.99781612 3.8742507 22.47008859329402 
Si 0.865549602 1.592684703 24.333797236211495 
Si 3.98344257 3.26329425 26.04810173221639 
Si 2.9552503499999996 3.49982505 29.90371697231532 
Si 2.94681213 2.16573921 27.948629541334412 
Si 0.9812053439999999 0.829680651 28.02816992088043 
Si 2.20954302 3.19508802 34.086724257819135 
Si 0.33967093499999995 0.750110517 30.34287045697015 
Si 2.02751856 2.06656569 31.772847263191498 
Si 4.05656838 0.8136007919999999 32.268207452633376 
Si 4.022636309999999 4.23548145 1.0836913471072103 
Si 1.3574831669999998 4.06960038 4.072412529991821 
Si 2.7174489299999998 5.43590784 2.6938315738498644 
Si 1.290503574 6.70851522 1.2708342815196585 
Si -0.001485672435 5.4299457 5.430638286329336 
Si 2.7152334899999997 5.4300760200000004 8.144756431528469 
Si 1.357691679 6.7870656 6.787868930066836 
Si 1.3565399759999999 4.073184179999999 9.502021389493555 
Si 1.358646273 6.76961901 12.216860133472009 
Si 3.5631117 6.9354023399999996 14.961929711954362 
Si 0.248665221 5.359458869999999 16.447392624183433 
Si 2.57978214 5.250332159999999 13.60274315724442 
Si 0.00583779843 8.04639663 13.630709252727595 
Si 1.5012261269999998 5.68693674 18.92662988155147 
Si 3.2228461799999994 7.011704699999999 19.918105173442136 
Si 2.42178543 7.27763895 23.839363530914458 
Si 0.190519695 6.4466046 24.07331793460071 
Si 3.67321581 6.11674839 22.11562262232321 
Si 0.5981671709999999 4.97371167 25.914550758448883 
Si 1.7705763899999998 5.5556230499999995 29.790788849327427 
Si 3.2369858999999996 7.18159311 26.116970386982935 
Si 1.4614475759999999 6.47058348 27.565373933418346 
Si 0.424279566 4.89255489 34.237260774242074 
Si 3.28401513 7.50999951 30.478994997806666 
Si 1.360832391 9.503602289999998 4.068466393819349 
Si 0.43814561399999996 10.09401705 0.14468045034298713 
Si 2.72455137 10.855004399999999 2.721197170350273 
Si 1.396649214 12.080940929999999 1.2462927459496371 
Si -5.01059223e-05 8.145309509999999 8.145408401852617 
Si 2.71541268 8.14485339 5.431152999743136 
Si 2.71536381 10.859598179999999 8.145099573804336 
Si 1.3567256819999998 9.50172894 9.503119444776331 
Si 2.72038113 8.141399909999999 10.859595175506923 
Si -0.0007600457879999999 10.860542999999998 10.860521659651765 
Si 1.353197268 12.202382879999998 12.245340942368985 
Si 1.64387277 8.97056091 15.364675801139684 
Si 2.54474235 10.62909468 13.74216186392926 
Si 2.43872703 9.14313717 20.59670333819709 
Si 3.8423060099999997 10.741039559999999 19.555506730533274 
Si 0.226823589 9.41656482 19.707587387197613 
Si 3.9246030899999997 9.55160892 17.367665893831653 
Si 1.3200015059999999 11.270187629999999 23.47796608597113 
Si 2.63503782 9.422315189999999 22.925918792555994 
Si 2.03994783 12.18241134 25.516986117629155 
Si 2.95099866 9.76491018 29.09578848378602 
Si 0.27454677299999997 11.8418526 27.069121574059217 
Si 0.672609213 10.162223280000001 28.711949534000983 
Si 4.05894672 9.17019486 27.119632117066867 
Si 2.4463833299999997 8.47203804 34.302423492429256 
Si 0.29441731499999996 11.286331019999999 30.819563706604853 
Si 2.71039536 16.27486659 2.680658341879323 
Si 3.9095999999999997 14.678756099999998 1.2491648467986454 
Si 1.3561636769999998 14.93610552 4.06928993528143 
Si -0.00018593243099999997 13.575369239999999 8.144722117300882 
Si 2.71608057 13.575108599999998 5.430466715191402 
Si 1.358030511 12.21732081 6.787216959742688 
Si 0.00047593189799999996 16.28830584 10.858085349493107 
Si 1.355106456 14.93037144 9.501438047624582 
Si 2.71673217 13.575499559999999 10.859252033231055 
Si 0.15118781579999999 16.27946037 16.631351198275834 
Si 3.31332084 13.76873154 16.266247816753143 
Si 0.0422166753 13.656428279999998 13.632733792155213 
Si 1.464394437 14.972692859999999 15.090230608901104 
Si 0.22554971099999999 14.91615027 18.692778420547985 
Si 3.07985256 12.92114655 20.214820299384492 
Si 2.5334207999999996 14.31193788 18.40340653930918 
Si 3.8340795599999997 15.635076839999998 22.71039112908381 
Si 0.1554088806 14.62566699 22.572104791909336 
Si 1.76505408 15.73058511 23.8309908593833 
Si 1.178931735 12.70150848 21.62362522718483 
Si 2.23932114 14.51469951 25.807936453336946 
Si 2.7413789399999997 13.7367054 29.65644864832542 
Si 1.3452558929999998 14.82020217 27.942315723458456 
Si 3.0972177 12.79980234 34.01672323354223 
Si 1.63308879 13.227610319999998 31.78190621927439 
Si 0.0280689732 15.265359 31.976776717739366 
Si 4.074063839999999 1.358893881 4.065686941384825 
Si 5.42074185 2.73352716 2.6841892758979964 
Si 6.725961809999999 1.368055377 1.2614218888926216 
Si 8.14408776 2.71539639 5.430672600556922 
Si 5.43072762 -0.000718465563 5.430775543239682 
Si 5.43009231 2.71494027 8.145408401852617 
Si 6.78781494 1.357354476 6.787628730473729 
Si 6.7862511 4.071571469999999 9.501506676079755 
Si 8.1386469 2.7125945099999997 10.852217616575777 
Si 4.07090358 1.355705928 9.502810616728048 
Si 6.80307867 1.372484628 12.22814951434804 
Si 8.10935748 0.0278313021 13.701327933101062 
Si 4.578499979999999 0.9112674869999999 14.759029684234092 
Si 5.58859401 2.7824623199999996 13.700675962776915 
Si 4.35068433 3.57982524 17.776348344389476 
Si 5.89168575 1.75140306 21.023743900513807 
Si 6.16727997 3.26368521 19.18865332340366 
Si 7.67509866 3.06655992 17.290424567533947 
Si 5.61022713 2.0251728 24.866113848764268 
Si 7.4322310499999995 0.0249088761 21.684224153102978 
Si 5.24665062 3.10612833 22.808667076892174 
Si 7.84751202 1.94803965 25.62349748005833 
Si 5.3121852899999995 3.9213776699999996 29.83258357852805 
Si 6.04220535 1.69152102 29.427263922273724 
Si 7.73755452 1.325639475 27.91531042634771 
Si 4.40724321 0.36613566899999994 28.393136045492774 
Si 6.3746190899999995 1.217429892 31.64845818818964 
Si 7.6529279699999995 3.13186653 32.24459926405371 
Si 5.18802291 -0.00265593789 34.29463416276707 
Si 6.78665835 4.07326563 4.070902703978006 
Si 4.06868814 6.78724479 4.069873277150404 
Si 6.74332695 6.78936249 1.2132584390519028 
Si 4.07248371 4.07245113 6.786942445921994 
Si 5.4312326099999995 5.43015747 5.430672600556922 
Si 6.78757059 6.787554299999999 6.787731673156489 
Si 4.072027589999999 6.7875054299999995 9.501849818355621 
Si 5.432324039999999 5.42675286 10.860212831603484 
Si 6.78586014 6.77835045 12.240399693596498 
Si 5.32790514 8.0462826 13.606311836913438 
Si 4.82506542 5.5429983 16.516192650494805 
Si 6.70364451 4.18315797 15.308091639849184 
Si 4.75105995 7.3536318 18.097529514601167 
Si 6.905135519999999 5.16430467 20.36127342272461 
Si 6.83086941 7.222122629999999 19.20762909125911 
Si 6.63477039 6.25640256 24.49298093798628 
Si 5.88919338 5.33411163 22.482064258721785 
Si 4.905554309999999 5.50953864 26.09500928132744 
Si 5.563768049999999 7.3479303 29.665198776360036 
Si 5.895839699999999 5.5535868 28.19905477426229 
Si 5.256310589999999 5.91134778 33.86124546834681 
Si 6.216980759999999 4.922952029999999 31.891231348365675 
Si 7.418547449999999 6.75906309 30.947521461275727 
Si 4.132675259999999 7.78697838 32.71569929459178 
Si 4.13034579 9.58321152 1.3262380333811752 
Si 5.437471679999999 8.14395744 2.701113052943766 
Si 6.789606839999999 9.500328 4.069084049915909 
Si 4.07293983 12.216147929999998 4.077388092991895 
Si 4.0726140299999996 9.50257602 6.787628730473729 
Si 5.43012489 8.14475565 8.144928002666402 
Si 5.428447019999999 10.860298649999999 5.430295144053469 
Si 8.139298499999999 8.15092956 10.861516772251779 
Si 6.785452889999999 9.503243909999998 9.501060591121128 
Si 4.06212327 9.50306472 12.23223290743086 
Si 5.43058101 10.860380099999999 10.863129540948355 
Si 6.819026579999999 12.19513383 12.221423925741043 
Si 7.11229545 9.04948596 14.854869321883799 
Si 7.383540239999999 12.11019777 16.80666258701638 
Si 5.712479459999999 10.508907059999999 16.033906181763466 
Si 4.18416795 11.96562402 14.926586057540042 
Si 6.93779697 8.578232550000001 21.235668570089388 
Si 6.12684819 10.63393281 20.382788443421482 
Si 7.97758767 11.26310148 18.959331340441615 
Si 5.714597159999999 11.79234729 22.41789665313462 
Si 4.73231016 10.11477051 23.7242736115886 
Si 6.513963749999999 8.5348197 23.6865622754708 
Si 8.10272745 9.54742239 25.18767247547941 
Si 4.126452479999999 11.88088344 29.14180386297981 
Si 4.10851719 11.08164717 25.786146918819377 
Si 8.11113309 11.60002755 29.073896006585695 
Si 6.09016311 10.86297021 29.988884885185556 
Si 6.066982439999999 9.14458698 28.31870848585718 
Si 8.04642921 8.437959359999999 27.307742712697262 
Si 5.8922884799999995 9.83391462 32.16022057841797 
Si 8.0803287 8.729420039999999 32.08826364316862 
Si 5.069855249999999 11.16422118 34.05024823389446 
Si 5.433448049999999 13.5716877 2.694857569254707 
Si 6.73143525 12.25491813 1.1546600326020626 
Si 6.7872285 14.934671999999999 4.070456619019378 
Si 4.072304519999999 14.93261946 6.787525787790969 
Si 5.42984796 13.575238919999999 8.145202516487096 
Si 6.78753801 12.2175 6.787663044701316 
Si 4.07225565 12.218672879999998 9.501849818355621 
Si 6.787863809999999 14.931853829999998 9.50198707526597 
Si 4.0474296899999995 14.935128119999998 12.21401205258231 
Si 5.42895201 16.28970678 10.863060912493182 
Si 5.86702269 13.93000254 16.585850532495844 
Si 5.3197275600000005 13.44180753 13.458794972518133 
Si 6.158304179999999 15.2920746 14.63711123361848 
Si 6.85799226 14.369848829999999 20.489265491623076 
Si 4.09831965 16.1104842 18.643674760871384 
Si 6.2332056 15.173418239999998 18.435593284785522 
Si 4.76409195 13.74173901 21.598164070315484 
Si 7.26654546 15.165778229999999 23.781372486292902 
Si 7.513909109999999 12.806106569999999 23.50404489893704 
Si 5.24878461 16.006635449999997 24.56349667567699 
Si 7.33828662 12.958564679999999 27.32126251836643 
Si 5.041754999999999 12.78404991 27.114759496749553 
Si 7.9670643299999995 15.230188889999999 27.656889978392126 
Si 4.42030779 15.035441939999998 26.555163073265337 
Si 7.24942467 15.62333175 32.913520816629216 
Si 4.12249401 15.48740799 30.3830524174742 
Si 12.20432139 1.280982069 1.2986288058649011 
Si 8.13920076 0.00034941398399999994 2.696888971527841 
Si 8.351964449999999 2.48481144 0.0031129318239030163 
Si 9.49993704 1.3576851629999998 4.068843850322803 
Si 10.86761286 2.7255124799999995 2.695718856367134 
Si 8.144609039999999 0.0006916994639999999 8.145133888031923 
Si 10.858555619999999 2.71601541 8.145065259576748 
Si 12.225025979999998 1.3410367829999998 12.23786044075508 
Si 9.50185926 1.3586690789999998 9.502467474452182 
Si 9.505459349999999 4.0423309199999995 12.2414291204241 
Si 9.66044241 1.350341631 15.177491689654133 
Si 10.89799371 2.69058672 13.670239242907497 
Si 10.2798045 0.14938402409999998 19.351508647530228 
Si 9.15361164 2.67747327 19.18384933154152 
Si 9.483940259999999 3.41027892 24.79566673952873 
Si 12.15048294 3.24943146 21.915948131996092 
Si 9.8512146 2.95681419 22.43954893074184 
Si 9.69370659 0.6875829809999999 21.629458645874575 
Si 11.57456628 2.7378603 25.776367363957164 
Si 9.58220154 1.88634942 29.22072658642926 
Si 11.60028819 2.18246904 28.091411042322754 
Si 9.30427785 0.628039773 33.024733228237764 
Si 11.73940479 3.80096199 31.47328405635944 
Si 9.461720699999999 3.56451264 30.826941265535996 
Si 9.70888887 0.0441284697 30.65780643776106 
Si 10.864648079999998 8.169434999999998 2.6999909777016806 
Si 12.17631888 6.781527 1.3140907968154767 
Si 9.516634289999999 4.097391119999999 1.2638822190105894 
Si 8.12906838 5.42447226 2.6920369397470787 
Si 9.500458319999998 6.78929733 4.065927140977931 
Si 10.26343305 5.99082669 0.03605876291722788 
Si 9.50182668 4.07269548 6.787045388604755 
Si 8.14423437 5.42856105 8.144481917707775 
Si 10.860673319999998 5.430271499999999 5.429334345681041 
Si 10.86712416 5.4198784799999995 10.838423297085917 
Si 12.24229338 6.79543866 12.231615251334299 
Si 9.500425739999999 6.78882492 9.494369316741718 
Si 9.82876698 6.49865115 12.689675875389412 
Si 10.976772149999999 8.17199253 13.846031030834258 
Si 10.211663429999998 6.224523029999999 15.13044688363274 
Si 8.22451149 5.40868725 13.87245298607603 
Si 11.773190249999999 4.46855877 15.29443457726967 
Si 8.503151939999999 7.917689339999999 17.6346992129115 
Si 9.09887724 4.52901096 20.851246278435372 
Si 10.377772559999999 6.50373363 21.149059459660506 
Si 11.74551354 6.06290994 19.28915969600516 
Si 9.75482667 4.70932497 17.696567765250354 
Si 11.87298279 6.59083626 22.937722886845826 
Si 8.85368016 5.63824593 25.36147403820614 
Si 10.79673507 7.021934819999999 24.988547012793678 
Si 8.161322579999998 6.03637353 27.620722782515724 
Si 9.12365433 5.66553168 29.747106837609532 
Si 11.54724795 5.93827515 32.38559642520754 
Si 10.89087498 7.015483979999999 30.389572120715677 
Si 8.57813481 7.9005522599999995 34.29820284243609 
Si 9.637636409999999 9.61432542 1.184400173651472 
Si 8.14371309 10.86678207 2.6732739201026607 
Si 12.17266992 12.199369229999999 1.2141540403919162 
Si 9.50418873 12.2165226 4.070387990564205 
Si 8.14472307 8.144609039999999 5.431255942425897 
Si 9.502608599999999 9.50257602 6.78834932925305 
Si 10.86181362 8.145602729999998 8.144344660797428 
Si 8.14480452 10.85992398 8.145271144942269 
Si 10.86046155 10.858523039999998 5.430432400963816 
Si 9.513979019999999 9.502315379999999 12.237929069210255 
Si 10.865250810000001 10.856389049999999 10.856712780389637 
Si 8.27962056 10.82051847 13.753142416757008 
Si 9.607190399999999 9.49865013 18.958645055889882 
Si 9.28795527 8.62798221 21.112892263784104 
Si 11.95158204 9.83771019 18.838751144701884 
Si 10.36259028 9.289633140000001 24.695126052699642 
Si 10.43408709 10.159470269999998 22.477809294501032 
Si 8.253670589999999 11.933451269999999 25.495230897339173 
Si 11.089596689999999 10.51074783 26.56216317569303 
Si 9.57480588 9.877441499999998 28.40216068734808 
Si 10.991775239999999 10.92940083 33.83290191636018 
Si 12.17299572 10.25188344 31.630477532934197 
Si 10.174619969999998 9.203540489999998 30.670845844244013 
Si 12.22046478 14.93187012 4.0728243007228615 
Si 9.497509829999998 14.845549409999999 1.387928151736579 
Si 10.86749883 13.557271049999999 2.720023623766807 
Si 11.00363436 15.974022869999999 0.014285115887033914 
Si 8.14526064 13.574782799999998 5.430329458281055 
Si 9.502217639999998 14.932928969999999 6.787319902425448 
Si 10.860363809999999 13.57483167 8.145236830714683 
Si 10.859907689999998 16.28890857 5.430295144053469 
Si 12.20827986 12.204174779999999 12.227120087520436 
Si 9.50283666 12.21670179 9.503702786645304 
Si 8.14561902 13.57532037 10.863026598265595 
Si 9.49661388 14.928384059999999 12.24801745212075 
Si 10.861634429999999 16.2909774 10.86590899338288 
Si 11.245801499999999 13.34338335 16.85425642067916 
Si 9.404803439999998 12.25612359 15.475339185106852 
Si 10.67869773 13.356561959999999 13.69288663311473 
Si 11.321615159999999 16.116430049999998 16.76411294480885 
Si 8.86451301 13.04775243 20.186064976666824 
Si 10.822929389999999 14.1045336 19.30792957849509 
Si 11.04486435 13.5296595 23.491554520095473 
Si 10.666985219999999 15.89381091 23.52199123996489 
Si 9.45359199 12.306150179999998 22.30798818217436 
Si 10.55580597 12.610838339999999 25.64408601661036 
Si 8.933224229999999 16.19662572 25.052062648056697 
Si 11.41730262 13.26752082 29.434744423887633 
Si 8.14115556 14.7411468 29.938786112908947 
Si 11.39395905 14.080277789999998 27.269653920076003 
Si 10.114379549999999 16.01557866 27.09640138499066 
Si 8.2243323 13.69181016 34.10353822933663 
Si 11.92931361 14.40962901 32.794553389586056 
Si 11.82870657 15.34359987 30.49882862135179 
Si 9.39652812 12.848020739999999 30.482632305930856 
Si 10.03960845 12.849242489999998 32.74297910552322 
Si 12.220741709999999 4.0701379499999994 4.070319362109031 
Si 13.573658789999998 -0.011428868519999998 2.711692129308752 
Si 14.099141609999998 1.94808852 0.023376361658086858 
Si 14.93345025 1.359478692 4.070353676336618 
Si 14.991752159999999 3.9068795699999996 1.2364102484046622 
Si 13.57514118 0.0001263204792 8.144790745756055 
Si 13.57562988 2.7146307599999995 5.430844171694856 
Si 12.21826563 1.357431039 6.787663044701316 
Si 14.93345025 1.3576020839999998 9.502879245183223 
Si 13.577177429999999 2.7166670099999997 10.86367856858974 
Si 16.10649315 2.48415984 13.626969001920644 
Si 15.20684532 3.48268797 17.062543782130547 
Si 14.781350519999998 1.1548209059999999 15.235448420048101 
Si 13.79295477 3.34290348 15.278341204531499 
Si 13.55261211 0.053486260199999996 20.654591440135885 
Si 16.20964143 2.0369016 20.573953005307093 
Si 14.74893342 3.5702304299999996 19.31705716303316 
Si 12.37538268 1.2411008909999999 18.953051836793247 
Si 13.47481107 1.47144312 22.568947882971358 
Si 15.617581379999999 2.49525333 22.76951454321573 
Si 12.401870220000001 0.8533109249999999 24.53024618914546 
Si 15.78769785 1.330919064 26.220565040067243 
Si 14.775991109999998 3.71537433 29.078494113082314 
Si 13.02546771 0.421365285 28.946830421832072 
Si 15.12174636 3.58254567 26.705562332777927 
Si 15.95017431 0.243271602 34.14955360853042 
Si 13.824915749999999 2.86993962 32.19429460641158 
Si 14.533107209999999 1.7031846599999998 30.222804974644223 
Si 13.578936749999999 5.41504035 2.6863510722359596 
Si 14.936121809999998 6.788433959999999 4.071726245440087 
Si 14.932977839999998 4.07162034 6.788109129659943 
Si 13.574114909999999 5.43154212 8.145545658762963 
Si 12.217548869999998 6.78823848 6.787045388604755 
Si 14.931528029999999 6.786006749999999 9.50198707526597 
Si 16.2921177 5.43203082 10.858943205182776 
Si 12.22315263 4.064240969999999 9.495776200072772 
Si 14.93709921 4.05436923 12.222830809072098 
Si 13.534139249999999 5.34468384 13.61475313689977 
Si 15.06088692 6.5348149499999995 14.944635341250656 
Si 13.19853267 7.8097680899999995 18.577002216670394 
Si 15.80024115 5.5205832599999995 20.218594864419035 
Si 14.88583458 7.712630819999999 20.256100315171313 
Si 15.59806596 4.88312298 22.520187365570628 
Si 13.32943911 4.81384161 23.211962193718882 
Si 13.48495974 8.13314088 22.178623544172428 
Si 13.219204679999999 4.46319936 25.584516517519816 
Si 14.59913058 7.34804433 29.704934651905457 
Si 12.55023954 6.431389739999999 28.869726352444715 
Si 12.491253449999999 4.10131701 29.258575179457416 
Si 12.587543639999998 6.61851297 26.515907596906132 
Si 15.99088302 8.106685919999999 27.93517836412042 
Si 15.75980937 5.42386953 30.412562653198776 
Si 14.94570033 4.97876157 32.62716858741804 
Si 13.52544039 6.795927359999999 33.3303014248975 
Si 14.817335129999998 9.342608219999999 1.3205658915610905 
Si 13.567191659999999 10.86653772 2.6934609801919276 
Si 14.93354799 12.21805386 4.07001053406075 
Si 16.2751761 8.13139785 2.7000973518071993 
Si 12.21850998 9.50125653 4.0732017572263155 
Si 13.57387056 8.14490226 5.4309471143776165 
Si 14.932538009999998 9.50207103 6.787114017059928 
Si 13.57505973 10.8597285 8.144378975025015 
Si 16.289983709999998 10.85922351 5.4293686599086275 
Si 12.215594069999998 9.50378148 9.5011292195763 
Si 13.57470135 8.14908879 10.8549970690103 
Si 14.94516276 9.50132169 12.23556138750677 
Si 14.9304366 12.21450264 9.502776302500463 
Si 12.38703003 11.166387749999998 16.958159901811744 
Si 14.706123299999998 11.66815233 17.06216632562709 
Si 12.55157532 9.59783994 15.171418071371283 
Si 13.665566969999999 10.943149589999999 13.608816775527268 
Si 14.113672289999998 8.19789363 16.37200426617541 
Si 12.4263378 10.061225279999999 21.215045719309767 
Si 15.812702999999999 11.601298169999998 20.387866949104318 
Si 16.01455239 9.474801569999999 17.216717606677673 
Si 15.408922769999998 10.54661841 23.813765117134764 
Si 14.917143959999999 8.2903068 24.107151763001212 
Si 14.16826008 11.36009214 22.012885824928574 
Si 14.72972751 11.89961694 25.611899271134018 
Si 12.96698661 11.4650649 29.445038692163646 
Si 14.197142249999999 8.3934225 26.372062354862603 
Si 13.339017629999999 10.57001085 27.124504737384182 
Si 13.975679699999999 8.524247489999999 31.781734648136457 
Si 15.85346058 9.713612969999998 32.373071732138385 
Si 14.96050794 14.93074611 1.2907399649427143 
Si 16.301402999999997 13.56605136 2.6886947339801326 
Si 13.57287687 13.574799089999999 5.43060397210175 
Si 12.217174199999999 12.21771177 6.787697358928902 
Si 14.93214705 14.932928969999999 6.7879375585220085 
Si 12.21777693 14.93281494 9.502844930955638 
Si 13.574733929999999 13.575939389999998 10.862477570624206 
Si 14.93431362 14.94288216 12.223620036306592 
Si 12.61075689 14.18269302 14.834692556062809 
Si 14.55342084 12.74340636 14.921438923402032 
Si 13.449496409999998 16.09919523 13.676312861190345 
Si 14.876712179999998 13.17530313 18.917914067744444 
Si 15.88152825 16.02183402 20.6669445620671 
Si 13.01274522 14.088781169999999 20.303591206151335 
Si 13.18774869 13.384026899999999 22.57618818499215 
Si 14.74826553 14.06566566 24.19955997789225 
Si 14.19223896 15.989596109999999 25.50130451562202 
Si 13.624923419999998 14.938141769999998 27.4510389270994 
Si 15.57905553 13.73439222 28.16319640643417 
Si 13.729505219999998 13.48556247 34.24137848155248 
Si 14.317329869999998 14.02627644 31.969124644987527 
Si 14.843171069999999 12.664644209999999 30.11783775245645 
