&CONTROL
  dt          = 30.D0,
  prefix = 'x2.00_y2.00_z3.19_struc38-scf',
  pseudo_dir = './',
  outdir='./',
  wf_collect= .true.,
  verbosity= 'high',
/

&SYSTEM
ibrav= 6, celldm(1) =30.783621515, celldm(3) =2.1298470991719882, nat=  432, ntyp= 1,
  ecutwfc     = 12.D0, nbnd= 1728,
  degauss     = 0.05D0,
  occupations = "smearing",
  smearing    = "methfessel-paxton",
/
&ELECTRONS
  electron_maxstep=200,
  conv_thr    = 1.D-8,  mixing_beta = 0.3D0,  scf_must_converge=.false.,
/
&IONS
/
ATOMIC_SPECIES
Si  28.08  Si.pbe-hgh.UPF
K_POINTS {automatic}
1 1 1 0 0 0
ATOMIC_POSITIONS (angstrom)
Si 2.0436945300000002 3.1396694399999996 0.17779629368280953 
Si 1.249635222 1.2002537159999997 1.2082190277238498 
Si -0.00265064364 -0.0009647394119999999 5.429800246922579 
Si -0.000566033517 2.71534752 8.145116712894813 
Si 2.71461447 0.00020147960699999997 8.145220798522551 
Si 2.71322982 2.7143049599999998 5.430841103199944 
Si 1.3574913119999998 1.357675389 6.787527870327187 
Si 0.00231471126 0.000783114057 10.86081482616875 
Si 2.71806795 2.71459818 10.863729223745372 
Si 1.3674037769999998 1.325074212 12.222809960310558 
Si 0.1139281875 3.5901205199999997 17.01584903195026 
Si 1.526478885 3.5193893399999996 14.976846279800784 
Si 3.61853028 1.9067444999999998 14.976534022917573 
Si 2.2048026299999997 3.2921438399999996 20.508338185021955 
Si 2.80504026 1.15944075 19.66038727106165 
Si 0.679516173 0.0834548103 19.494648256495843 
Si 0.789507882 2.21097654 22.193276326820985 
Si 1.96964019 0.49281648299999997 23.30938651303985 
Si 3.7380663 0.513589491 21.778182843407684 
Si 2.6080289999999997 1.4963847389999998 25.354773183690504 
Si 0.6008908589999999 2.75092488 25.70758876650811 
Si 2.2670793 0.304860834 27.39613521006867 
Si 3.5760785399999997 3.70193508 28.711638763821494 
Si 1.8731219399999999 2.0820249 28.973379422369636 
Si 2.2762016999999997 3.0371075999999997 32.54473078605638 
Si 2.67019164 1.23023709 31.031638015650366 
Si 3.92940864 4.12404156 1.2741884985832657 
Si 1.360858455 4.07337966 4.069782739707766 
Si 2.6929813499999997 5.438579399999999 2.7225955208719435 
Si 1.181876967 6.56640126 1.263287263838326 
Si -7.08088833e-05 5.42953845 5.430355370270506 
Si 2.7164878199999998 5.430238919999999 8.144873846430094 
Si 1.3580858969999998 6.787407689999999 6.787493175117942 
Si 1.358662563 4.0718483999999995 9.504301535087734 
Si -0.00412790229 5.4335295 10.866851792577469 
Si 1.364815296 6.793760789999999 12.247617034921097 
Si 2.7255124799999995 8.13661065 10.854222736412103 
Si 2.6090226899999998 5.36617035 13.820593736484861 
Si 0.12381328529999999 7.6592484899999995 15.885062772220541 
Si 1.8804850199999998 6.779344139999999 17.702050880407988 
Si 3.31393986 7.92458001 21.309832213802522 
Si 1.134665289 4.68101295 18.87207742179438 
Si 3.49141941 6.0642783 22.723037476790704 
Si 1.4725769039999999 6.11505423 24.00231923209121 
Si 1.365097113 4.93802028 26.099679326191637 
Si 3.1791889799999997 5.350092119999999 30.335825594231633 
Si 1.2949637760000001 6.63819129 29.674569601221425 
Si 3.5155286099999996 5.2751255399999994 26.93777680072622 
Si 3.56808015 7.6189959 27.583177083111227 
Si 0.1442091798 5.25966633 28.115575068983606 
Si 0.240741765 4.71751884 34.68788855636088 
Si 2.9168711099999998 7.698100139999999 34.640945938251704 
Si -0.001067641713 6.39832104 31.5964760221673 
Si 0.13560805979999999 4.139289 32.36219929021574 
Si 3.89350548 9.28551177 1.4191554913737872 
Si -0.01581649857 8.14035735 2.6827029692814546 
Si 4.073428529999999 12.22167024 4.073807383980245 
Si 1.359263664 9.50480775 4.070268472637204 
Si 2.70400968 10.85270751 2.7043666579343517 
Si 1.308727197 12.085404389999999 1.2088886452622882 
Si -0.000406748268 8.1454887 8.145116712894813 
Si 2.7146633399999995 8.14464162 5.430355370270506 
Si -0.00248217246 10.859418989999998 5.430979884036926 
Si 2.7146633399999995 10.860168329999999 8.144873846430094 
Si 4.07549736 9.475045920000001 12.221977275288664 
Si 1.356236982 9.50057235 9.504752572807927 
Si -0.00824238162 10.86948621 10.859080065706475 
Si 1.351198485 12.20386527 12.235785968568377 
Si 0.493660305 8.5784769 13.609750949899887 
Si 3.87586341 11.460438539999998 14.938091731073547 
Si 2.32907904 10.37800062 13.503826476073339 
Si 3.5347671 11.61040428 17.392187966636325 
Si 2.9588667299999996 11.376170369999999 21.306223912040988 
Si 1.81773594 8.326161090000001 19.49128282119903 
Si 2.0654253899999997 10.678534829999998 19.223748062706886 
Si 0.10104589259999999 12.04142139 19.219098904667987 
Si 2.73898431 9.606897179999999 22.859944772473494 
Si 0.9437578919999999 8.45170812 23.913464801213454 
Si 0.1180363626 9.405552779999999 25.955902379078235 
Si 0.545757354 9.72653094 29.733412676101814 
Si 3.34360395 11.403700469999999 27.723935547020265 
Si 1.82752623 9.46387098 27.716233210567765 
Si 1.090872882 8.448319799999998 33.285404113029564 
Si 0.07848864089999999 10.57276386 34.37760930007827 
Si 2.06705439 9.7761177 31.632073306853194 
Si 3.23055135 11.570803289999999 33.06255678404564 
Si 2.7198272699999997 16.287214409999997 2.68107576396784 
Si 4.05505341 14.889418379999999 1.188682155397702 
Si -0.01273460976 13.55991003 2.677033772090738 
Si 1.356966774 14.93289639 4.063815163717538 
Si -0.000704469195 13.575222629999999 8.144388113500659 
Si 2.71311579 13.57093836 5.430598236735225 
Si 1.357431039 12.21740226 6.787527870327187 
Si 1.353176091 14.929784999999999 9.501421832720355 
Si 2.71290402 13.580044469999999 10.86119647347045 
Si 2.7368014499999997 16.28415189 13.762791517881839 
Si 1.1795002559999999 14.830937279999999 15.351276977978346 
Si 2.79726993 13.92449652 17.47469317422215 
Si 2.28861468 13.63609836 21.652759661985158 
Si 1.4110935569999998 14.10068916 19.458669324508243 
Si 0.850447143 14.63912253 23.28652237014706 
Si 1.086129234 13.29918858 25.29665870820427 
Si 3.39540615 12.37147308 25.497682750572764 
Si 1.1081370240000001 13.97610324 29.35658800848631 
Si 3.2885274599999996 13.35946158 29.087700136833593 
Si 0.642539502 14.841965609999999 27.21977946147374 
Si 2.5523986499999998 13.49709579 34.44307915992455 
Si 1.187694126 15.673749299999999 31.036391259317003 
Si 0.857073915 14.47501707 33.05343194401407 
Si 4.07241855 1.359843588 4.067492855897562 
Si 5.42774655 2.7111609899999998 2.672401961656462 
Si 6.78700044 1.187914041 1.1779648052617635 
Si 5.428300409999999 -0.00295868754 5.4301125038057885 
Si 5.42971764 2.7152660699999998 8.145324884150288 
Si 6.787928969999999 1.356984693 6.787631955954924 
Si 4.0687044299999995 4.087894049999999 12.250011004359038 
Si 8.142230699999999 2.7210164399999996 10.864249651884057 
Si 4.06899765 1.354039461 9.502358603369984 
Si 5.42908233 0.00480846591 10.860086226774595 
Si 6.778187549999999 1.336486986 12.224926368074533 
Si 7.12988865 3.1072849199999997 15.60122126538301 
Si 5.50579194 2.7463962599999996 13.64319713161256 
Si 4.17916692 1.3222837349999998 17.37383420094545 
Si 6.1408413 2.58693345 17.896586918647575 
Si 7.11097596 1.8284058899999998 21.419850722320042 
Si 8.05112073 3.96690822 20.968431354826688 
Si 7.23355821 0.9262135619999999 19.204041183855434 
Si 4.79962044 2.56236813 24.86609116146747 
Si 5.06299716 2.27416545 22.52440740386015 
Si 6.53246919 1.340616501 25.9716540040757 
Si 4.78984644 0.534709476 30.20280416198434 
Si 5.62104369 2.6823602699999998 29.419316946802198 
Si 7.32435867 2.8235945699999996 27.689309728193248 
Si 6.13305468 3.9567921299999997 31.408323902428886 
Si 6.79245759 4.07061036 4.068741883430401 
Si 4.072304519999999 6.78779865 4.073113479795335 
Si 6.620695829999999 6.680203199999999 1.234243904178908 
Si 5.442032879999999 8.135812439999999 2.7165446763795265 
Si 8.13015981 5.42101878 2.6871543646276534 
Si 4.071995009999999 4.07279322 6.787805432001152 
Si 5.428349279999999 5.4288054 5.429696161294842 
Si 6.7874728499999994 6.78776607 6.787458479908696 
Si 6.78602304 4.07129454 9.502809641090177 
Si 4.07253258 6.79029102 9.5003115860245 
Si 5.42773026 5.42768139 10.866990573414451 
Si 6.7953735 6.7984686 12.238492194889528 
Si 4.19221521 7.010515529999999 17.16358123291765 
Si 4.54782591 6.21470016 15.013068078253097 
Si 5.35204692 7.99374735 13.73076783974823 
Si 4.21542846 4.15694736 21.392510897434576 
Si 5.5444644 7.957029689999999 20.54948670318713 
Si 5.99556708 4.26856644 19.716142472319188 
Si 5.92864776 6.409381949999999 18.820485645646304 
Si 6.89741406 7.40978343 22.53630786063136 
Si 5.2340421599999996 6.828034949999999 24.147449292365188 
Si 5.31104499 4.863851909999999 25.45327288273851 
Si 4.76728479 6.89036049 29.582939553604028 
Si 7.44308019 4.9360329 26.469009828610112 
Si 8.01707463 7.01248662 27.496126803114237 
Si 4.60930437 5.969991779999999 34.482492917627454 
Si 6.84100179 6.077359169999999 30.579628829599844 
Si 7.22116152 7.85801907 32.403833541310355 
Si 4.0873890600000005 4.57467183 32.446439258263844 
Si 6.79027473 9.50295069 4.070719510357395 
Si 6.51855753 12.001119929999998 1.3066319887487436 
Si 4.0725814499999995 9.502347959999998 6.787874822419643 
Si 5.43045069 8.14485339 8.143624818897257 
Si 5.428104929999999 10.85876739 5.430737017572207 
Si 8.13732741 8.150261669999999 10.855124811852486 
Si 6.7873262400000005 9.49961124 9.499548291421098 
Si 5.43579381 10.859174639999999 10.860953607005733 
Si 8.03214288 10.68107607 13.650170868670907 
Si 5.93842176 10.8932859 17.20847683368134 
Si 6.01509879 9.94170555 14.895520709329304 
Si 5.35486509 11.55050595 21.033762433835985 
Si 6.20585469 9.991031669999998 19.47046569565172 
Si 7.904934269999999 9.44994303 23.196800559038163 
Si 6.14429478 11.00257551 23.219872873186432 
Si 4.23856026 10.353924000000001 24.47278626946035 
Si 4.9527790199999995 8.56093257 25.866527520061798 
Si 4.719098969999999 10.49779728 29.562469380149174 
Si 7.0070457600000005 10.353451589999999 29.08915733562191 
Si 7.01901891 9.12487608 26.988848148735613 
Si 5.12128278 8.64992484 33.162548377091206 
Si 4.959539369999999 10.61021457 34.52221893221356 
Si 4.1174604 8.693370269999999 30.940459005753162 
Si 7.4675803499999995 13.77487287 0.037837554346877675 
Si 5.410560599999999 13.57134561 2.698277648711765 
Si 6.7894602299999995 14.93540505 4.074189031281946 
Si 4.07240226 14.932538009999998 6.787493175117942 
Si 5.43012489 13.574978279999998 8.144388113500659 
Si 6.787423979999999 12.2175 6.7877013463734155 
Si 4.0710339 12.216913559999998 9.503260678810369 
Si 6.78717963 14.932114469999998 9.502566774625459 
Si 4.06401291 14.92136307 12.238388109261791 
Si 6.796888469999999 12.20567346 12.230789858437024 
Si 7.346659679999999 12.62450565 16.274447105582922 
Si 4.78295577 15.319344059999999 17.05286882021522 
Si 5.068975589999999 13.174912169999999 13.535850154206946 
Si 6.191128529999999 14.46710013 15.20004056087716 
Si 7.7635533599999995 15.945059249999998 13.590842060861082 
Si 5.912569529999999 13.82543703 20.777052580628443 
Si 6.36828228 15.02566794 18.77569413051035 
Si 7.80668928 14.080408109999999 22.113893688067257 
Si 4.33027296 14.64415614 22.32459769381525 
Si 6.87729591 13.07782377 24.022338367825874 
Si 4.887651599999999 14.134230269999998 24.697854091835985 
Si 5.71956561 15.465937769999998 26.58846543404241 
Si 7.365637529999999 12.685251059999999 29.410192106770626 
Si 7.5103741799999995 14.25313098 27.59396729318658 
Si 4.14021753 15.478481069999999 28.328811825006518 
Si 4.1703866099999995 12.31059735 31.0097800338257 
Si 6.31571445 13.34613636 31.552690668099466 
Si 6.119973809999999 15.791118749999999 31.97579874484848 
Si 5.8076130599999995 15.748862489999999 34.43974841983698 
Si 12.02682555 1.2254673779999998 1.3010738162276128 
Si 9.50236425 1.360190565 4.073668603143264 
Si 10.3270455 0.138976506 0.04353520160917561 
Si 10.85427135 2.71039536 2.7134741503612987 
Si 9.507381569999998 3.9950410499999998 1.268387459597416 
Si 8.14452759 8.617312259999999e-05 8.145047322476323 
Si 8.14377825 2.71269225 5.43132683612938 
Si 10.85886513 -0.000206317737 5.4315697025941 
Si 10.86064074 2.7157547699999998 8.144769760802358 
Si 9.502217639999998 1.35622395 9.501664699185076 
Si 10.86145524 0.005079824729999999 10.861057692633468 
Si 9.50050719 4.0829907599999995 12.221109895057527 
Si 8.85506481 1.3619710619999998 14.893438996774574 
Si 10.561491179999999 2.43791253 13.542685110428312 
Si 11.63435058 4.01398632 14.880948721446188 
Si 10.48364127 2.8377017099999997 17.620586529099526 
Si 10.430096039999999 0.238540986 21.574764831601247 
Si 11.40954858 2.32595136 21.151517974015253 
Si 10.105306019999999 3.77629893 19.765687231121778 
Si 9.48227868 0.807545799 18.308210881136326 
Si 8.261343179999999 0.1281838923 22.43867554181449 
Si 11.748347999999998 3.3277049099999996 23.19877818596516 
Si 8.45281584 0.9480242429999999 24.614724370483735 
Si 10.03262004 2.73877254 24.76176266726622 
Si 11.047470749999999 1.7536184999999997 26.745426560669102 
Si 9.54458793 0.6118263359999999 30.070233767457243 
Si 9.51855651 2.3810115599999997 28.45659428065774 
Si 8.299755 0.623978676 32.07284124510818 
Si 8.36830332 3.04953687 32.38752679296496 
Si 8.65735308 2.1225055499999996 34.63973160592811 
Si 11.791565369999999 0.10795399289999999 30.871276758517617 
Si 12.21688098 4.07176695 4.07144810975155 
Si 12.2007213 6.74166537 1.297205300396738 
Si 9.5047263 6.78779865 4.070858291194377 
Si 11.263329539999999 5.0043368699999995 0.007306984543150988 
Si 9.50312988 4.07207646 6.787250308653223 
Si 8.145114029999998 5.4297990899999995 8.14553305540576 
Si 10.85782257 5.42875653 5.430702322362962 
Si 10.86813414 5.4242116199999995 10.85477785976003 
Si 9.500148809999999 6.784312589999999 9.503434154856595 
Si 9.77992956 6.57058779 16.931782539948383 
Si 10.357703279999999 7.728383249999999 13.615857306727097 
Si 8.97494292 4.77080343 15.61582794847537 
Si 8.682325650000001 5.9673202199999995 13.50212641082031 
Si 10.406410379999999 6.10169643 19.520183930500536 
Si 8.2943793 7.056827999999999 18.712861106566727 
Si 9.2346381 4.967277119999999 24.817240306849786 
Si 8.65891692 5.775212249999999 22.5541758933928 
Si 10.682509589999999 6.898847579999999 21.719652025410507 
Si 11.21532291 6.25068477 25.609574800389538 
Si 10.47735333 4.48584246 28.965954647591094 
Si 8.94886263 6.25785237 29.482531618047517 
Si 9.97956351 7.95678534 26.577536443130068 
Si 11.00565432 4.05371763 31.204003815182073 
Si 10.69391259 5.80973076 32.59587152448426 
Si 8.33513688 7.61943573 34.52860285071474 
Si 12.11368383 7.16746968 31.34476227909111 
Si 9.3672387 9.353164139999999 1.2042152005769178 
Si 10.8413208 8.13436263 2.694232187313738 
Si 8.13488391 10.84624038 2.6850761215938475 
Si 11.10557718 10.493741069999999 0.10789065133449033 
Si 8.143485029999999 8.14275198 5.429973722968806 
Si 9.50246199 9.502282799999998 6.787597260745678 
Si 10.86031494 8.14438098 8.14546366498727 
Si 8.144185499999999 10.859875109999999 8.14483915122085 
Si 10.85860449 10.858588199999998 5.430459455898243 
Si 9.50402583 9.478450529999998 12.227910156069646 
Si 10.86499017 10.864713239999999 10.86143933993517 
Si 9.510411509999999 10.3171086 16.07494965242123 
Si 11.05556688 8.48865384 16.374889736348678 
Si 11.246958089999998 11.38053609 14.923103400679485 
Si 11.438626229999999 9.24509628 21.67121751330377 
Si 9.31322106 10.24450407 21.449792687898917 
Si 8.48539584 9.414479700000001 19.338381034054056 
Si 10.35529236 10.858425299999999 18.588340000584587 
Si 11.87927073 11.88510255 24.44541174936564 
Si 8.78382864 9.61838163 25.4085160628118 
Si 9.95094198 11.632281749999999 25.810251890665576 
Si 10.15414344 8.13354813 30.273964036146886 
Si 10.70440335 11.51088867 28.045247879842954 
Si 11.00804895 9.16107246 28.350392245157227 
Si 12.17035674 9.037952639999999 32.707902355138025 
Si 8.33969808 9.47460609 30.9846260071227 
Si 10.259279099999999 10.70585316 32.5480268309347 
Si 8.13349926 16.286448779999997 2.717776356307742 
Si 9.50599692 12.21735339 4.068950054685874 
Si 9.255978 14.74867278 1.3593860544065441 
Si 10.84840695 13.573056059999999 2.703887864046764 
Si 8.143485029999999 13.57548327 5.430841103199944 
Si 9.50252715 14.932928969999999 6.7877013463734155 
Si 10.860363809999999 13.57499457 8.145428969778024 
Si 9.497770469999999 12.21557778 9.503052507554896 
Si 8.14672674 13.57707969 10.86081482616875 
Si 9.4915314 14.90831478 12.246159836132787 
Si 11.69338554 15.127252379999998 15.251042518468063 
Si 9.57837339 15.88139793 16.299358265821198 
Si 10.73190087 13.41717705 13.830620651956814 
Si 9.959282459999999 13.25588976 19.10776197819914 
Si 9.59648787 12.65690646 21.36579558631553 
Si 10.69875072 15.50006532 19.509844758145373 
Si 8.31373182 14.166060929999999 17.676966244123484 
Si 11.647105649999999 13.265484569999998 22.475001425894543 
Si 11.326827960000001 15.39574416 23.3781871129737 
Si 9.74120823 15.337360799999999 25.120060093144616 
Si 8.49055977 13.4146521 25.642014821034092 
Si 9.703871549999999 12.97096137 29.605352658776628 
Si 11.142930149999998 15.686276309999998 26.921955785310264 
Si 9.531735119999999 15.09542172 28.580074530362513 
Si 10.913257439999999 12.82975965 31.65625586769732 
Si 11.431768139999999 15.0107463 32.91048768192256 
Si 16.26760125 2.69816157 2.6828799148486064 
Si 14.933971529999999 1.3617886139999997 4.07207262351797 
Si 14.696561069999998 3.9078895499999997 1.1797203828495866 
Si 13.57514118 -0.000272302011 8.145012627267077 
Si 13.574473289999998 2.71350675 5.429834942131824 
Si 12.2170113 1.358328618 6.7877013463734155 
Si 14.930843849999999 1.354906089 9.502289212951494 
Si 13.57548327 2.7188172899999996 10.861057692633468 
Si 12.192755489999998 1.358665821 12.208931876612352 
Si 14.929899029999998 4.065739649999999 12.227250947093982 
Si 16.16168367 2.52907137 13.542234072708121 
Si 12.735212489999999 2.8140323400000002 16.690373274018114 
Si 14.558258969999999 1.449497232 14.935420199961642 
Si 15.45715746 0.9098095319999999 21.166020571479876 
Si 13.65211143 2.42115012 20.427498347479915 
Si 13.73359401 1.3174537499999999 18.433807538605077 
Si 15.96408597 1.283800239 17.712008405461454 
Si 15.66249291 3.1599830699999996 23.761326308671887 
Si 13.537218059999999 2.3048069399999997 24.27904822103341 
Si 13.108432679999998 2.84791554 26.558419382835794 
Si 16.02331641 3.11007051 29.089330811668134 
Si 15.17553594 1.9569828599999999 27.273522340595036 
Si 12.71014218 3.0130961399999996 34.51555745203842 
Si 14.836198949999998 2.60403795 31.112998281331095 
Si 15.291292679999998 0.265421115 31.249315758456707 
Si 12.581646659999999 2.4705739799999997 32.01326957083363 
Si 13.58714691 5.4305973 2.692216395656574 
Si 14.93460684 6.786365129999999 4.072384880401179 
Si 14.9325543 4.07220678 6.787319699071714 
Si 13.57483167 5.4288216899999995 8.144422808709903 
Si 12.21692985 6.78753801 6.787111527816241 
Si 12.193081289999999 6.78553434 12.240226955351805 
Si 13.57973496 8.14172571 10.864978251278211 
Si 12.214958759999998 4.07222307 9.499478901002608 
Si 14.931055619999999 6.78618594 9.502427993788476 
Si 14.327853209999999 6.39765315 15.417683608474256 
Si 14.13242208 4.705399079999999 17.13409030505896 
Si 13.352587199999999 5.214836249999999 13.59798927396566 
Si 15.817573709999998 5.55262569 20.42611053911009 
Si 13.589199449999999 4.8216445199999995 20.231262243987302 
Si 15.881723730000001 7.904103479999999 20.167978182323488 
Si 12.65734629 6.373022669999999 18.45070410550764 
Si 15.916633199999998 5.27685228 22.831043663171982 
Si 12.97288359 7.76099583 24.875944600893195 
Si 14.15558646 6.7790835 23.150690625950883 
Si 12.453265169999998 5.45094351 22.23949034553601 
Si 14.288382539999999 6.16926735 27.928082158220857 
Si 14.266423619999998 6.53297418 30.284025646828084 
Si 12.30064416 4.97525922 27.3302143125022 
Si 12.88745883 8.68188582 0.2037403303003258 
Si 12.21616422 9.50176152 4.067978588827 
Si 14.84822097 9.54988218 1.2664133021913466 
Si 13.575043439999998 10.88533638 2.707728623710242 
Si 13.576134869999999 10.86068961 8.144769760802358 
Si 13.57505973 8.14364793 5.430251284642771 
Si 14.932733489999999 9.50306472 6.787215613443977 
Si 12.216604049999999 9.50229909 9.505030134481888 
Si 14.9550345 9.492590250000001 12.222358922590365 
Si 14.9315769 12.21448635 9.500068719559781 
Si 12.210625619999998 12.212384939999998 12.243627085857865 
Si 14.913038879999998 9.230777369999998 16.889072737367158 
Si 15.24840111 11.47995396 17.15251346116833 
Si 13.152920669999999 8.628308009999998 15.313840847202439 
Si 13.41297423 10.42753851 13.715120300378505 
Si 14.81880123 11.916053549999999 14.855308961813755 
Si 14.524945919999999 11.7380853 20.758317167635866 
Si 12.79770093 10.19988576 19.890034861057693 
Si 13.967583569999999 8.395035209999998 18.81045873017435 
Si 15.46372233 8.586556739999999 22.363733889844184 
Si 14.740772129999998 10.73680416 22.938876373507032 
Si 12.61781046 9.810913139999998 23.643085035563182 
Si 15.660130859999999 11.58901551 25.055492308738717 
Si 16.16225382 12.103453709999998 30.105518795259925 
Si 14.634137789999999 8.854983359999999 30.043587846756687 
Si 14.41803465 8.2038069 26.668021548842365 
Si 13.039379369999999 11.89360593 28.01655494179691 
Si 13.3439535 9.55866249 28.227328337963396 
Si 14.134165109999998 10.061160119999998 32.060871397918476 
Si 12.232112129999999 12.28002102 1.2861271200846462 
Si 12.21548004 14.93722953 4.06867249301191 
Si 14.93364573 12.218298209999999 4.074778849839119 
Si 14.74238484 14.82396516 1.156998490314701 
Si 13.571524799999999 16.28229483 2.685138572970489 
Si 13.574799089999999 13.572665099999998 5.429800246922579 
Si 12.217597739999999 12.21790725 6.787562565536433 
Si 14.93274978 14.932538009999998 6.787423784699451 
Si 12.214584089999999 14.929866449999999 9.502948421927158 
Si 13.58094042 13.57507602 10.86081482616875 
Si 14.917274279999999 14.93193528 12.247686425339587 
Si 16.25087142 13.50664173 13.714010053682648 
Si 15.36345738 15.90509988 16.14860758164945 
Si 13.37027814 14.731877789999999 16.90027928995346 
Si 13.27535631 16.19292789 13.63275387362966 
Si 12.97278585 12.37021875 16.435536962109833 
Si 13.57996302 13.90289598 21.094791306898838 
Si 12.987886679999999 15.40025649 19.155710757376436 
Si 14.93177238 15.320973059999998 22.52354002362901 
Si 13.41030267 16.18963731 24.127291375793543 
Si 13.62041109 12.648810329999998 25.867221424246708 
Si 13.94015121 12.957228899999999 29.94585144231208 
Si 13.806296279999998 15.390287009999998 29.807833899933435 
Si 13.308050339999998 15.00183567 26.155642698704646 
Si 14.832289349999998 15.90307992 27.651908292626587 
Si 16.178788169999997 16.10067762 34.45383467479066 
Si 13.43506347 12.328744409999999 32.1870578739444 
Si 13.122865619999999 13.699645649999999 34.29444488351678 
Si 16.08419214 12.33053631 32.566623463090295 
