&CONTROL
  dt          = 30.D0,
  prefix = 'x2.00_y.66_z3.16_struc1-scf',
  pseudo_dir = './',
  outdir='./',
  wf_collect= .true.,
  verbosity= 'high',
/

&SYSTEM
ibrav= 6, celldm(1) =30.783621515, celldm(3) =2.107444715732142, nat=  432, ntyp= 1,
  ecutwfc     = 12.D0, nbnd= 1728,
  degauss     = 0.05D0,
  occupations = "smearing",
  smearing    = "methfessel-paxton",
/
&ELECTRONS
  electron_maxstep=200,
  conv_thr    = 1.D-8,
  mixing_beta = 0.3D0,
  scf_must_converge=.false.,
/
ATOMIC_SPECIES
Si  28.08  Si.pbe-hgh.UPF
K_POINTS {automatic}
1 1 1 0 0 0
ATOMIC_POSITIONS (angstrom)
Si 3.4775566199999997 3.46361238 1.569415361132113 
Si 1.7247363299999998 1.620784953 1.3720368813859245 
Si 1.347875325 4.082713829999999 4.073870674512295 
Si -0.001020952944 0.0010309501169999998 5.429916514073721 
Si -0.000168459777 2.7151520399999995 8.145681532559435 
Si 2.71497285 0.00019793327399999998 8.145269569266402 
Si 2.71656927 2.7160317 5.427753706785306 
Si 1.356913017 1.357354476 6.787369894886337 
Si 2.71215468 2.71606428 10.859936018970698 
Si 1.3624874550000001 1.3770995849999998 12.23424556452318 
Si 4.07267919 1.358082639 9.501075096906892 
Si 1.530522063 1.106804502 16.711943257029425 
Si 3.06488205 2.9063803499999996 16.64239012105597 
Si 0.024865056 2.7192734099999996 13.794899839623493 
Si 2.88956907 0.1564400376 13.587853954600837 
Si 2.05539075 1.8836452799999999 20.371344528477792 
Si 3.72692394 3.30245541 19.353486222220663 
Si 0.440190009 1.67009967 18.644909358206796 
Si 1.4768937539999998 1.5354872549999998 24.40491146082186 
Si 1.318264992 2.80183113 22.44537372724397 
Si 2.34018882 3.13952283 25.970303313792034 
Si 0.934156566 3.7230143399999998 29.64487856653372 
Si 3.00500001 2.61006525 29.906715569529545 
Si 0.1509188679 0.0366912702 29.54810152294578 
Si 0.46058671799999995 3.27630996 27.390993060084956 
Si 3.75015348 0.720972594 28.69780928612914 
Si 1.5760167749999998 0.8029438739999999 33.20286820734755 
Si 3.4202321099999997 3.9427501499999997 33.603983133662375 
Si 3.4289472599999997 2.07027981 32.22232690938417 
Si 2.71595025 5.42365776 2.7111990919879494 
Si 1.5737964479999997 6.91424163 1.2806702890464616 
Si 0.000541139139 5.43097197 5.43372717453426 
Si 2.7146470499999995 5.430238919999999 8.145509881187337 
Si 1.356701247 6.78678867 6.787816188453787 
Si 4.07210904 4.093742160000001 12.255015380546842 
Si 1.359048636 4.07287467 9.502276656511567 
Si 0.00215360316 5.430206339999999 10.86175552351492 
Si 1.355241663 6.78612078 12.23991005980236 
Si 3.62162538 7.471050119999999 15.192416650683406 
Si 0.256007124 5.153504399999999 17.09754089930674 
Si 1.4395587029999999 4.13285445 15.263720630652243 
Si 2.72999223 5.606219789999999 13.826483692089228 
Si 3.3241211099999997 5.159482829999999 20.924748552116533 
Si 1.134267813 6.05388528 20.663529494060256 
Si 1.523149209 6.893879129999999 18.497872792869032 
Si 3.62359647 7.823696039999999 17.69447571090912 
Si 0.740240406 7.389795599999999 22.768387279254945 
Si 3.09985668 4.267996289999999 23.065824776823558 
Si 1.453983498 7.4094576299999995 25.162168653962265 
Si 3.0020515199999998 5.50615032 25.31270690729079 
Si 1.7539280099999999 5.89440618 29.53436941317807 
Si 3.51907983 5.93548956 27.94573596442605 
Si 1.4572854809999998 5.377068359999999 33.681775535496456 
Si 1.9607132699999998 6.716578769999999 31.749290058160955 
Si 0.011198381309999998 8.13320604 2.695427763919734 
Si 1.355819958 9.50159862 4.068789793898242 
Si 2.7074305799999996 10.877549759999999 2.69218011995967 
Si 0.000415777815 8.14478823 8.145200908717564 
Si 2.7146796299999996 8.14594482 5.427959688431822 
Si 0.001129877658 10.86121089 5.430328477366752 
Si 2.7152660699999998 10.859809949999999 8.144994927071048 
Si 1.3583497949999999 9.50389551 9.501864693218538 
Si 2.7172045799999998 8.14423437 10.861549541868404 
Si -0.0018264836699999998 10.857154679999999 10.859524055677669 
Si 1.3726377539999999 12.207025530000001 12.249282224718822 
Si 0.09707536799999998 8.27445663 13.635847678238985 
Si 1.85137479 9.150353639999999 15.134226835542732 
Si 2.8427841899999997 10.87502481 13.780687106013914 
Si 2.73429279 10.0810665 17.83303269846532 
Si 1.512893025 10.470348629999998 21.428167696200806 
Si 0.7548574229999999 10.306715579999999 19.179843694207964 
Si 2.89413027 8.72062344 22.374378719744904 
Si 0.12274270649999999 11.5759998 23.105819546522014 
Si 3.8812391099999997 10.17175293 24.106547045843925 
Si 0.650995641 11.261391029999999 25.40903765731128 
Si 2.26468467 9.58158252 25.744581759485293 
Si 0.9326546279999999 9.22294188 29.31458699634586 
Si 3.8408073299999996 11.667419279999999 28.8106528981453 
Si 2.99630115 9.6096339 28.00148833008295 
Si 3.8241752399999998 10.92062052 31.13700961389316 
Si 2.92281696 8.433593639999998 34.259382402600785 
Si 0.267240708 11.40855489 33.56869161155936 
Si 0.48969369 8.703372329999999 31.64111536346582 
Si 2.0271764699999997 10.08004023 32.76443627273897 
Si 2.73685032 16.274475629999998 2.705428172858069 
Si 0.0049773117599999995 13.566637799999999 2.67823516249056 
Si 1.501568217 12.3199641 1.1022936161913424 
Si 1.3550526989999998 14.930648369999998 4.068000197586599 
Si -0.0005025041459999999 13.575157469999999 8.14492626652221 
Si 2.71682991 13.57647696 5.429676202152786 
Si 1.3571036099999998 12.21740226 6.787266904063078 
Si 4.07816892 14.92825374 12.230675215983576 
Si 1.357359363 14.932668329999998 9.503203573920887 
Si 2.71494027 13.574033459999999 10.862888422570757 
Si 0.0864702522 13.59903861 13.678108246049113 
Si 1.3208469569999999 15.265375289999998 14.867823906049146 
Si 2.11901949 15.081672959999999 17.213714547941574 
Si 2.84773635 12.32499771 20.96759273459179 
Si 2.9221490699999997 16.16658696 21.342204689054938 
Si 1.535523093 14.30988534 21.044389558467714 
Si 0.5749262279999999 14.314935239999999 18.890611132225555 
Si 3.9272420699999997 12.299064029999998 23.00478554890608 
Si 3.08881206 16.216483229999998 23.68933122082646 
Si 3.4109305199999995 14.000701139999999 24.552154007806138 
Si -0.00372832488 14.580641429999998 25.28222162360647 
Si 0.35076605399999994 12.621752639999999 29.754804105224245 
Si 2.34403326 15.32159208 29.590430751304748 
Si 1.7597272499999999 13.280341049999999 26.07198958662193 
Si 2.1793413599999996 13.2577794 28.436315585877512 
Si 3.0772298699999996 13.741527239999998 34.048388536019914 
Si 2.0695467599999997 14.894419409999998 32.212027827058385 
Si 0.254707182 13.3548678 32.147315259778054 
Si 6.781070879999999 4.07867391 4.066318014140054 
Si 4.08183417 1.3504882409999999 4.078230619363543 
Si 5.42372292 2.6989434899999996 2.701305106900314 
Si 6.84443898 1.440977562 1.2428039963619997 
Si 5.42997828 0.0009787341509999998 5.4325256149295855 
Si 5.42984796 2.7148914 8.14496059679663 
Si 6.786299969999999 1.3572681389999999 6.788056500374721 
Si 5.43041811 -0.0011204718119999998 10.861652532691663 
Si 6.79872924 1.357046595 12.241386261602388 
Si 5.67507762 0.1597540752 16.46459362983854 
Si 4.300234199999999 1.512818091 15.059936121699417 
Si 5.61848616 2.88956907 13.668804741681491 
Si 7.16248494 1.346557464 18.045331115474127 
Si 5.6357861399999996 1.8847204199999998 19.816429972764606 
Si 5.20768494 3.13009092 23.39443416356487 
Si 4.985766269999999 1.021914054 24.484248725004807 
Si 6.72609213 3.06745587 21.504483896234856 
Si 5.94485631 0.469907856 29.48699363447947 
Si 5.82680268 3.1897937699999996 27.207635064411598 
Si 7.405482869999999 1.71343107 28.000355431027117 
Si 4.12589862 1.7357646599999998 26.578086492110906 
Si 5.60584512 1.063984608 31.908960164485013 
Si 7.880026859999999 3.05825202 34.21169765143241 
Si 7.522705709999999 2.61011412 31.82883330399042 
Si 4.079504699999999 6.77869254 4.069751041581982 
Si 7.14427272 7.0375080599999995 1.1938799222870886 
Si 4.0725 4.07240226 6.787129582965401 
Si 5.430206339999999 5.4317376 5.431427046148168 
Si 6.78801042 6.78713076 6.787129582965401 
Si 6.78905298 4.072923540000001 9.50217366568831 
Si 4.07442222 6.78900411 9.501109427181312 
Si 5.42525418 5.43012489 10.86515422068243 
Si 6.77784546 6.807265199999999 12.245917857825734 
Si 7.73981883 6.00560172 16.684513367768425 
Si 7.07305284 4.270162859999999 15.147855954487184 
Si 4.479261299999999 7.21068705 21.29359302047724 
Si 8.01064008 4.84982622 20.454011829279413 
Si 5.46070122 7.98081309 19.32372187429915 
Si 7.506057329999999 6.763868639999999 19.034420651767906 
Si 6.24858336 7.01725959 22.842849644470355 
Si 5.26595427 6.3565209 24.896623981329157 
Si 6.258862349999999 4.2748218 25.166734580460027 
Si 7.5464565299999995 6.11943624 29.916293716092525 
Si 4.62541518 4.11832377 28.993598930525625 
Si 6.23918403 8.01441936 26.25325343555571 
Si 4.751793 7.95947319 28.11206614398744 
Si 7.13791962 5.30982324 33.91539305291963 
Si 6.154280549999999 4.45700916 30.737645531573715 
Si 4.125295889999999 7.373945429999999 32.52618416826919 
Si 5.15396052 5.2691145299999995 32.67981214629545 
Si 4.22267751 9.69673653 1.3416580215523066 
Si 5.44636602 8.149007339999999 2.681702520206907 
Si 6.7894276499999995 9.4972329 4.071604876400623 
Si 4.07300499 9.50285295 6.787816188453787 
Si 5.429701349999999 8.14545612 8.145029257345467 
Si 5.4325521 10.86147153 5.430431468190009 
Si 6.78892266 9.50415615 9.502379647334825 
Si 4.075692839999999 9.51086763 12.238227876355815 
Si 5.42680173 10.85998914 10.85852847771951 
Si 8.11455399 10.836205739999999 13.630732467350512 
Si 5.453289269999999 8.32643802 13.795861087307234 
Si 6.532143389999999 10.005464609999999 15.135119422677631 
Si 4.77282339 11.818052909999999 15.020113003373057 
Si 7.811397089999999 10.13246145 17.467518266723285 
Si 4.26638358 11.533352579999999 19.143762575793303 
Si 7.24344624 10.71098451 21.43503375108466 
Si 6.21909846 10.19341863 19.389876313105095 
Si 7.22256246 9.147698369999999 23.224876938208066 
Si 6.10821243 10.118891879999998 25.066661830527835 
Si 6.559233659999999 8.27634627 29.57807185251381 
Si 8.04664098 10.035079829999999 28.83403181502483 
Si 7.30888317 11.42347653 27.116110552809808 
Si 5.646814469999999 11.06700246 34.22247735760006 
Si 5.32757934 9.10148364 31.397782378381983 
Si 7.108157789999999 10.049121809999999 32.521995874790036 
Si 4.06868814 12.21846111 4.0713988947541075 
Si 4.24737315 15.042690989999999 1.234575029583699 
Si 5.42654109 13.590893609999998 2.7092628645107024 
Si 6.88338837 12.30963624 1.430951065316845 
Si 6.78514338 14.93123481 4.071089922284334 
Si 4.0734774 14.932733489999999 6.78812516092356 
Si 5.43012489 13.575043439999998 8.14489193624779 
Si 6.787342529999999 12.21769548 6.787816188453787 
Si 4.074226739999999 12.21746742 9.501590051023182 
Si 6.78864573 14.93245656 9.501418399651085 
Si 6.795666719999999 12.222696509999999 12.221715014360143 
Si 5.5177488 13.61614311 13.642473421201904 
Si 6.901942679999999 14.938109189999999 15.115997459826096 
Si 7.6023475199999995 13.35786516 16.9569584255598 
Si 6.75702684 14.66244981 21.23962582909014 
Si 4.98941523 15.95146122 20.284557594745863 
Si 4.45052574 15.033926969999998 17.90471431145277 
Si 5.2025372999999995 12.82275495 17.284160271049927 
Si 6.772013639999999 15.829058159999999 24.847806331104945 
Si 6.13935891 12.602970269999998 22.25940663071475 
Si 8.07226515 15.788121389999999 22.84161375459126 
Si 6.892559639999999 12.39921495 24.442091148017933 
Si 5.52582864 13.90993326 25.574440919463353 
Si 5.5972602899999995 12.90410721 27.73738552897546 
Si 6.58467864 14.51974941 29.127521331035226 
Si 6.60280941 13.40271153 31.249406932341873 
Si 4.65574716 12.599956619999999 32.613692037763926 
Si 7.7302566 14.628126779999999 32.944429901519236 
Si 5.961390659999999 16.06984065 33.961258299543786 
Si 12.0063816 1.2125559240000001 1.2703815058030046 
Si 9.50239683 1.3591968749999999 4.0761364726239675 
Si 10.84216788 2.7094179599999997 2.697480714330007 
Si 8.14490226 -6.51513663e-05 8.144994927071048 
Si 8.14671045 2.7118940400000002 5.427788037059726 
Si 10.85971221 -1.226566953e-05 5.430019504896979 
Si 10.86026607 2.71446786 8.145097917894306 
Si 9.50252715 1.357931142 9.502036344590632 
Si 8.14258908 2.71396287 10.859146422659055 
Si 10.54849176 0.308210058 16.55707938912407 
Si 8.23588191 0.04617856619999999 13.690604465937732 
Si 9.26389494 1.80766872 15.268561199345362 
Si 10.80051435 2.7510551999999997 13.716455162575446 
Si 10.150103519999998 1.66706973 20.262174255824494 
Si 9.160078769999998 0.09065010329999999 18.781681171493194 
Si 10.34843427 3.79718271 17.40115784627082 
Si 8.233210349999998 3.63553704 18.38787859362967 
Si 11.755336409999998 3.8473396199999996 23.54727254527949 
Si 9.75699324 2.61783558 23.825553749722147 
Si 8.592160499999999 1.6799876999999999 22.05064423197113 
Si 10.289839139999998 0.9806579999999999 25.49342147183386 
Si 8.295910560000001 0.18215966699999997 26.482682659499737 
Si 11.28194901 2.37490281 27.129808332303103 
Si 9.40472199 2.79397935 28.570409637759205 
Si 11.57852475 2.87684658 31.84071157893949 
Si 9.58257621 1.83264129 30.655184212418614 
Si 12.217581449999999 4.073184179999999 4.06700461962844 
Si 9.51516819 4.1386699799999995 1.2691971113355396 
Si 8.15747814 5.44968918 2.705675350833888 
Si 9.499953329999999 6.78284649 4.0719138488703965 
Si 11.33728614 5.15361843 0.08848284928824349 
Si 9.50164749 4.07367288 6.7875072159840135 
Si 8.14501629 5.42975022 8.144857605973371 
Si 10.860217200000001 5.430401819999999 5.430637449836525 
Si 10.8618462 5.429212649999999 10.857635890584607 
Si 9.50306472 6.7865280299999995 9.502825940902277 
Si 9.50352084 4.07991195 12.222985234513656 
Si 9.21219048 7.30238346 15.095673937369884 
Si 10.684496969999998 7.62308469 17.0027206813607 
Si 8.31532824 5.64456645 13.585965789507776 
Si 11.6638029 4.71517308 14.817392732927228 
Si 11.996021159999998 5.5363194 17.115873265846634 
Si 12.076901009999998 5.95590093 22.469885543179334 
Si 8.379413099999999 5.912553239999999 22.517879266817484 
Si 8.466320249999999 4.47843051 24.468765771241713 
Si 10.22024826 7.438730759999999 22.382137361763665 
Si 11.58181533 4.35034224 25.859176215496834 
Si 10.609269750000001 7.96812318 29.94451320166517 
Si 10.976153129999998 5.68938024 29.687928730655496 
Si 8.71158249 7.77839355 26.169247254051744 
Si 9.55406871 5.578543079999999 26.216382720829408 
Si 9.08605701 5.069855249999999 28.45907655781749 
Si 10.74012732 5.10396651 32.048238087804016 
Si 8.545750289999999 5.91322113 32.00127427239845 
Si 9.68401404 9.79367832 1.260683203279559 
Si 10.855411649999999 8.17189479 2.6980780611049022 
Si 8.15052231 10.85427135 2.7192426752843857 
Si 9.50189184 12.21676695 4.074660270823939 
Si 12.21420942 9.50137056 4.070609298442464 
Si 8.14594482 8.14752495 5.430637449836525 
Si 9.502673759999999 9.50236425 6.787850518728207 
Si 10.86020091 8.14449501 8.144617294052436 
Si 8.14447872 10.860298649999999 8.144685954601275 
Si 10.860168329999999 10.86174846 5.430706110385364 
Si 8.14226328 8.145781920000001 10.86182418406376 
Si 9.50067009 9.51093279 12.224461436313685 
Si 10.85870223 10.861667009999998 10.861515211593987 
Si 10.36736325 11.448058139999999 17.009621066518974 
Si 10.88857809 8.22413682 13.60714756882447 
Si 11.89021761 9.639526049999999 17.05761479015712 
Si 9.57856887 11.07847062 21.44021762252197 
Si 10.5287157 9.10369908 20.591950871896067 
Si 9.22066128 8.46133551 18.69218214608214 
Si 10.250612819999999 10.9263546 23.69149402811487 
Si 9.39160854 8.793895860000001 24.132466403030477 
Si 12.204077039999998 9.00063225 27.171382294624845 
Si 9.87602427 8.83507698 27.889880607945884 
Si 8.377099920000001 8.56383219 34.05213053593161 
Si 10.360537739999998 11.6866089 34.28581671390363 
Si 9.07540335 8.22539115 31.830584147985803 
Si 8.18012124 11.49801957 30.769023402392932 
Si 10.33919784 12.2202693 31.68797618804813 
Si 8.14356648 16.310199599999997 2.7036395655608247 
Si 12.2175 14.929524359999998 4.072154160791332 
Si 8.59810635 13.28926797 0.28771413394484063 
Si 9.59528241 15.002373239999999 1.410500520845282 
Si 10.885385249999999 13.563298349999998 2.7095409397334986 
Si 8.14716657 13.576102289999998 5.430465798464429 
Si 9.502543439999998 14.932472849999998 6.787987839825884 
Si 10.86020091 13.575010859999999 8.14444564268034 
Si 12.204516869999999 12.221686529999998 12.229782628848673 
Si 9.503439389999999 12.21930819 9.501452729925505 
Si 8.14276827 13.5755973 10.859592716226507 
Si 9.50124024 14.934932639999998 12.223671840002043 
Si 10.86125976 16.28995113 10.860965927203278 
Si 11.86796547 15.057856979999999 14.959245426827678 
Si 9.26925435 12.278848140000001 15.116306432295868 
Si 10.71049581 13.49787771 13.633066926011024 
Si 10.16606772 13.2716259 20.783033179313758 
Si 8.39998737 14.26179726 19.564411428252697 
Si 11.5282701 13.40834787 17.66649653725741 
Si 9.96434865 14.28305571 22.906326321871596 
Si 9.190818 12.805715609999998 24.599152153486123 
Si 12.095650799999998 15.759418409999999 25.17528281879043 
Si 12.02972517 12.29293899 29.890443019454807 
Si 9.95630139 15.90265638 29.839737204137535 
Si 9.28031526 12.82343913 26.956783749229945 
Si 11.52157491 12.50785296 27.55512610208352 
Si 8.68015908 14.82012072 28.097029483791797 
Si 9.93240396 14.785748819999998 32.01761548302203 
Si 11.11333122 15.73750836 34.107264956648976 
Si 16.2768051 2.71370223 2.6772807808617043 
Si 13.56929307 0.0163053126 2.7052496554310888 
Si 12.60847629 3.1537277099999996 0.12648337334568494 
Si 14.93120223 1.3563982529999998 4.069716711307563 
Si 14.63104269 3.94037181 1.1946763846536157 
Si 13.574799089999999 -0.00028766511 8.145063587619887 
Si 13.576835339999999 2.7152009099999996 5.430122495720236 
Si 12.217092749999999 1.3574929409999998 6.787404225160755 
Si 14.93389008 1.357830144 9.501899023492955 
Si 13.574310389999999 2.7142235099999996 10.86230480790563 
Si 12.21362298 1.3637971709999999 12.236305380988336 
Si 15.889982759999999 0.702206514 15.046856287145673 
Si 12.91221963 2.6789230799999997 15.420987617766949 
Si 12.50853714 1.545178176 20.627585696743274 
Si 15.2852328 3.4923153599999996 18.372086667396804 
Si 12.911405129999999 3.3084501299999998 18.0857035181912 
Si 12.476657609999998 1.142621325 17.48207430307706 
Si 15.42177558 3.6412222499999998 22.28824406122694 
Si 13.431039839999999 2.39924007 22.716582895156257 
Si 13.944093389999999 0.517966614 24.084301028020235 
Si 15.88890762 0.562742937 25.429326849493073 
Si 15.5238813 1.287028917 27.65983343906231 
Si 13.215034439999998 1.578346245 28.387532265927717 
Si 15.494933969999998 3.22400277 31.443304322261945 
Si 15.81793209 0.922786146 31.78293372709185 
Si 13.387382639999998 3.0801783599999997 30.206899489051697 
Si 13.572860579999999 5.45478795 2.694899077693677 
Si 12.345995519999999 7.029281609999999 1.2541055227008255 
Si 14.934883769999999 6.78155958 4.073355720396006 
Si 14.93265204 4.07386836 6.7883998031189146 
Si 13.575173759999998 5.4296199 8.14492626652221 
Si 12.21777693 6.78696786 6.787575876532852 
Si 12.21692985 4.075220429999999 9.501830362944117 
Si 14.93214705 6.788368799999999 9.502207995962728 
Si 14.94503244 4.05300087 12.23613372961624 
Si 12.210430139999998 6.785355149999999 12.219552207071729 
Si 14.680271069999998 6.64216605 16.933476517857017 
Si 13.580321399999999 5.44234239 13.574980101693608 
Si 14.432793389999999 7.378311149999999 14.733008918404646 
Si 14.16443193 8.045614709999999 20.013382757107998 
Si 13.19965668 5.906200139999999 20.339657685188804 
Si 15.350702309999999 4.82837229 20.304778126378817 
Si 15.59070288 5.43781377 23.76042921914878 
Si 13.77962955 7.00790913 23.701243826049947 
Si 13.57198092 7.482241349999999 25.992068707773853 
Si 13.14739836 5.11670529 29.0754766350156 
Si 16.25614938 7.190634059999999 28.84985807153212 
Si 15.58961145 4.810681349999999 26.033333697625824 
Si 15.87471903 7.09030395 26.574275831650368 
Si 13.441465439999998 5.28087591 26.767520946356473 
Si 14.99841477 7.0752356999999995 32.423879950499746 
Si 14.276376809999999 6.88306257 30.096870959537917 
Si 15.47106912 4.74736212 33.312622094665976 
Si 14.93219592 12.217239359999999 4.070437647070368 
Si 15.01687134 9.46944216 1.2347363818734698 
Si 13.588938809999998 10.851290279999999 2.678286657902189 
Si 13.57509231 10.86002172 8.14496059679663 
Si 13.57602084 8.14589595 5.42902392693882 
Si 14.93312445 9.50187555 6.787541546258432 
Si 12.21741855 9.50246199 9.502448307883665 
Si 13.571703989999998 8.14529322 10.86374667943124 
Si 14.942507489999999 9.52974774 12.23040057378822 
Si 12.75870267 9.1368981 14.861301153909482 
Si 13.610523059999998 10.976201999999999 13.650232063220662 
Si 15.94939239 8.33725458 18.475523784222084 
Si 13.800953159999999 11.80342449 20.308039502448647 
Si 12.64187079 9.802246859999999 19.56997293270862 
Si 14.271408359999999 10.873640159999999 22.50267095524974 
Si 12.487913999999998 11.610550889999999 23.956558076906106 
Si 14.878520369999999 8.54187327 22.261123144435714 
Si 12.807800729999999 11.046134969999999 26.23807945426239 
Si 12.80441241 8.626450949999999 29.487439928046918 
Si 15.51653451 10.77546033 28.958582050617963 
Si 15.020341109999999 11.507402609999998 26.801370596933882 
Si 13.6032903 10.611615509999998 30.32884062378897 
Si 14.641289099999998 10.34475273 32.56157868119546 
Si 13.71787416 8.43256737 33.92033661243601 
Si 13.123957049999998 14.34381741 0.04348856172610701 
Si 12.34353573 12.28464738 1.1356386117347859 
Si 14.931528029999999 15.00590817 1.3398659812276204 
Si 13.57408233 13.57670502 5.42902392693882 
Si 12.2175 12.217679189999998 6.787884849002626 
Si 14.93281494 14.932049309999998 6.787404225160755 
Si 16.28561799 16.2924435 10.861961505161437 
Si 12.217728059999999 14.932912679999998 9.50261995925576 
Si 14.9323914 12.21702759 9.501178087730151 
Si 13.57654212 13.576623569999999 10.861377890496309 
Si 14.934623129999999 14.92416495 12.235447124127854 
Si 13.409683649999998 14.0410026 16.365447797315667 
Si 14.291347319999998 16.23032973 16.66099712979122 
Si 14.72987412 12.580946189999999 15.023443039991724 
Si 13.460394419999998 16.1977986 13.614288265903678 
Si 13.57080804 15.70803975 20.330285520272337 
Si 12.35174589 13.665290039999999 19.882996374863584 
Si 15.32385639 16.072316729999997 18.732417227701532 
Si 15.707094929999998 12.217597739999999 18.836540950015195 
Si 16.26269796 13.944109679999999 22.907836853946048 
Si 12.240517769999999 14.01980931 23.578890728019644 
Si 14.16477402 15.006771539999999 22.51406860635694 
Si 14.738507819999999 13.858456859999999 26.94950573105306 
Si 15.22924407 14.343849989999999 29.220659365534722 
Si 12.220725419999999 15.87437694 29.16082169722192 
Si 12.489543 14.62481991 27.168601542396882 
Si 13.25347884 14.236466309999999 30.456789556549616 
Si 14.483732219999998 14.57471187 32.43376706953249 
