&CONTROL
  dt          = 30.D0,
  prefix = 'x2.00_y.66_z3.17_struc8-scf',
  pseudo_dir = './',
  outdir='./',
  wf_collect= .true.,
  verbosity= 'high',
/

&SYSTEM
ibrav= 6, celldm(1) =30.783621515, celldm(3) =2.1173634481158685, nat=  432, ntyp= 1,
  ecutwfc     = 12.D0, nbnd= 1728,
  degauss     = 0.05D0,
  occupations = "smearing",
  smearing    = "methfessel-paxton",
/
&ELECTRONS
  electron_maxstep=200,
  conv_thr    = 1.D-8,
  mixing_beta = 0.3D0,
  scf_must_converge=.false.,
/
ATOMIC_SPECIES
Si  28.08  Si.pbe-hgh.UPF
K_POINTS {automatic}
1 1 1 0 0 0
ATOMIC_POSITIONS (angstrom)
Si 2.73421134 -0.00221995233 2.687594648844229 
Si 1.278051498 1.2351078 1.2761260381966808 
Si 3.96443214 3.9015527399999996 1.194383801531294 
Si 1.358540388 4.0728258 4.067692921398537 
Si 4.07354256 1.35456237 4.071693976064635 
Si 0.001207421316 0.000878741244 5.430465937411632 
Si 0.000187001055 2.7146796299999996 8.145112544657762 
Si 2.71459818 0.000273732273 8.1451815283589 
Si 2.7169602299999998 2.7153801 5.43081085591733 
Si 1.3579604639999998 1.3575906809999998 6.787375338827859 
Si 2.713914 2.71764441 10.861000858524404 
Si 1.3404145049999998 1.3593239369999999 12.217220422929234 
Si 2.70860346 0.038322224999999994 13.575681957621104 
Si 1.59808158 3.7839063599999996 15.042378919401026 
Si 3.5220609 1.85740209 14.862159000173783 
Si 0.632941434 2.74051557 17.45870551106889 
Si 2.14369884 2.8042094699999995 19.49093085479138 
Si 1.76472828 0.484559082 19.383557723967566 
Si 2.8827761400000003 2.88743508 23.427934154380917 
Si 2.4967357199999998 0.568597563 23.432763013460686 
Si 0.32038031699999997 0.21172764599999996 24.253876008125527 
Si 1.589446251 3.8426480999999995 21.690165738972873 
Si 2.3934897 3.9137213699999998 25.50606815121182 
Si 0.7638055199999999 0.521004699 29.570208412001666 
Si 0.0568446066 3.73088241 25.994334787878014 
Si 0.032778086399999996 1.4019255449999999 26.254920718932908 
Si 1.8523359 1.4496943409999998 27.72223853402309 
Si 3.14452386 3.3613926299999997 27.69868060008391 
Si 2.7375019199999997 2.21724819 34.17100737580714 
Si 3.96860238 0.709281261 32.75801422536441 
Si 1.325473317 3.46630023 32.759945768996324 
Si 2.71634121 5.425123859999999 2.6769884047940136 
Si 1.421928036 6.7952106 1.1404695899056279 
Si -0.00165861522 5.43087423 5.430086527055364 
Si 2.7152334899999997 5.42997828 8.145043560956621 
Si 1.357538553 6.787456559999999 6.787685765482987 
Si 1.35817875 4.0730701499999995 9.50181499497057 
Si 0.00171970272 5.42768139 10.863139353259731 
Si 1.37282346 6.7872285 12.235466611880662 
Si 0.1455992055 5.36610519 16.468789399715416 
Si 2.8062783 5.45574906 13.702853410671983 
Si 2.8647593999999996 6.58933758 19.486170979412744 
Si 0.5995453049999999 6.66971244 18.61828703537525 
Si 0.382727034 7.5752735399999995 22.417460900087836 
Si 4.017114 6.85683567 23.148136262558637 
Si 2.1969997199999995 6.18989049 21.72652014947345 
Si 3.6307966499999997 5.8538277899999995 25.234341352422874 
Si 0.203453955 4.4906317200000005 29.97593605025431 
Si 2.46685986 4.833389609999999 29.40809671432357 
Si 2.28848436 7.34134914 26.499674890576262 
Si 3.02376609 7.0532279099999995 28.73995507693583 
Si 0.237770469 5.2504950599999995 33.96885063961751 
Si 3.28010553 4.1895599400000005 31.517859738126983 
Si 1.3575271500000001 9.50176152 4.069383022076458 
Si 2.7166670099999997 10.87668639 2.701274116780215 
Si 0.00012052514879999999 8.1453258 8.144457199496935 
Si 2.71446786 8.144397269999999 5.430362461859922 
Si -0.001370300139 10.860168329999999 5.429776100400236 
Si 2.7146470499999995 10.859663339999999 8.144836609853202 
Si 4.0716366299999995 12.21606648 9.502539323832535 
Si 1.357216011 9.501777809999998 9.502677291234814 
Si 2.71366965 8.14429953 10.86131128517953 
Si 1.3256720549999998 10.1613762 17.031730892865244 
Si 3.49920603 9.21528558 16.923254022823198 
Si 0.12486089519999999 8.22504906 13.627523209027522 
Si 1.75213611 9.469018619999998 14.892684287928061 
Si 2.85835743 10.997932859999999 13.564334138783636 
Si 3.14124957 10.31639184 20.90551063036032 
Si 3.83341167 8.7219918 19.284221194326523 
Si 1.003742559 9.75479409 21.747560178321034 
Si 0.9955405439999999 10.655289 23.89798909394625 
Si 2.54777229 9.36746676 25.246758418628005 
Si 2.8918496699999996 10.39388337 29.471354768268597 
Si 2.3803110899999997 10.6474698 27.17174859892896 
Si 0.0460142001 10.99439793 27.320167031930843 
Si 3.80461095 8.16187644 32.404852167380156 
Si 2.51129898 8.63974359 34.381959533892086 
Si 0.7010320050000001 10.38397905 34.26499766860987 
Si 1.453667472 12.11053986 30.391079963712514 
Si 2.3146623899999996 8.37991809 30.49945335820285 
Si -0.022083538499999996 10.712613509999999 31.97615295664802 
Si 0.556881795 15.62196339 0.1651618120239833 
Si 1.338278886 12.239752139999998 1.2568485429132152 
Si 1.362060657 14.930029349999998 4.067623937697398 
Si 0.0001331422425 13.57525521 8.14500906910605 
Si 2.71549413 13.57455474 5.431052298871318 
Si 1.357662357 12.21707646 6.787444322528998 
Si 1.3573479599999998 14.934932639999998 9.501194141660312 
Si 2.7115193699999995 13.57637922 10.86341528806429 
Si 1.3492583459999998 12.21821676 12.231534540915705 
Si 4.0014267299999995 12.50386191 15.04372410157325 
Si 2.46348783 13.889570759999998 16.458579811946752 
Si 1.1454427529999998 15.128408969999999 14.991779374615119 
Si 2.63889855 15.805942649999999 21.326552650265967 
Si 1.567883178 13.715642429999999 21.377566097258708 
Si 2.8044864 12.359565089999998 19.807600534872783 
Si 1.322560665 12.341499479999998 17.900822051672684 
Si 3.17418795 15.8285043 17.692836192736745 
Si 1.64467098 12.92256378 23.61570778888295 
Si 3.7124258399999994 13.37575158 24.61383296067204 
Si 0.367332984 14.277940649999998 25.070367094814006 
Si 3.93295986 15.70999455 24.938573733786775 
Si 3.47087772 12.65092803 26.809377216842567 
Si 1.68935445 14.181210629999999 27.122528728165847 
Si 3.2057579699999996 15.99415731 27.147776762782946 
Si 0.187357806 13.0637655 28.57104848469548 
Si 2.3836994099999997 14.02942041 34.25661614892141 
Si 2.82954042 13.59011169 31.792380376812083 
Si 2.6865468 15.67643715 30.61772591380672 
Si 6.786365129999999 4.0742593199999995 4.070383285742983 
Si 8.14148136 0.00814563531 2.7040438123809705 
Si 5.43302451 2.7058015799999997 2.6789992796822335 
Si 6.918688799999999 1.360581525 1.171453619272486 
Si 5.429212649999999 0.001042809237 5.430017543354225 
Si 5.43004344 2.71531494 8.144836609853202 
Si 6.7872936600000005 1.357655841 6.787444322528998 
Si 6.786430289999999 4.07362401 9.501780503119999 
Si 4.0729887 1.3586120640000001 9.502401356430255 
Si 5.42748591 0.0006330277709999999 10.862173581443775 
Si 6.78905298 1.3579963019999999 12.25040158317739 
Si 4.5878504399999995 1.266180975 16.910871448468637 
Si 5.402415599999999 2.81859354 13.703474263982239 
Si 5.322122189999999 2.0376346499999998 20.711735413859145 
Si 7.5718526399999995 2.4777252899999995 20.38982297249113 
Si 4.409670419999999 2.9056473 18.7063102380294 
Si 6.92165358 3.89536254 17.329050644776984 
Si 6.872360039999999 0.0024853653 17.247649877432238 
Si 6.554086019999999 2.18950632 24.141501558969093 
Si 5.07138651 3.3408346499999997 22.68339306798105 
Si 6.701266169999999 3.36593754 26.265751160011828 
Si 5.80938867 1.4899110930000001 29.864423897362126 
Si 5.42818638 3.16241028 28.231786642490853 
Si 5.04488268 2.57256567 31.79244936051322 
Si 6.85869273 3.86607312 32.708897830153006 
Si 4.073037569999999 6.78794526 4.06734800289284 
Si 6.670885319999999 6.7303601099999995 1.21337501445503 
Si 5.4215889299999995 8.149577489999999 2.690698915395512 
Si 8.12615247 5.43914955 2.696369375629188 
Si 4.072304519999999 4.07277693 6.787892716586406 
Si 5.43038553 5.43001086 5.4298105922508055 
Si 6.78709818 6.7875054299999995 6.787651273632417 
Si 4.0749435 6.78895524 9.503298144545072 
Si 4.07469915 4.08095451 12.226153812226814 
Si 5.432291459999999 5.426182709999999 10.858586428984516 
Si 6.80809599 6.7810057200000005 12.240605897615563 
Si 6.48671058 4.62650661 15.058245170663138 
Si 4.5907174799999995 6.27728634 15.24081053572913 
Si 5.33639223 7.97535594 13.661428698137644 
Si 7.17338295 6.53103567 20.538034454389596 
Si 8.04879126 4.6168792199999995 19.426431094225837 
Si 4.4228979 5.18916321 17.897545325868553 
Si 5.87896326 5.65044714 22.347132016775998 
Si 7.51952916 5.93630406 24.008707934275336 
Si 5.958425879999999 5.49841257 25.730679082122403 
Si 5.71081788 5.07723462 29.68427296183602 
Si 5.3331831 7.260306389999999 28.979500979143143 
Si 6.563241 7.301145419999999 27.03705792245386 
Si 5.487628589999999 5.150213819999999 34.31566619709692 
Si 7.863394769999999 8.05389003 34.06273745686852 
Si 7.86945465 5.217735869999999 30.481965989963957 
Si 4.57235865 5.92578072 32.33604092549339 
Si 4.11623865 9.63753867 1.2565933032189989 
Si 6.78900411 9.50223393 4.068313774708794 
Si 4.068916199999999 12.216147929999998 4.0697279405821565 
Si 4.07227194 9.502282799999998 6.787444322528998 
Si 5.43015747 8.145 8.144871101703773 
Si 5.42965248 10.860152040000001 5.429879575951945 
Si 6.789883769999999 9.50278779 9.500607780200626 
Si 4.08224142 9.4933233 12.227602469950746 
Si 5.433301439999999 10.85568858 10.862242565144916 
Si 4.956379109999999 11.208627719999999 16.910078135905533 
Si 7.027489709999999 9.11964699 14.758442005510371 
Si 6.51409407 9.44847693 16.97844098373489 
Si 6.895882799999999 10.120846679999998 21.040235798685995 
Si 6.21395082 8.489321729999999 19.42791424380034 
Si 6.46541955 9.10912365 25.553046051687897 
Si 5.0074808399999995 10.64558016 22.3793474052082 
Si 4.57465554 9.05709339 24.063170566325063 
Si 6.461917199999999 8.987486220000001 30.17536793024894 
Si 5.14299735 10.98801225 29.858629266466394 
Si 7.06876857 11.19189789 26.633089368580276 
Si 6.1602264 9.075940919999999 32.630118443451565 
Si 5.47150149 11.00146779 34.013931488312245 
Si 4.26902256 15.00564753 1.1111411693661206 
Si 5.43739023 13.574473289999998 2.674805070652945 
Si 6.92036667 12.243792059999999 1.1487959226331794 
Si 6.785729819999999 14.93019225 4.069245054674179 
Si 4.0723370999999995 14.932538009999998 6.787375338827859 
Si 5.430173759999999 13.57507602 8.145112544657762 
Si 6.78763575 12.217809509999999 6.7874788143795675 
Si 6.787619459999999 14.932863809999999 9.502884242338233 
Si 4.09071222 14.935649399999999 12.236501367397757 
Si 6.780451859999999 12.23041797 12.237191204409154 
Si 5.587698059999999 13.72357566 13.733344206575692 
Si 7.40981601 14.83176807 15.284753153355064 
Si 8.12537055 13.910421959999999 21.45431046477653 
Si 4.90806297 15.94962045 20.713597973789913 
Si 7.1733015 12.254087339999998 19.982301758008855 
Si 5.045175899999999 12.730390649999999 18.916779510206364 
Si 5.17981275 15.056830709999998 18.541956570064265 
Si 7.48562967 12.71791251 24.833373589548863 
Si 6.173014049999999 14.82969924 22.337301839363604 
Si 5.556502709999999 12.755346929999998 23.385750621134044 
Si 6.135384149999999 16.16969835 24.295956065820693 
Si 7.860429989999999 15.0491907 25.41725163599456 
Si 5.532263189999999 12.42400833 27.989757327042515 
Si 4.5086973299999995 15.927417179999999 29.108259057320232 
Si 6.327573569999999 14.48477478 28.95477032228459 
Si 8.07573492 15.541637399999999 27.70012925780784 
Si 7.82760564 14.87754297 32.88891079827683 
Si 7.0429815 13.65973515 31.062636294306667 
Si 5.0442962399999995 12.4196589 31.799692649132883 
Si 5.872545 16.09261407 34.173732232002166 
Si 12.200395499999999 1.317859371 1.4351472660637212 
Si 9.50339052 1.3562988839999999 4.078350903224608 
Si 10.84250997 2.70272277 2.7310474821920727 
Si 9.40384233 3.9651651899999996 1.3803362663232401 
Si 8.1448371 -0.000182389356 8.144836609853202 
Si 8.14521177 2.7132786899999997 5.429983051503655 
Si 10.85824611 0.00042291609299999997 5.4301210189059335 
Si 10.86008688 2.7151194599999995 8.144802118002634 
Si 9.50933637 4.06347534 12.233845494903882 
Si 9.501680069999999 1.35643572 9.502263389027977 
Si 8.14245876 2.7147773699999997 10.863760206569989 
Si 8.34652359 0.040304229299999994 13.638422633807581 
Si 9.771002639999999 1.371375279 14.966082945940613 
Si 11.021260139999999 2.85594651 13.647769925312 
Si 8.26267896 1.95460452 16.65449352318326 
Si 12.1073796 0.48519765 17.507614955176876 
Si 8.57982897 0.7370671139999999 19.095619755410816 
Si 11.79914022 4.072027589999999 20.969975899075294 
Si 10.353875129999999 2.04547014 18.051206520157045 
Si 11.829569939999999 1.9776059999999998 22.190332064085652 
Si 9.896745150000001 0.654683697 22.41984083777715 
Si 8.34759873 2.39780655 22.596301145292287 
Si 10.45474281 3.33974322 25.425805614935875 
Si 11.28737358 1.0833143219999999 25.675526613061283 
Si 8.87449878 3.48790077 27.13918829199106 
Si 11.3974614 0.905106609 28.071813439548087 
Si 9.09167706 1.399175793 28.181394048808368 
Si 8.507762009999999 2.66118327 34.10326538128805 
Si 10.40352705 1.549367964 32.93061144561573 
Si 8.167252139999999 1.3896689489999998 30.279429843418047 
Si 10.85280525 8.156354129999999 2.6857700299490865 
Si 9.50585031 6.78520854 4.067658429547968 
Si 11.20069449 4.98291552 0.3331936909338803 
Si 9.502250219999999 4.07228823 6.7874788143795675 
Si 8.144674199999999 5.42991312 8.14514703650833 
Si 10.85984253 5.429766509999999 5.430603904813911 
Si 10.8576108 5.43133035 10.862484008098905 
Si 8.14421808 8.14491855 10.862070105892068 
Si 9.501468299999999 6.78911814 9.50336712824621 
Si 8.32796928 5.41315071 13.765214676502195 
Si 10.359462599999999 6.23017566 15.240500109074 
Si 10.87077312 8.13628485 13.720237303359166 
Si 12.161006279999999 4.46872167 15.003989489716831 
Si 11.01277305 6.47441163 17.585049159706095 
Si 9.381671639999999 7.32921309 21.099906700171758 
Si 10.4466141 4.406526449999999 18.801645713004348 
Si 10.73001123 5.705344439999999 22.346097261258905 
Si 9.26690859 4.32181845 23.567557165487496 
Si 11.74800591 6.27788907 24.42302404331986 
Si 10.22803488 7.71595398 25.632135865044464 
Si 11.71342224 5.315052329999999 29.226635088475813 
Si 8.851285529999998 7.2570483900000005 27.551469381851973 
Si 9.373852439999999 5.26976613 28.612818115735518 
Si 10.24641 5.039865359999999 32.72052158379503 
Si 8.88287184 6.81034401 32.080697755725105 
Si 9.41197104 9.54812286 1.177365522460151 
Si 8.13851658 10.86321456 2.6927063410986745 
Si 12.139568639999998 12.11816358 1.3209447488270887 
Si 8.14495113 8.14488597 5.429638132997956 
Si 9.50278779 9.50270634 6.7874788143795675 
Si 10.8600543 8.145 8.145078052807191 
Si 8.14501629 10.85995656 8.144629658749784 
Si 10.86112944 10.86075477 5.430672888515051 
Si 9.499464629999999 9.48587877 12.229189095076958 
Si 10.86503904 10.85697549 10.859345249697054 
Si 11.65398003 10.151471879999999 14.930107945796303 
Si 8.149056210000001 10.852072199999999 13.59403162212424 
Si 9.94484952 11.82737079 14.8001081609987 
Si 8.42546493 9.55680543 18.241222124946113 
Si 10.72447263 11.769769349999999 20.04762932298807 
Si 11.97358983 9.9082296 19.271735144420255 
Si 10.25662383 8.21278269 19.047607099417643 
Si 8.95818051 11.867590799999999 18.484941541072374 
Si 10.3298148 10.960368119999998 22.24127652737726 
Si 8.29978758 8.22469068 24.31213274373793 
Si 8.76957489 9.240404759999999 22.25952271632869 
Si 11.820561569999999 9.31131513 26.34446156301213 
Si 8.7592959 8.71451469 29.436069605135682 
Si 10.78650495 11.12561388 27.365316864326722 
Si 8.732156759999999 10.78264422 28.360337769564527 
Si 10.79466624 10.96126407 34.27210298982725 
Si 10.54428894 8.25458283 31.07391512944299 
Si 12.139617509999999 9.63203265 32.851970026316565 
Si 12.219682859999999 14.9279931 4.072142370122043 
Si 9.50223393 12.21850998 4.0707626960992505 
Si 9.599289749999999 15.00403482 1.3756005352400056 
Si 10.871489879999999 13.57178544 2.712076964378679 
Si 8.14561902 13.57533666 5.430258986308213 
Si 9.50283666 14.932033019999999 6.787927208436976 
Si 10.86007059 13.57502715 8.144871101703773 
Si 12.22927767 12.20632506 12.199250168782365 
Si 9.504367919999998 12.218004989999999 9.502573815683105 
Si 8.144609039999999 13.573723949999998 10.860586956317565 
Si 9.503976960000001 14.930273699999999 12.201354171667123 
Si 10.86018462 16.289038889999997 10.859207282294774 
Si 9.43391367 13.393165589999999 16.581336308124698 
Si 10.81564776 13.5045729 13.474310408796438 
Si 11.70063459 14.36092191 17.132343620977373 
Si 9.66705615 15.4512279 20.575320144855556 
Si 11.56228362 14.007363749999998 20.035522683438067 
Si 9.214487369999999 12.72260403 23.232848247558085 
Si 10.954259369999999 13.83986997 24.322066396702034 
Si 9.92668617 15.885437849999999 24.495077519160187 
Si 11.047877999999999 13.301778689999999 26.619223644651218 
Si 8.854331759999999 12.51891387 29.97938523531129 
Si 11.187678779999999 15.517886579999999 29.75225639930911 
Si 9.80514648 14.12898489 28.478575833317826 
Si 10.43921844 12.514580729999999 32.395332416622885 
Si 11.950930439999999 14.456462759999999 32.970104614518156 
Si 8.69825727 13.362784739999999 34.412967707554344 
Si 11.053954169999999 16.1837892 34.432490094976856 
Si 9.424758689999999 16.13708577 31.524585648988097 
Si 16.280665829999997 2.7156733199999996 2.6859769810525056 
Si 13.60143324 -0.017392833 2.70836219207231 
Si 12.975848369999998 3.26441826 0.3169832110030822 
Si 14.933433959999999 1.356579072 4.0712455820072275 
Si 12.21575697 4.07228823 4.067623937697398 
Si 13.57519005 -5.4490375799999994e-05 8.144836609853202 
Si 13.574473289999998 2.7146470499999995 5.4301210189059335 
Si 12.21692985 1.3574896829999998 6.787547798080707 
Si 14.934492809999998 1.357595568 9.501849486821138 
Si 13.575499559999999 2.71397916 10.862380532547196 
Si 12.21631083 1.3633231319999999 12.229327062479237 
Si 16.22703915 2.67885792 13.660083515965422 
Si 16.26717771 0.492920739 16.43536679651327 
Si 13.552807589999999 0.016503724799999998 13.620314412258432 
Si 14.615925569999998 1.614879828 15.084389993395051 
Si 14.72731659 3.07595925 18.456968650260258 
Si 13.51534059 0.618572025 21.22511211774016 
Si 14.000684849999999 0.8846431109999999 18.91198514297716 
Si 15.57949536 3.51932418 22.33419757281232 
Si 14.93144658 1.321990515 22.99733789186744 
Si 13.00425813 2.01489381 24.302337058176107 
Si 15.12194184 0.406303551 28.045841076069024 
Si 13.3946154 1.97775261 28.691976912793226 
Si 13.962680279999999 1.79691732 30.985478024582005 
Si 12.59943534 2.72235222 32.589831961986036 
Si 16.26841575 2.30902605 30.919357147039687 
Si 16.293257999999998 8.13139785 2.682410523703587 
Si 14.98873851 4.20001812 1.226285314123309 
Si 13.59978795 5.44247271 2.715981441863181 
Si 12.330503729999998 6.8504499899999995 1.347403447399188 
Si 14.933042999999998 6.786674639999999 4.075074177420476 
Si 14.932244789999999 4.07287467 6.78716838772444 
Si 13.57486425 5.429701349999999 8.144871101703773 
Si 12.21784209 6.787554299999999 6.787513306230138 
Si 13.57181802 8.145537569999998 10.860345513363578 
Si 12.2181516 4.07183211 9.502780766786524 
Si 14.93281494 6.78814074 9.501849486821138 
Si 14.93529102 4.07880423 12.231396573513425 
Si 12.21626196 6.81322734 12.221049018342482 
Si 13.95603396 4.46342742 16.673636500249504 
Si 13.65211143 5.58569439 13.576578745735917 
Si 15.10258932 6.8066135999999995 15.009887596164267 
Si 14.18137353 4.14212346 20.51740832774885 
Si 14.744681729999998 6.2531608499999995 19.766624216395847 
Si 13.383016919999998 6.51178089 17.82935493729204 
Si 14.38742574 7.66084491 21.609247857536108 
Si 13.567941 7.597818899999999 23.833006447472734 
Si 15.04337517 4.692823199999999 24.32120410043779 
Si 15.678603719999998 6.935353469999999 24.540365318958347 
Si 12.7741293 4.23743625 25.33336745540879 
Si 12.49939845 7.474894559999999 29.993044008136938 
Si 16.25750145 7.047998819999999 26.840247423102543 
Si 13.280829749999999 4.2080328 27.73141336627466 
Si 15.5419632 4.96949256 27.85830888452098 
Si 12.23077635 4.750196579999999 31.5004758454398 
Si 13.59162666 6.652119239999999 32.034409692260425 
Si 15.949604159999998 6.34961394 31.59556987746076 
Si 13.39663536 8.00987445 34.08791650778448 
Si 12.2194548 9.50124024 4.069865907984435 
Si 15.0804675 9.441179009999999 1.083119989963209 
Si 13.5896067 10.845442169999998 2.685435458998559 
Si 14.932472849999998 9.502347959999998 6.787409830678429 
Si 13.574782799999998 10.86013575 8.144974577255482 
Si 13.57548327 8.14436469 5.430603904813911 
Si 12.21813531 9.50435163 9.50140109276373 
Si 14.935616819999998 9.50739786 12.239364190995051 
Si 16.28687232 10.86244893 10.860138562260158 
Si 14.349665519999999 8.309643029999998 16.743413513952223 
Si 12.85987986 10.165725629999999 16.980544986619652 
Si 13.534220699999999 10.891494 13.663187782516703 
Si 13.616485199999998 9.78522381 20.97942666613142 
Si 15.681373019999999 10.253235509999998 20.048491619252317 
Si 16.14053925 8.829473219999999 18.211869560111204 
Si 12.631885019999999 11.026717289999999 22.77369273277281 
Si 13.332338729999998 9.774439829999999 24.62238693961335 
Si 15.33599244 10.908500759999999 25.177671241936682 
Si 15.59622519 8.9233362 28.174150760188706 
Si 13.241912939999999 8.99295966 28.2798337903346 
Si 12.739887719999999 11.282128199999999 28.692011404643793 
Si 13.9238775 11.339550449999999 32.483424602978175 
Si 16.26370794 8.67077604 30.49728037161695 
Si 14.93364573 12.21686469 4.070555744995832 
Si 14.852163149999999 14.83422786 1.1427184585627794 
Si 16.26918138 13.577731290000001 2.6924924916251416 
Si 13.57535295 13.57514118 5.431397217377016 
Si 12.21722307 12.217939829999999 6.788065175839255 
Si 14.93248914 14.932033019999999 6.787375338827859 
Si 16.2901629 16.2901629 10.856896328306597 
Si 12.218363369999999 14.93232624 9.501849486821138 
Si 14.93219592 12.2184774 9.502504831981966 
Si 13.573609919999999 13.57499457 10.86000059485788 
Si 14.937897419999999 14.933922659999999 12.228050864008154 
Si 12.463641899999999 14.55138459 14.82132064909913 
Si 14.25748041 12.772760939999998 14.897202720352706 
Si 13.70376702 12.42931887 17.217917902241066 
Si 16.217542079999998 13.54304988 13.691712542937935 
Si 13.4716671 14.565393989999999 21.37918721423549 
Si 15.643010069999999 14.15366424 20.410483590982448 
Si 15.477894629999998 12.33773649 18.9710006993021 
Si 15.958091249999999 15.89063436 18.78843533423611 
Si 13.051401389999999 13.329259919999998 23.348051028461242 
Si 14.59364085 13.1233869 25.137143317517157 
Si 13.3266861 13.07463093 27.15063958638024 
Si 14.550227999999999 14.466823199999999 28.55669987485844 
Si 13.555283669999998 13.22958141 34.33063566024422 
Si 12.60831339 12.30864255 30.81739923675533 
Si 13.19714802 14.559464429999998 30.51187042440798 
