&CONTROL
  dt          = 30.D0,
  prefix = 'x2.00_y.66_z3.16_struc46-scf',
  pseudo_dir = './',
  outdir='./',
  wf_collect= .true.,
  verbosity= 'high',
/

&SYSTEM
ibrav= 6, celldm(1) =30.783621515, celldm(3) =2.108862401886256, nat=  432, ntyp= 1,
  ecutwfc     = 12.D0, nbnd= 1728,
  degauss     = 0.05D0,
  occupations = "smearing",
  smearing    = "methfessel-paxton",
/
&ELECTRONS
  electron_maxstep=200,
  conv_thr    = 1.D-8,
  mixing_beta = 0.3D0,
  scf_must_converge=.false.,
/
ATOMIC_SPECIES
Si  28.08  Si.pbe-hgh.UPF
K_POINTS {automatic}
1 1 1 0 0 0
ATOMIC_POSITIONS (angstrom)
Si 0.030945787199999998 2.71225242 2.726499752502782 
Si 1.495961199 1.5766651170000001 1.217730724840601 
Si 4.070871 1.356489477 4.069912276098414 
Si -5.2406721899999996e-05 2.71482624 8.14494320410731 
Si 2.7146796299999996 0.000448620084 8.144908850738783 
Si 2.7156081599999995 2.71660185 5.430717910179128 
Si 1.3571313029999998 1.3578187409999998 6.787435493405162 
Si 2.71316466 2.71529865 10.86171064730647 
Si 1.371223782 1.35997065 12.245807865248306 
Si 0.032836404599999994 2.7345697199999996 13.700089015090246 
Si 0.027328104 0.396900963 18.24356247632959 
Si 0.9893780369999999 0.6572705489999999 20.831298667342367 
Si 2.1179117699999996 3.9886390799999996 19.29415719261396 
Si 1.87326855 1.68256152 18.75151138336578 
Si 3.92204556 1.301911461 17.532619514668973 
Si 3.2200443 0.375261327 21.610536125634116 
Si 0.027547693199999997 1.94702967 22.612383411979057 
Si 1.076462748 1.1328000839999999 24.579079406765658 
Si 3.93776541 2.94316317 25.191222080543408 
Si 1.6435143899999998 3.1329905399999998 25.69786555957558 
Si 1.83479157 3.0840553799999997 28.01812642323926 
Si 2.84017779 1.0332013949999999 28.543011540959117 
Si 3.0547333799999996 2.9669302799999997 33.99193673645741 
Si 0.5998368959999999 1.144818846 31.909504243104273 
Si 2.8481110199999997 0.592209918 30.833350620636015 
Si 1.355112972 4.07034972 4.075511875168271 
Si 0.1186597809 5.55156684 0.06507902133703183 
Si 2.72701116 5.42333196 2.7039398953912803 
Si 1.55983266 6.93712908 1.2980695124772053 
Si 2.71485882 5.430369239999999 8.145630271477845 
Si 1.357546698 6.7872936600000005 6.787710320353376 
Si 4.06520208 4.07826666 12.258518611603195 
Si 1.35819504 4.07241855 9.50255397491504 
Si 0.00029559671099999994 5.43087423 10.862913015204906 
Si 1.3710380759999998 6.7820157 12.227428813086506 
Si 2.7140606099999998 8.14227957 10.859374618246653 
Si 3.32623881 7.50975516 15.19689963516827 
Si 0.722775897 4.581334439999999 15.254304113976433 
Si 2.64943818 5.527131839999999 13.849663581655614 
Si 3.2603946299999995 4.86754974 17.31423515094457 
Si 0.044483102999999996 5.12375886 19.085013885023244 
Si 0.695609064 7.39619757 18.774150253224892 
Si 2.8782801 7.24735584 17.806141034878774 
Si 0.399613248 4.9695088499999995 24.859712074260493 
Si 2.95401231 7.11281673 21.650798273547437 
Si 0.642795255 4.24364274 22.61877313852503 
Si 2.69158041 4.706800019999999 21.55969314021456 
Si 3.5379436499999994 7.41098889 25.669661444015137 
Si 2.8861318799999998 5.12377515 28.526040976906916 
Si 1.225827387 6.945746489999999 25.8449323302385 
Si 1.178790012 6.688967219999999 28.186011335229374 
Si 2.78524791 5.12270001 32.93271932467284 
Si 3.7265003999999995 5.41867302 30.702464286549187 
Si 3.64257432 7.0475427 34.2239250341184 
Si 0.64979181 5.40477765 32.138091557281115 
Si 3.70507905 9.1437399 1.3442576164613897 
Si 0.01379148867 8.15702202 2.6970589156753766 
Si 1.353391119 9.506013209999999 4.07530575495711 
Si 2.70298341 10.84972644 2.7114461064143702 
Si 0.00027883593 8.14452759 8.144908850738783 
Si 2.7169439399999997 8.147329469999999 5.428725414804578 
Si 0.00216573921 10.859663339999999 5.431301917444083 
Si 2.7151520399999995 10.859809949999999 8.144874497370257 
Si 4.07776167 9.49850352 12.224783603709948 
Si 1.357520634 9.50099589 9.501832554175976 
Si 1.372215843 12.22427664 12.248350014519284 
Si 0.1219689315 8.207553599999999 13.595551714663413 
Si 1.5897085199999998 9.409266899999999 15.01039519743667 
Si 2.85910677 10.891249649999999 13.693871055386905 
Si 3.945438 8.1927297 19.775173058725194 
Si 0.8709090119999999 8.18090316 20.98891192214299 
Si 0.911599803 10.50551874 20.64396974876612 
Si 3.20722407 10.47567546 19.885069484642194 
Si 0.68155731 10.74784878 24.88987433182696 
Si 3.00068316 10.908207540000001 25.36453482476075 
Si 1.013914035 10.27351656 29.82683127617144 
Si 2.4394275 8.59071069 28.97658540513494 
Si 3.6217557 9.356291820000001 27.025554546396528 
Si 0.375407937 12.178615769999999 28.536106513885247 
Si 1.310457195 11.35435806 32.13156441726103 
Si 3.68152371 11.864642309999999 32.85016818010311 
Si 2.72135853 16.3027062 2.6802223297604275 
Si 0.00429601509 13.59833814 2.7074061502756273 
Si 1.3982716979999998 12.28274145 1.3511763848826726 
Si 1.355591898 14.928384059999999 4.07121770410243 
Si -0.00043504399799999994 13.57499457 8.14494320410731 
Si 2.713914 13.573821689999999 5.430717910179128 
Si 1.356833196 12.21741855 6.7881225607756965 
Si 7.748159309999999e-05 16.2921177 10.86487115721093 
Si 1.3581982979999998 14.93143029 9.502210441229773 
Si 2.7150868799999994 13.57660728 10.861573233832363 
Si 2.6677155599999995 16.196560559999998 13.730010799077025 
Si 0.6596912429999999 15.373198799999999 15.024754905480842 
Si 0.848029707 14.628843539999998 17.394690740034164 
Si 3.9964256999999996 14.86345212 20.325273548943674 
Si 2.93428512 13.897943819999998 18.449545274015847 
Si 2.68552053 13.94938764 23.69822468437185 
Si 3.0354623099999998 16.23523302 23.939900631957375 
Si 0.364057065 13.714941959999999 23.01466135742703 
Si 3.8996956799999998 13.082971409999999 25.534480938862465 
Si 3.99460122 13.841775899999998 27.724679949283953 
Si 0.965141775 15.95401875 28.155677310820273 
Si 1.9357407 13.916937959999998 28.79104286172209 
Si 2.8640589299999997 13.54712238 34.302594248044606 
Si 1.155307977 13.92464313 32.52563190763112 
Si 2.7621975599999997 14.55842187 30.902950545271167 
Si 6.788841209999999 4.07398239 4.0731758461084535 
Si 5.44258674 2.69376327 2.7180247764872383 
Si 6.84324981 1.378700892 1.2926657276079512 
Si 5.430190049999999 0.000197377785 5.429927782703014 
Si 5.43032037 2.7145656000000002 8.14473708389615 
Si 6.7878801 1.3573952009999999 6.787366786668109 
Si 6.787375109999999 4.0723696799999995 9.502450914809458 
Si 4.07181582 1.3584491639999998 9.50255397491504 
Si 5.43004344 0.000538110828 10.86078310635625 
Si 6.784280009999999 1.366357959 12.233818539632479 
Si 8.03004147 0.06304067099999999 16.188750091271935 
Si 4.276271609999999 1.134787464 15.073742808999954 
Si 5.40885015 2.6959135499999998 13.705035900158093 
Si 5.639044139999999 2.07474327 19.097071917376127 
Si 7.303409729999999 0.49971366899999997 18.572392919867422 
Si 5.0587943399999995 1.79602137 21.435986660149815 
Si 4.680117 0.714380031 25.464159593488255 
Si 6.844943969999999 1.233866502 24.72762337227523 
Si 7.27890957 3.5557323299999997 24.851020672023232 
Si 6.72552198 0.440150913 22.535500573216243 
Si 4.33595817 3.5651479499999996 22.87065203656299 
Si 6.637376789999999 3.2784113699999997 28.610790737062352 
Si 5.6478733199999995 3.9470507099999996 26.506956095117058 
Si 8.09334441 1.3848324479999998 28.38794043542947 
Si 4.23316827 1.84002066 32.21535228309772 
Si 5.1754633199999995 3.37587444 30.625340974206686 
Si 6.07392198 0.30185044199999994 32.281860404565464 
Si 8.03209401 2.88585495 34.08235480241976 
Si 4.2802789500000005 4.13775774 1.3356658389928553 
Si 4.07566026 6.7821948899999995 4.07351937979372 
Si 6.9140624399999995 6.90678081 1.3339653472507824 
Si 4.0726629 4.07274435 6.788053854038643 
Si 5.4295547399999995 5.42887056 5.431473684286717 
Si 6.787407689999999 6.78675609 6.7879851473015895 
Si 4.07279322 6.78937878 9.501420313753657 
Si 5.430434399999999 5.43054843 10.866691885742847 
Si 6.783367769999999 6.79351644 12.261541708033548 
Si 6.669125999999999 8.027467649999998 17.09811810954293 
Si 6.70222728 4.145039369999999 15.103321059301466 
Si 5.629156109999999 5.35988241 16.937035164521106 
Si 7.09533756 4.9402357199999996 20.917388208870342 
Si 7.859305979999999 7.11682407 20.441800174986334 
Si 6.601115249999999 4.18279959 18.77291353195793 
Si 6.262609049999999 4.81250583 23.133558365898036 
Si 4.321166849999999 7.87217508 23.501036349028436 
Si 6.493959629999999 7.02447606 23.89912318351615 
Si 7.4108097 7.58340225 26.045624709171637 
Si 7.8732013499999995 5.28045237 29.115682194299662 
Si 4.632371009999999 5.93496828 27.152765070051 
Si 6.50371734 6.93738972 28.144615526154666 
Si 5.6222328599999996 5.52372723 34.34041730679253 
Si 4.11863328 7.8383081699999995 30.589338643990672 
Si 8.155230119999999 5.63303313 31.440580762714443 
Si 6.61416354 4.16981646 32.559985276157846 
Si 7.54484382 7.821024479999999 32.28436820046792 
Si 8.14745979 10.85161608 2.6984674037849725 
Si 5.421214259999999 8.149642649999999 2.7042181576763467 
Si 6.78915072 9.50205474 4.071045937259796 
Si 4.07408013 12.22103493 4.073072786002873 
Si 6.56791623 11.96669916 1.325926659015528 
Si 8.14311036 8.14276827 5.430202609651227 
Si 4.0721742 9.50255973 6.78777902709043 
Si 5.43001086 8.14495113 8.145218031055524 
Si 5.43048327 10.86112944 5.429549895649219 
Si 8.1459774 8.14545612 10.863565729206915 
Si 6.78818961 9.50319504 9.501935614281559 
Si 5.42909862 10.85933754 10.860199099091295 
Si 4.07118051 12.21694614 9.502588328283565 
Si 7.96805802 10.73581047 13.782193565869123 
Si 5.25187971 8.186686109999998 13.799335896763958 
Si 6.21944055 9.79977078 15.331977080215362 
Si 4.41136458 11.574989819999999 15.508828221390955 
Si 4.21603119 11.90352654 17.985156438271552 
Si 6.8577153299999996 10.708345529999999 20.324655188310196 
Si 6.25674465 8.555426549999998 19.456579919008327 
Si 6.54642972 11.03466681 24.32922735747077 
Si 7.948868399999999 10.991710079999999 22.444876387042736 
Si 4.43822679 10.2001464 23.618215689073104 
Si 4.7025972 11.18593575 21.503525382673363 
Si 7.34345055 9.95711589 26.276513699039775 
Si 6.123997439999999 8.742989609999999 29.618752923005054 
Si 5.640868619999999 10.229240339999999 27.89885152771446 
Si 4.98483774 10.338024959999998 34.10499367227887 
Si 8.02161954 9.567817469999998 30.821258234914605 
Si 5.011618499999999 8.35844787 32.75971576077224 
Si 7.705398059999999 13.78562427 0.11675335827493476 
Si 4.21673166 15.011316449999999 1.262331703198851 
Si 5.42263149 13.55933988 2.7069561211479267 
Si 6.78931362 14.93183754 4.068881675042612 
Si 6.178112819999999 15.71711328 0.1198303894938737 
Si 4.07277693 14.93219592 6.787710320353376 
Si 5.42986425 13.57507602 8.145183677686997 
Si 6.787456559999999 12.217548869999998 6.787607260247796 
Si 8.14677561 13.573854269999998 10.857176002660943 
Si 6.78766833 14.930990459999999 9.502760095126199 
Si 4.0633938899999995 14.91711138 12.244674204086923 
Si 6.78730995 12.225335489999999 12.257453657178866 
Si 5.3794467 13.591854719999999 13.781300378287428 
Si 6.00599268 15.591680279999999 15.132899309602978 
Si 8.040646259999999 16.18659108 13.544502609032698 
Si 4.49090865 15.3114597 17.377204875454062 
Si 6.0679924199999995 14.82961779 19.124485905460457 
Si 6.47807688 12.5056701 18.71664271431115 
Si 6.21527031 13.34576169 24.814777868227534 
Si 6.3828292499999995 14.34215583 22.655050295689254 
Si 4.30797195 13.412371499999999 22.0547251806847 
Si 7.57616949 13.64217453 28.77668315367792 
Si 5.53830678 12.405665789999999 28.872975645658336 
Si 6.69517371 15.89913774 29.062537533188813 
Si 4.70852676 16.13029284 27.690017400440485 
Si 5.49639261 12.621459419999999 31.300659492705087 
Si 7.74299538 12.34379637 32.210886345189245 
Si 5.155328879999999 14.9638311 30.82974351694071 
Si 8.161648379999999 0.001392027741 2.703761257874941 
Si 9.5030973 1.355891634 4.0723513652638115 
Si 10.86026607 2.71608057 2.6789134664195595 
Si 8.1445113 0.000299338524 8.145286737792578 
Si 8.14561902 2.7158688 5.430374376493861 
Si 10.86018462 0.0011945978279999999 5.430958383758816 
Si 10.859972849999998 2.7150543000000003 8.145664624846372 
Si 12.22497711 1.3651166609999998 12.23735693659073 
Si 9.501289109999998 1.3563053999999999 9.502828801863252 
Si 8.14491855 2.7141746399999995 10.860199099091295 
Si 10.860152040000001 0.00366749802 10.86140146698973 
Si 9.954525779999999 0.800135478 14.611586942209895 
Si 10.866521429999999 2.7860624099999995 13.680885482083804 
Si 10.42594209 3.8061584999999996 16.05051213632039 
Si 9.29248389 0.931061466 19.693308981526002 
Si 8.989441020000001 3.64402413 21.436639374151824 
Si 10.647925919999999 2.77047288 18.84117367522054 
Si 8.84160927 1.304156223 21.954207224375494 
Si 10.45560618 0.21946702499999998 23.307042876958008 
Si 10.53840825 0.8725999139999999 25.576288988359494 
Si 9.94934556 1.2139568639999998 29.862971019861554 
Si 12.051863280000001 2.46086514 29.607107131074493 
Si 11.220731189999999 3.0900989699999997 25.84922650130434 
Si 8.378451989999999 0.33225735599999995 26.24927147779808 
Si 11.67711183 3.36693123 31.794763992225004 
Si 8.4916512 0.66292155 31.60719460006907 
Si 9.91402884 1.8956347199999999 32.96721010667367 
Si 8.6714928 7.76920599 0.07414796709440252 
Si 10.864371149999998 8.16001938 2.7096666019246856 
Si 12.184773389999998 6.79092633 1.325404487813922 
Si 9.38716137 4.0837238099999995 1.2563988764542853 
Si 8.13561696 5.430206339999999 2.7157780661855906 
Si 9.50345568 6.7850945099999995 4.070496283363369 
Si 10.29241296 5.95495611 0.11262099157485475 
Si 9.50226651 4.0725814499999995 6.787469846773689 
Si 8.1453258 5.429701349999999 8.145011910844364 
Si 10.860412679999998 5.4307439099999995 5.430099549545647 
Si 10.85933754 5.4299457 10.863703142681022 
Si 9.50101218 6.78685383 9.502073027755666 
Si 9.49646727 4.077582479999999 12.23852495112064 
Si 9.04495734 7.882731 17.16108783405242 
Si 9.89321022 6.57298242 15.21222123753119 
Si 8.214672329999999 5.46034284 13.754539104205108 
Si 9.642914369999998 6.52671882 18.978827622907133 
Si 11.384413109999999 7.10480205 20.554547930491054 
Si 8.641340009999999 4.4087255999999995 17.492597840335335 
Si 11.91414762 5.611497749999999 22.304474169874005 
Si 8.48339217 7.40701413 22.68844176989723 
Si 9.72151362 5.30260677 22.923934111147943 
Si 9.46048266 4.433747039999999 25.046525692308833 
Si 11.430546389999998 7.64431056 25.5958360550512 
Si 11.13377517 7.631017919999999 29.28597184208665 
Si 9.502738919999999 6.466853069999999 26.19729483121714 
Si 11.72021517 4.111986959999999 27.951961835456782 
Si 10.03672512 5.75247141 28.347231693725302 
Si 10.60623981 5.52571461 32.11799483669298 
Si 12.16719648 7.10344998 31.271699603037053 
Si 9.59006961 9.5998599 1.2376659845966609 
Si 12.21720678 9.50138685 4.074824807797736 
Si 9.50270634 9.50257602 6.787538553510743 
Si 10.859875109999999 8.14477194 8.144805790633203 
Si 8.14539096 10.85998914 8.144668377159096 
Si 10.8610317 10.858148369999999 5.430202609651227 
Si 9.483744779999999 9.497069999999999 12.25133875758111 
Si 10.857594509999998 10.86283989 10.86404667636629 
Si 12.23620092 12.20555943 12.230348849411278 
Si 11.807985689999999 10.0277982 15.371105566967303 
Si 10.92119067 8.25792228 13.760001289800856 
Si 9.79573086 11.683285739999999 14.986897493364388 
Si 10.83449529 9.34860294 21.041163395672143 
Si 9.28543032 9.80974026 19.260800071774508 
Si 10.094994449999998 11.871272339999999 18.53937933271324 
Si 9.5998599 9.4641642 23.02421159387746 
Si 10.723250879999998 9.8086977 25.09788397825629 
Si 9.89314506 9.65795004 29.268142443821276 
Si 9.46512531 10.651754069999999 27.03816223264584 
Si 11.142816119999999 10.8690138 34.15449687632589 
Si 11.02008726 11.548665179999999 30.148275745476024 
Si 12.20720472 9.10241217 32.76242967688585 
Si 12.21953625 14.93437878 4.072110891684125 
Si 9.501484589999999 12.218738039999998 4.0696374491502 
Si 9.499301729999999 14.838072299999999 1.2992856217230513 
Si 10.87039845 13.56913017 2.7131156801247687 
Si 8.1453258 13.57694937 5.430614850073548 
Si 9.50314617 14.93245656 6.787950793933063 
Si 10.85971221 13.574782799999998 8.14494320410731 
Si 9.50169636 12.21841224 9.501660787333345 
Si 9.49848723 14.908836059999999 12.215989141367107 
Si 11.49595074 15.288393059999999 14.969995636049239 
Si 9.59233392 14.72120784 16.8240469354367 
Si 10.77244668 13.447883699999998 13.585142643999816 
Si 8.599491 12.61403118 16.930954618291874 
Si 10.03680657 13.365570329999999 20.35931773715366 
Si 10.268157149999999 15.25364649 19.03640386855793 
Si 8.42658894 13.26304107 22.0751654349581 
Si 11.73932334 13.207622489999999 23.854738631379618 
Si 9.651189689999999 14.29993215 23.776344244401628 
Si 12.100505219999999 13.05400779 21.515961302080036 
Si 8.257645349999999 14.29486596 25.687525195649034 
Si 9.38633058 13.08186369 27.310515738325734 
Si 11.368155689999998 14.301528569999999 28.107376474671693 
Si 9.170341469999999 13.13814564 30.46618181782236 
Si 11.608938179999999 15.55243767 32.15880663850273 
Si 10.45648584 15.16695111 30.15734503476708 
Si 10.800921599999999 16.26255135 34.207641537436736 
Si 14.0672295 2.3699180699999998 0.10025618364102985 
Si 12.260065769999999 1.300565907 1.2272603492699155 
Si 14.932798649999999 1.3556538 4.069431328939039 
Si 12.21743484 4.07337966 4.0692595620964065 
Si 15.04145295 4.06497402 1.3648078015140779 
Si 13.57541811 -4.95580896e-05 8.14473708389615 
Si 13.57505973 2.7159991199999998 5.429790369228907 
Si 12.21771177 1.356974919 6.78767596698485 
Si 14.93066466 1.358498034 9.501626433964818 
Si 13.577063399999998 2.71368594 10.861126640041517 
Si 14.80471038 1.80068031 16.992893741745565 
Si 15.271500329999999 0.922295817 14.821726497487886 
Si 12.83046012 3.83350941 16.389373763468022 
Si 12.742477829999999 1.439956179 18.084025432891472 
Si 12.785141340000001 0.058795497 22.887725660720776 
Si 13.933684079999999 2.0830674599999996 22.919846060293263 
Si 13.25738844 3.86369478 21.452064036620325 
Si 13.46516739 2.83794606 25.10461723848753 
Si 16.059105539999997 3.4122337199999997 29.197099677708003 
Si 15.76353978 0.1608168348 29.96053458647746 
Si 14.313289949999998 1.77647337 28.960198848347694 
Si 14.092918829999999 1.122941376 26.70792330099841 
Si 15.936783929999999 0.735040638 34.29180729032721 
Si 15.984432179999999 3.34878417 31.612313251979554 
Si 13.846174199999998 3.8420616599999997 32.60000695049148 
Si 13.57352847 5.42108394 2.6947160159418537 
Si 14.932179629999998 6.786365129999999 4.0689847351481925 
Si 16.2919548 5.43012489 5.42985907596596 
Si 14.93270091 4.07253258 6.787401140036636 
Si 13.57532037 5.42988054 8.145286737792578 
Si 12.217516289999999 6.7875054299999995 6.787504200142216 
Si 13.573821689999999 8.147052539999999 5.43102709049587 
Si 12.216652919999998 6.80390946 12.250857810421735 
Si 13.57691679 8.14143249 10.862225947834371 
Si 12.21852627 4.07129454 9.501660787333345 
Si 14.93276607 6.78818961 9.501729494070398 
Si 14.922307889999999 4.06950264 12.247422473569063 
Si 15.38781093 6.58405962 15.003318403520163 
Si 15.448263119999998 8.09676531 16.986675782042227 
Si 15.391801979999999 4.16771505 17.10959213463086 
Si 13.557010409999998 5.44750632 13.73657229246563 
Si 15.03705465 7.33986675 21.452304510200012 
Si 15.277625369999999 5.03657478 21.200563025636153 
Si 13.43250594 7.12977462 19.5550023198374 
Si 12.537696239999999 4.3696296 18.813313093345364 
Si 12.96530874 6.62357916 24.135130825294766 
Si 14.33088315 5.007936959999999 25.309603788486513 
Si 15.43505193 5.65548075 28.920314587488164 
Si 13.61519829 5.54050593 27.47733569589152 
Si 12.70465245 7.6894990199999995 27.542160502301453 
Si 14.64591546 6.26067054 32.986447993048635 
Si 14.671963169999998 7.00367373 30.7062088037186 
Si 13.60558719 8.05437873 34.31695395608878 
Si 14.95648431 9.549116549999999 1.2864271558834974 
Si 13.573756529999999 10.858588199999998 2.7094913997451995 
Si 14.932244789999999 9.50345568 6.787950793933063 
Si 13.57509231 10.86000543 8.14494320410731 
Si 12.21792354 9.502282799999998 9.502897508600306 
Si 14.923871729999998 9.49791708 12.239246371859702 
Si 16.2890226 10.860933959999999 10.867825546904228 
Si 13.49986509 10.75923549 13.744714040806464 
Si 14.98284153 11.961111690000001 15.162546266641543 
Si 16.266574979999998 10.25668899 16.54076905856531 
Si 12.69582327 10.80378864 21.07235625429441 
Si 13.59941328 10.688716079999999 18.914586823762154 
Si 15.874116299999999 11.281444019999999 18.81049611712617 
Si 13.30156692 8.64044406 17.7822654437527 
Si 12.25506474 11.90909772 17.44395347050149 
Si 12.547682009999999 11.196850049999998 24.724291095528137 
Si 16.26395229 11.402869679999998 22.712970075025314 
Si 14.02770996 10.48976631 22.97986139510946 
Si 14.512532939999998 8.26854336 23.57929332253232 
Si 15.94543392 8.68204872 25.50414691445337 
Si 14.49117675 9.1978227 27.477782289682366 
Si 15.172473419999998 9.196454339999999 29.86152817838343 
Si 13.651720469999999 11.30643288 26.79789477316991 
Si 14.547637889999999 10.873021139999999 31.456726845922006 
Si 12.342704939999999 11.53431369 32.09319170461668 
Si 15.967457999999999 11.283952679999999 34.07215185196732 
Si 14.192108639999999 13.16323224 0.03064471627405576 
Si 12.324199499999999 12.29007195 1.3297467535957004 
Si 14.930273699999999 12.21728823 4.071458177682117 
Si 15.04627479 15.06821742 1.251372978638825 
Si 13.57310493 16.28214822 2.698883079544146 
Si 16.2913032 16.290325799999998 5.429893429334487 
Si 13.57463619 13.574652480000001 5.429721662491853 
Si 12.21732081 12.217614029999998 6.787435493405162 
Si 14.932375109999999 14.932538009999998 6.787401140036636 
Si 12.2170113 14.93040402 9.502244794598298 
Si 14.930860139999998 12.21844482 9.501832554175976 
Si 13.57833402 13.575010859999999 10.858687550876118 
Si 14.92344819 14.910220709999999 12.22918083488137 
Si 13.456387079999999 16.147902329999997 13.615820202094183 
Si 16.232121629999998 13.52762325 13.700432548775513 
Si 13.452021359999998 13.856045939999998 17.993298186612385 
Si 13.520504519999998 14.984112149999998 21.168889219854513 
Si 15.945271019999998 14.87477367 21.01117290494831 
Si 12.536572229999999 15.61813524 19.157465139246113 
Si 15.652800359999999 13.62326184 18.961135638115866 
Si 13.20690573 14.8242258 24.652217728359062 
Si 15.46352685 14.22867969 25.022615747814232 
Si 12.67368516 12.431941559999999 28.654247748248665 
Si 14.714610389999999 12.58176069 29.858711202164244 
Si 16.074792809999998 16.21871496 26.12013716550611 
Si 15.77489391 12.24172323 26.30756914418793 
Si 12.26915559 15.86395134 26.529217077922375 
Si 15.30025218 14.400930149999999 31.180079169176274 
Si 13.35317364 14.0605506 32.36963326115125 
