&CONTROL
  dt          = 30.D0,
  prefix = 'x2.33_y.66_z3.16_struc35-scf',
  pseudo_dir = './',
  outdir='./',
  wf_collect= .true.,
  verbosity= 'high',
/

&SYSTEM
ibrav= 6, celldm(1) =30.783621515, celldm(3) =2.110272343468375, nat=  432, ntyp= 1,
  ecutwfc     = 12.D0, nbnd= 1728,
  degauss     = 0.05D0,
  occupations = "smearing",
  smearing    = "methfessel-paxton",
/
&ELECTRONS
  electron_maxstep=200,
  conv_thr    = 1.D-8,
  mixing_beta = 0.3D0,
  scf_must_converge=.false.,
/
ATOMIC_SPECIES
Si  28.08  Si.pbe-hgh.UPF
K_POINTS {automatic}
1 1 1 0 0 0
ATOMIC_POSITIONS (angstrom)
Si -0.0100369206 2.71655298 2.707126184513169 
Si 2.72350881 0.00889839621 2.693313772517474 
Si 1.3644096749999999 1.4099027579999999 1.3072426976732112 
Si 4.07684943 4.00149189 1.17857550788056 
Si -0.000193979691 0.0005174925749999999 5.430257991289144 
Si 0.000267125049 2.7150868799999994 8.144819777381876 
Si 2.71502172 -0.00043900246799999994 8.144957282727777 
Si 2.7161457299999996 2.71480995 5.429845475251443 
Si 1.357556472 1.357808967 6.787607637008461 
Si 2.7166670099999997 2.7150380100000002 10.86323171315982 
Si 1.353366684 1.335138174 12.233747495749101 
Si 4.06648899 4.0817853 12.241482171455997 
Si 4.07090358 1.3561376129999998 9.501791283399967 
Si 1.6670371499999999 3.3469271099999998 15.030228091661996 
Si 3.62284713 1.6069058729999999 14.946212325316854 
Si 0.549899901 1.8816579 17.696559877680166 
Si 1.9299577499999998 2.5785441 19.56140737878138 
Si 2.09925972 0.553535829 22.825887419466287 
Si 0.896037966 3.8422897199999997 23.723281683148766 
Si 0.744742962 2.31264243 21.753242592433747 
Si 1.081072818 1.4823655649999998 26.646782842337153 
Si 3.32371386 2.22044103 26.944069400173817 
Si 0.27741869999999996 0.641039193 28.699600151284216 
Si 4.0477392 0.7432540559999999 28.67244284546889 
Si 0.257712687 0.032786557200000004 34.18348522747451 
Si 2.3490179999999996 2.98841679 34.228243217565094 
Si 2.3386901399999998 2.74563063 31.735305672727332 
Si 0.39779202599999997 2.5124718600000002 30.2430976590162 
Si 1.355720589 4.07378691 4.068920690538715 
Si 0.673211943 4.8478062600000005 0.15681006517472112 
Si 2.7286075800000003 5.43603816 2.686352564381266 
Si 1.38771252 6.8571940499999995 1.2727597945550386 
Si -0.000861113835 5.4304995599999994 5.430601754653895 
Si 2.7146307599999995 5.43004344 8.144751024708928 
Si 1.357463619 6.78753801 6.787435755326086 
Si 1.356557895 4.0725 9.501172509343416 
Si 1.330172982 6.77735676 12.227903518548334 
Si 3.41793522 7.0513056899999995 15.1693835017132 
Si 2.4817815000000003 5.2841339099999995 13.682194433127432 
Si 0.697304853 6.02037675 20.25058417243418 
Si 2.65049703 4.81221261 19.770312375540563 
Si 3.99895065 5.976035369999999 17.793432393866997 
Si 3.2083317899999995 4.3366260599999995 23.86236834052702 
Si 0.787971735 7.46121096 22.107387610800224 
Si 3.43740177 5.937493229999999 25.573381735902164 
Si 0.660611628 4.774191749999999 29.3904613854243 
Si 2.8364148 5.69447901 29.165502639531244 
Si 1.6264229219999997 7.52189121 25.967781444280984 
Si 3.94477011 4.4725824 27.482093442345608 
Si 2.5226042399999997 7.872908129999999 28.158894754867372 
Si 3.5027572499999997 6.24815982 31.37810116041457 
Si 1.6178608979999998 5.12677251 32.21698689941643 
Si 3.97674738 9.499529789999999 1.3417531018605637 
Si 1.358294409 9.504481949999999 4.070158238651819 
Si 2.70272277 10.88378883 2.7054589321941265 
Si 0.0005162431319999999 8.144609039999999 8.144751024708928 
Si 2.71581993 8.145928529999999 5.430223614952669 
Si 2.7147936599999998 10.8598914 8.144957282727777 
Si 1.354451598 9.50104476 9.502410057456519 
Si 2.7153801 8.147427209999998 10.865088035329476 
Si 0.486380304 10.55692998 16.41466629052369 
Si 1.6494928199999999 8.990923409999999 14.949581206291413 
Si 2.78269038 10.729473659999998 13.694157398220767 
Si 3.17904237 9.42264099 19.75944945321443 
Si 3.6588643199999997 11.74579047 19.27756196850648 
Si 1.056411387 9.384489809999998 18.612414234049773 
Si 1.5716510549999998 10.78200891 23.08604753390984 
Si 2.67328674 9.01182348 22.04313823792826 
Si 1.74575043 9.89397585 25.256844429639447 
Si 1.617228846 9.223430579999999 29.887852597882514 
Si 1.015940511 11.41150338 28.925624563607997 
Si 3.75331374 10.957908329999999 25.87737167935147 
Si 0.1275689448 10.845572489999999 26.675590212303288 
Si 2.16251379 8.69328882 34.27361998171223 
Si 0.371193714 10.41152544 34.206517372912835 
Si 3.17954736 8.551842749999999 32.0334172626394 
Si 1.352390913 12.3013935 1.1852170160875493 
Si 1.3568950979999999 14.9304366 4.067442508070286 
Si 0.000422430651 13.575010859999999 8.145163540746628 
Si 2.7166507199999996 13.57448958 5.431254905046922 
Si 1.3576183739999999 12.21743484 6.787504507999036 
Si 4.06295406 14.93315703 12.230000475073314 
Si 1.355484384 14.931674639999999 9.501928788745868 
Si 2.71404432 13.576802759999998 10.863678605533998 
Si 1.361775582 12.19912488 12.23831954850029 
Si 2.6036307 16.11963918 13.714851952778776 
Si 3.68875647 12.27438468 15.18818735776508 
Si 1.65227841 12.6636831 16.418997708919555 
Si 1.048598703 14.56005087 15.121428512330437 
Si 1.547211168 14.97671649 19.5079521755626 
Si 1.5611228279999998 12.760217639999999 18.781305175151942 
Si 3.76202889 15.771310109999998 18.699523870677677 
Si 1.0686663539999999 16.22925459 24.849175455381236 
Si 2.1247209899999997 13.10719464 23.171300848368087 
Si 1.215730845 14.85299394 21.872184716637587 
Si 1.520319636 13.954307219999999 25.32752217743225 
Si 3.3328362599999997 13.18752063 26.64829540114206 
Si 2.17588788 15.57019377 29.34800660987755 
Si 2.6484607799999997 13.213486889999999 28.86797544733926 
Si 2.69868285 13.763730509999998 34.26963232668112 
Si 2.17838025 15.485192549999999 32.83466091320103 
Si 0.5444997659999999 14.820739739999999 30.968300853294906 
Si 3.6885284099999995 12.293541719999999 32.77006777696431 
Si 6.788368799999999 4.07267919 4.066308088966609 
Si 4.07354256 1.356512283 4.07050200201657 
Si 5.4330408 2.70029556 2.676438428941847 
Si 6.817560479999999 1.230730677 1.1706827010258771 
Si 5.4295873199999996 -0.00040310908199999996 5.431083023364546 
Si 5.430336659999999 2.7147122099999996 8.144888530054827 
Si 6.78781494 1.357422894 6.78740137898961 
Si 8.145716760000001 2.7125456399999996 10.860756616933614 
Si 5.433317729999999 0.00188403624 10.864091121571699 
Si 6.7914639 1.342783071 12.24715426697439 
Si 6.93608652 3.64345398 15.101077721137177 
Si 5.00821389 0.321704694 16.544849476754894 
Si 5.34298968 2.6360152199999995 13.644655473696623 
Si 7.367722649999999 1.9978707599999999 21.33825145850634 
Si 5.05550376 2.34735642 21.334882577531783 
Si 4.100111549999999 1.72007739 19.276840065440503 
Si 5.87277306 2.16862254 17.75321208019113 
Si 6.75060858 2.9511615599999996 25.017413246090374 
Si 4.40431101 2.52921798 24.841578285020237 
Si 4.35547359 0.944311752 23.13255871716065 
Si 7.964637119999999 1.473570594 23.617093179777182 
Si 8.04235671 0.42806861999999996 28.147069295119937 
Si 7.704453239999999 2.61692334 27.18020045542128 
Si 4.709634479999999 1.83187566 30.67348939168445 
Si 6.373902329999999 3.5337571199999998 30.490332270945117 
Si 4.07287467 6.78369357 4.071464539437874 
Si 6.84202806 6.896811329999999 1.099647439333731 
Si 4.07253258 4.07246742 6.787710766017885 
Si 5.42947329 5.431379219999999 5.429295453867841 
Si 6.78776607 6.787440269999999 6.787298249980185 
Si 6.78584385 4.0718809799999995 9.501688154390541 
Si 4.0728258 6.78553434 9.502031917755293 
Si 5.42975022 5.43224259 10.860172219213537 
Si 6.764846039999999 6.786674639999999 12.231581786551171 
Si 5.26351077 8.00891334 13.722999144523376 
Si 7.994561849999999 5.283580049999999 13.549811161361822 
Si 6.10821243 4.51537623 17.227735400832753 
Si 5.44397139 6.602271839999999 21.480156975475552 
Si 4.82024358 7.703003429999999 19.298497157419817 
Si 8.02635993 5.0355647999999995 18.563427954572756 
Si 7.61871897 5.9082852599999995 22.189375173293335 
Si 7.752883409999999 5.077250909999999 24.415930486785555 
Si 4.12588233 4.588876709999999 21.65784825871534 
Si 5.01430635 7.6543940699999995 25.272623168081516 
Si 7.242908669999999 7.061372909999999 25.691395699021182 
Si 7.31833137 6.317196839999999 27.869892894121207 
Si 6.250033169999999 4.2376317299999995 28.219431483400022 
Si 5.6335544099999995 5.289607349999999 34.213323887534905 
Si 5.66211078 5.43704814 31.8274342544806 
Si 7.569132209999999 7.0220325599999995 31.32227398997901 
Si 5.4310534200000005 8.142100379999999 2.686091304224055 
Si 6.78574611 9.503976960000001 4.067511260743236 
Si 4.07096874 12.21826563 4.0733552379440034 
Si 4.0721742 9.50288553 6.787573260671986 
Si 5.4301086000000005 8.145048869999998 8.145163540746628 
Si 5.4295547399999995 10.86101541 5.430704883663321 
Si 6.78659319 9.5016312 9.501138133006942 
Si 4.09048416 9.49531068 12.225737809350402 
Si 5.4314769599999995 10.859174639999999 10.861581649009016 
Si 6.777177569999999 12.21696243 12.253582641895234 
Si 8.05341762 10.734963389999999 13.716777027621381 
Si 6.800977259999999 9.24063282 15.210600729146845 
Si 7.3610763299999995 10.15446924 19.104098974653127 
Si 4.95532026 11.837486879999998 17.194699741480182 
Si 6.7777803 11.481582959999999 20.928898043760853 
Si 5.920030349999999 9.63768528 17.380778850819897 
Si 6.299066069999999 10.10063079 22.778757462158925 
Si 4.752281699999999 8.30943126 22.974736956403465 
Si 5.352503039999999 11.62970793 24.246627029645683 
Si 4.34038905 9.043947359999999 27.142214603616292 
Si 7.50442833 8.198887319999999 29.273547465072483 
Si 7.334295569999999 10.99443051 27.210520384192318 
Si 5.929250489999999 9.78284547 28.65817666583172 
Si 5.633701019999999 10.877419439999999 30.704737481540317 
Si 7.43162832 8.33122728 33.322220493427366 
Si 5.03497836 11.00013201 34.29562083705629 
Si 7.82560197 11.70022734 31.119556733785345 
Si 5.33940588 9.451800089999999 32.60915214592437 
Si 4.15803879 14.985887759999999 1.2921480483269947 
Si 5.430336659999999 13.56569298 2.6998555893486853 
Si 6.6967212599999995 12.217174199999999 1.1424425406115828 
Si 6.78791268 14.932114469999998 4.072770840223927 
Si 4.07248371 14.932309949999999 6.787573260671986 
Si 5.43012489 13.57505973 8.144751024708928 
Si 6.78709818 12.217939829999999 6.787710766017885 
Si 4.07134341 12.21593616 9.50247881012947 
Si 6.78502935 14.930159669999998 9.501172509343416 
Si 5.24751399 13.55904666 13.720524048297168 
Si 6.47841897 14.93749017 15.27405944627988 
Si 6.770857049999999 13.47249789 17.236466990297426 
Si 5.080264559999999 13.02983343 20.667431628531244 
Si 7.67742813 16.21548954 20.048898206334773 
Si 5.8794682499999995 14.727951899999999 19.20502789854402 
Si 4.438748069999999 13.35744162 22.928672665526832 
Si 7.724897189999999 15.405876539999998 23.697946323166615 
Si 5.382786149999999 15.249052709999999 23.961028426210557 
Si 6.739726859999999 12.71742381 25.799474900898893 
Si 5.27273091 14.478763769999999 26.274934010686 
Si 5.93130303 15.661678409999999 28.255939152736577 
Si 4.777775549999999 16.13374632 32.00488490336507 
Si 7.51837257 14.09456412 34.28266095820518 
Si 4.360539779999999 12.859146809999999 30.498135699324962 
Si 7.789405589999999 13.90450869 31.935135316657085 
Si 5.95072071 14.60009169 30.42549850035308 
Si 5.7809952 15.881723730000001 34.196926375036284 
Si 12.07980063 1.267140456 1.2936468565973092 
Si 9.501223949999998 1.3617185669999998 4.073423990616954 
Si 10.85378265 2.7101347199999997 2.7054348687585943 
Si 9.53287542 4.0068513 1.225801718930052 
Si 8.14488597 3.5908861499999996e-05 8.145404175101953 
Si 8.1454887 2.71270854 5.43063613099037 
Si 10.85831127 9.486774719999999e-05 5.4296048408961175 
Si 10.86013575 2.7146796299999996 8.145335422429003 
Si 9.50027913 1.356613281 9.503475723887247 
Si 9.874053179999999 0.0009433099169999999 16.01057245525889 
Si 9.000974339999999 2.09165229 15.206166181741558 
Si 10.76294961 2.6816272199999998 13.580027961123436 
Si 10.52281872 3.5520182099999995 21.09861401693842 
Si 10.506382109999999 2.4224370299999998 18.968793714287134 
Si 9.71084367 0.019471599899999997 18.45579564506922 
Si 9.46066185 3.5715825 17.21113163031528 
Si 11.360238749999999 1.7330279399999997 22.40367725487911 
Si 10.159714619999999 1.8747672299999998 24.381691655656354 
Si 11.16128898 0.08242902899999999 25.751898051217356 
Si 11.39071734 1.519650117 29.926182213052254 
Si 9.83880162 3.66984378 27.205535815403426 
Si 11.901115619999999 2.81742066 28.043115253619238 
Si 8.5025655 2.1709194299999997 34.193901257426475 
Si 10.24930962 0.31656519899999996 34.05928352378998 
Si 9.15256908 0.7749576539999999 30.2520698828362 
Si 8.292033539999998 2.57012217 31.71825500983568 
Si 11.535763499999998 2.17885266 32.09553530264991 
Si 10.11778416 4.071082769999999 32.12523645736439 
Si 10.85847417 8.12662488 2.7041113798043024 
Si 12.21792354 4.06951893 4.070261367661245 
Si 8.150343119999999 5.43947535 2.673327370490851 
Si 9.505687409999998 6.7855832099999995 4.071258281419023 
Si 9.50278779 4.0721742 6.787538884335511 
Si 8.145032579999999 5.42988054 8.144991659064253 
Si 10.85925609 5.43120003 5.429398582877266 
Si 10.85857191 5.43087423 10.860206595550013 
Si 8.14640094 8.148257999999998 10.860412853568864 
Si 9.50205474 6.786414 9.501585025381116 
Si 9.50044203 4.07391723 12.213190446536991 
Si 9.53080659 6.567769619999999 14.705027948607551 
Si 10.9426446 5.034603689999999 16.025663666971464 
Si 12.069798569999998 5.3564777999999995 21.464515742379383 
Si 8.276509169999999 4.14505566 20.77973911979539 
Si 9.22479894 7.141959539999999 18.25311276521203 
Si 11.505073139999999 6.79490109 17.610481531146515 
Si 11.45397141 5.9448237299999995 24.85959148533319 
Si 9.11329389 7.789421879999999 22.112097168897314 
Si 11.28618441 7.1068383 22.80550225193655 
Si 9.92171772 4.191074909999999 24.93009735144362 
Si 9.52095114 5.729372189999999 28.20843105572799 
Si 11.051852760000001 7.041075569999999 26.91440262179581 
Si 9.58984155 5.90927895 30.592017474238464 
Si 11.561452829999999 7.176119669999999 30.593014387996238 
Si 11.41202466 4.92765984 34.27967021693185 
Si 9.440478539999999 9.45434133 1.3349569001394368 
Si 8.13635001 10.875073679999998 2.6915124524861787 
Si 11.47021254 10.051369829999999 0.17895770747553366 
Si 12.2010471 12.13401375 1.2984286050009954 
Si 12.217597739999999 9.5027715 4.067373755397336 
Si 8.14599369 8.143990019999999 5.429673593569068 
Si 9.50285295 9.502250219999999 6.787091991961335 
Si 10.86020091 8.145537569999998 8.144751024708928 
Si 8.14491855 10.86013575 8.144922906391303 
Si 10.85976108 10.85914206 5.429501711886692 
Si 9.473042249999999 9.51142149 12.208652770122278 
Si 10.8611946 10.86091767 10.861719154354917 
Si 11.61755559 9.87441156 14.836001790577683 
Si 10.796588459999999 8.13656178 13.49498090468404 
Si 8.6250663 8.150473439999999 16.194451479064202 
Si 9.762352649999999 11.67571089 15.139166701951588 
Si 8.654111369999999 12.002830379999999 17.378028743901886 
Si 9.099479969999999 8.73313416 19.900289303752917 
Si 10.946521619999999 10.133178209999999 19.494992296711487 
Si 9.908148149999999 11.40744717 22.815780776542606 
Si 8.475817319999999 9.620597069999999 23.465459159585517 
Si 11.74657239 10.62410994 21.61247149456821 
Si 8.314774380000001 9.23346522 25.761489049093907 
Si 9.504270179999999 9.515119319999998 28.890010679019795 
Si 8.84907009 11.75890392 28.878803993328912 
Si 11.715767999999999 11.16376506 25.92986434514895 
Si 10.42441083 9.27922383 26.748089905929273 
Si 11.27846295 9.47208114 30.36038971906924 
Si 8.738379539999999 10.422065069999999 33.048412973403195 
Si 10.983125249999999 10.810663019999998 32.3872528939776 
Si 9.50269005 12.222077489999998 4.070845765381321 
Si 9.380140379999999 14.94400617 1.2944925144745967 
Si 10.85102964 13.56816906 2.690701170945366 
Si 8.134330049999999 16.2950499 2.715675579394526 
Si 8.144120339999999 13.575304079999999 5.4306705073268455 
Si 9.502282799999998 14.932847519999997 6.787504507999036 
Si 10.860038009999998 13.57533666 8.144647895699501 
Si 9.50242941 12.21692985 9.502788197157745 
Si 8.142165539999999 13.57903449 10.863506723851621 
Si 9.488778389999998 14.93120223 12.247257395983814 
Si 10.86111315 16.290325799999998 10.86309420781392 
Si 11.81083644 15.040866509999999 14.966838127201912 
Si 10.67065047 13.41678609 13.664628125188656 
Si 8.18924364 16.19395416 13.966521112112982 
Si 8.86824342 12.6462528 21.124740032659496 
Si 10.150722539999999 12.35212056 19.11661196113006 
Si 11.43390213 14.26513671 18.41602222376753 
Si 8.86236273 14.94793206 21.684283661464693 
Si 11.15105886 15.6445902 22.116497339966127 
Si 11.93252274 14.67515601 24.211906929805835 
Si 10.5572232 12.75562386 24.60142519840519 
Si 8.66246814 13.95574074 25.351069967917695 
Si 9.61170273 15.193520099999999 27.140014518081887 
Si 10.5762825 13.421526479999999 28.56333235349692 
Si 9.678328829999998 15.32853162 31.72822414741346 
Si 11.423134439999998 14.170605839999999 30.660013867786212 
Si 13.165724609999998 3.11233482 0.184324884889391 
Si 14.932928969999999 1.358577855 4.071120776073123 
Si 13.574652480000001 0.000219693456 8.144785401045402 
Si 13.57553214 2.7152660699999998 5.4306705073268455 
Si 12.21715791 1.3578105959999998 6.78733262631666 
Si 16.292606399999997 0.00227970405 10.860962874952463 
Si 14.9320656 1.3555413989999998 9.50309758418602 
Si 13.57232301 2.7178073099999995 10.86254418643032 
Si 12.210495299999998 1.355380128 12.229209819334386 
Si 14.939852219999999 4.07813634 12.237941408799063 
Si 16.2048033 2.55487473 13.651461988318694 
Si 14.79635361 1.166238567 15.097605711153193 
Si 13.445994059999999 -0.0173734479 13.655209008994479 
Si 13.431952079999999 3.33220095 15.510568641228566 
Si 15.324182189999998 3.61690128 17.04241257089549 
Si 14.141593349999999 0.1330314705 19.91005218331184 
Si 13.83747534 3.57897816 19.042462203353274 
Si 12.20966451 0.8892238589999999 17.27483098180364 
Si 12.496889789999999 1.71887193 19.828752147548233 
Si 13.544467109999998 2.38842351 22.996703435411057 
Si 15.04749654 1.009022148 21.89724506592794 
Si 13.924121849999999 2.6279027999999998 25.26591978246887 
Si 16.12366281 3.22498017 25.79565912755016 
Si 12.996422639999999 1.130798043 26.814436235326216 
Si 15.689289959999998 1.547769915 32.368792801290475 
Si 13.73282838 2.8069787699999997 32.31365315758441 
Si 16.28563428 8.132945399999999 2.7124270155976293 
Si 14.97158514 4.125507659999999 1.3043275843401227 
Si 13.58703288 5.44318947 2.703891371250862 
Si 12.25455975 6.757303769999999 1.2571598130626382 
Si 14.931479159999999 6.7884828299999995 4.074695915066533 
Si 14.932603169999998 4.07269548 6.78726387364371 
Si 13.57476651 5.430206339999999 8.144957282727777 
Si 12.21789096 6.78709818 6.787882647700261 
Si 16.2937467 5.43066246 10.85628769319185 
Si 12.21624567 4.07264661 9.50213504676472 
Si 14.932179629999998 6.78602304 9.502444433792995 
Si 12.22398342 6.78276504 12.225359669649176 
Si 16.20947853 5.84565021 16.550246561581485 
Si 16.18722639 8.10714204 13.628670477235701 
Si 13.63288923 5.46938379 13.66923455427632 
Si 14.61426399 7.12402425 15.142844969954425 
Si 16.20133353 7.3078569 18.44940164648485 
Si 15.5484792 4.1769189 20.800536803362828 
Si 14.23786725 7.85660184 19.601799574139623 
Si 12.89034216 5.917065569999999 19.35594001566971 
Si 16.07824629 5.93451216 23.587117014370893 
Si 14.06424843 4.72121667 22.622310754860745 
Si 13.60105857 5.01842772 25.081284479261107 
Si 15.59114271 6.7211725499999995 25.790640182424795 
Si 15.59404233 4.9050819 27.435582259094797 
Si 12.68759682 6.783351479999999 28.549444313560983 
Si 13.48129449 4.57560036 28.63015995160451 
Si 14.00985612 4.84280523 31.194462770964588 
Si 12.630402629999999 6.3371357999999995 32.47807517494481 
Si 16.012108889999997 6.07426407 31.12302874376933 
Si 14.974712819999999 9.505817729999999 1.3455654375756525 
Si 13.58387262 10.86505533 2.7112204061873535 
Si 16.2890226 10.8600543 5.430395496635044 
Si 13.57639551 8.144266949999999 5.429639217232593 
Si 14.932375109999999 9.502673759999999 6.787676389681411 
Si 13.574457 10.85995656 8.144819777381876 
Si 12.216815819999999 9.502103609999999 9.501860036072918 
Si 13.575711329999999 8.143289549999999 10.860172219213537 
Si 14.93040402 9.5037489 12.224259626881974 
Si 16.292606399999997 10.86127605 10.861994165046717 
Si 12.785662619999998 8.490005909999999 16.37097396686384 
Si 13.509003779999999 10.774710989999999 13.643864817957695 
Si 14.792476589999998 12.0143637 15.183340294322091 
Si 16.25427603 11.24974368 19.60657788490966 
Si 14.050027259999998 11.70895878 18.92602955171211 
Si 13.041399329999999 9.58368393 18.553321311649075 
Si 15.00590817 8.6035635 21.71511923528286 
Si 12.87861336 8.86961178 22.76782578715984 
Si 14.246533529999999 11.967790589999998 23.043627134699566 
Si 13.42763523 10.20407229 24.609228626785036 
Si 15.885568169999999 10.802306249999999 21.88033190838219 
Si 14.865227729999999 9.03809925 26.22034438836354 
Si 13.04206722 10.49730858 29.209401221209948 
Si 14.18515281 8.595434789999999 28.4265489106625 
Si 15.733338119999999 8.303615729999999 30.283421101701492 
Si 14.197582079999998 11.495836709999999 30.982910796296824 
Si 15.11482311 9.755559719999999 32.26153863148816 
Si 13.37822766 8.32404339 34.183760238166315 
Si 12.21934077 14.932016729999999 4.068130034799789 
Si 14.932668329999998 12.216652919999998 4.072736463887452 
Si 14.914423529999999 14.9768631 1.1508956817508096 
Si 13.57100352 16.28646507 2.6890992336656265 
Si 16.27776621 13.580077049999998 2.683440888681825 
Si 13.57499457 13.573609919999999 5.429914227924393 
Si 12.21776064 12.21706017 6.787813895027311 
Si 14.9325543 14.932505429999999 6.7872294973072345 
Si 12.21696243 14.9304366 9.500897498651614 
Si 14.931348839999998 12.21689727 9.502100670428243 
Si 13.57255107 13.57776387 10.860962874952463 
Si 12.21921045 12.217874669999999 12.240450881361745 
Si 14.917143959999999 14.935095539999999 12.233506861393776 
Si 15.35971068 15.34465872 16.26777620476559 
Si 13.2766758 13.785542819999998 16.496791358362707 
Si 16.09758252 13.38458076 13.587556378811483 
Si 13.1119839 12.4773255 21.010713724571588 
Si 12.526716780000001 14.73394662 20.44106345284271 
Si 15.98656617 16.11789615 18.42808831787029 
Si 15.67415655 15.548088239999998 23.273948589082735 
Si 14.28149187 13.941535859999998 24.262371391751284 
Si 15.70939182 13.073686109999999 26.0251899261944 
Si 15.73674273 12.905377829999999 29.93415752311448 
Si 12.56084433 12.338485829999998 27.795433749316143 
Si 14.57682957 13.70735082 27.981753493011183 
Si 14.32415538 16.044965819999998 28.293615617513286 
Si 13.47502284 13.51622025 34.27262306795445 
Si 12.89407257 15.998018039999998 30.178160759414734 
Si 12.57513066 12.77359173 32.18082299344463 
Si 14.757876629999998 15.722651879999999 31.65318060488832 
