&CONTROL
  dt          = 30.D0,
  prefix = 'x2.33_y1.66_z3.19_struc5-scf',
  pseudo_dir = './',
  outdir='./',
  wf_collect= .true.,
  verbosity= 'high',
/

&SYSTEM
ibrav= 6, celldm(1) =30.783621515, celldm(3) =2.126766214129715, nat=  432, ntyp= 1,
  ecutwfc     = 12.D0, nbnd= 1728,
  degauss     = 0.05D0,
  occupations = "smearing",
  smearing    = "methfessel-paxton",
/
&ELECTRONS
  electron_maxstep=200,
  conv_thr    = 1.D-8,
  mixing_beta = 0.3D0,
  scf_must_converge=.false.,
/
&IONS
/
ATOMIC_SPECIES
Si  28.08  Si.pbe-hgh.UPF
K_POINTS {automatic}
1 1 1 0 0 0
ATOMIC_POSITIONS (angstrom)
Si 0.0008224446329999999 2.7341135999999997 2.7253644843888845 
Si 2.7182960099999995 -0.006587529389999999 2.7107927882920753 
Si 2.4814882799999998 2.9344480199999996 0.06788449472889112 
Si 1.3537657889999999 1.396968498 1.4188556802623622 
Si 1.3548083489999998 4.07096874 4.071171136548244 
Si 4.075171559999999 1.3577633550000001 4.072279777240345 
Si 0.0011244009599999999 0.0028346717699999995 5.429879594761935 
Si 4.97216412e-05 2.71484253 8.144732779588832 
Si 2.71500543 0.00014777473499999998 8.14476742461046 
Si 2.71549413 2.71581993 5.430052819870076 
Si 1.3577014529999998 1.3575092309999999 6.78792979756469 
Si -0.0014272206569999999 -0.0008196737039999999 10.86107570034574 
Si 2.7156733199999996 2.71184517 10.86242685618924 
Si 1.3664687309999999 1.347989355 12.231702045999521 
Si 1.358507808 4.07344482 9.503787688018804 
Si 0.223063857 2.8693205999999996 13.582199634087337 
Si 2.87238312 0.0966172932 13.658869066950484 
Si 2.08705851 3.6825988499999998 15.23594509648655 
Si 3.88832526 1.7594666099999998 15.067223841157345 
Si 0.871343955 1.77205878 17.516765450355695 
Si 0.6199273529999999 3.8146618799999996 20.979812522264616 
Si 3.77532153 1.8137937599999998 20.016438405850007 
Si 1.92770973 3.1240147499999997 19.068065583800397 
Si 1.413349722 3.6211040999999997 24.861406100463498 
Si 3.35510469 1.6328933099999998 22.356086006443793 
Si 1.139495274 2.4354364499999996 22.826149659894845 
Si 3.34337589 2.05055262 27.849054185590628 
Si 3.01596318 3.9667290299999998 29.380745236793786 
Si 3.57619257 0.24682933799999998 29.394083570120632 
Si 1.565223021 1.7528365799999999 26.341164264246025 
Si 1.47023766 0.6719625 30.572326110673174 
Si 3.4077213899999994 3.31742592 31.71211267721844 
Si 3.3771450599999997 1.3708930949999998 33.22263562020678 
Si 4.07048004 6.788531699999999 4.06687515386635 
Si 2.71767699 5.450340779999999 2.6839567545388925 
Si 1.394728623 6.942537359999999 1.1631095951053516 
Si 0.001342669041 5.4307764899999995 5.430953590432408 
Si 2.71480995 5.42968506 8.145287099934883 
Si 1.357062885 6.78766833 6.787479412283524 
Si 2.7147122099999996 8.14635207 5.430433915107986 
Si 4.0819482 4.095191969999999 12.24351599837473 
Si -0.0011852587709999998 5.42997828 10.861595375670163 
Si 1.369770714 6.78616965 12.255364595771566 
Si 2.91437874 5.54070141 13.844531737855862 
Si 2.65487904 5.02390116 17.76676392642459 
Si 1.614444885 5.9245101 21.371543781814367 
Si 1.72141317 6.87853395 19.220503678964363 
Si 3.8260160099999996 5.69073231 22.10310805851487 
Si 0.21586856399999999 7.288748729999999 22.74275909283583 
Si 3.5496561599999996 4.62937365 24.258929174349568 
Si 3.8197117799999996 8.03186595 26.53119220787655 
Si 0.607110381 4.45309956 29.670793357864852 
Si 0.19611042299999998 5.54167881 31.972989690078577 
Si 3.1369490099999995 7.57340019 32.343448906348634 
Si 2.33101755 5.15484018 32.79075078058998 
Si 4.05873495 9.6451461 1.2337404006987078 
Si 1.355929101 9.50156604 4.073215192824306 
Si 2.7043191899999997 10.87347726 2.7119291450014793 
Si -0.00045115317899999997 8.14488597 8.144143814221152 
Si 0.0032371488 10.86065703 5.431022880475665 
Si 2.71485882 10.86018462 8.14476742461046 
Si 1.358734239 9.50446566 9.50271369234833 
Si 2.71443528 8.13931479 10.864263042335532 
Si 4.074226739999999 12.21792354 9.50215937200228 
Si -0.0019237186799999997 10.86251409 10.860070994718523 
Si 3.0740858999999996 9.235045349999998 16.696821723481722 
Si 3.75750027 11.555360369999999 17.122124008989175 
Si 0.1357341444 8.315833229999999 13.614627374331306 
Si 1.3875675389999997 9.78634782 15.089465945042633 
Si 2.77290009 11.00278728 13.642759131893383 
Si 2.15045919 10.38948507 20.863543829680467 
Si 2.93509962 8.893118249999999 19.16947156210606 
Si 3.12196221 9.5446368 22.871777153379146 
Si 1.154560266 9.08012745 24.038240386578106 
Si 1.64520855 8.85099231 26.349479069436786 
Si 2.54472606 8.794221659999998 30.270394747183644 
Si 0.1137841839 8.89575723 29.807467968187996 
Si 1.92893148 11.16410715 27.05464383965662 
Si 0.0982132245 12.073528979999999 28.161448345611866 
Si 3.5623134899999997 12.07851372 28.55013084325834 
Si 2.39003622 8.69921838 34.46091798324094 
Si 0.693602136 10.56396726 34.33009838157296 
Si 3.1115691899999995 11.0912094 30.665729088982726 
Si 1.0881491939999999 11.88621027 31.889806993149335 
Si 3.2142939299999997 13.26437685 0.09683595350269023 
Si 1.420844751 12.24589347 1.2344818041615506 
Si 1.3594461119999999 14.929964189999998 4.069369595423579 
Si -0.00011096862029999999 13.57483167 8.144906004696972 
Si 2.7164552399999997 13.57618374 5.429879594761935 
Si 1.3582357649999999 12.216604049999999 6.787652637391665 
Si 4.10027445 14.93745759 12.238631050325157 
Si 1.3578203699999998 14.934362489999998 9.502401887153678 
Si 2.71078632 13.57496199 10.863639431946225 
Si 1.357893675 12.22017156 12.226782452928322 
Si 3.7422528299999995 12.696002459999999 15.009851685341092 
Si 0.184915935 13.670763479999998 13.708376802857142 
Si 2.1341854799999997 14.61515994 15.101175962352956 
Si 2.5280451 15.230123729999999 17.648139372369727 
Si 0.15107378579999997 15.63559812 20.887102444387626 
Si 2.88981342 12.583894679999998 20.42240876928894 
Si 0.43203523499999996 15.986386979999999 18.479134861143084 
Si 2.2260773699999996 13.010822999999998 18.236203969486336 
Si 1.8528408899999997 14.21787942 21.7739457080256 
Si 3.1449474 15.726089069999999 23.068872681421823 
Si 0.8729485199999999 13.09049739 23.60975075908086 
Si -0.001175962068 15.115702769999999 24.437593550886056 
Si 2.50364268 12.54942504 25.220293879509743 
Si 2.0074167 16.040632679999998 25.16094695746068 
Si 3.34767645 14.507939159999998 26.24679122533088 
Si 2.9100618899999997 14.40578457 28.482711631169913 
Si 0.569969181 14.29734204 28.821574587715073 
Si 1.347735231 16.275827699999997 32.8895237372519 
Si 0.86503158 14.48381367 31.2591636644517 
Si 5.43170502 2.7048567599999997 2.6985527021508418 
Si 6.82971282 1.436882256 1.1661237119870025 
Si 8.145863369999999 2.7166995899999997 5.430122109913332 
Si 5.42996199 2.7146796299999996 8.14497529474023 
Si 6.78704931 1.357636293 6.787791217478177 
Si 8.144266949999999 2.71534752 10.866376388654851 
Si 4.07512269 1.358906913 9.501362536504832 
Si 5.43093939 -0.00180647955 10.8582001635506 
Si 6.78263472 1.344851901 12.237730279762824 
Si 7.23245049 3.701088 14.891712161589021 
Si 5.71256091 0.919515114 17.021168415964677 
Si 5.45654727 2.72947095 13.629455443588164 
Si 5.95046007 2.71756296 19.92805895567654 
Si 6.462764279999999 3.1762241999999996 17.605664575853584 
Si 7.46484363 1.65268566 21.47430091596353 
Si 7.199837909999999 3.0813349499999996 23.339484945359484 
Si 4.85301906 2.6934211799999996 23.960878053282393 
Si 5.006275379999999 1.65060054 26.137139731877713 
Si 6.959185739999999 2.7682085699999996 26.775578190441685 
Si 8.12493072 2.69549001 28.78388080418362 
Si 6.86489922 2.35103796 30.82038446553089 
Si 5.6227215600000005 3.7975085099999997 32.381835590312654 
Si 5.86418823 0.238114188 30.366257522028796 
Si 8.00031222 3.1813555499999997 34.57313320829459 
Si 5.219136809999999 0.22551713099999998 34.40701032958751 
Si 4.0968209700000005 4.070985029999999 1.3165870409181581 
Si 6.786332549999999 4.07463399 4.0729380326512805 
Si 6.029091899999999 4.6466736299999996 -0.0009328934263861414 
Si 6.94486683 6.65964522 0.9829312311237118 
Si 5.438791169999999 8.14382712 2.660720338532877 
Si 8.15798313 5.4329430599999995 2.689939949774078 
Si 4.0728909600000005 4.07178324 6.7875140573051524 
Si 5.43087423 5.43035295 5.430087464891704 
Si 6.787896389999999 6.7870656 6.787029027002357 
Si 6.78778236 4.07465028 9.502055436937395 
Si 4.07482947 6.78802671 9.502124726980652 
Si 5.42761623 5.42870766 10.859689899480614 
Si 6.770987369999999 6.7935816 12.239393240800975 
Si 4.31934237 7.33972014 15.50690381064049 
Si 5.8146340499999996 7.14450078 17.462338121377837 
Si 5.56733556 4.94149005 20.588289132844633 
Si 7.3601478 6.48526077 20.470703929438613 
Si 4.97877786 5.04543654 18.233467012777712 
Si 4.73814198 7.82006337 22.59555239593772 
Si 8.01699318 5.44129983 23.446676642277048 
Si 6.298968329999999 6.980330159999999 24.159844412492994 
Si 4.77911133 6.03814914 25.65744476241403 
Si 4.8625487099999996 5.56158519 29.17384516763034 
Si 6.18000246 5.0036363999999995 27.241137991081075 
Si 4.250663729999999 7.86738582 28.826286310656506 
Si 6.19322994 5.69012958 31.16413237012562 
Si 5.550996689999999 7.600148369999999 32.60207399280294 
Si 6.786430289999999 9.5027715 4.066597993693325 
Si 4.07196243 12.2135904 4.070374301050796 
Si 4.07178324 9.50282037 6.78737547721864 
Si 5.430173759999999 8.14428324 8.145009939761858 
Si 5.43004344 10.86075477 5.430815010345896 
Si 6.7877171999999995 9.50404212 9.50233259711042 
Si 4.074161579999999 9.52233579 12.237695634741197 
Si 5.42877282 10.86065703 10.860763895151086 
Si 6.77996316 12.20940387 12.240397946428192 
Si 5.58163818 8.349716429999999 13.672484560450355 
Si 7.6159333799999995 9.22501071 15.021769572781183 
Si 7.27726428 12.214665539999999 17.334705861699646 
Si 5.59763496 11.25326232 18.664797532048464 
Si 6.33799917 8.50241889 21.056412665084505 
Si 5.3020529100000005 8.939153789999999 19.02271525048912 
Si 5.062655069999999 9.92062629 25.84837347660689 
Si 4.09149414 11.211234119999999 24.162650659244875 
Si 7.059320369999999 8.842342319999998 25.35100954611284 
Si 7.903989449999999 8.36369325 27.546776371884818 
Si 5.62711986 11.25593388 27.709885133710255 
Si 6.211539899999999 9.28284021 29.021095267271722 
Si 6.667659899999999 9.50676255 31.525549235750724 
Si 4.93676595 11.549870639999998 34.54503609575414 
Si 5.1807412799999994 11.30700303 32.104536837200754 
Si 4.13068788 15.02547246 1.2933921989380963 
Si 5.4525725099999995 13.59314163 2.6889213861382095 
Si 6.967689119999999 12.38745357 1.1802762033221113 
Si 6.785355149999999 14.92704828 4.072210487197089 
Si 4.07284209 14.932016729999999 6.787652637391665 
Si 5.4299457 13.574913119999998 8.144802069632087 
Si 6.787521719999999 12.217581449999999 6.787306187175383 
Si 5.431216319999999 16.2911403 5.431161460562176 
Si 6.78708189 14.93556795 9.50215937200228 
Si 7.834170509999999 15.88832118 17.284990255663217 
Si 5.52700152 13.61268963 13.722234811508413 
Si 7.40357694 14.579159039999999 15.13103997099644 
Si 5.20923249 12.560437079999998 20.685606998598168 
Si 6.048086039999999 14.66614764 20.120615985885923 
Si 4.52453121 16.1233533 18.870173220260277 
Si 7.872794099999999 13.971085919999998 18.800709951895787 
Si 6.924031919999999 15.674824439999998 22.070784253335788 
Si 5.58817047 12.60028242 23.075801685747457 
Si 5.2852905 14.950619909999999 23.57493251234455 
Si 7.6309527600000004 12.36223665 24.227021109430023 
Si 5.379365249999999 15.598473209999998 25.856826861884166 
Si 7.764856559999999 15.51549195 29.261358492263106 
Si 7.31018637 12.613721669999999 26.633395021679664 
Si 7.34951043 14.948323019999998 26.95413863191329 
Si 6.05259837 13.40256492 31.231170486976136 
Si 6.287386139999999 15.451879499999999 32.50565689761174 
Si 8.150066189999999 0.01186662969 2.6779354497799157 
Si 9.498829319999999 1.355899779 4.06916172529381 
Si 10.88427753 2.71298547 2.6883393497748562 
Si 8.14491855 -0.000127265625 8.1449406497186 
Si 10.859614469999999 2.7150380100000002 8.1449406497186 
Si 12.20907807 1.375555293 12.237660989719569 
Si 9.504302759999998 1.357258365 9.502228662045537 
Si 9.51248034 4.09102173 12.238596405303529 
Si 8.206999739999999 0.06986862449999999 13.690049586415839 
Si 9.08939646 2.02931046 15.047580113894172 
Si 10.97776584 2.93009859 13.708272867792257 
Si 11.727008099999999 0.45263068199999995 17.043064069633683 
Si 8.81621316 3.10331016 17.31807625131812 
Si 11.294443439999998 3.1620356099999998 21.02263376899704 
Si 9.727573499999998 1.41977124 20.728947920655013 
Si 9.65710296 1.138561857 18.326419605806098 
Si 12.15691749 3.2392176299999997 23.252803101245796 
Si 8.54141715 2.06808066 25.073191117676522 
Si 10.592442179999999 3.3507552599999997 25.136210412018166 
Si 9.54035253 0.847281996 29.092810462042042 
Si 12.066051869999999 2.63898 26.910763064834818 
Si 11.458548899999998 0.411117246 27.696650735448294 
Si 10.51439679 1.7773856099999998 31.11510966452176 
Si 8.71337439 3.04779384 32.15328238263159 
Si 9.66296736 4.18739337 1.2609367426768237 
Si 9.49742838 6.78616965 4.07009714087777 
Si 8.14690593 8.14635207 5.4302606899998445 
Si 9.50192442 4.07290725 6.787825862499806 
Si 8.145228059999999 5.430141180000001 8.145009939761858 
Si 10.861227179999998 5.43080907 5.43109217051892 
Si 10.854124739999998 5.43087423 10.860556025021317 
Si 9.50563854 6.78955797 9.501466471569717 
Si 9.12458286 7.3160833499999995 14.835933676767663 
Si 12.12984351 4.703281379999999 15.013108317374138 
Si 10.762232849999998 6.32970756 16.202645134977463 
Si 8.166535380000001 5.50419552 13.649341686002737 
Si 9.59568966 5.254420949999999 17.92547277050325 
Si 10.683372959999998 5.31870129 20.08479303352239 
Si 8.16371721 7.10432964 18.34762235904254 
Si 11.447976689999999 7.9995140099999995 17.74874851517794 
Si 11.78970831 6.87050298 22.787970846060595 
Si 9.44344332 6.61323501 21.82809587683043 
Si 11.098181519999999 7.24802373 25.013359165324665 
Si 9.50484033 5.5167062399999995 25.32045263703679 
Si 8.321583599999999 6.0352821 27.32965602134106 
Si 9.42975972 4.68852264 28.904861219709204 
Si 11.83457097 4.1860738799999995 28.70482086482813 
Si 10.00912986 7.05985794 31.36330659946599 
Si 8.57170026 5.28532308 31.01477768188657 
Si 8.869318559999998 7.76314611 34.434310606630504 
Si 11.84232501 5.46426873 32.144863642375945 
Si 10.76641938 5.92846857 34.41137560231266 
Si 9.59059089 9.570423869999999 1.2262743985378366 
Si 10.874079989999998 8.16458058 2.6960270800741477 
Si 8.14128588 10.856763719999998 2.679196528567181 
Si 12.21487731 9.501468299999999 4.0692656603586945 
Si 9.502413119999998 9.50249457 6.787340832197011 
Si 10.85994027 8.14486968 8.145183164869998 
Si 8.145228059999999 10.86020091 8.14497529474023 
Si 10.8620091 10.86178104 5.431196105583805 
Si 12.22009011 9.505247579999999 9.502228662045537 
Si 8.14591224 8.1420678 10.864366977400417 
Si 9.5223195 9.518523929999999 12.235478353356994 
Si 10.85469489 10.86222087 10.859447384329215 
Si 10.77853914 11.909667869999998 16.379369390302774 
Si 8.835695999999999 10.57882374 16.75450568449263 
Si 10.998714779999998 8.39060433 13.75507829201192 
Si 8.24704056 10.980681749999999 13.623600434933001 
Si 12.02708619 10.153361519999999 15.178191845432384 
Si 12.03726744 10.53052389 20.984766760357445 
Si 9.753262829999999 10.436090759999999 20.383190604805847 
Si 9.51966423 9.12262806 18.415942341693295 
Si 8.51154129 9.06364197 21.8421964006331 
Si 8.43841548 10.11897333 23.93323132602311 
Si 11.96850735 11.188607309999998 24.63527804429641 
Si 10.386015299999999 9.504758879999999 25.027840784365242 
Si 11.513511359999999 8.42162049 30.24222834459994 
Si 9.75383298 9.763883909999999 27.264661960766606 
Si 9.407507579999999 12.04997364 27.500802428184233 
Si 11.85662763 9.39879243 28.149357233063633 
Si 10.58097402 11.429617859999999 34.539250377142245 
Si 10.674967319999999 10.5015114 31.001404703538096 
Si 9.011465099999999 9.12253032 32.33121921371389 
Si 12.21539859 14.930648369999998 4.07200261706732 
Si 9.50387922 12.2175 4.067048378974491 
Si 9.73470852 15.106759559999999 1.2933714119251194 
Si 10.86925815 13.587554159999998 2.7074045051768394 
Si 11.560182209999999 16.05470724 0.10146314259134902 
Si 8.14635207 13.57670502 5.4303299800431 
Si 9.50272263 14.931821249999999 6.787548702326781 
Si 10.85982624 13.57509231 8.145079229805113 
Si 10.862465219999999 16.28993484 5.43015675493496 
Si 12.22013898 14.93472087 9.502471177196934 
Si 9.50487291 12.217728059999999 9.501986146894138 
Si 8.14653126 13.572713969999999 10.864921297746468 
Si 9.51717186 14.953128569999999 12.233122491886277 
Si 10.853750069999998 16.290488699999997 10.8606599600862 
Si 9.190166399999999 12.858234569999999 14.898606520893027 
Si 10.99641789 13.81442499 13.720156110210722 
Si 9.612989639999999 12.850399079999999 20.012350293297885 
Si 11.55454587 13.11649623 18.620451904364405 
Si 10.309403429999998 13.83397299 22.01060585076765 
Si 12.02682555 12.30883803 22.621328292029084 
Si 8.527049369999999 14.439390839999998 23.402088499441593 
Si 11.13442677 16.009616519999998 21.70226515827691 
Si 8.85486933 15.871428449999998 25.310648095916015 
Si 11.10191193 15.26485401 25.81476780562756 
Si 10.06666614 12.48675741 29.75581224094039 
Si 11.233877219999998 12.820783859999999 26.229399424473538 
Si 8.87632326 13.30948386 34.54839666285208 
Si 8.37982035 13.801897979999998 30.810995664669655 
Si 11.09948472 16.199655659999998 32.45400117036414 
Si 8.825433299999998 14.96264193 32.7811887546206 
Si 12.496987529999998 1.5203929409999999 1.2916599478566877 
Si 14.9286447 1.358673966 4.075120669013855 
Si 12.21663663 4.07256516 4.070235720964283 
Si 13.574913119999998 9.57617424e-06 8.144628844523947 
Si 13.575923099999999 2.7152334899999997 5.431438620735203 
Si 12.21771177 1.357328412 6.787687282413294 
Si 14.935193279999998 1.359029088 9.50177827676437 
Si 13.57435926 2.71337643 10.863881947097623 
Si 15.14305368 2.46412314 16.640835368530592 
Si 13.595226749999998 0.0445350681 13.60977707130336 
Si 15.240109499999999 1.3146339509999998 14.671023373817558 
Si 13.286857049999998 2.3043345299999998 20.01425576948743 
Si 13.12099227 2.2944139199999998 17.696642402649168 
Si 13.75219719 1.5031516049999998 23.83085528711186 
Si 15.842986109999998 0.64778814 22.871084252946584 
Si 14.26200903 2.60130123 25.926844450594704 
Si 16.094503709999998 2.1807423 29.622221037542154 
Si 15.716461679999998 1.4217521039999999 27.365894713964128 
Si 16.02807309 0.47520373499999996 34.62804556757525 
Si 14.36755194 2.31945165 34.54631796155439 
Si 12.352446359999998 3.2861816999999998 30.83649440058799 
Si 14.34811797 1.9992717 31.262662811636147 
Si 15.055266869999999 4.15926054 1.28598162881183 
Si 13.57357734 5.41635984 2.701653431586563 
Si 12.339577259999999 6.881124059999999 1.3123776707903352 
Si 14.935030379999999 6.7884828299999995 4.067741279407055 
Si 14.93226108 4.0725814499999995 6.78775657245655 
Si 13.57505973 5.43002715 8.145009939761858 
Si 12.21707646 6.78778236 6.787583347348408 
Si 13.570775459999998 8.14513032 10.861907180864817 
Si 12.21909642 4.07497608 9.502194017023907 
Si 14.93354799 6.7897045799999995 9.503753042997177 
Si 14.94731304 4.0757579999999995 12.23211778625906 
Si 12.22551468 6.807151169999999 12.243377418288217 
Si 13.92128739 4.496056289999999 16.706868779753894 
Si 13.73885568 5.591118959999999 13.601739426285626 
Si 15.157828709999999 6.93274707 15.094316248070577 
Si 14.33842542 5.68615482 18.716972934620493 
Si 14.584681349999999 4.246167689999999 20.646562059223218 
Si 12.407490269999998 6.85766646 19.49818352731417 
Si 15.78051396 7.552223189999999 18.766931055808318 
Si 13.439412899999999 5.16476079 22.69782449978409 
Si 14.948860589999999 6.30901926 24.22130468086137 
Si 15.668471339999998 4.5890559 25.694099195296637 
Si 12.60614682 7.573856309999999 26.835271562707028 
Si 16.14151665 7.924710329999999 27.57269084806269 
Si 15.69523581 5.5788363 27.885743263494863 
Si 13.37011524 5.98470165 28.45735147533809 
Si 15.876657539999998 5.8880205 34.52539236849097 
Si 15.419543849999998 7.64191593 31.56996415347804 
Si 13.31733564 6.95247426 30.686204296764974 
Si 14.08853682 7.66801251 34.5043974853843 
Si 16.294724099999996 8.15193954 2.6892054753155605 
Si 15.0970833 9.48397284 1.0513620778436792 
Si 13.58665821 10.86427341 2.657016785720825 
Si 14.932798649999999 9.502168769999999 6.787444767261896 
Si 13.57502715 10.85994027 8.14497529474023 
Si 13.57602084 8.14654755 5.4316464908649715 
Si 14.93281494 9.50728383 12.225812392322732 
Si 14.932309949999999 12.21784209 9.502471177196934 
Si 12.206406509999999 12.23771589 12.232429591453712 
Si 13.645513979999999 10.99555452 13.580883123265465 
Si 15.88345047 10.84340592 16.242798715044515 
Si 14.924963159999999 8.7057018 16.881098593521976 
Si 16.077171149999998 10.528178129999999 21.20445084250169 
Si 12.89278566 8.342043839999999 21.320615600020954 
Si 15.242667029999998 8.35851303 20.976763760361337 
Si 13.046644709999999 11.390554439999999 19.091624198507557 
Si 12.907495529999998 9.723044879999998 17.368207597614088 
Si 14.260591799999998 10.45689309 24.935407866661276 
Si 16.05679236 10.96975116 23.48270746477035 
Si 14.54522697 8.20672281 25.75257999180499 
Si 12.65581503 11.73850884 27.817423280844103 
Si 15.75642105 11.17881702 30.223242872747697 
Si 14.65500528 12.01651398 26.639873640724133 
Si 12.263274899999999 11.208497399999999 32.59133403609821 
Si 12.28945293 12.415651559999999 1.20261877777012 
Si 14.93046918 12.214453769999999 4.066459413606812 
Si 15.028453529999998 15.089019749999999 1.332953349135307 
Si 13.583335049999999 16.299122399999998 2.725475348458095 
Si 16.2960273 13.57603713 2.685290587871577 
Si 13.57569504 13.57839918 5.4305724951944985 
Si 12.216848399999998 12.21805386 6.787791217478177 
Si 14.93227737 14.93268462 6.788172312716087 
Si 13.57502715 13.57370766 10.861214280432252 
Si 14.949561059999999 14.931918989999998 12.241853037336577 
Si 12.42744552 15.12326133 15.289818105118357 
Si 14.819452829999998 12.575489039999999 15.038745633378987 
Si 15.002910809999998 14.460242039999999 17.201772913712343 
Si 14.56534512 14.29006041 21.225029985348826 
Si 13.172208029999998 16.13780253 20.49291138830227 
Si 15.038276399999999 12.23255196 19.95927412016352 
Si 12.899252789999998 15.09830505 18.401079627414813 
Si 16.21386054 12.54595527 17.920137437172514 
Si 13.57268139 14.011371089999999 23.38926984143917 
Si 12.25750824 15.936718769999999 23.817066568503847 
Si 14.55342084 14.19735402 25.702414000487398 
Si 12.34060353 13.253397389999998 29.567897643629177 
Si 15.029349479999999 15.47030349 27.71303783067842 
Si 13.02947505 15.473594069999999 29.00141689498692 
Si 13.36700385 14.223222539999998 34.52871829056728 
Si 13.905258029999999 12.461279849999999 31.19132871210374 
Si 13.448747069999998 16.09787574 31.244197015108334 
Si 14.78232792 14.374686959999998 32.309150334936746 
