&CONTROL
  dt          = 30.D0,
  prefix = 'x2.33_y1.33_z3.15_struc18-scf',
  pseudo_dir = './',
  outdir='./',
  wf_collect= .true.,
  verbosity= 'high',
/

&SYSTEM
ibrav= 6, celldm(1) =30.783621515, celldm(3) =2.1064596431380656, nat=  432, ntyp= 1,
  ecutwfc     = 12.D0, nbnd= 1728,
  degauss     = 0.05D0,
  occupations = "smearing",
  smearing    = "methfessel-paxton",
/
&ELECTRONS
  electron_maxstep=200,
  conv_thr    = 1.D-8,
  mixing_beta = 0.3D0,
  scf_must_converge=.false.,
/
ATOMIC_SPECIES
Si  28.08  Si.pbe-hgh.UPF
K_POINTS {automatic}
1 1 1 0 0 0
ATOMIC_POSITIONS (angstrom)
Si 0.0178821846 2.6939424599999997 2.7117401692273733 
Si 1.3723885169999999 1.363894911 1.1769299663058432 
Si -0.0014585235209999999 -0.0011664503369999998 5.43111868551555 
Si -6.51847608e-05 2.71495656 8.144825059983642 
Si 2.71497285 -0.000400641147 8.145168202259509 
Si 2.7130180499999996 2.71484253 5.43060397210175 
Si 1.357224156 1.357432668 6.787354216653035 
Si 2.71687878 2.7147122099999996 10.863095226720768 
Si 1.349302329 1.3608796319999998 12.221218040375522 
Si 4.08694923 4.060608299999999 12.237414355796453 
Si 1.470105711 2.1078608400000003 16.79485849272655 
Si 2.71339272 0.053863047899999995 13.617772788927402 
Si 1.2913636859999997 3.8164374899999998 15.012817711465468 
Si 3.81702393 1.407027573 16.90792387262479 
Si 3.79275183 0.7541357759999999 20.778294230586006 
Si 2.21180733 2.50797582 20.701224475426237 
Si 2.2132571399999996 3.4850174399999996 18.601948660125935 
Si 2.12680611 3.54230937 24.662767736085367 
Si 2.99762064 3.8744298899999996 22.470294478659536 
Si 0.8655088769999999 1.592577189 24.334003121577013 
Si 3.98349144 3.26324538 26.048136046443975 
Si 2.9551851899999995 3.4996132799999997 29.90412874304636 
Si 2.94673068 2.16569034 27.948663855562 
Si 0.981262359 0.829604088 28.028204235108017 
Si 2.2091846399999997 3.1948436699999996 34.086724257819135 
Si 0.340024428 0.750107259 30.343488113066712 
Si 2.02812129 2.06695665 31.772641377825973 
Si 4.05664983 0.8130632219999999 32.26796725304026 
Si 4.02283179 4.23546516 1.0836192872292778 
Si 1.3574831669999998 4.06953522 4.072412529991821 
Si 2.71748151 5.43600558 2.693450685923652 
Si 1.290733263 6.708775859999999 1.2707656530644853 
Si -0.001512386406 5.4299457 5.430638286329336 
Si 2.7152334899999997 5.43009231 8.144722117300882 
Si 1.357694937 6.7870656 6.787868930066836 
Si 1.3564992509999998 4.07295612 9.50260473136253 
Si 1.358861301 6.76916289 12.216619933878903 
Si 3.56358411 6.936493769999999 14.961380684312974 
Si 0.241302141 5.3547999299999995 16.441868033541972 
Si 2.58108534 5.251146659999999 13.603189242203047 
Si 0.006120283319999999 8.04576132 13.629885711265514 
Si 1.499833332 5.68638288 18.927453423013553 
Si 3.22335117 7.01123229 19.918173801897307 
Si 2.42178543 7.27768782 23.839363530914458 
Si 0.190443132 6.44665347 24.07348950573864 
Si 3.6729062999999997 6.1172208 22.115485365412866 
Si 0.59838057 4.97377683 25.914619386904054 
Si 1.77101622 5.5561932 29.790617278189494 
Si 3.2369370299999995 7.18157682 26.117107643893284 
Si 1.4613025949999998 6.47035542 27.56533961919076 
Si 0.42429259799999997 4.89245715 34.237260774242074 
Si 3.28411287 7.51022757 30.478892055123907 
Si 1.3608942929999999 9.50361858 4.068397765364175 
Si 0.438503994 10.094114789999999 0.14508741708216563 
Si 2.72473056 10.85490666 2.72130697587855 
Si 1.396300608 12.08085948 1.2461520576165315 
Si 0.00023917303799999998 8.14501629 8.145065259576748 
Si 2.71541268 8.14485339 5.431152999743136 
Si 2.71536381 10.859598179999999 8.145099573804336 
Si 1.3566556349999999 9.50171265 9.503119444776331 
Si 2.7202996799999997 8.141530229999999 10.859801060872442 
Si -0.00039090135599999996 10.86083622 10.860899116155217 
Si 1.353148398 12.20199192 12.24602722692072 
Si 1.6457949899999997 8.96984415 15.363955202360364 
Si 2.54492154 10.629290159999998 13.742024607018912 
Si 2.43884106 9.14318604 20.59670333819709 
Si 3.8428109999999998 10.74058344 19.555026331347058 
Si 0.22734649799999998 9.41654853 19.708067786383825 
Si 3.9229089299999997 9.55182069 17.367665893831653 
Si 1.3201171649999999 11.2700736 23.478000400198717 
Si 2.63502153 9.42236406 22.92595310678358 
Si 2.03989896 12.18242763 25.516951803401568 
Si 2.95085205 9.76460067 29.09578848378602 
Si 0.274429485 11.841885179999998 27.06908725983163 
Si 0.672618987 10.16233731 28.711846591318217 
Si 4.05891414 9.170341469999999 27.119563488611693 
Si 2.4462693 8.47198917 34.302903891615465 
Si 0.294350526 11.28628215 30.819941163108307 
Si 2.71031391 16.274605949999998 2.680040685782762 
Si 3.90968145 14.678951579999998 1.2489589614331251 
Si 1.3561392419999998 14.93617068 4.069255621053843 
Si -0.000189276768 13.575369239999999 8.144722117300882 
Si 2.71609686 13.575108599999998 5.4305010294189895 
Si 1.358040285 12.21732081 6.787216959742688 
Si 0.0010066275179999998 16.287393599999998 10.85794809258276 
Si 1.355064102 14.930338859999999 9.501438047624582 
Si 2.71676475 13.57551585 10.859252033231055 
Si 0.1497634182 16.280226 16.62771389015164 
Si 3.3132393899999997 13.76848719 16.266007617160035 
Si 0.0422490924 13.65571152 13.632356335651759 
Si 1.465264323 14.972627699999999 15.091157093045947 
Si 0.22507892999999998 14.916622679999998 18.690479367299673 
Si 3.07957563 12.920706719999998 20.21440852865345 
Si 2.5334207999999996 14.31195417 18.403886938495393 
Si 3.83419359 15.635076839999998 22.710631328676918 
Si 0.15530234399999998 14.62591134 22.572001849226574 
Si 1.7651355299999998 15.7304385 23.8309908593833 
Si 1.178807931 12.70150848 21.62365954141242 
Si 2.23940259 14.514666929999999 25.808039396019705 
Si 2.7411508799999997 13.73672169 29.657134932877156 
Si 1.345197249 14.820267329999998 27.942315723458456 
Si 3.09708738 12.80017701 34.0165516624043 
Si 1.63308879 13.227805799999999 31.781803276591628 
Si 0.028291820399999997 15.265375289999998 31.977154174242823 
Si 4.074096419999999 1.358918316 4.065549684474477 
Si 5.42057895 2.7338529599999997 2.6836368168338502 
Si 6.72568488 1.3677491249999998 1.2617410112091783 
Si 8.14407147 2.71541268 5.430672600556922 
Si 5.4307439099999995 -0.000731541546 5.430809857467269 
Si 5.4299457 2.7152171999999997 8.145305459169856 
Si 6.78778236 1.357313751 6.787560102018555 
Si 6.786576899999999 4.07043117 9.501884132583207 
Si 8.14384341 2.7151683299999996 10.858016721037934 
Si 4.07083842 1.355629365 9.502810616728048 
Si 6.80272029 1.373199759 12.227531858251478 
Si 8.10732123 0.0298507734 13.708671177804622 
Si 4.57753887 0.911285406 14.75813751431684 
Si 5.5869813 2.7808496099999997 13.702151474563145 
Si 4.34986983 3.57977637 17.77703462894121 
Si 5.891881229999999 1.75195692 21.020655620031008 
Si 6.17039136 3.2666988599999995 19.188790580314006 
Si 7.649132399999999 3.0568999499999996 17.306483626044532 
Si 5.610373739999999 2.02531941 24.86618247721944 
Si 7.43175864 0.026827838099999998 21.684327095785736 
Si 5.245868699999999 3.10542786 22.80880433380252 
Si 7.848131039999999 1.9480233599999999 25.623531794285913 
Si 5.31202239 3.9214917 29.832720835438398 
Si 6.04223793 1.69156989 29.426337438128883 
Si 7.737440489999999 1.32587568 27.915379054802884 
Si 4.40721063 0.36620897399999996 28.393238988175533 
Si 6.3746028 1.21741686 31.648835644693094 
Si 7.65263475 3.13189911 32.24480514941923 
Si 5.1882021 -0.00279321372 34.29439396317396 
Si 6.786642059999999 4.0732819199999994 4.0708683897504185 
Si 4.06862298 6.78724479 4.06980464869523 
Si 6.7438971 6.78955797 1.2133133418160413 
Si 4.07246742 4.07245113 6.786942445921994 
Si 5.431248899999999 5.43015747 5.430672600556922 
Si 6.787391399999999 6.78757059 6.787457159335795 
Si 4.071571469999999 6.7874728499999994 9.501438047624582 
Si 5.43372498 5.42800719 10.862786398672489 
Si 6.797931029999999 6.773789249999999 12.247399796024188 
Si 5.32673226 8.04664098 13.603601012934089 
Si 4.83294978 5.53809501 16.515231852122376 
Si 6.715552499999999 4.19026041 15.302018021566335 
Si 4.75185816 7.355016449999999 18.097426571918405 
Si 6.90298524 5.164581599999999 20.364636217028107 
Si 6.828588809999999 7.22487564 19.209413431093623 
Si 6.634346849999999 6.256695779999999 24.49332408026215 
Si 5.8893237 5.334372269999999 22.481000517666597 
Si 4.90553802 5.50957122 26.09500928132744 
Si 5.5634422500000005 7.347702239999999 29.664924262539344 
Si 5.89608405 5.55361938 28.19895183157953 
Si 5.25598479 5.9109079499999995 33.86138272525715 
Si 6.21709479 4.9230171899999995 31.891231348365675 
Si 7.41833568 6.75891648 30.947795975096422 
Si 4.132675259999999 7.787287889999999 32.71556203768143 
Si 4.1299711199999996 9.58317894 1.3259257739101362 
Si 5.437601999999999 8.14394115 2.700862559082383 
Si 6.789639419999999 9.50027913 4.069049735688322 
Si 4.07295612 12.21613164 4.077456721447069 
Si 4.0726140299999996 9.50257602 6.787628730473729 
Si 5.42999457 8.144739359999999 8.144928002666402 
Si 5.428414439999999 10.860298649999999 5.430295144053469 
Si 8.14359906 8.14529322 10.866801163300133 
Si 6.786739799999999 9.50223393 9.502741988272875 
Si 4.06150425 9.50348826 12.23326233425846 
Si 5.4305321399999995 10.860510419999999 10.863060912493182 
Si 6.8193198 12.19541076 12.222350409885884 
Si 7.10685459 9.05342814 14.856653661718308 
Si 7.383719429999999 12.111598709999999 16.806388073195688 
Si 5.71334283 10.50879303 16.03435226672209 
Si 4.1839073099999995 11.96541225 14.926380172174522 
Si 6.937438589999999 8.579503169999999 21.234124429847984 
Si 6.12538209 10.6347636 20.383611984883565 
Si 7.97931441 11.26673415 18.95895388393816 
Si 5.714613449999999 11.79239616 22.41789665313462 
Si 4.73227758 10.11485196 23.724239297361017 
Si 6.51411036 8.534721959999999 23.686219133194932 
Si 8.10272745 9.54753642 25.18798130352769 
Si 4.1265502199999995 11.8807857 29.141941119890156 
Si 4.10851719 11.0815983 25.786146918819377 
Si 8.11118196 11.59996239 29.07403326349604 
Si 6.089902469999999 10.862888759999999 29.988919199413143 
Si 6.066884699999999 9.14463585 28.318845742767525 
Si 8.046445499999999 8.438024519999999 27.30777702692485 
Si 5.89206042 9.833686559999999 32.16042646378349 
Si 8.08052418 8.729354879999999 32.08833227162379 
Si 5.0699366999999995 11.164270049999999 34.050591376170324 
Si 5.433513209999999 13.571638829999998 2.694493838442288 
Si 6.73172847 12.254901839999999 1.1545948355696478 
Si 6.7872285 14.93470458 4.070422304791792 
Si 4.072304519999999 14.93261946 6.787525787790969 
Si 5.42984796 13.575238919999999 8.145202516487096 
Si 6.78753801 12.2175 6.787663044701316 
Si 4.07223936 12.21868917 9.501849818355621 
Si 6.787831229999999 14.932016729999999 9.501952761038382 
Si 4.046989859999999 14.935160699999999 12.213874795671964 
Si 5.428544759999999 16.289218079999998 10.863129540948355 
Si 5.8668597899999995 13.92949755 16.585713275585498 
Si 5.320053359999999 13.44203559 13.458657715607787 
Si 6.15889062 15.29308458 14.63817497467367 
Si 6.8574383999999995 14.36936013 20.488201750567885 
Si 4.09794498 16.11054936 18.643400247050693 
Si 6.23307528 15.17310873 18.435593284785522 
Si 4.76415711 13.741364339999999 21.59819838454307 
Si 7.26644772 15.165436139999999 23.78082345865151 
Si 7.513974269999999 12.806220599999998 23.504182155847385 
Si 5.24878461 16.006554 24.56359961835975 
Si 7.33840065 12.958336619999999 27.321296832594015 
Si 5.04173871 12.78416394 27.11479381097714 
Si 7.9670643299999995 15.230156309999998 27.657061549530063 
Si 4.420258919999999 15.03539307 26.555094444810166 
Si 7.249229189999999 15.62323401 32.91372670199473 
Si 4.12277094 15.48773379 30.383258302839717 
Si 12.20441913 1.2807914759999999 1.2985430202959343 
Si 8.139086729999999 0.00035512851599999996 2.6965595549430086 
Si 8.35206219 2.48484402 0.00279695955343899 
Si 9.49988817 1.357688421 4.068775221867629 
Si 10.86774318 2.72570796 2.695372282668508 
Si 8.1448371 0.00047240022599999995 8.144893688438815 
Si 10.859679629999999 2.7152660699999998 8.144619174618121 
Si 12.2225499 1.336558662 12.236384928968853 
Si 9.50101218 1.358100558 9.502158646403903 
Si 9.49635324 4.06547901 12.24372817367241 
Si 9.66308139 1.3455328229999999 15.15824140797798 
Si 10.880791469999998 2.66742234 13.642067262058799 
Si 9.602352269999999 1.69694559 17.534433039903107 
Si 10.2793158 0.1490903154 19.33822904145417 
Si 9.89035947 3.8292577199999998 18.714396383927614 
Si 9.48258819 3.4105721399999998 24.792509830590753 
Si 12.14632899 3.2522170499999996 21.930840506768728 
Si 9.85491243 2.95503858 22.42791640758994 
Si 9.686636729999998 0.6917401889999999 21.624208569053806 
Si 11.57393097 2.73844674 25.775886964770947 
Si 9.58218525 1.88636571 29.220623643746503 
Si 11.60032077 2.18246904 28.091479670777925 
Si 9.30431043 0.628031628 33.0246645997826 
Si 11.739681719999998 3.80099457 31.473421313269785 
Si 9.461720699999999 3.5645777999999995 30.826563809032542 
Si 9.70885629 0.0442897407 30.65811526580934 
Si 10.86472953 8.16987483 2.6997198953037453 
Si 12.17656323 6.781364099999999 1.3137030460437467 
Si 9.516569129999999 4.09735854 1.2640572215712818 
Si 8.12877516 5.42437452 2.691625169016038 
Si 9.50040945 6.78932991 4.065789884067584 
Si 10.2633516 5.99126652 0.036342198437094186 
Si 9.50205474 4.0728583800000004 6.7874914735633824 
Si 8.14486968 5.4301086000000005 8.145442716080202 
Si 10.860787349999999 5.430173759999999 5.429231402998281 
Si 10.85824611 5.430466979999999 10.863438368996635 
Si 12.22225668 6.79850118 12.240022237093045 
Si 9.502478279999998 6.78675609 9.502261589086663 
Si 10.96263243 8.133597 13.83021217191678 
Si 11.96290359 4.2165036 14.979532910706348 
Si 8.26465005 5.432324039999999 13.84736928571014 
Si 10.22863761 6.178145399999999 15.124785036080931 
Si 9.88918659 5.996316419999999 17.514016074489007 
Si 9.10257507 4.54354164 20.85025116583536 
Si 10.3926942 6.4966311900000004 21.127372867825702 
Si 8.49577257 7.90519491 17.650243558008285 
Si 11.88663381 5.950036529999999 18.981601274145397 
Si 11.873829869999998 6.592677029999999 22.93477186327337 
Si 8.8537779 5.63809932 25.362606407716505 
Si 10.79631153 7.022016269999999 24.98916466889024 
Si 8.16111081 6.036487559999999 27.62068846828814 
Si 9.12350772 5.66561313 29.747072523381945 
Si 11.547476009999999 5.93817741 32.385424854069605 
Si 10.89077724 7.01553285 30.389606434943264 
Si 8.57802078 7.899998399999999 34.29820284243609 
Si 9.63773415 9.61440687 1.1845923333259576 
Si 8.143696799999999 10.86691239 2.672522438518512 
Si 12.17310975 12.19912488 1.2140167834815692 
Si 9.50420502 12.21650631 4.070353676336618 
Si 8.144462429999999 8.14486968 5.430809857467269 
Si 9.502608599999999 9.50275521 6.788074815432356 
Si 10.86020091 8.14513032 8.145236830714683 
Si 8.144739359999999 10.86011946 8.145271144942269 
Si 10.860477839999998 10.85850675 5.430432400963816 
Si 9.51836103 9.49438215 12.24499780009312 
Si 10.86425712 10.85492295 10.858908890955188 
Si 8.279392499999998 10.82213118 13.75125513423974 
Si 9.604225620000001 9.50107734 18.96241962092442 
Si 9.28860687 8.62671159 21.11395600483929 
Si 11.95423731 9.826470089999999 18.83305498292249 
Si 10.36270431 9.28940508 24.69454271083067 
Si 10.43372871 10.16070831 22.478392636370003 
Si 8.253654299999999 11.93341869 25.495230897339173 
Si 11.089596689999999 10.51081299 26.562197489920614 
Si 9.57491991 9.877441499999998 28.40216068734808 
Si 10.99188927 10.92956373 33.83300485904294 
Si 12.172816529999999 10.25165538 31.630237333341093 
Si 10.17463626 9.20358936 30.670880158471597 
Si 12.22052994 14.931853829999998 4.072858614950449 
Si 9.49726548 14.845826339999999 1.3878801118179576 
Si 10.86762915 13.55696154 2.7201128407585324 
Si 11.003650649999999 15.97426722 0.014354739454807367 
Si 8.14527693 13.574782799999998 5.430363772508643 
Si 9.502217639999998 14.932928969999999 6.787319902425448 
Si 10.860363809999999 13.57483167 8.145236830714683 
Si 10.859907689999998 16.28889228 5.430295144053469 
Si 12.208866299999999 12.204044459999999 12.228218142803213 
Si 9.50288553 12.21720678 9.503496901279785 
Si 8.14490226 13.57589052 10.86295796981042 
Si 9.49661388 14.928954209999999 12.24980179195526 
Si 10.862123129999999 16.2901629 10.863198169403526 
Si 11.25710676 13.32844542 16.846467091016976 
Si 9.403174439999999 12.25731276 15.477432352989643 
Si 10.679789159999999 13.358647079999999 13.691857206287128 
Si 8.864822519999999 13.04928369 20.185069864066808 
Si 10.82463984 14.107433219999999 19.2944784012811 
Si 11.04442452 13.52967579 23.492446690012727 
Si 10.666822319999998 15.89470686 23.52075592777177 
Si 9.45401553 12.30510762 22.30702738380193 
Si 10.55578968 12.61078947 25.644017388155188 
Si 8.933224229999999 16.196593139999997 25.052062648056697 
Si 11.41727004 13.26747195 29.434710109660042 
Si 8.1410904 14.741244539999999 29.939438083233092 
Si 11.39408937 14.08016376 27.26968823430359 
Si 10.11439584 16.01546463 27.09626412808031 
Si 8.224185689999999 13.69166355 34.10353822933663 
Si 11.92941135 14.409889649999998 32.7944504469033 
Si 11.82870657 15.343306649999999 30.499171763627658 
Si 9.396495539999998 12.848118479999998 30.482597991703273 
Si 10.039347809999999 12.848998139999999 32.74335656202667 
Si 12.22079058 4.07008908 4.070285047881445 
Si 13.5736425 -0.011634513479999999 2.7116303636990953 
Si 14.09935338 1.9483817399999999 0.023194393309194483 
Si 14.93346654 1.35951453 4.070319362109031 
Si 14.991344909999999 3.9069284399999997 1.2365818195425957 
Si 13.57520634 3.41857053e-05 8.144756431528469 
Si 13.57562988 2.7146470499999995 5.430775543239682 
Si 12.218102729999998 1.357115013 6.787216959742688 
Si 14.933205899999999 1.357523892 9.50198707526597 
Si 13.5764118 2.7174326399999997 10.862271685258685 
Si 16.102616129999998 2.4849743399999995 13.631944564920717 
Si 15.208881569999999 3.4850174399999996 17.068823285778915 
Si 13.18216122 2.4941619 16.54213420655036 
Si 14.77667529 1.165495743 15.246428972875849 
Si 13.554843839999998 0.057346990199999996 20.652395329570336 
Si 16.2100161 2.03600565 20.580198194727878 
Si 12.33060147 3.62454129 19.61346346092724 
Si 12.38111676 1.257987105 18.94368405266207 
Si 14.767389989999998 3.58534755 19.313076712633105 
Si 13.477564079999999 1.469384064 22.57038908053 
Si 15.61912893 2.49474834 22.771024369229547 
Si 12.402261179999998 0.8519067269999999 24.531035416379954 
Si 15.787958489999998 1.330969563 26.22101112502587 
Si 14.775925949999998 3.7154232 29.078288227716794 
Si 13.02558174 0.42137017199999993 28.94696767874242 
Si 15.12161604 3.58248051 26.705493704322755 
Si 15.95025576 0.243188523 34.14962223698559 
Si 13.82460624 2.87002107 32.19467206291503 
Si 14.53323753 1.7033964299999997 30.222873603099394 
Si 13.579001909999999 5.4147797099999995 2.6858329273994004 
Si 14.936186969999998 6.788466539999999 4.071726245440087 
Si 14.933303639999998 4.07179953 6.787765987384075 
Si 13.574815379999999 5.430206339999999 8.144859374211228 
Si 12.21735339 6.78802671 6.787422845108209 
Si 14.931951569999999 6.7869027 9.501678247217688 
Si 16.292606399999997 5.432568389999999 10.860006946237963 
Si 12.21644115 4.07085471 9.502810616728048 
Si 14.93331993 4.05244701 12.229762283044616 
Si 13.53444876 5.34766491 13.601885301554752 
Si 15.06663729 6.52132683 14.93622835549191 
Si 14.878829879999998 7.713298709999999 20.244399163564246 
Si 15.80221224 5.51962215 20.220962546122518 
Si 13.27089285 7.80989841 18.442970843716665 
Si 15.599418029999999 4.8837908699999995 22.519329509880958 
Si 13.33033506 4.81436289 23.216354414849985 
Si 13.482532529999999 8.1340857 22.175947034420663 
Si 13.21923726 4.4637043499999995 25.583658661830146 
Si 14.599016549999998 7.3479303 29.705174851498565 
Si 12.550337279999999 6.431422319999999 28.86965772398954 
Si 12.49130232 4.101235559999999 29.25850655100224 
Si 12.58788573 6.61844781 26.515427197719916 
Si 15.990850439999999 8.106685919999999 27.935246992575593 
Si 15.75972792 5.424016139999999 30.412734224336713 
Si 14.945993549999999 4.97885931 32.62692838782493 
Si 13.5252612 6.795683009999999 33.33061025294578 
Si 14.817514319999999 9.342412739999999 1.3207100113169548 
Si 13.567061339999999 10.866651749999999 2.693073229420198 
Si 14.933564279999999 12.21805386 4.069941905605577 
Si 16.27491546 8.1311535 2.699826269409264 
Si 12.21852627 9.50124024 4.073236071453902 
Si 13.573854269999998 8.14490226 5.4309471143776165 
Si 14.93257059 9.502087320000001 6.787045388604755 
Si 13.574733929999999 10.859907689999998 8.144207403887082 
Si 16.289983709999998 10.85922351 5.4293686599086275 
Si 12.21679953 9.503602289999998 9.501232162259061 
Si 13.57193205 8.14428324 10.86055597387935 
Si 14.94464148 9.501223949999998 12.23566433018953 
Si 14.9304366 12.21448635 9.502810616728048 
Si 12.382631729999998 11.17078605 16.956238305066886 
Si 14.705194769999999 11.668347809999998 17.062200639854677 
Si 12.550825979999999 9.58474278 15.164761111219459 
Si 13.66553439 10.94448537 13.608370690568641 
Si 14.220974519999999 8.19463563 16.30979257156069 
Si 12.42778761 10.05914016 21.21439374898562 
Si 15.812507519999999 11.60121672 20.38793557755949 
Si 16.02569475 9.482979149999998 17.218570574967355 
Si 15.408890189999997 10.54673244 23.814005316727872 
Si 14.917697819999999 8.29064889 24.10728901991156 
Si 14.168651039999999 11.360646 22.012542682652708 
Si 14.729776379999999 11.89971468 25.611967899589192 
Si 12.96688887 11.464901999999999 29.44521026330158 
Si 14.19710967 8.39316186 26.372130983317778 
Si 13.33893618 10.57001085 27.124504737384182 
Si 13.97527245 8.52432894 31.781528762770936 
Si 15.853802669999999 9.71410167 32.37248839026941 
Si 14.960540519999999 14.930974169999999 1.2909801645358214 
Si 16.3015659 13.56588846 2.688217766216677 
Si 13.572844289999999 13.574799089999999 5.430638286329336 
Si 12.217174199999999 12.21771177 6.787697358928902 
Si 14.93214705 14.932945259999999 6.787971872749596 
Si 12.217972409999998 14.93261946 9.503016502093569 
Si 13.57520634 13.57535295 10.862614827534554 
Si 14.933205899999999 14.9420025 12.225507318823862 
Si 12.607303409999998 14.17231629 14.838467121097347 
Si 14.55195474 12.744351179999999 14.920615381939953 
Si 13.449691889999999 16.09769655 13.679401141673148 
Si 14.87536011 13.174847009999999 18.91794838197203 
Si 15.88232646 16.0205634 20.666052392149847 
Si 13.01540049 14.085995579999999 20.3078118561445 
Si 13.188123359999999 13.384303829999999 22.57591367117146 
Si 14.74829811 14.06564937 24.19983449171294 
Si 14.19175026 15.990035939999999 25.50092705911857 
Si 13.624923419999998 14.938255799999999 27.451004612871813 
Si 15.57905553 13.734343349999998 28.16309346375141 
Si 13.729342319999999 13.48546473 34.24113828195937 
Si 14.317248419999999 14.02614612 31.96922758767029 
Si 14.84300817 12.664497599999999 30.118146580504728 
