&CONTROL
  dt          = 30.D0,
  prefix = 'x2.33_y1.33_z3.15_struc29-scf',
  pseudo_dir = './',
  outdir='./',
  wf_collect= .true.,
  verbosity= 'high',
/

&SYSTEM
ibrav= 6, celldm(1) =30.783621515, celldm(3) =2.101198140089011, nat=  432, ntyp= 1,
  ecutwfc     = 12.D0, nbnd= 1728,
  degauss     = 0.05D0,
  occupations = "smearing",
  smearing    = "methfessel-paxton",
/
&ELECTRONS
  electron_maxstep=200,
  conv_thr    = 1.D-8,
  mixing_beta = 0.3D0,
  scf_must_converge=.false.,
/
ATOMIC_SPECIES
Si  28.08  Si.pbe-hgh.UPF
K_POINTS {automatic}
1 1 1 0 0 0
ATOMIC_POSITIONS (angstrom)
Si 0.0234631386 2.7084568499999997 2.707256687718861 
Si 2.7117963 -0.00525427434 2.6750510754130024 
Si 1.3216484249999998 1.3628132549999998 1.128425234490563 
Si -0.000420993873 0.00029952260099999997 5.430457018983337 
Si 0.000616433148 2.7147122099999996 8.144744244238199 
Si 2.7147122099999996 1.2310255259999999e-05 8.144983843862114 
Si 2.71401174 2.71590138 5.430251647877125 
Si 1.357289316 1.35791811 6.787651974387321 
Si -0.00305729091 0.000982940229 10.860742895378165 
Si 2.7147936599999998 2.7173511899999996 10.857285815090258 
Si 1.362295233 1.371544695 12.23765347697853 
Si 3.23675784 0.8692783829999999 16.630541438859627 
Si 1.2917334689999997 2.1204041399999998 17.072226231286876 
Si 1.110696183 4.0534406999999995 15.445002499731423 
Si 2.8684083599999997 0.714070521 20.21614981073787 
Si 1.4003226089999998 2.4091280999999998 19.51600548114244 
Si 0.653916438 3.44232135 24.69454060983869 
Si 0.6810164819999999 1.275847461 23.651255390280205 
Si 2.86379829 0.990995634 22.635455670436468 
Si 1.68779061 1.6907553899999999 27.508843563818942 
Si 1.78878861 1.5124857749999998 29.89518736097046 
Si 2.02271301 3.86635005 26.66045552405593 
Si 2.72279205 2.81193093 33.84717778633146 
Si 0.762753186 3.61282878 30.359805260258092 
Si 3.7671765299999995 1.3770246509999997 31.2699415459556 
Si 4.03646652 4.14472986 1.2156326518918457 
Si 1.3595324489999998 4.06976328 4.073296292097055 
Si 2.70347211 5.43149325 2.701913616105571 
Si 1.31162193 6.756668459999999 1.2906102199181864 
Si 2.86146882 8.1037863 0.014865958665765842 
Si 0.0010345192559999999 5.4300760200000004 5.430354333430231 
Si 2.71480995 5.4297828 8.145326129039136 
Si 1.357745436 6.7874728499999994 6.78713854662179 
Si 4.05137187 4.0646808 12.236866221071383 
Si 1.355479497 4.07028456 9.501904971124482 
Si 1.360185678 6.775287929999999 12.257677159834229 
Si 1.076812983 7.93477755 16.812397553410616 
Si 2.73746934 5.27460426 13.909613881170564 
Si 0.027692022599999998 5.64916023 17.08711563648727 
Si 1.74003264 7.77451653 19.71887790556249 
Si 2.7058178699999997 4.36081671 19.785657743599188 
Si 0.811618299 5.691856319999999 19.49423614388394 
Si 0.888774255 5.3432829 23.322285106645804 
Si 3.02902776 6.248241269999999 23.03538167126722 
Si 1.40001147 5.1634413 28.64505920893849 
Si 3.21175269 6.75231903 29.198500111662938 
Si 1.4986539359999997 4.423191119999999 32.52256837977982 
Si 3.4177560299999996 5.74763328 31.483322125310178 
Si 1.357683534 9.50106105 4.069770754773744 
Si 2.7250237799999995 10.86925815 2.7143009166619434 
Si -0.000176283864 8.145179189999999 8.144949615344412 
Si 2.7161783099999997 8.14620546 5.429772448629296 
Si -0.000717141186 10.860868799999999 5.430251647877125 
Si 2.7152009099999996 10.8600543 8.14491538682671 
Si 1.356865776 9.50024655 9.502076113712992 
Si 2.71639008 8.1484209 10.8596475828117 
Si 1.0758991139999998 9.171465479999998 14.831901290652302 
Si 2.64047868 10.70694459 13.777594488393758 
Si 4.04197254 10.61387982 18.063655246526757 
Si 2.94630714 11.32409124 20.101176219776686 
Si 0.66598407 11.099158919999999 19.427148249187915 
Si 0.007996467779999999 8.942232599999999 18.744528920655934 
Si 3.2296553999999995 8.38296432 17.979179264838095 
Si 2.48262858 8.15856957 21.834200299549178 
Si 1.4014221839999998 10.033760339999999 22.964870924800994 
Si 2.4348663 11.814452819999998 24.1854598660561 
Si 3.7868874299999997 10.02742353 21.916074913892484 
Si 0.9153725669999999 8.97111477 24.999242874422336 
Si 2.1172438799999997 10.784810789999998 29.535342954368808 
Si 3.07981998 8.865311219999999 25.99823639207437 
Si 2.24800371 8.7744456 28.27703418660605 
Si 1.54647486 9.257378939999999 32.61005647102626 
Si 0.24381242999999997 10.869600239999999 34.07520817126251 
Si 3.4395846299999997 10.01983239 31.309578169454575 
Si 0.00716289219 13.572013499999999 2.685374396351941 
Si 1.523963709 12.26623968 1.256573381915268 
Si 1.355143923 14.935176989999999 4.069599612185233 
Si -4.3779212099999994e-05 13.57535295 8.144983843862114 
Si 2.71544526 13.573218959999998 5.430114733806317 
Si 1.3576183739999999 12.217597739999999 6.7875835173519175 
Si 1.3573919429999999 14.932228499999999 9.502418398890013 
Si 2.71591767 13.575776489999999 10.860195239094931 
Si 1.366999785 12.202350299999999 12.247408604523613 
Si 2.67801084 16.20281592 13.565651506782665 
Si 0.018044433000000002 13.570400789999999 13.656870506458628 
Si 1.184263452 15.12075267 14.989352472081732 
Si 3.0692314799999996 14.83336449 16.913679737290984 
Si 3.1645605599999995 13.55357322 20.782118350941268 
Si 2.21799753 14.971291919999999 19.200452776447243 
Si 2.29190526 13.793785559999998 22.930128979333414 
Si 3.3985827 15.560778149999999 24.16612075355444 
Si 0.660552984 12.330438569999998 25.75247563497365 
Si 2.3255603999999996 15.938282609999998 26.306224594357413 
Si 1.4510480399999999 13.967583569999999 27.23751410399479 
Si 2.8381089599999996 12.79211346 28.61712873849362 
Si 0.11909912219999999 12.67397838 32.33924043896764 
Si 2.9829270599999997 13.350893039999999 33.90522935235413 
Si 0.725056497 15.78683448 30.581297998308056 
Si 2.00098215 14.1675759 31.902553010124887 
Si 3.89293533 13.95570816 30.343888999526637 
Si 8.1619416 -0.0036811816199999996 2.709693758179247 
Si 4.07448738 1.3578350309999998 4.0673747585346005 
Si 5.42149119 2.7161294399999996 2.681003414641389 
Si 6.845709599999999 1.2973356 1.2679030212746465 
Si 5.429359259999999 -0.000954352908 5.4301831908417215 
Si 5.430141180000001 2.7150543000000003 8.144812701273604 
Si 6.78727737 1.357696566 6.7875492888342155 
Si 8.147557529999998 2.71534752 10.857799242855789 
Si 4.070561489999999 1.357064514 9.501596914465162 
Si 6.80619006 1.352894274 12.221908358835586 
Si 7.57346535 3.64003308 16.86973032056155 
Si 4.55489577 0.658622619 14.712957191637678 
Si 5.3880804 2.6300205 13.568150188574915 
Si 6.36631119 0.029855660399999998 18.042604708139994 
Si 5.82300711 3.24718344 18.36596151487126 
Si 7.193810609999999 3.3055179299999997 20.289672666761877 
Si 4.49232588 1.321433397 18.503970898245928 
Si 4.50943038 2.67778278 22.802217008680856 
Si 6.434810639999999 1.6708001399999999 21.802675834745592 
Si 5.3639549099999995 3.28049649 24.919935398906688 
Si 7.31153844 0.306880794 25.302849826439523 
Si 5.78845602 1.616479506 26.504749997029304 
Si 7.03703565 2.733462 28.124203855066394 
Si 8.065032389999999 2.5953227999999995 33.9131361399433 
Si 4.62448665 3.5797112099999997 31.51402510568892 
Si 6.78628368 4.0728583800000004 4.069633840702936 
Si 4.07344482 6.78571353 4.071105666964124 
Si 5.5873071 5.56210647 0.1503340457436427 
Si 6.995072609999999 6.91924266 1.402256798958733 
Si 8.164776060000001 5.41302039 2.713499969347715 
Si 4.0723370999999995 4.07267919 6.787378146245705 
Si 5.43009231 5.4296199 5.4302174193594235 
Si 6.787375109999999 6.78770091 6.787412374763408 
Si 6.78730995 4.0694374799999995 9.501768057053674 
Si 4.070528909999999 6.786642059999999 9.502110342230695 
Si 5.430222629999999 5.43203082 10.862762377922584 
Si 6.79033989 6.797751839999999 12.225057382464174 
Si 5.30892729 8.013132449999999 13.609737837582907 
Si 6.40014552 4.32540225 14.905732203335624 
Si 4.69663506 6.157701449999999 15.111411366207243 
Si 8.07557202 5.36861385 13.58091742567778 
Si 5.14239462 7.03669356 17.677934080542357 
Si 6.545191679999999 5.370047369999999 21.242902656246265 
Si 7.0849445399999995 6.99235218 19.58836456756457 
Si 4.17556683 4.85559288 17.92865797270987 
Si 7.55525313 4.219891919999999 24.727228844244145 
Si 4.19933394 4.741709489999999 21.637489008315498 
Si 7.598128409999999 6.08727978 23.32040253817219 
Si 6.251987969999999 7.81302609 24.274282869492918 
Si 4.12708779 6.94395459 24.995203909333497 
Si 5.02795737 5.6604166199999995 28.12375888433627 
Si 5.95195875 4.12268949 29.656477678516367 
Si 4.11899166 4.8543059699999995 26.136108861378226 
Si 7.176119669999999 6.47776737 27.626384293607778 
Si 6.608771549999999 4.140070919999999 32.764906285110335 
Si 7.95574278 5.01968205 31.044615213923006 
Si 4.65475347 7.211240909999999 33.033155178341296 
Si 8.183656169999999 10.83504915 2.7061956036700976 
Si 4.15779444 9.57794985 1.3518381923836134 
Si 5.44095774 8.14855122 2.7109054477059 
Si 6.78586014 9.499464629999999 4.071858694353569 
Si 4.072923540000001 12.217728059999999 4.077437942739003 
Si 6.77404989 12.12324606 1.4293110193504333 
Si 4.073053859999999 9.50270634 6.7875492888342155 
Si 5.4297990899999995 8.1453258 8.145120757932922 
Si 5.4302877899999995 10.86241635 5.430799304160358 
Si 6.787619459999999 9.50138685 9.502247256301503 
Si 4.05031302 9.492948629999999 12.229746689389355 
Si 5.43224259 10.85963076 10.864268432701476 
Si 8.02064214 10.833338699999999 13.66043027229964 
Si 6.794216909999999 8.96078691 16.949448538289623 
Si 6.162637319999999 9.85766544 14.82485021600568 
Si 4.475139929999999 11.620129409999999 15.145331827249974 
Si 7.168724009999999 9.210284549999999 20.540293873376285 
Si 6.25856913 10.594071179999998 18.83499489294245 
Si 6.0454959299999995 9.583358129999999 22.65664312289404 
Si 6.36209208 11.344584059999999 24.194838479906462 
Si 4.26356541 10.89765162 25.341870336619856 
Si 7.34942898 8.42873922 26.350447839228465 
Si 6.2897319 9.61098597 28.122903171393716 
Si 6.40762263 11.89341045 28.467926629830384 
Si 5.748920189999999 10.645189199999999 34.06066105123914 
Si 7.64548344 9.20130876 30.14224880174386 
Si 6.55799562 8.798391899999999 32.490119744998275 
Si 5.09163498 8.7278562 29.99366280639926 
Si 4.30419267 11.773190249999999 32.63476946080714 
Si 7.54443657 13.890466709999998 0.15688675317252315 
Si 4.115831399999999 14.84131401 1.2296492298908352 
Si 5.42255004 13.56049647 2.7157590515160503 
Si 6.78827106 14.931918989999998 4.070558010680891 
Si 5.996039489999999 15.74003331 0.052942275185291786 
Si 4.07238597 14.93257059 6.787857345493533 
Si 5.43009231 13.57486425 8.144470416096583 
Si 6.786951569999999 12.217548869999998 6.78813117363515 
Si 8.14462533 13.57639551 10.86118786610829 
Si 4.07122938 12.218037569999998 9.5021787992661 
Si 6.787391399999999 14.9305995 9.502897598137842 
Si 4.06600029 14.90585499 12.216671395627172 
Si 6.784377749999999 12.2236902 12.22663189427847 
Si 5.431411799999999 16.28978823 10.86317312013501 
Si 5.278139189999999 13.38935373 13.632979001102598 
Si 6.18992307 15.103289789999998 14.881498412802573 
Si 8.03238723 16.160103539999998 13.651599314732513 
Si 5.668838549999999 14.26634217 17.20030934452795 
Si 5.41629468 14.034665789999998 20.990604252264458 
Si 6.431699249999999 16.093558889999997 20.37890641241112 
Si 6.47160975 12.89739573 19.24607939054407 
Si 5.69174229 15.026205509999999 24.593087283369815 
Si 6.331515749999999 13.426234289999998 23.045958283237155 
Si 4.51627218 16.199101799999998 27.520275888731426 
Si 4.92184431 16.05157956 29.862841411742025 
Si 5.6076695999999995 14.245165169999998 26.76762501298105 
Si 4.50609093 12.2536638 27.18291961826002 
Si 7.884278549999999 13.5057132 27.225979093529197 
Si 7.20122256 16.15710618 30.595365919083598 
Si 5.579553059999999 12.33752472 30.674159966833717 
Si 7.430732369999999 12.58726671 32.2885137757332 
Si 12.162504959999998 1.3085170560000001 1.2744167081933464 
Si 9.5058666 1.353555648 4.073501663203268 
Si 10.850801579999999 2.70547578 2.702745369085731 
Si 9.43433721 3.9364296299999997 1.2635594223782562 
Si 8.14527693 -0.000215127369 8.144607330167391 
Si 8.146563839999999 2.71531494 5.430080505288615 
Si 10.858588199999998 -0.000388990539 5.431073132301974 
Si 10.86000543 2.7150705900000003 8.14491538682671 
Si 9.49987188 1.3580712359999998 9.502041885195291 
Si 10.862693279999998 -0.001295167401 10.866219458210493 
Si 9.61509105 0.747916254 15.09785687319723 
Si 10.73286198 2.55143754 13.716222756153982 
Si 8.44563195 1.3624499879999998 17.087902892394418 
Si 9.47664234 2.92149747 19.801813603954557 
Si 9.96245901 0.801189441 18.821508856967846 
Si 8.19154053 1.099032543 23.31605551642403 
Si 9.334870469999998 3.0067430399999995 23.823561748392326 
Si 10.27029114 3.77343189 21.811746391936634 
Si 10.98784935 3.1653913499999997 25.465366828488854 
Si 10.240464150000001 2.4551147700000002 29.44696492166212 
Si 12.13965009 1.0432083419999998 29.356601634928705 
Si 8.44268346 0.9957767489999999 28.877539301170813 
Si 10.41201414 3.9223713599999996 27.590307435949818 
Si 8.80591788 1.4850566729999999 31.813421950028747 
Si 12.219748019999999 4.07132712 4.0680935574063435 
Si 12.16941192 6.76606779 1.3434590512501514 
Si 9.504335339999999 6.786609479999999 4.073741262827181 
Si 11.00058813 5.12480142 0.008173667341696432 
Si 9.50262489 4.07274435 6.787480831798812 
Si 8.14493484 5.42966877 8.144573101649689 
Si 10.8595656 5.4312326099999995 5.430628161571847 
Si 12.21497505 6.79972293 12.19408057394382 
Si 9.501354269999998 6.78812445 9.50173382853597 
Si 9.497069999999999 4.05233298 12.230533945296504 
Si 10.86236748 5.428202669999999 10.862625463851778 
Si 10.86992604 8.108852489999999 13.511878505472746 
Si 11.493702719999998 4.53935511 15.007664729052328 
Si 9.016498709999999 7.954358129999999 16.51258996685836 
Si 9.80529309 6.44732136 14.82368644640381 
Si 10.43949537 7.5832719299999995 20.16716880190624 
Si 9.200201039999998 6.606360629999999 18.434452778793062 
Si 10.25867637 4.5030447 18.17209119060685 
Si 9.985769999999999 6.723974429999999 23.938364196765 
Si 9.698284079999999 6.062486399999999 21.775395706137058 
Si 11.631744179999998 5.2725843 24.71572806229626 
Si 11.85532443 5.717040659999999 28.192455519364284 
Si 8.17973028 6.93916533 29.660653557676017 
Si 10.44459414 7.26172362 29.22714938097955 
Si 8.18895042 4.4722566 26.9822378189729 
Si 9.590721209999998 6.24633534 32.72691263046106 
Si 11.23654878 7.28690796 31.440057278934784 
Si 8.27804043 7.95797451 33.90420249682307 
Si 9.55713123 9.49319298 1.0420598386247504 
Si 10.84045743 8.15055489 2.6932606468304927 
Si 9.50752818 12.216685499999999 4.074015090968798 
Si 8.14441356 8.144201789999999 5.430628161571847 
Si 9.502869239999999 9.502103609999999 6.787412374763408 
Si 10.860445259999999 8.14534209 8.144710015720497 
Si 8.14478823 10.86018462 8.144812701273604 
Si 10.85853933 10.860608159999998 5.430046276770913 
Si 8.14368051 8.14521177 10.860366381683443 
Si 9.48532491 9.510150869999999 12.229507089765441 
Si 10.86145524 10.861732169999998 10.857456957678767 
Si 10.376518229999999 9.903293729999998 16.09681616233156 
Si 9.42044184 11.97663606 15.1373908111431 
Si 9.528232769999999 9.74427075 20.489841038283465 
Si 10.72382103 10.48614993 18.404365911732963 
Si 10.5098193 10.577650859999999 22.556079737885415 
Si 10.51509726 8.98017201 24.323606163501573 
Si 8.3487879 11.753446769999998 25.59533251020354 
Si 9.379456199999998 9.69119793 26.299241976746195 
Si 10.658481839999999 9.4486887 28.43181554365472 
Si 11.4407928 10.29345552 33.91556636470015 
Si 11.28546765 11.162592179999999 31.60322462282046 
Si 9.459782189999999 10.779972659999999 29.99116412460701 
Si 9.43941969 14.82008814 1.321877970839009 
Si 10.856258729999999 13.54542822 2.7032519511477213 
Si 8.144674199999999 13.57393572 5.430491247501039 
Si 9.50257602 14.93268462 6.78796003104664 
Si 10.8598914 13.57514118 8.145120757932922 
Si 12.20288787 12.200819039999999 12.225228525052685 
Si 9.50120766 12.21588729 9.501904971124482 
Si 9.49355136 14.9222916 12.235291709257089 
Si 10.71851049 13.37697333 13.64204955829364 
Si 11.9027772 14.1149592 17.31819235949381 
Si 8.70992091 15.71077647 20.13711616336384 
Si 8.630018459999999 13.40179929 20.007116253131453 
Si 10.53687699 12.738861449999998 18.851835323651862 
Si 12.08315637 15.97956147 18.7422698384876 
Si 8.54537562 13.672408769999999 22.367241005723205 
Si 11.81200932 15.39175311 22.682725253382998 
Si 9.77663898 12.4203105 23.8414974916682 
Si 11.53864683 13.871863529999999 24.501936740729253 
Si 9.530415629999998 15.80447655 22.29097986828304 
Si 11.08663191 15.063916859999999 26.544147020904365 
Si 9.171090809999999 12.963793769999999 29.15893194519937 
Si 8.82199611 15.77290653 26.954410034081135 
Si 11.32037712 13.64849505 28.414393228144377 
Si 12.21850998 13.36309425 31.95358773001864 
Si 11.777865479999999 15.14961855 30.219365652126577 
Si 8.48086722 14.236205669999999 31.02421501737258 
Si 10.12180779 15.754954949999998 31.94605745612419 
Si 11.157363089999999 15.834091769999999 34.20835710512348 
Si 15.59936916 0.555176232 0.009544827532322853 
Si 13.918534379999999 2.3957703 0.18919539331666516 
Si 14.93110449 1.3569097589999999 4.069941897362254 
Si 13.57519005 -7.6315392e-05 8.145154986450624 
Si 13.574847959999998 2.71386513 5.430046276770913 
Si 12.217614029999998 1.357051482 6.78744660328111 
Si 14.932912679999998 1.3570172729999999 9.502007656677588 
Si 13.5762489 2.71371852 10.864576489360793 
Si 12.232633409999998 1.349703063 12.254151622510918 
Si 14.913299519999999 4.0728909600000005 12.261100011604434 
Si 16.2592119 2.6542763099999998 13.789950983284198 
Si 15.68635776 0.5853958109999999 15.10483949080845 
Si 15.63851403 0.6487964909999999 17.480195933777612 
Si 15.63789501 2.90463732 20.671149496551223 
Si 13.490824139999999 3.0614937299999996 19.7224034428858 
Si 13.46194197 1.443924423 18.024087080063186 
Si 15.25503114 1.031477913 22.078352316317904 
Si 12.46970178 2.95717257 21.874692635990705 
Si 13.085496359999999 1.052027748 23.118454283730095 
Si 12.95775018 1.9469319299999999 25.317739231639912 
Si 14.76382248 3.5194707899999997 25.575103456241628 
Si 14.87827602 3.26127429 29.58035345514701 
Si 12.71087523 0.40906470599999994 27.0907764486061 
Si 15.007260239999999 0.0356772177 27.154270348943406 
Si 15.61675059 2.27234097 27.522090000169637 
Si 13.71067398 1.80276543 30.98266159688229 
Si 12.594027059999998 3.33150048 32.63346877713446 
Si 15.02169318 4.094035379999999 1.3410904378251698 
Si 13.58247168 5.43066246 2.701122937346654 
Si 14.93126739 6.788499119999999 4.070934524375613 
Si 14.93257059 4.07259774 6.787172775139493 
Si 13.574978279999998 5.4301086000000005 8.144744244238199 
Si 12.21769548 6.7874728499999994 6.787686202905024 
Si 13.57339815 8.14723173 10.85933952615238 
Si 16.2966789 5.428300409999999 10.863378491241223 
Si 12.21740226 4.07210904 9.502863369620139 
Si 14.93252172 6.78797784 9.502794912584735 
Si 13.37658237 5.48290449 13.689353369757875 
Si 15.934063499999999 7.8509166299999995 13.584477191518793 
Si 14.33073654 7.40167101 16.201452740946724 
Si 13.511154059999999 5.183331389999999 16.177390093002185 
Si 12.694340879999999 6.86382408 20.09234526220956 
Si 12.57337134 5.03628156 18.52834160284979 
Si 13.38643782 4.48401798 23.400120755900264 
Si 13.86394659 6.27986016 22.042583515319258 
Si 16.03397007 7.0133337000000004 24.523295335775334 
Si 15.853721219999999 5.1580656 21.400011552498675 
Si 14.8447512 5.82147585 26.171330006093637 
Si 13.845522599999999 5.39537832 29.518365609588596 
Si 12.69899982 6.67347543 26.23472122087783 
Si 15.65095959 6.34627449 28.281312751318808 
Si 14.666212799999998 6.9706864799999995 33.070806547813554 
Si 16.26326811 5.46348681 34.08879689279022 
Si 16.02730746 8.11377207 31.565539024830503 
Si 13.11095763 5.702102729999999 31.747052854204473 
Si 12.21513795 12.1648833 1.2410404805820776 
Si 16.28693748 8.14786704 2.6969025611139914 
Si 13.27343409 8.51567895 0.0617718636117126 
Si 12.217532579999999 9.501842969999998 4.069839211809148 
Si 14.980169969999999 9.594256139999999 1.2958779887925318 
Si 13.58791254 10.873021139999999 2.705675330201027 
Si 13.57553214 8.1445113 5.430320104912529 
Si 14.93232624 9.50226651 6.7875150603165135 
Si 13.574668769999999 10.859549309999998 8.144641558685093 
Si 14.92758585 9.49790079 12.22782989239804 
Si 16.2927693 10.86081993 10.863275805688117 
Si 12.21448635 9.499464629999999 9.501939199642184 
Si 13.508156699999999 10.79943921 13.634245456257574 
Si 12.5558433 9.39773358 15.31175088031734 
Si 13.10646159 10.62883404 18.505203124883202 
Si 14.096258279999999 8.70501762 19.55156891103487 
Si 16.14920553 11.25046044 21.62164120461945 
Si 12.68841132 11.41160112 22.140750904088737 
Si 14.26805262 8.15443191 23.392453567935007 
Si 14.298954749999998 9.79157691 21.681164596903315 
Si 12.71230875 8.77156227 25.142454992487714 
Si 12.63866166 10.271284829999999 29.566970104725506 
Si 13.599462149999999 10.849123709999999 26.013536539487184 
Si 15.874328069999999 10.278892260000001 26.440948040032684 
Si 13.11085989 12.06771345 28.12057563218998 
Si 16.11903645 8.6827329 28.286994685257348 
Si 14.854231979999998 9.506811419999998 30.136019211522086 
Si 16.26450615 11.345691780000001 30.432267032233327 
Si 12.218770619999999 14.93501409 4.073227835061651 
Si 14.93037144 12.21624567 4.071447952141145 
Si 14.797005209999998 14.89893174 1.2833640427206623 
Si 13.563021419999998 16.28978823 2.711442835433822 
Si 13.575369239999999 13.575499559999999 5.42932747789917 
Si 12.217614029999998 12.21735339 6.787309689210301 
Si 14.932114469999998 14.933108159999998 6.787720431422726 
Si 12.21624567 14.93081127 9.50169960001827 
Si 14.929768709999998 12.21622938 9.502007656677588 
Si 13.57633035 13.576069709999999 10.863823461971348 
Si 14.939233199999999 14.9279931 12.231629257862968 
Si 12.57544017 14.287437719999998 14.855073997136591 
Si 14.37010947 12.62199699 14.843436301117894 
Si 13.64233743 16.15505364 13.7916281806516 
Si 13.865412689999998 12.4822125 17.185043425632834 
Si 16.102990799999997 12.74834223 17.946730630056553 
Si 15.231850469999998 15.181856459999999 20.94857163252634 
Si 12.91463055 14.7597174 20.650304329270675 
Si 12.604159439999998 12.500945999999999 20.014851898132115 
Si 16.20221319 14.91795846 18.79706969532858 
Si 16.270484579999998 13.546649969999999 22.35728050707191 
Si 13.392009 12.46789359 24.26709488077549 
Si 15.43938507 13.68974133 24.507995188362514 
Si 16.27041942 15.85704438 25.219092643622606 
Si 14.902613279999999 13.00777677 29.37131989754059 
Si 16.09215795 14.82880329 28.601075563691357 
Si 12.85375482 14.078811689999998 34.18429445717894 
Si 14.48682732 13.864109489999999 31.52155537958337 
Si 15.137287019999999 16.23687831 31.949274936788186 
