&CONTROL
  dt          = 30.D0,
  prefix = 'x2.33_y.66_z3.17_struc19-scf',
  pseudo_dir = './',
  outdir='./',
  wf_collect= .true.,
  verbosity= 'high',
/

&SYSTEM
ibrav= 6, celldm(1) =30.783621515, celldm(3) =2.114852743146671, nat=  432, ntyp= 1,
  ecutwfc     = 12.D0, nbnd= 1728,
  degauss     = 0.05D0,
  occupations = "smearing",
  smearing    = "methfessel-paxton",
/
&ELECTRONS
  electron_maxstep=200,
  conv_thr    = 1.D-8,
  mixing_beta = 0.3D0,
  scf_must_converge=.false.,
/
ATOMIC_SPECIES
Si  28.08  Si.pbe-hgh.UPF
K_POINTS {automatic}
1 1 1 0 0 0
ATOMIC_POSITIONS (angstrom)
Si 2.7082613700000002 -0.00273742047 2.7110487016688234 
Si 3.02383125 2.4940641599999998 0.07571492247823407 
Si 1.3875154109999999 1.364196276 1.3478727945760323 
Si 1.3601661299999999 4.07043117 4.075030761019364 
Si 4.07069181 1.356976548 4.069828667390299 
Si 0.0017407982699999998 -8.89592013e-05 5.4314680620602 
Si -9.674223749999999e-05 2.7147284999999997 8.145410643628637 
Si 2.7151846199999996 0.00023022168299999997 8.144997232214406 
Si 2.71288773 2.7142072199999996 5.430021122110395 
Si 1.3572828000000001 1.357334928 6.78797426500341 
Si 2.71581993 2.71494027 10.860386753732648 
Si 1.3470331319999997 1.36360332 12.226056909691295 
Si 1.83945051 3.60821871 15.254812283196113 
Si 3.62382453 1.8279660599999998 14.828895173685334 
Si 2.04185376 3.8769874199999994 17.74616726915271 
Si 3.28774554 3.36267954 21.46497519491029 
Si 1.5048587969999998 2.6974610999999995 19.980552610213987 
Si 2.21775318 0.48163013999999993 19.468852632250417 
Si 3.8083413599999996 2.0636823599999996 23.40246223865183 
Si 2.50968627 0.054999927 23.62384405097216 
Si 0.313494534 0.534237066 24.376115021066582 
Si 3.1912435799999996 3.2125671899999997 25.37102404036301 
Si 2.47270797 1.92331143 30.059798496758457 
Si 0.0311598378 1.6826266799999998 30.01835400248187 
Si 0.554203719 1.213877043 26.66713772587741 
Si 0.16581428099999998 0.0644645799 34.25299602034532 
Si 2.6689861799999997 3.86281512 31.36927915133297 
Si 1.252942092 3.3766726499999997 33.23993134977395 
Si 0.1088121501 5.08788828 0.029994548395212442 
Si 2.70878265 5.41639242 2.7216079182072894 
Si 1.2251366909999999 6.62067954 1.3927692741614441 
Si 0.01338366852 8.1306648 2.723540616568816 
Si 3.0338170199999994 7.51223124 0.23596283290023473 
Si 0.0007450964549999999 5.429391839999999 5.430124474963952 
Si 2.7152497799999997 5.43009231 8.145307290775078 
Si 1.357418007 6.78726108 6.787457500735621 
Si 1.3584084389999997 4.07080584 9.50212355227896 
Si 0.001613236167 5.43209598 10.866553473994916 
Si 1.366239042 6.78344922 12.262712721753049 
Si 2.8313323199999996 5.41318329 13.875809609128538 
Si 1.5614372249999997 6.16741029 17.769077151691306 
Si 2.5271165699999996 7.230235049999999 19.854531030776112 
Si 2.49346143 5.176310399999999 22.698181443559307 
Si 1.2640518719999998 4.1200179299999995 24.39413286853679 
Si 0.998373375 6.55286427 21.568190244663125 
Si 0.327569094 5.4937210499999996 26.04040602190426 
Si 2.66747121 7.02149499 28.900799596963783 
Si 1.74101004 7.262293769999999 26.799257123675183 
Si 1.68612903 5.91296049 30.716192469702637 
Si 2.72359026 7.29609552 32.35898607700034 
Si 4.0441554 9.42677865 1.3646883038498503 
Si 1.357224156 9.502478279999998 4.07048323546283 
Si 2.7120895199999997 10.86829704 2.6973406681919703 
Si -0.0001494991944 8.14498371 8.144962781263219 
Si 2.71640637 8.14594482 5.42964216164735 
Si -0.000776057229 10.85992398 5.429676612598535 
Si 2.7147936599999998 10.860103169999999 8.145169486970335 
Si 1.357646067 9.502478279999998 9.501779042767101 
Si 2.7150868799999994 8.14602627 10.863762946948862 
Si -0.0019842360299999998 10.857219839999999 10.865072083093924 
Si 0.845439597 9.994876109999998 14.942307704989181 
Si 2.77689114 10.90367892 13.79391969815975 
Si 0.632315898 9.34760925 17.215553718988104 
Si 0.41206858199999996 11.538549089999998 18.238264655891527 
Si 2.93003343 9.564135929999999 19.93573192272118 
Si 0.519201396 9.80666145 19.750833667706676 
Si 3.7335051 10.39857489 22.200296297021268 
Si 1.9968770699999998 11.927163329999999 22.758367255281005 
Si 0.8981279729999999 8.417075579999999 22.98929198107982 
Si 3.10919085 8.63721864 23.69009323010257 
Si 0.384825186 10.44998613 21.978845582798566 
Si 3.2735406599999997 8.95212063 25.97426019562741 
Si 2.32958403 9.28947024 29.66443938094954 
Si 0.0473314095 9.32094252 28.978899903302125 
Si 1.99339101 10.86241635 26.56388822517339 
Si 0.33318914399999994 9.141149789999998 26.68684366995572 
Si 3.01780395 11.31247647 28.630462983008343 
Si 2.1569589 9.496385819999999 31.98302284670905 
Si 4.05764352 15.058345679999999 1.1788529829630883 
Si 0.016262616509999998 13.587488999999998 2.7119926577313156 
Si 1.5302760839999998 12.430263689999999 1.2723873154326961 
Si 1.357123158 14.931951569999999 4.07606428955494 
Si 8.5203216e-05 13.5746199 8.144962781263219 
Si 2.71389771 13.576167449999998 5.43029672971988 
Si 1.3577258879999998 12.21756516 6.787457500735621 
Si -0.00173868057 16.294235399999998 10.860972419902808 
Si 4.063719689999999 14.930827559999999 12.22926084815158 
Si 1.357802451 14.932912679999998 9.502192454181332 
Si 2.71316466 13.573218959999998 10.860111146123161 
Si 1.38160377 12.21934077 12.241180877261888 
Si 2.66388741 16.29 13.612604342068572 
Si 0.059569109099999996 13.548751379999999 13.70407161746703 
Si 0.95529447 15.35521464 15.094374203523566 
Si 1.247853096 15.07742127 17.75681261306914 
Si 2.76558588 15.517006919999998 21.437724492522275 
Si 1.506551328 13.612396409999999 21.2057317872367 
Si 2.07202284 13.074744959999999 18.955361204825184 
Si 1.67984109 12.63786345 25.031992229742972 
Si 2.9240712899999997 14.689898459999998 25.31411106900397 
Si 3.3140050199999997 15.080548949999999 29.248444145380287 
Si 2.4927120899999995 16.11084258 27.212806341710237 
Si 3.0953606399999996 16.2759906 31.269991510015323 
Si 2.90600568 13.777202339999999 33.91685808962489 
Si 2.50883919 13.088249369999998 30.14117164345946 
Si 0.42450599699999997 13.874600249999999 30.95269824959356 
Si 1.493177238 15.227044919999999 32.64985545786254 
Si 8.13591018 -0.0215609553 2.7156479036521355 
Si 5.43680379 2.73103479 2.703572845261492 
Si 6.74353872 1.285621461 1.3700798777104373 
Si 8.1440226 2.7159828299999997 5.430572337329368 
Si 5.4309231 -0.000805387374 5.42964216164735 
Si 5.4295547399999995 2.71546155 8.145066134116778 
Si 6.78730995 1.3573903139999999 6.787423049784435 
Si 4.07232081 1.3598875709999998 9.502295807034889 
Si 5.42869137 -0.00047857250699999995 10.863418437437003 
Si 6.80392575 1.365584184 12.245625049964863 
Si 5.05350009 0.617189004 16.290373424891857 
Si 6.4392415199999995 2.64829788 16.714567986843342 
Si 5.49782613 2.8579176 13.618908866135586 
Si 4.37204052 3.3957645299999997 18.114137878768872 
Si 7.24760019 3.6564045299999997 20.65151933550978 
Si 5.95801863 0.210349512 19.98606476240372 
Si 4.30036452 1.084959612 18.53264803377469 
Si 7.09295922 1.549073115 21.63144219104036 
Si 6.12023445 1.96103907 23.754550959771308 
Si 6.66296838 3.96729918 25.043464396487863 
Si 5.99410098 0.387503262 25.53022188579287 
Si 6.27630894 0.528358005 29.15542657717847 
Si 8.11398384 2.94778953 26.692424724047832 
Si 4.115098349999999 1.436725872 26.641988531511732 
Si 7.59736278 0.689228271 27.258212695373196 
Si 4.54505661 2.12988492 28.819013038848553 
Si 7.800971489999999 0.454624578 30.950493388717664 
Si 6.73163073 1.9589213699999999 32.66236115314301 
Si 5.1294603599999995 3.9605877 31.58470094909815 
Si 5.042683530000001 0.75785967 34.23342788007175 
Si 4.10294601 4.1562306 1.2996828040572523 
Si 6.7887271799999995 4.071473729999999 4.074100585337345 
Si 4.07334708 6.7855832099999995 4.068691786001165 
Si 4.993064189999999 6.027006779999999 0.1838616258933242 
Si 6.8300874899999995 6.90031368 1.4063670645945028 
Si 8.140992659999998 5.41588743 2.6993904997875284 
Si 4.07219049 4.07235339 6.787664206442736 
Si 5.42989683 5.428349279999999 5.4310201996947844 
Si 6.787440269999999 6.78766833 6.787423049784435 
Si 6.78875976 4.0728583800000004 9.501985748474217 
Si 4.07377062 6.788433959999999 9.502399159888448 
Si 4.0700565 4.088936609999999 12.23074223905257 
Si 5.42579175 5.428170089999999 10.86004224422079 
Si 6.79496625 6.802215299999999 12.22102707081816 
Si 6.608185109999999 4.56198192 15.081558449682426 
Si 4.807179 6.39977085 15.253778754660535 
Si 6.391642139999999 8.08024725 21.085635771402796 
Si 5.05211544 4.323496319999999 20.15921524306385 
Si 4.83513264 6.665753969999999 19.839786023668562 
Si 7.78365522 7.0266100499999995 17.948635509272005 
Si 5.37478776 7.41628314 17.552725178244113 
Si 6.187886819999999 7.492878719999999 23.35919184396239 
Si 4.109755229999999 6.5026747799999995 23.831032071403918 
Si 7.7462208 5.8539744 24.02030559721903 
Si 4.5880947899999995 5.08502124 25.730037402670852 
Si 5.547103379999999 4.19417001 29.30384127488715 
Si 4.56181902 5.898266909999999 28.011965056368613 
Si 6.1207394399999995 7.57708173 28.361952269465757 
Si 7.86407895 4.28435145 28.660814271003087 
Si 6.22838376 7.637371019999999 30.85220482498441 
Si 4.91591475 6.233335919999999 32.222456957450774 
Si 5.426068679999999 8.16511815 2.7393191522119396 
Si 6.78634884 9.50278779 4.075823132896638 
Si 5.515631099999999 10.71088677 0.08535395411052563 
Si 4.07280951 9.50304843 6.787939814052224 
Si 5.43001086 8.145032579999999 8.144997232214406 
Si 5.43240549 10.86072219 5.430503435426996 
Si 5.42768139 10.862057969999999 10.864899828337995 
Si 6.79003038 9.50347197 9.502743669400306 
Si 4.0591422 9.49552245 12.249414654595308 
Si 8.06881167 10.838470049999998 13.627728309639165 
Si 5.4670869 8.1407646 13.655978089611569 
Si 6.30489789 9.90120861 14.955123458830322 
Si 4.796965169999999 11.820561569999999 15.026057967322005 
Si 6.969643919999999 10.43610705 21.027551467703432 
Si 5.96790666 11.32303239 19.049550105367324 
Si 4.5717885 9.60987825 18.198990571539646 
Si 6.624035279999999 9.537371460000001 24.570039425291785 
Si 5.892891209999999 11.2539465 22.930070795991327 
Si 5.5068345 9.26382978 26.711923962419025 
Si 6.703432739999999 11.0977254 29.751186876035533 
Si 5.302378709999999 11.28901887 27.87795085625562 
Si 7.47176688 9.901029419999999 33.391894495454764 
Si 6.01120548 9.800976239999999 31.528373643909266 
Si 4.11263856 10.69317954 32.63066627805202 
Si 4.0745036699999995 12.21650631 4.070724392121131 
Si 5.4107235 13.60462608 2.7003551264207326 
Si 6.74542836 12.271696829999998 1.3256312604904417 
Si 6.78760317 14.93318961 4.074824055312249 
Si 4.07227194 14.93263575 6.787560853589179 
Si 5.42981538 13.57486425 8.144928330312034 
Si 6.7877171999999995 12.21719049 6.78804316690578 
Si 8.143973729999999 13.57470135 10.858560853319796 
Si 4.0721742 12.21850998 9.501916846571845 
Si 6.788808629999999 14.931185939999999 9.5020201994254 
Si 6.790600529999999 12.23934489 12.22292187313338 
Si 5.693778539999999 12.73053726 17.173799166150843 
Si 7.4576271599999995 14.281980569999998 16.902876886025247 
Si 5.52389013 13.711113809999999 13.634067284657363 
Si 6.56798139 15.39473418 15.013035507773752 
Si 4.9085190899999995 14.63501745 20.982282917845215 
Si 4.445101169999999 13.22052417 19.09998629790342 
Si 7.73129916 15.69504033 18.708416786724946 
Si 6.10381413 13.733610299999999 22.90133870270232 
Si 5.26140936 14.46270183 25.028857193185058 
Si 6.18549219 13.305916349999999 26.86933035838722 
Si 5.568101189999999 14.625829889999999 28.755933347227245 
Si 7.82364717 14.44030308 31.85910277529352 
Si 4.10099121 12.83430456 31.83670965702271 
Si 6.17871555 13.25665539 30.578595370666314 
Si 8.477706959999999 2.24432217 0.052344086212770854 
Si 9.50242941 1.358662563 4.065522298492066 
Si 10.8626607 2.73758337 2.7000243972893485 
Si 10.366760519999998 0.614636361 0.2377267216009507 
Si 9.47651202 4.0821111 1.187548403042399 
Si 8.145179189999999 8.49681513e-05 8.144997232214406 
Si 10.86011946 -0.0006473841479999999 5.430055573061581 
Si 10.860038009999998 2.71482624 8.145617349335751 
Si 12.20889888 1.3860346499999998 12.218546602332777 
Si 9.50251086 1.358436132 9.50377719793588 
Si 8.138891249999999 2.7146796299999996 10.857768481442521 
Si 10.85876739 -0.00295955091 10.860972419902808 
Si 8.3035017 0.1302527223 13.734009494047541 
Si 9.99210681 0.919568871 15.273209091129361 
Si 10.86648885 2.65974975 13.754680064759055 
Si 8.5955814 1.4029860239999998 17.450233598466177 
Si 10.576950389999999 0.18173124 20.367333439177628 
Si 10.8905166 4.0156479 19.69433410776187 
Si 8.74281042 3.38183658 18.810598307942204 
Si 10.87740315 1.1280776129999999 18.168122519277116 
Si 10.50152769 2.25341199 23.382446236012846 
Si 9.15919911 0.6618659579999999 22.249423353412304 
Si 10.28918754 2.5277030099999998 25.770207211753565 
Si 12.18355164 1.2374177219999998 29.72383282079396 
Si 11.06281593 0.327769461 26.42119238536156 
Si 11.040352019999998 0.35250582599999997 32.527451228299185 
Si 9.507137219999999 3.68527041 30.27894099725171 
Si 9.991862459999998 1.3939124939999998 30.72862926308073 
Si 9.50599692 6.785289989999999 4.070931097828246 
Si 9.50285295 4.07284209 6.787767559296294 
Si 8.14485339 5.430238919999999 8.144756075556105 
Si 10.86139008 5.42968506 5.430262278768696 
Si 10.86033123 5.431525829999999 10.860283400879089 
Si 12.229880399999999 6.778334159999999 12.232223629953562 
Si 9.5013054 6.78779865 9.50071106328034 
Si 9.50345568 4.064208389999999 12.235530921267404 
Si 9.82287 6.73715304 15.070775301961252 
Si 8.27160588 4.90760685 16.992690515766782 
Si 8.26632792 5.58722565 13.614602497237351 
Si 11.264942249999999 4.9661694 14.242023220234222 
Si 8.399759309999999 7.12726596 20.327404786753217 
Si 10.54590165 4.23412938 22.0447847033683 
Si 11.667598469999998 5.972858819999999 23.164061656445682 
Si 8.48288718 5.26689909 21.844314618417787 
Si 11.195286209999999 6.198084359999999 25.494909660827364 
Si 9.00325494 7.029688859999999 25.70495711020755 
Si 9.305222670000001 7.93173132 29.4006828986706 
Si 11.38174155 6.893911709999999 29.70247323105873 
Si 11.38558599 4.58692191 29.14839858313655 
Si 11.63931903 4.23953766 26.77562377116168 
Si 8.163212219999998 6.55690419 27.87795085625562 
Si 8.42264676 7.36721766 31.536951930754547 
Si 11.44927989 6.01938306 32.01099701907197 
Si 9.25091181 5.24217087 32.08796044402118 
Si 8.48984301 7.85376738 34.4306595756108 
Si 10.34169021 5.97083886 34.32158786415637 
Si 9.52042986 9.5122197 1.3970584175840837 
Si 10.87481304 8.14799736 2.7095500852922383 
Si 8.13079512 10.87328178 2.7080790296766026 
Si 10.971819989999998 10.690850069999998 0.019230934363360874 
Si 8.1448371 8.14605885 5.4298833183056505 
Si 9.50259231 9.50251086 6.787629755491551 
Si 10.86011946 8.14444614 8.145100585067963 
Si 8.14464162 10.86046155 8.14479052650729 
Si 10.861667009999998 10.85888142 5.4310201996947844 
Si 8.14576563 8.142312149999999 10.859525479953001 
Si 9.510264900000001 9.50251086 12.240629662042913 
Si 10.859598179999999 10.86046155 10.865657749264082 
Si 9.34402545 8.320948289999999 16.76248925994287 
Si 11.05418223 8.230538789999999 13.683228791999584 
Si 9.650912759999999 11.961893609999999 14.946579622936229 
Si 9.32763771 10.888105679999999 20.967090048372253 
Si 10.18265094 8.70843852 20.441644140885526 
Si 11.20973544 8.23123926 18.350161345343192 
Si 11.577221549999999 8.18161992 22.275468272508814 
Si 10.50035481 11.884516109999998 22.84225532141857 
Si 10.88084034 9.791479169999999 23.876645130773994 
Si 8.92851642 9.42467724 25.248344203190168 
Si 8.88332796 10.305949949999999 29.245722520236605 
Si 9.352105289999999 11.04292584 27.044892405630357 
Si 11.678545349999998 11.177481239999999 27.115516855561367 
Si 10.073182139999998 11.23174323 31.11058695887835 
Si 9.204354989999999 11.52486549 33.27059269632936 
Si 9.502380539999999 12.21596874 4.070689941169945 
Si 9.44668503 14.940748169999999 1.2579213610297537 
Si 10.85822982 13.585794839999998 2.696593082551237 
Si 8.144055179999999 13.57541811 5.429573259744978 
Si 9.502185059999999 14.9325543 6.787457500735621 
Si 10.859744789999999 13.575304079999999 8.144687173653733 
Si 12.222826829999999 12.217581449999999 12.253273161128124 
Si 9.503504549999999 12.22009011 9.501813493718288 
Si 9.497086289999999 14.93087643 12.242455562455763 
Si 11.762308529999999 15.42754224 15.032982608510364 
Si 9.34027875 12.997253429999999 16.953760940926763 
Si 10.8339903 13.578187409999998 13.709308162047279 
Si 11.4451911 13.31399619 18.310198241967598 
Si 9.02122281 14.55936669 20.320755753174346 
Si 12.179169629999999 14.809239 20.172099898807364 
Si 9.49174317 12.508243919999998 19.28612478716062 
Si 11.75712831 15.426450809999999 17.451094872245825 
Si 8.37475416 14.673494429999998 22.645712644903245 
Si 9.601668089999999 13.534595369999998 24.328055944162312 
Si 12.20726988 13.452330869999999 22.056498026771493 
Si 11.53442772 14.64811461 25.240007073003188 
Si 11.078714969999998 14.348736989999999 29.06554404553456 
Si 8.57678274 13.28552127 26.514244404514564 
Si 9.42223374 15.367546169999999 27.604341401937525 
Si 11.7833715 14.45201559 31.982506082441265 
Si 8.15798313 13.498089479999999 34.10423681312478 
Si 9.829614059999999 13.516562339999998 30.858991662368023 
Si 16.2934209 2.7051988499999995 2.7198681451724034 
Si 12.27990699 1.44151839 1.318231196175719 
Si 14.933727179999998 1.3563901079999998 4.071034450681804 
Si 12.21442119 4.07487834 4.074238389142089 
Si 14.890672709999999 3.9337906499999997 1.342667255851849 
Si 13.574945699999999 -7.17595677e-05 8.144756075556105 
Si 13.57558101 2.71601541 5.429435455940235 
Si 12.21732081 1.357864353 6.787733108345108 
Si 14.932928969999999 1.3564243169999999 9.500917768987454 
Si 13.575434399999999 2.71492398 10.860765714195692 
Si 16.2978192 2.68190415 13.787994134555781 
Si 13.91325642 0.0268082901 16.562604841162514 
Si 15.443343539999999 0.6809773859999999 14.761440211263421 
Si 13.17408138 2.29001562 16.425490055442797 
Si 15.719100659999999 3.01610979 21.116641627470067 
Si 13.76200377 1.668096 20.801105365558783 
Si 12.65790015 2.57497659 18.83337038667606 
Si 12.653892809999999 1.3377820409999999 22.923869624777872 
Si 16.03916658 2.58146001 23.41923985187934 
Si 13.862496779999999 3.0620150099999996 24.063369286201354 
Si 13.684300469999998 3.1333977899999996 26.39249474302374 
Si 15.290201249999999 3.69646164 29.43279118517582 
Si 15.92042877 3.5196988499999997 27.169604848923168 
Si 13.04508087 1.1346164189999999 27.516939338779 
Si 15.265570769999998 0.454038138 28.196897762334306 
Si 13.77835893 2.6636430599999996 34.174826812104605 
Si 13.09215897 3.33565443 30.239012344827298 
Si 15.798709889999998 1.8270863999999998 32.576819441348526 
Si 13.570677719999999 5.42238714 2.692965397391366 
Si 12.25136691 6.83394822 1.2215962780993836 
Si 14.930990459999999 6.78828735 4.069794216439113 
Si 14.93227737 4.07240226 6.787526402637993 
Si 13.57507602 5.430222629999999 8.14578960409168 
Si 12.21736968 6.7875054299999995 6.787836461198666 
Si 14.931120779999999 6.78875976 9.5020201994254 
Si 13.57861095 8.147036250000001 10.859491029001815 
Si 12.21769548 4.0733144999999995 9.50071106328034 
Si 14.93265204 4.06648899 12.253169808274565 
Si 13.54010139 5.3270254800000005 13.805219610148711 
Si 14.51698011 7.14959955 15.163103851139356 
Si 15.690039299999999 7.063409159999999 17.37171988071361 
Si 15.23144322 5.3437227300000005 21.23267243106404 
Si 14.21168922 6.35803587 19.30999929633242 
Si 13.923926369999998 5.36340105 23.269860527537457 
Si 14.749145189999998 6.60671901 25.117740647244577 
Si 14.839456949999999 7.777970009999999 29.937532070999847 
Si 12.91982706 7.6377294 26.19474628321691 
Si 13.03775037 7.98123663 28.51405321895133 
Si 13.068245249999999 4.2508755 32.438016559020696 
Si 15.67208772 5.69358306 30.62420843003639 
Si 14.8869423 5.77050444 32.878265264224794 
Si 13.964162669999999 7.84273905 34.118189448355054 
Si 12.239377469999999 12.20676489 1.317349251825361 
Si 15.96755574 11.307296249999998 0.18419097698666098 
Si 12.217239359999999 9.50127282 4.075581976238337 
Si 15.03050607 9.40993479 1.273103895217362 
Si 13.57735662 10.837525229999999 2.7033523591739024 
Si 13.57556472 10.8592398 8.145238388872707 
Si 13.57243704 8.14612401 5.429848867354465 
Si 14.931902699999998 9.502185059999999 6.787491951686807 
Si 12.21769548 9.50093073 9.503294884619278 
Si 14.932163339999999 9.5016312 12.233119354684396 
Si 12.88192023 8.994556079999999 15.16778918050063 
Si 13.62764385 10.812878459999999 13.747169757400538 
Si 15.291292679999998 11.840467949999999 15.051517220248355 
Si 16.26061284 8.1616158 13.711271866264873 
Si 14.601785849999999 8.602716419999998 19.973490165220884 
Si 13.03188597 9.61202853 17.545593831348636 
Si 13.18815594 11.98600281 17.27194992607936 
Si 14.41262637 10.751383709999999 22.311572869351597 
Si 14.55891057 10.942807499999999 24.59739348053336 
Si 15.55348023 8.742842999999999 24.601665398480407 
Si 13.927689359999999 8.497206089999999 22.232439034477675 
Si 12.616914509999999 9.89472519 25.436136338104287 
Si 14.97134079 11.214508409999999 29.111122653953455 
Si 12.817770209999999 10.292315219999999 28.951614749962925 
Si 12.395712599999998 10.80046548 31.256245580492166 
Si 15.31248597 12.06246807 31.227720192910276 
Si 14.006207159999999 9.012654269999999 31.995838600550194 
Si 16.15383189 10.22596605 32.514325415897375 
Si 14.11106589 12.939440219999998 0.05053231068990651 
Si 12.21727194 14.93234253 4.070448784511644 
Si 14.93242398 12.21315057 4.067244846051359 
Si 15.025847129999999 14.94625419 1.2591960462236305 
Si 13.57965351 16.28289756 2.693451155803086 
Si 13.57545069 13.57564617 5.430021122110395 
Si 12.217516289999999 12.21696243 6.787595304540365 
Si 14.933108159999998 14.932668329999998 6.788008715954595 
Si 12.21841224 14.932033019999999 9.502571414644375 
Si 14.93162577 12.21821676 9.501916846571845 
Si 13.57776387 13.57230672 10.86069681229332 
Si 14.92616862 14.91432579 12.238769310678878 
Si 13.46790411 16.26147621 13.55861970156033 
Si 15.25257135 15.111369629999999 18.33014534270421 
Si 14.16407355 12.62773107 21.056076855285326 
Si 14.4055728 15.735195179999998 20.41501355561886 
Si 14.793698339999999 12.789865439999998 18.73149892401947 
Si 15.6283002 14.26948614 21.827778161848574 
Si 12.96778482 15.249085289999998 23.510431519668312 
Si 15.23087307 14.861057489999999 24.061302229130202 
Si 15.64284717 12.949996139999998 25.451019149016577 
Si 12.98511738 15.36269175 30.087703767219008 
Si 15.183289979999998 14.70659571 29.266634247606422 
Si 12.321136979999999 13.404682619999999 27.189758655366894 
Si 14.698971989999999 13.07992518 27.65639678917936 
Si 13.358190959999998 12.68878599 32.31041023582827 
