&CONTROL
  dt          = 30.D0,
  prefix = 'x2.33_y1.33_z3.17_struc36-scf',
  pseudo_dir = './',
  outdir='./',
  wf_collect= .true.,
  verbosity= 'high',
/

&SYSTEM
ibrav= 6, celldm(1) =30.783621515, celldm(3) =2.1196850800590985, nat=  432, ntyp= 1,
  ecutwfc     = 12.D0, nbnd= 1728,
  degauss     = 0.05D0,
  occupations = "smearing",
  smearing    = "methfessel-paxton",
/
&ELECTRONS
  electron_maxstep=200,
  conv_thr    = 1.D-8,
  mixing_beta = 0.3D0,
  scf_must_converge=.false.,
/
ATOMIC_SPECIES
Si  28.08  Si.pbe-hgh.UPF
K_POINTS {automatic}
1 1 1 0 0 0
ATOMIC_POSITIONS (angstrom)
Si 0.01152800946 2.72653875 2.6945020770711148 
Si 2.71655298 -0.01278914868 2.6963045258427223 
Si 4.04013177 4.005906479999999 1.228123677193696 
Si 1.358261829 1.32445845 1.3040026269179685 
Si 0.000886490397 -0.00069105438 5.430515723361124 
Si -0.000218621574 2.7152009099999996 8.145272904827351 
Si 2.7146959199999996 -0.0001396927773 8.145065726807626 
Si 2.71388142 2.71590138 5.431378965109978 
Si 1.357665615 1.357284429 6.787359104209948 
Si 2.7106397099999997 2.72000646 10.867039609294272 
Si 1.3425061409999999 1.3465525769999998 12.235139662548153 
Si 0.8771627429999999 2.81349477 15.612072324725359 
Si 4.01120073 1.333264824 15.076620732746157 
Si 2.36055132 2.97377208 17.688410438409072 
Si 1.366379136 0.6559852679999999 21.127461976833814 
Si 2.97209421 1.578509145 19.56962138718181 
Si 1.123801488 1.459921203 23.413809543178743 
Si 2.7495890999999997 3.09024558 23.81576943111515 
Si 1.8052089299999998 0.1198132758 25.26960665486522 
Si 2.05196985 0.809024931 29.099706705520855 
Si 2.21188878 3.43565874 26.148662992558293 
Si 2.9059568099999997 1.385356986 26.921747773162043 
Si 3.17278701 2.1335013 34.48795811285809 
Si 3.12355863 2.02219173 30.89411006402883 
Si 1.72757079 1.339663536 32.66037174152416 
Si 4.07196243 6.78889008 4.066524700831788 
Si 1.357846434 4.07362401 4.073879520532025 
Si 2.7060622199999997 5.405771339999999 2.694612572014968 
Si 1.306992312 6.705045449999999 1.2727705404444285 
Si 0.00381721941 8.151825509999998 2.696190577931873 
Si 3.26287071 7.43159574 0.056191858399906695 
Si 0.000242149221 5.4276651 5.43023948600149 
Si 2.7150705900000003 5.43038553 8.144893078457855 
Si 1.3573495889999998 6.78779865 6.787255515200085 
Si 2.71445157 8.1453258 5.430274015671444 
Si 4.071995009999999 6.78587643 9.502599701055532 
Si 4.07991195 4.08929499 12.254165510692896 
Si 1.3572697679999999 4.07256516 9.502219874686038 
Si 0.0038129514299999998 5.426101259999999 10.861480332431652 
Si 1.367372826 6.798207959999999 12.23237728895182 
Si 2.31484158 6.90705774 15.637935047521026 
Si 0.663959223 5.24037897 16.05546781660676 
Si 3.95397396 4.50763848 16.89712852173948 
Si 3.2140658699999998 6.09259032 13.573060784262095 
Si -0.000216293733 8.059167989999999 13.736869538524644 
Si 0.7399048319999999 6.3927824399999995 19.929558666784 
Si 3.09627288 6.89208723 19.764437785063194 
Si 0.5476193009999999 4.56439284 18.339329246714993 
Si 3.7871154899999997 6.785729819999999 17.453953979420305 
Si 2.40031521 5.12245566 22.71137246730121 
Si 2.95106382 6.529129739999999 24.49534786548303 
Si 0.1495513224 5.82781266 22.177612829149766 
Si 0.9509531849999999 7.45656831 25.31649794666297 
Si 3.76180083 6.185785409999999 30.0569036863202 
Si 3.5862760799999998 5.25740202 26.324280893945165 
Si 3.7703693699999996 6.988572899999999 27.822799510615916 
Si 2.7130180499999996 8.117991179999999 30.86558855664669 
Si 2.4488757 4.35263913 30.814795412144118 
Si 0.270529659 4.62800529 31.845747767965552 
Si 1.7612910899999998 8.07190677 32.95825920421872 
Si 1.356520428 9.504335339999999 4.0711862062756 
Si 2.71642266 10.848716459999999 2.6855105510150508 
Si 0.001021407435 8.14552128 8.14468590043813 
Si -0.000409315572 10.85853933 5.431344435440024 
Si 2.71404432 10.85951673 8.144340603738588 
Si 1.356673554 9.501191369999999 9.500735098878007 
Si 2.70601335 8.150636339999998 10.85547216985963 
Si 0.0018681534899999998 10.86181362 10.859166844544722 
Si 1.33786512 9.182477519999999 15.369501393297366 
Si 2.56663611 10.755195569999998 13.611285128901354 
Si 0.173224602 9.87527493 17.7309509917926 
Si 3.3512113799999996 12.15479979 17.277818132984123 
Si 3.4132274099999997 11.052308879999998 20.841176483243853 
Si 1.6359395399999999 11.295143909999998 19.21759140199912 
Si 0.568501452 9.72739431 21.894435005855676 
Si 2.2164173999999996 11.1682611 22.86105858655251 
Si 3.4947751499999997 10.410678359999999 24.674246085515545 
Si 2.4074991 10.60685883 26.77085311546235 
Si 0.833360562 8.55335772 29.508537997778145 
Si 0.058872711599999995 10.87020297 29.32846576896718 
Si 0.32621050799999995 11.60361135 27.094050826233314 
Si 1.9054413 8.397999989999999 27.31341781945211 
Si 3.8715628499999997 11.35642689 28.51719117339413 
Si 3.70854882 10.31735295 30.708616677035067 
Si 2.91975444 12.07113435 32.388588709314945 
Si 1.405080918 10.35045423 33.03412088910802 
Si 1.39942503 12.30781176 1.290719062886602 
Si 1.355852538 14.93604036 4.072325685384088 
Si 8.33399658e-05 13.57489683 8.144893078457855 
Si 2.71278999 13.573789109999998 5.430101367321675 
Si 1.357344702 12.217662899999999 6.7874972228897645 
Si 4.0789019699999995 14.93465571 12.248399055810552 
Si 1.3554322559999998 14.93208189 9.501391162607138 
Si 2.71759554 13.576167449999998 10.864553473057573 
Si 1.330875081 12.2072373 12.227128779118788 
Si 2.6494056 16.25728968 13.679791994090413 
Si 3.4041864599999996 12.590394389999998 14.853179238472771 
Si 1.69275906 14.480588249999998 15.056179168133292 
Si 0.537631902 14.55742818 17.4717367594467 
Si 2.95730289 14.56132149 17.34307920919749 
Si 1.90715175 14.631906059999999 21.044418120594052 
Si 0.6278736149999999 13.39336107 19.488027777080124 
Si 1.74474045 13.49652564 23.113608592597252 
Si 3.2875663499999996 14.79420333 24.389203660043933 
Si 0.46347167699999997 13.89137895 27.62456467540907 
Si 2.28317382 14.670171269999999 29.017664209709768 
Si 2.7001815299999996 13.67279973 34.31109714335287 
Si 1.64942766 13.749688529999998 31.14596947667449 
Si 1.240165845 15.309146519999999 33.10425064878492 
Si 8.149284269999999 -0.0052938427500000005 2.679043143832636 
Si 4.07170179 1.358084268 4.0693561337680295 
Si 5.4332525700000005 2.7270926099999997 2.7066599738619757 
Si 6.82243119 1.4914537559999999 1.2922556331995625 
Si 8.14377825 2.71551042 5.430688371710895 
Si 5.4298316699999996 -0.0001069788735 5.429721540952178 
Si 5.43090681 2.71536381 8.144064366378956 
Si 6.78779865 1.3577095979999998 6.787946108599169 
Si 4.074226739999999 1.35563751 9.502565171385578 
Si 6.762044159999999 1.361633859 12.197467792628162 
Si 7.26716448 3.46499703 14.983321564530009 
Si 6.25430115 3.99611619 17.118429176475708 
Si 8.06128569 -0.01538240265 13.555899538294877 
Si 5.44217949 2.6644412699999998 13.642914306579367 
Si 6.357172499999999 0.353957265 18.082773798955564 
Si 4.660617869999999 2.82564711 20.639868507411084 
Si 6.3920493899999995 2.52177345 18.95388831255918 
Si 4.85371953 2.0751505199999998 23.051973131729074 
Si 7.14958326 2.8946026799999998 23.468815307415728 
Si 4.941050219999999 1.8160906499999998 25.741316476109038 
Si 6.87713301 2.25984654 29.391137119933987 
Si 6.851932379999999 0.600556914 26.258674521032255 
Si 7.07725566 4.00979979 27.81433974147715 
Si 7.438877369999999 0.225023544 28.46108045971862 
Si 7.86288978 2.9313366299999997 34.28053838544343 
Si 5.1628874399999996 0.49265846999999996 34.441515706769735 
Si 5.47550883 2.1373294499999997 31.293238519029 
Si 6.5256599699999995 0.18927188099999998 32.48927722690129 
Si 6.7858275599999995 4.0716855 4.072118507364363 
Si 6.70287888 6.69347955 1.2576672628064776 
Si 5.44799502 8.13937995 2.7086799595542943 
Si 4.0728583800000004 4.07246742 6.787359104209948 
Si 5.43149325 5.429245229999999 5.430308545341399 
Si 6.787521719999999 6.78753801 6.787877049259261 
Si 6.785289989999999 4.07393352 9.49942297141975 
Si 5.43579381 5.42329938 10.853987394051599 
Si 6.7820157 6.76611666 12.20458090463872 
Si 8.10930861 5.36887449 13.59101621263826 
Si 6.01949709 7.682624639999999 17.221707419308608 
Si 5.155214849999999 7.824168449999999 13.464326853576436 
Si 4.1026365 5.114587589999999 21.04486700630346 
Si 7.9573392 5.458550939999999 20.418705971354672 
Si 7.31215746 5.85386037 18.11367785356454 
Si 6.1435454400000005 5.8917997799999995 22.0340039318104 
Si 6.82103025 5.085705419999999 24.191521299556353 
Si 5.570121149999999 4.1169717 26.005295802908613 
Si 7.732162529999999 7.465430069999999 27.133518238990924 
Si 7.4629376999999995 6.022103489999999 28.94760350937277 
Si 5.03716122 5.821850519999999 34.29566238088335 
Si 8.04708081 7.89113664 34.163137507599274 
Si 6.2306317799999995 7.665406109999999 32.52542979134329 
Si 5.98784562 6.02114238 30.792040359644325 
Si 6.596163089999999 4.11959439 32.211416972780135 
Si 8.136089369999999 10.8289404 2.6975648587960492 
Si 4.07913003 9.357709049999999 1.2437069172440098 
Si 6.789818609999999 9.50451453 4.075709593039596 
Si 6.741697949999999 12.041763479999998 1.1987320221287125 
Si 4.07241855 9.50278779 6.787393633879902 
Si 5.42996199 8.14495113 8.144858548787901 
Si 5.43032037 10.858523039999998 5.43023948600149 
Si 6.786365129999999 9.500458319999998 9.5031521757748 
Si 4.07176695 9.50865219 12.225126058261447 
Si 5.4345069 10.860575579999999 10.863310404939224 
Si 7.01144406 8.722708560000001 14.956043125266222 
Si 5.63842512 11.42274348 17.454092098100123 
Si 4.271987339999999 8.868455189999999 20.519739785640553 
Si 7.911841229999999 9.52254756 19.808946529634113 
Si 5.81751738 9.41931783 18.764285894840874 
Si 7.6088961 9.37702899 22.205063916763322 
Si 5.6277551699999995 8.157820229999999 22.359169833768753 
Si 7.26828849 11.251877669999999 23.708313098217797 
Si 4.51562058 8.28685332 24.47753055578668 
Si 5.47010055 11.51297379 25.28445441294551 
Si 5.521886459999999 8.21920095 26.70780193812605 
Si 5.740025849999999 10.474372259999999 27.40865064918569 
Si 7.707287699999999 10.886085719999999 28.657657870767665 
Si 5.186719709999999 10.85308218 34.27245844267416 
Si 5.76646452 9.96526089 32.06003889970109 
Si 7.72255143 11.01466269 31.09054935639806 
Si 4.073151599999999 12.21642486 4.067146234890964 
Si 4.13498844 14.983102169999999 1.2133933199912503 
Si 5.44195143 13.570824329999999 2.677371907806855 
Si 6.78713076 14.931544319999999 4.067491531590505 
Si 4.07222307 14.932603169999998 6.787428163549856 
Si 5.42966877 13.57569504 8.145203845487442 
Si 6.78776607 12.2170113 6.787255515200085 
Si 8.14490226 13.574310389999999 10.864346295037848 
Si 4.07121309 12.21673437 9.502116285676175 
Si 6.78587643 14.933173319999998 9.502530641715625 
Si 6.786495449999999 12.20448429 12.257307710658726 
Si 5.4288216899999995 16.2906516 10.85764753906674 
Si 7.07619681 14.71609278 15.104658824748936 
Si 5.41605033 13.51620396 13.75002534277718 
Si 5.34777894 15.96486789 16.12390562245591 
Si 5.17171662 12.74016465 20.588212121159653 
Si 4.18910382 14.857701749999999 20.806439635269964 
Si 6.5607323399999995 13.12444575 18.71283668660917 
Si 7.94963403 15.084328229999999 18.690047104439422 
Si 4.2160800599999995 16.00088508 18.803200832879217 
Si 6.94678905 12.997318589999999 22.163144897438972 
Si 4.656708269999999 15.992169929999998 22.82642532758848 
Si 6.80882904 15.13349145 23.132289144042456 
Si 6.88177566 14.73994134 25.405342787455034 
Si 4.82700393 13.731720659999999 25.873185285663986 
Si 6.414969419999999 14.44973499 29.243937136919392 
Si 4.3441357499999995 13.71572388 28.22831595455761 
Si 6.2879888699999995 14.342318729999999 31.57282525664785 
Si 9.502657469999999 1.356623055 4.067111705221009 
Si 10.86376842 2.71008585 2.6722960463235927 
Si 9.48283254 4.01928057 1.115536235341153 
Si 8.14469049 4.44557358e-05 8.14468590043813 
Si 10.86109686 -0.00165333726 5.430757431050803 
Si 10.859907689999998 2.7152660699999998 8.144547781758313 
Si 12.21487731 1.3273092 12.223779401133234 
Si 9.50181039 1.3557010409999999 9.502116285676175 
Si 8.14441356 2.71686249 10.860686150022707 
Si 9.51494013 4.07693088 12.215768517703868 
Si 10.03045347 0.9933039269999999 16.930069826875748 
Si 9.01087866 1.76305041 14.926761965145092 
Si 10.7673642 2.6218755 13.560837281098323 
Si 11.93705136 2.04454161 20.23960057330243 
Si 8.474660729999998 3.1885557299999996 19.78380892990748 
Si 10.47938958 2.8176650100000002 18.474133078216042 
Si 11.138271210000001 2.8795833 22.28475839501753 
Si 8.720574569999998 0.045955556099999996 22.453608481093386 
Si 11.994897149999998 1.214561223 23.70541260594165 
Si 9.973813139999999 0.40159737 24.46002401311992 
Si 8.81557785 2.3665297499999998 21.920815673700655 
Si 8.43005871 1.9986363899999997 25.22140323560921 
Si 10.35045423 3.9882155399999997 30.159629454433837 
Si 9.072047609999998 3.8639717099999995 26.53246027409881 
Si 10.7098605 2.9325258 27.994550088967923 
Si 9.825052859999998 0.585566856 28.179042115533015 
Si 8.448645599999999 2.95927398 31.009715399035365 
Si 8.714351789999998 1.233745956 32.691413914812955 
Si 10.85800176 8.13760434 2.681370443587547 
Si 12.219422219999998 4.07466657 4.071496973305188 
Si 12.12813306 6.66609606 1.2237522209774991 
Si 8.150001029999999 5.41510551 2.681753722924038 
Si 9.502608599999999 6.787489139999999 4.066835467861376 
Si 9.502347959999998 4.072548869999999 6.787946108599169 
Si 8.144609039999999 5.42908233 8.144029836709 
Si 10.858979159999999 5.42821896 5.430170426661583 
Si 10.85915835 5.4301086000000005 10.861998277480966 
Si 8.14835574 8.149072499999999 10.861722040121332 
Si 9.50226651 6.78621852 9.501874577986495 
Si 8.92092528 7.141503419999999 14.96315623727678 
Si 10.77586758 8.11468431 13.740771391229464 
Si 9.39748923 6.382421999999999 17.193841975655598 
Si 9.9658962 6.77144349 20.677436788321213 
Si 11.208350789999999 5.01909561 17.945242123528132 
Si 10.303001459999999 7.5336362999999995 24.539614902364267 
Si 8.65867257 6.020181269999999 25.45589422426793 
Si 9.550338299999998 6.18542703 30.052794655595655 
Si 11.603839409999999 7.244667989999999 29.403602330787443 
Si 12.177068219999999 7.312352939999999 27.133345590641152 
Si 9.46924668 7.188777 32.391972616970456 
Si 11.87762544 4.25486655 32.0369040208318 
Si 10.74447675 5.46309585 34.049155067080584 
Si 9.360918179999999 9.32648112 1.1965083113836645 
Si 10.421071379999999 11.18494206 0.08898503125207456 
Si 12.2170113 9.50703948 4.0683893030093135 
Si 8.14262166 8.1453258 5.430964609070529 
Si 9.50194071 9.5027715 6.787669871239536 
Si 10.8598914 8.145472409999998 8.145065726807626 
Si 8.145537569999998 10.85976108 8.145169315817489 
Si 10.85922351 10.858294979999998 5.429997778311812 
Si 9.50378148 9.49335588 12.23161763621283 
Si 10.86238377 10.85860449 10.85854531048555 
Si 11.79865152 9.894741479999999 14.854698543950754 
Si 8.147753009999999 10.71912951 13.730792316612712 
Si 9.989679599999999 11.56417326 14.94658199569878 
Si 12.064650929999999 10.67128578 17.006898342523762 
Si 9.76673466 11.952266219999998 17.338935648802988 
Si 11.501945459999998 11.18500722 19.683085882651188 
Si 8.37555237 11.72956563 19.2709397420783 
Si 9.69699717 8.185887899999999 18.830168505113413 
Si 11.85226191 9.089575649999999 18.66894947609743 
Si 9.3030561 11.657156579999999 24.8671288218795 
Si 9.732607109999998 8.37841941 22.40575035853692 
Si 11.073241529999999 10.34085942 21.874338737942352 
Si 10.4928777 9.68302035 25.733927126738845 
Si 9.21662136 9.29779443 27.71555035573829 
Si 10.772365229999998 9.439517429999999 29.483124160691876 
Si 9.637001099999999 9.45970074 31.513296105646877 
Si 11.30367987 10.70738442 32.51293005081989 
Si 12.185604179999999 12.2460075 1.2598495379475807 
Si 9.50246199 12.21850998 4.065523340403118 
Si 9.5581575 14.903932769999999 1.1920850606625364 
Si 10.8675477 13.58866188 2.7006690761249286 
Si 8.14465791 13.575809069999998 5.429997778311812 
Si 9.50308101 14.93265204 6.787738930579444 
Si 10.860608159999998 13.574750219999999 8.144824019117946 
Si 12.217581449999999 12.212564129999999 12.215388691334372 
Si 9.50334165 12.216652919999998 9.501874577986495 
Si 9.50164749 14.930713529999998 12.2375912691149 
Si 10.865332259999999 16.287475049999998 10.859374022564449 
Si 9.008386289999999 14.178832289999999 16.76467270779531 
Si 11.325964589999998 15.22794087 16.760632736410674 
Si 10.79380287 13.418740889999999 13.64377754832822 
Si 9.09245898 13.01127912 21.16326924457628 
Si 9.434190599999999 15.22899972 20.525747948212576 
Si 11.661701489999999 15.96447693 20.429997173429683 
Si 10.5006969 12.32760411 22.986194110466393 
Si 8.76652866 13.58313957 26.233295213615946 
Si 9.81775494 13.802207489999999 30.180243667396468 
Si 10.304190629999999 15.363001259999999 26.37051612201379 
Si 8.27432631 13.13470845 28.473511140902115 
Si 8.64687861 12.93737139 34.4047070785986 
Si 12.11990661 14.77680561 32.67791281386088 
Si 10.32144174 16.09911378 30.323196501006702 
Si 11.61854928 12.70593936 31.228322739515168 
Si 8.283904829999999 13.21286787 31.95910867442507 
Si 10.66097421 16.28486865 34.076226328324644 
Si 15.83963037 0.268032402 0.14974481969021744 
Si 13.54950072 -0.00409818933 2.7014874293028424 
Si 12.2074002 1.293500934 1.145514894795357 
Si 14.934883769999999 1.355748282 4.066386582151972 
Si 14.869707479999999 4.01786334 1.2559269674407878 
Si 13.57492941 -0.000183412368 8.144754959778039 
Si 13.57248591 2.71437012 5.429825129962041 
Si 12.21764661 1.35702216 6.787877049259261 
Si 16.2919548 -0.001521821574 10.859235903884631 
Si 14.932114469999998 1.356347754 9.50308311643489 
Si 13.57942545 2.71490769 10.863931938998398 
Si 14.92421382 4.08735648 12.22657630439952 
Si 16.08127623 2.5715394 13.541017250544634 
Si 15.27101163 1.8710531099999999 16.94685124647347 
Si 14.0931306 1.9112079599999998 14.913847868582234 
Si 12.32051796 3.7726173899999997 14.976450160209131 
Si 14.284977929999998 2.5550539199999998 20.53486378108047 
Si 15.456847949999998 0.511121556 20.410108083536084 
Si 14.68532097 3.57112638 18.42789785014742 
Si 14.77748979 4.033469159999999 22.401503209132557 
Si 15.457695029999998 2.65238667 24.245871000064202 
Si 13.532347349999998 1.7819631 25.34253331780841 
Si 15.975146879999999 1.409728455 29.566168016931638 
Si 16.22454678 3.7038898799999997 26.268998892348552 
Si 12.928020929999999 3.31677432 27.062870534264707 
Si 15.00771636 3.24827487 28.325793212838207 
Si 14.11018623 2.11343202 34.41437538618577 
Si 12.64954338 0.10743385319999998 30.810133906700305 
Si 15.87524031 2.31288678 31.786909210363664 
Si 13.36490244 2.2048514999999997 32.0647004051449 
Si 13.55292162 5.41720692 2.69844536537988 
Si 14.93437878 6.78797784 4.067457001920551 
Si 14.04559638 7.42942917 0.0644679296945204 
Si 14.932407689999998 4.07243484 6.787531752559719 
Si 13.575287789999999 5.429294099999999 8.144996667467717 
Si 12.21740226 6.787342529999999 6.787359104209948 
Si 12.21606648 4.072548869999999 9.502012696666311 
Si 14.933140739999999 6.78851541 9.503462942804388 
Si 12.21477957 6.784214849999999 12.257445829338542 
Si 13.52425122 5.33699496 13.702236279560617 
Si 15.12718722 6.48392499 15.136978595826033 
Si 13.266445679999999 4.943949839999999 16.95527648594229 
Si 14.39816085 7.78422537 17.025509834629055 
Si 12.22657353 6.039875879999999 20.418913149374394 
Si 13.385199779999999 8.11613412 20.24930341055955 
Si 15.4963512 8.035645229999998 19.12021773272838 
Si 16.07205609 7.98604218 23.364121348114704 
Si 12.35330973 6.354126269999999 24.151501412079476 
Si 12.529388339999999 4.81654575 22.41372671229633 
Si 13.32517113 5.53496733 26.144795669523425 
Si 15.08312277 5.11805736 29.879559301435624 
Si 15.694323569999998 5.95772541 26.28277623066026 
Si 15.81759 6.83880264 28.472026365094088 
Si 15.858315 5.70097872 34.36416924607241 
Si 13.08450267 6.03384858 30.90564297379352 
Si 13.70963142 7.74499905 32.367732788662636 
Si 16.145572859999998 10.96533657 0.07361242218848132 
Si 14.829911009999998 9.380352149999998 1.2700599613530268 
Si 13.56010551 10.853261369999998 2.687585784179296 
Si 13.57374024 8.14382712 5.429583422272361 
Si 14.93274978 9.50270634 6.787428163549856 
Si 13.57457103 10.86062445 8.144651370768177 
Si 13.57450587 8.14706883 10.866141837875466 
Si 14.937343559999999 9.495962279999999 12.2537856843234 
Si 12.21548004 9.50347197 9.501114925247505 
Si 13.545786599999998 10.882241279999999 13.656070110831903 
Si 14.41660113 11.380242869999998 17.266250693549477 
Si 14.992387469999999 11.13379146 22.125887383558428 
Si 13.74812469 8.25699375 23.94888130878845 
Si 13.24342791 9.576125369999998 22.089872937796237 
Si 12.954492179999999 9.36640791 25.948356377154198 
Si 14.17008456 10.10841741 29.700419373713423 
Si 12.25053612 11.35377162 29.328742006326816 
Si 14.41262637 11.309283629999998 26.178393038388826 
Si 13.970825279999998 8.23944942 28.337809537982256 
Si 13.51244097 10.02305781 32.0161862188593 
Si 14.747467319999998 11.942899469999999 32.848765620794076 
Si 12.21575697 14.93535618 4.076676423798313 
Si 14.93667567 12.21513795 4.06994313815725 
Si 14.770729439999998 14.801305769999999 1.3369853676581849 
Si 16.2909774 13.57776387 2.706007363099842 
Si 13.57352847 13.576362929999998 5.43023948600149 
Si 12.21764661 12.217728059999999 6.787428163549856 
Si 14.932668329999998 14.932309949999999 6.787600811899627 
Si 12.21673437 14.93162577 9.501598340626863 
Si 14.93178867 12.21551262 9.502392523035809 
Si 13.570514819999998 13.576981949999999 10.860548031342889 
Si 14.938467569999998 14.94351747 12.235968374627053 
Si 12.66827688 14.388419429999999 14.928695626662524 
Si 14.36351202 12.55400253 15.106074541217058 
Si 13.547578499999998 16.2349398 13.680896943528946 
Si 16.12773531 13.4345259 13.663459460202095 
Si 14.95107603 13.04172513 20.73969378324857 
Si 13.281236999999999 12.65887755 19.174843670595866 
Si 12.79061478 14.93377605 18.641947274193274 
Si 15.053230619999999 16.08609807 18.16668089694418 
Si 14.81904558 15.09905439 21.95444757223601 
Si 12.62794284 15.547159709999999 22.551361976733624 
Si 15.89718294 14.15260539 23.86369661301153 
Si 12.34268865 13.58398665 23.838144657245447 
Si 14.383157759999998 12.349009169999999 24.05015683076401 
Si 16.13127024 15.314049809999998 25.88202488117225 
Si 14.81107977 13.91390802 28.97160162999091 
Si 14.241402179999998 16.1811828 28.981546174937712 
Si 12.3942465 14.37778206 26.13305558173901 
Si 14.00578362 16.11779841 26.56564328692476 
Si 13.20267033 12.734153639999999 27.657954866254745 
Si 13.54028058 13.526743589999999 34.19121012927201 
Si 15.84727038 12.767922809999998 30.76762788298673 
