&CONTROL
  dt          = 30.D0,
  prefix = 'x2.33_y1.33_z3.15_struc2-scf',
  pseudo_dir = './',
  outdir='./',
  wf_collect= .true.,
  verbosity= 'high',
/

&SYSTEM
ibrav= 6, celldm(1) =30.783621515, celldm(3) =2.102903110474409, nat=  432, ntyp= 1,
  ecutwfc     = 12.D0, nbnd= 1728,
  degauss     = 0.05D0,
  occupations = "smearing",
  smearing    = "methfessel-paxton",
/
&ELECTRONS
  electron_maxstep=200,
  conv_thr    = 1.D-8,
  mixing_beta = 0.3D0,
  scf_must_converge=.false.,
/
ATOMIC_SPECIES
Si  28.08  Si.pbe-hgh.UPF
K_POINTS {automatic}
1 1 1 0 0 0
ATOMIC_POSITIONS (angstrom)
Si 0.00478538298 2.7151520399999995 2.7022047994836056 
Si 2.70417258 0.00883626615 2.6855802211363353 
Si 1.261484568 1.379798838 1.1753299415557739 
Si 4.06611432 1.362751353 4.0699215006851786 
Si -0.000968209182 -0.000535255191 5.430238842886111 
Si 0.00033501525299999994 2.7148914 8.144844419954122 
Si 2.7157058999999997 -0.0001593890163 8.145289751745826 
Si 2.71432125 2.7157384799999997 5.431369300511209 
Si 1.357318638 1.358012592 6.787199068503421 
Si 2.71596654 2.7152009099999996 10.857771438730321 
Si 1.379010402 1.3620981239999999 12.205688003346848 
Si 1.357470135 4.07124567 9.502695309154841 
Si 0.08493133589999999 2.68224624 13.588991317258102 
Si 2.80119582 0.0607577904 13.551720471921548 
Si 1.287478521 4.01410035 15.161286592310693 
Si 1.66495203 1.4849068049999998 17.824336450415913 
Si 2.97701379 2.3152162499999998 21.108178826158134 
Si 1.063738629 1.2685739759999999 20.129716367198547 
Si 2.79854055 3.69958932 17.176344437193233 
Si 2.4734735999999997 2.2372523099999997 23.404617850814997 
Si 0.987162597 4.043976209999999 23.6391021672936 
Si 1.508139603 0.33045405299999997 24.399146510567643 
Si 1.64302569 0.7027668899999999 26.753786974771202 
Si 0.326984283 3.1927585499999998 29.467022300172427 
Si 0.16507634399999999 2.4864893099999996 27.25944409610658 
Si 3.9192110999999996 0.667098306 27.605398385678157 
Si 3.88265634 0.794424204 31.22981681319982 
Si 0.213247503 1.1634138809999999 30.672843766943338 
Si 2.0410066799999997 2.29423473 31.70680141840772 
Si 1.83821247 3.2130558899999997 33.891016831554886 
Si 1.360125405 4.0675152599999995 4.073895230518855 
Si 2.7354819599999995 5.42266407 2.694291596107922 
Si 1.468765044 6.779132369999999 1.268942109801367 
Si 0.0009583846829999999 5.430238919999999 5.429108385261014 
Si 2.7146470499999995 5.430336659999999 8.144673138495774 
Si 1.358657676 6.78688641 6.787438862545108 
Si 0.000419122152 5.43387159 10.860957273855597 
Si 1.33768593 6.78304197 12.220932053139835 
Si 3.58508691 7.19688942 14.94256017000012 
Si 2.58629814 5.40979497 13.65637344297226 
Si -0.011193722369999999 8.10663705 13.659970353597572 
Si 3.18601449 4.759823969999999 20.803229317715108 
Si 2.04317325 5.254355789999999 18.849524491212875 
Si 2.44450998 7.57434501 18.678962414989797 
Si 0.0442164357 7.23626235 22.175365080542065 
Si 1.93960143 5.84734437 22.500320263320155 
Si 3.46968855 7.221927149999999 23.568602719037507 
Si 3.9925649699999997 6.739433639999999 25.809341013439553 
Si 0.854643447 4.34675844 25.96811892532828 
Si 3.16501668 4.603749479999999 26.365560421279305 
Si 0.412570314 7.432165889999999 28.411414672372835 
Si 4.00070997 4.8237948 28.56227938088588 
Si 0.422736903 5.21855037 34.14122478590985 
Si 1.5389456219999997 6.424776 30.437160480256296 
Si 3.48267168 7.531241669999999 31.32631678683316 
Si 0.0593179173 6.79446126 32.31423398229357 
Si 2.3282156699999996 4.23266328 30.10631321531103 
Si 3.36847878 7.478136269999999 33.97097101631179 
Si 4.04892837 9.35578683 1.1940064717740553 
Si 1.360373013 9.50332536 4.074717381518926 
Si 2.70736542 10.829298779999998 2.6974603030873623 
Si 1.193231097 12.06786006 1.3842556388196692 
Si -0.000166444704 8.14482081 8.144912932537462 
Si 2.7144027 8.145 5.4305814058028075 
Si -0.000789581187 10.85893029 5.430033305136093 
Si 2.7152497799999997 10.860233489999999 8.14515272657915 
Si 1.3568283089999997 9.50288553 9.502249977363137 
Si 2.71753038 8.14359906 10.86530782289764 
Si 0.00046585490399999994 10.858783679999998 10.86184793743901 
Si 1.3596269309999998 12.2016987 12.253955118309355 
Si 1.7552637899999999 8.96567391 15.006276872505627 
Si 2.75164164 10.83622203 13.80747794552699 
Si 0.8450209439999999 8.829065969999998 17.32580463774782 
Si 1.084062033 11.24309736 17.553232158142478 
Si 2.1945888 9.306134909999999 20.32874542179909 
Si 2.96025138 11.157151319999999 18.985933044641335 
Si 3.27458322 9.31949271 22.475895527359707 
Si 2.00148714 10.91713446 23.74067207209405 
Si 0.426574827 12.153398849999999 22.44640086023216 
Si 0.7111823039999999 9.58479165 25.227497899430922 
Si 3.51334575 10.90345086 29.875494322041074 
Si 3.69139545 8.53338618 27.261122654398395 
Si 1.5101905139999998 9.26829324 27.39595541841005 
Si 1.7025656399999998 11.36124873 28.45252222237639 
Si 2.8692065700000002 9.8215668 31.923061387718082 
Si 0.542574288 9.2797614 32.619731591403315 
Si 4.05218637 14.909015249999998 1.310104469871592 
Si 0.00936551196 13.57962093 2.7275750090941324 
Si 3.1088976299999995 12.905117189999999 0.27566860057549825 
Si 1.358245539 14.93289639 4.070401088768553 
Si -0.00031380730199999997 13.57486425 8.144947188829132 
Si 2.71459818 13.57455474 5.430375868052789 
Si 1.357170399 12.21743484 6.787712912878464 
Si 1.356981435 14.93333622 9.501667620404753 
Si 2.71482624 13.57750323 10.860854504980589 
Si -0.0170725716 13.45474179 13.794049479192497 
Si 1.097183628 15.36415785 14.737741802107411 
Si 2.88065844 16.02768213 16.618206677019977 
Si 0.0959961555 15.50408895 20.90997192255767 
Si 3.5094198599999995 13.21141806 20.259136637126403 
Si 3.09234699 12.797928989999999 24.854789446065368 
Si 1.7172918 13.968577259999998 21.696633404459007 
Si 2.8924524 14.83390206 23.547809149994045 
Si 3.99359124 14.65857279 28.079711000135827 
Si 1.1314561589999999 15.390156689999998 29.942431115963526 
Si 2.34009108 13.2525666 27.09552774046741 
Si 0.7921810709999999 14.97383316 27.650171358890358 
Si 3.38263479 14.8981824 30.302841560619687 
Si 0.46252034099999995 13.61382993 31.331455230583607 
Si 3.96601227 12.79160847 31.175212284278434 
Si 2.13107409 12.333158999999998 32.47051118489041 
Si 5.44501395 2.7000186299999998 2.69924505588335 
Si 6.80040711 1.252174833 1.3560284544838956 
Si 5.432356619999999 0.000179913276 5.429211154136022 
Si 5.43015747 2.7147610799999997 8.14501570141247 
Si 6.787586879999999 1.35767376 6.787473118836778 
Si 4.07225565 4.05705708 12.25916207464314 
Si 4.07134341 1.3596660269999998 9.503483203863242 
Si 5.4330408 -0.0018656448299999998 10.86246455068906 
Si 6.80794938 1.355883489 12.244226331475183 
Si 6.55628517 1.77699465 16.99553972976093 
Si 4.85701011 0.696687462 15.273544460112067 
Si 5.48002116 2.5678578599999997 13.779559067816246 
Si 5.15156589 2.9318579099999997 18.43920262959407 
Si 8.07378012 0.1602492912 17.7756240036617 
Si 6.289813349999999 0.562031064 21.277781726214467 
Si 4.5216153 1.056743703 19.854398551049748 
Si 4.1464566 3.01477401 24.885825646318047 
Si 6.408225359999999 2.83758768 21.93622190839639 
Si 5.283319409999999 1.477613772 29.48798715067424 
Si 6.0059601 3.64259061 28.93985222766852 
Si 5.4530937900000005 1.3752588149999998 25.94681151190977 
Si 7.01434368 2.85969321 26.98765467799975 
Si 4.11438159 3.52896786 33.3309949753398 
Si 5.37931638 1.606353642 32.79577467429353 
Si 7.80595623 2.83569804 34.00056845231435 
Si 4.39059483 4.2528303 1.2869472167029234 
Si 6.78721221 4.07530188 4.070161294726866 
Si 4.07155518 6.78522483 4.071976878185356 
Si 6.813585719999999 6.975198809999999 1.2140121461091182 
Si 4.07207646 4.0729887 6.787507375128448 
Si 5.42960361 5.42966877 5.430410124344459 
Si 6.787358819999999 6.787554299999999 6.787575887711787 
Si 6.788808629999999 4.07173437 9.502249977363137 
Si 4.0725814499999995 6.78685383 9.501975927029779 
Si 5.42963619 5.430141180000001 10.864828234814265 
Si 6.7744408499999995 6.8029809299999995 12.232784730057526 
Si 8.08371702 5.38762428 13.568232004506308 
Si 5.16922425 4.89053493 16.760233262282256 
Si 6.75064116 4.16108502 15.060024994135274 
Si 5.324174729999999 6.01421913 20.635167950783913 
Si 6.49459494 4.124155589999999 19.97100696789316 
Si 4.25419866 7.09408323 17.196589905569983 
Si 5.49463329 6.26104521 22.926160225065303 
Si 6.880097789999999 8.06442966 23.360118927936153 
Si 5.84980416 4.1490792899999995 23.79476275664039 
Si 7.32777957 4.68023103 25.557043425292743 
Si 4.421920500000001 7.142627429999999 29.10489904093279 
Si 6.74249616 7.0012139399999995 28.816769371699547 
Si 6.33278637 6.61338162 26.47089851816341 
Si 5.32733499 5.84872902 33.99834179335583 
Si 7.475073749999999 5.13224595 30.092781980101524 
Si 7.29537876 4.9939601399999995 32.578658297691426 
Si 8.14741092 10.851436889999999 2.723368336477102 
Si 5.43237291 8.15039199 2.7047192112921565 
Si 6.786006749999999 9.502217639999998 4.073107335810454 
Si 5.00091597 11.28334995 0.1396248766533206 
Si 6.7846221 12.170780279999999 1.3900792084035059 
Si 4.07227194 9.50213619 6.787712912878464 
Si 5.42966877 8.145114029999998 8.144947188829132 
Si 5.43004344 10.85958189 5.430238842886111 
Si 8.14949604 8.14169313 10.862293269230713 
Si 6.7877171999999995 9.50334165 9.502592540279833 
Si 4.07192985 9.52251498 12.239978551308148 
Si 5.425156439999999 10.860608159999998 10.860854504980589 
Si 8.09016786 10.79580654 13.604132598176077 
Si 6.05610072 10.72567809 16.665788666149094 
Si 5.453419589999999 8.243538209999999 13.667164174848194 
Si 7.06401189 9.26809776 15.09630240701341 
Si 4.3828245 12.0288618 15.186122403771176 
Si 7.7173875 11.371299659999998 18.468765809304962 
Si 5.949938789999999 8.29563363 19.950350424016378 
Si 4.714798409999999 9.34246161 18.17193504198763 
Si 6.33936753 11.546417159999999 22.90522963085516 
Si 5.57531766 9.515884949999998 21.983529847192145 
Si 5.35620087 12.08167398 25.051215022499015 
Si 6.91194474 8.71695819 25.611750723089138 
Si 7.30565775 9.177460199999999 29.5827743097241 
Si 5.66290899 10.67892579 28.81348076769926 
Si 5.316941969999999 10.171541159999999 26.529613802085155 
Si 7.96631499 8.535292109999999 34.06274362169473 
Si 7.4596797 10.01660697 32.10972392102589 
Si 5.87981034 12.016465109999999 32.29929823912561 
Si 4.0747805999999995 12.218347080000001 4.068379967560045 
Si 5.43910068 13.58234136 2.7150646113763846 
Si 6.78638142 14.931739799999999 4.075402507352319 
Si 4.07263032 14.93252172 6.787473118836778 
Si 5.42968506 13.575369239999999 8.144810163662452 
Si 6.787652039999999 12.21748371 6.787610144003457 
Si 4.073119019999999 12.21686469 9.5010510071547 
Si 6.787358819999999 14.931902699999998 9.503037872071538 
Si 4.07792457 14.91717654 12.233880931390953 
Si 6.780256379999999 12.22725771 12.232784730057526 
Si 5.45765499 13.57349589 13.730024470061963 
Si 6.47783253 15.283375739999999 15.020938565340229 
Si 6.46193349 14.86345212 18.323895951834103 
Si 7.30482696 13.26916611 19.899274293136962 
Si 4.149095579999999 15.16388859 18.93684377867876 
Si 5.13511299 15.35325984 22.726034969131334 
Si 6.4932428699999996 15.9632226 24.55497838137278 
Si 5.562448559999999 13.295034629999998 21.53638247202849 
Si 6.74767638 13.928324669999999 25.828250486441185 
Si 6.8807331 12.59782263 29.467227837922447 
Si 7.12544148 16.28024229 29.10078828593243 
Si 6.25190652 14.34132504 28.068303655009842 
Si 8.08656777 15.476966099999999 31.346493742626574 
Si 6.612615989999999 14.37323715 32.839348677297295 
Si 5.60242422 16.04478663 34.22227517200019 
Si 9.505166130000001 1.356106662 4.073038823227114 
Si 10.672996229999999 0.14261618069999998 0.0057849284868334416 
Si 10.86310053 2.71371852 2.702458296041961 
Si 9.378446219999999 3.95006436 1.3140268152677645 
Si 8.145048869999998 7.59643425e-05 8.145221239162488 
Si 8.1458145 2.7162108899999997 5.429587973344389 
Si 10.859402699999999 -0.0017051883299999998 5.430889712427835 
Si 10.85927238 2.71529865 8.14504995770414 
Si 9.500653799999998 1.358040285 9.502489771404823 
Si 8.144332109999999 2.71450044 10.856949287730252 
Si 8.43364251 3.3272650799999997 16.68253999277554 
Si 8.2310112 0.1112103639 13.855299728697792 
Si 9.843721200000001 1.323174798 15.421737177874878 
Si 10.801051919999999 2.72453508 13.71546554610237 
Si 12.05204247 3.23933166 20.59577321536384 
Si 9.82065456 2.55824676 20.32836860259072 
Si 9.56346804 0.348136848 19.69664832791111 
Si 8.64596637 2.6373184199999997 22.373983059642566 
Si 11.905106669999999 3.33524718 22.951715418650846 
Si 8.55557316 0.611147043 23.640609444127065 
Si 11.84040279 1.1607634980000001 23.920551859651265 
Si 9.87977097 1.068873237 25.54974683516711 
Si 10.36061919 1.4795669429999998 29.204721874858084 
Si 10.95759882 3.3331131899999997 26.076060500379278 
Si 8.5683771 1.2776475059999999 27.699329137436276 
Si 10.99169379 3.6016864199999996 28.442553641500528 
Si 8.869693230000001 0.9936623069999999 32.91721322826236 
Si 10.639455120000001 1.6432700399999998 31.532573918975995 
Si 11.21726142 4.011705719999999 32.02093161301821 
Si 10.85291928 8.12310624 2.7085764697341568 
Si 12.092897789999999 6.69349584 1.2360766235735257 
Si 8.137408859999999 5.4393939 2.689136024211643 
Si 9.502543439999998 6.788776049999999 4.07437481860223 
Si 9.50275521 4.07223936 6.787747169170134 
Si 8.1453258 5.42975022 8.144775907370784 
Si 10.85964705 5.431086 5.43030735546945 
Si 9.488827259999999 4.0556724299999996 12.223843837931753 
Si 10.86277473 5.43216114 10.861471118230641 
Si 12.209273549999999 6.80024421 12.213190131222499 
Si 9.501777809999998 6.786609479999999 9.501804645571433 
Si 8.59390353 7.73877627 16.196237676233498 
Si 10.879732619999999 8.08018209 13.710532640101944 
Si 11.63705472 4.583631329999999 14.904261635913475 
Si 9.8707626 6.2234316 14.857159234867735 
Si 10.162614239999998 6.045088679999999 19.47295474330844 
Si 8.68405239 4.20498657 19.064345696273115 
Si 9.603199349999999 7.98343578 18.289673916456145 
Si 9.22683519 7.88072733 23.051401227409464 
Si 9.88193754 4.43617425 23.191577972921582 
Si 10.37052351 6.26119182 21.840989417554823 
Si 10.20157992 7.49113569 25.263946593767404 
Si 9.59834493 5.16308292 25.3699698164849 
Si 10.39655493 7.14972987 30.974025083302706 
Si 8.98908264 6.68694726 32.9700706863086 
Si 9.886401 4.9632209099999995 30.098194474185327 
Si 10.613749499999999 5.32625985 34.113991034032495 
Si 9.473107409999999 9.494479890000001 1.365832605159743 
Si 11.07399087 10.56183327 0.0907353248711774 
Si 12.192657749999999 12.187787039999998 1.4190874361893469 
Si 9.501337979999999 12.217548869999998 4.07067513910191 
Si 12.219796889999998 9.502413119999998 4.073004566935445 
Si 8.14436469 8.143142939999999 5.431060993886182 
Si 9.50213619 9.50252715 6.787747169170134 
Si 10.860363809999999 8.14469049 8.144981445120802 
Si 8.14472307 10.860445259999999 8.144810163662452 
Si 10.859875109999999 10.85883255 5.429690742219398 
Si 9.51016716 9.49711887 12.2367584598912 
Si 10.863051659999998 10.85951673 10.859415740730464 
Si 12.20129145 12.20959935 12.21774621801456 
Si 9.64731267 11.991818339999998 14.908714953830527 
Si 11.52683658 11.450355029999999 18.534914708519015 
Si 11.872819889999999 9.108634949999999 20.971496222396322 
Si 8.15198841 9.24690447 19.600525173486137 
Si 9.6247836 12.16920015 17.23338116282316 
Si 9.557782829999999 9.651466619999999 21.555394713905134 
Si 8.760582809999999 11.565704519999999 22.78985444051185 
Si 9.66945078 11.423834909999998 25.001440630703044 
Si 11.95632243 11.89816713 25.223421400722234 
Si 11.0636793 8.94641913 29.479217540006815 
Si 9.082473209999998 9.390875489999999 26.13217230613413 
Si 9.23028867 9.92831517 28.416244809498252 
Si 11.35238697 10.717158419999999 30.968098744843864 
Si 9.47045214 11.44442547 32.37579253842389 
Si 12.21644115 14.935747139999998 4.0767727590191045 
Si 9.53588907 14.873226119999998 1.3242660208478163 
Si 10.86127605 13.58094042 2.728811661223406 
Si 8.17461522 16.266949649999997 2.725300391327269 
Si 8.14415292 13.576362929999998 5.430101817719432 
Si 9.50233167 14.932603169999998 6.787781425461804 
Si 10.86013575 13.57489683 8.144844419954122 
Si 9.50321133 12.21595245 9.502147208488129 
Si 8.144609039999999 13.57509231 10.864759722230927 
Si 9.487752119999998 14.950277819999998 12.247412166600457 
Si 10.86008688 16.28830584 10.865684642106007 
Si 11.82160413 16.209934649999997 16.476454142091058 
Si 10.818873179999999 13.540524929999998 13.60200870809256 
Si 9.30168774 13.33250163 21.30964007746722 
Si 11.53330371 12.632259689999998 20.612901361198652 
Si 11.49077052 15.672429809999999 18.717021155034757 
Si 12.14831637 14.22664344 24.6388720396717 
Si 9.61290819 15.60169863 21.885693878183687 
Si 11.97499077 15.46671969 22.55047147432449 
Si 11.33292042 15.77313459 28.341805887700154 
Si 10.747050569999999 13.763144070000001 29.413719510334484 
Si 8.988072659999998 13.344148979999998 26.237578915601578 
Si 10.58809275 15.18742764 26.152657568552566 
Si 9.16118649 12.304390859999998 28.364243758743758 
Si 8.25078726 13.34374173 34.22296029783358 
Si 8.90833311 13.29713604 30.778969758535847 
Si 12.084068610000001 16.10667234 32.38535004379972 
Si 12.21676695 4.07300499 4.0697844755185 
Si 15.601047029999998 0.362525805 0.09781335985595598 
Si 13.554159659999998 -0.004547369789999999 2.716763723443198 
Si 12.233203559999998 1.3766206589999999 1.2840833907193425 
Si 14.93617068 1.3582048139999998 4.0713602649353025 
Si 14.998105259999999 4.0658048099999995 1.22968782517714 
Si 13.575369239999999 -0.0005896556459999999 8.144741651079114 
Si 13.57318638 2.7133275599999997 5.429896279969415 
Si 12.217597739999999 1.357258365 6.787781425461804 
Si 16.28915292 -0.001378451655 10.86270434473075 
Si 14.933173319999998 1.35720135 9.502284233654807 
Si 13.575776489999999 2.71547784 10.863115420230784 
Si 12.219357059999998 1.363821606 12.251077589809107 
Si 14.929165979999999 4.06999134 12.244055050016833 
Si 15.66636993 1.551922236 16.924320899379776 
Si 15.429301559999999 4.0186452599999996 16.519993888803153 
Si 15.60505437 0.7035325199999999 14.718112946980716 
Si 15.63683616 2.82651048 20.400991940930332 
Si 13.679315729999999 1.62958644 20.05072135860839 
Si 13.989298139999999 0.186738786 18.121818087274967 
Si 15.22766394 3.9126950999999996 22.5131321164046 
Si 15.36493977 0.335953557 24.03106265657749 
Si 13.69221741 3.90394737 24.328784087478226 
Si 14.30426529 0.10595113739999999 21.881411841724983 
Si 13.804113419999998 1.7047647899999998 25.109073899129015 
Si 14.143906529999999 1.94906592 27.367933771824294 
Si 13.25921292 3.9952853999999998 28.119516811055934 
Si 13.952059199999999 2.3282482499999997 34.116183436699345 
Si 13.40880399 2.8125499499999997 31.75023839624481 
Si 14.293660499999998 0.33631682399999996 30.80705991770494 
Si 13.57786161 5.42903346 2.6817709215026726 
Si 14.933173319999998 6.78602304 4.069065093393438 
Si 13.574180069999999 8.14612401 5.430375868052789 
Si 14.932994129999999 4.0718809799999995 6.78723332479509 
Si 13.57489683 5.43041811 8.144604625912436 
Si 12.21740226 6.787521719999999 6.787849938045143 
Si 12.21673437 4.07272806 9.503551716446582 
Si 14.93178867 6.78628368 9.502661052863173 
Si 13.47947001 5.45715 13.631126556011745 
Si 14.467458509999998 7.095288689999999 15.005077902297192 
Si 13.10049945 4.840801559999999 16.71374747448657 
Si 16.09838073 4.45184523 18.75627886528815 
Si 14.395554449999999 5.930179019999999 19.311059508877776 
Si 15.139583909999999 8.06962617 18.598083310357808 
Si 12.336286679999999 6.56728092 18.224963781492217 
Si 12.56066514 7.21770804 22.29539912655244 
Si 15.83788734 7.71487884 24.44337138311313 
Si 14.46485211 5.966733779999999 21.611369494493307 
Si 12.473953469999998 7.48532016 26.04951187433532 
Si 15.90058755 6.27068889 26.395774470531915 
Si 13.67180604 5.4097135199999995 26.237578915601578 
Si 14.46465663 6.479314919999999 30.97947183367818 
Si 12.56359734 7.232466779999999 32.06543053589706 
Si 14.5723824 4.32836703 30.04348717638893 
Si 14.93068095 12.21771177 4.075505276227328 
Si 16.293257999999998 8.13960801 2.691838845624376 
Si 12.853966589999999 8.723229839999998 0.07186010816121231 
Si 14.80980915 9.4630239 1.3636299256053859 
Si 13.571524799999999 10.85845788 2.736868741024103 
Si 14.932179629999998 9.50275521 6.788329526128519 
Si 13.57519005 10.860038009999998 8.144844419954122 
Si 12.216783239999998 9.50198958 9.5018389018631 
Si 13.5738054 8.14368051 10.861094299022277 
Si 14.94490212 9.51251292 12.236792716182872 
Si 13.484487329999999 10.81276443 13.619856236052438 
Si 12.82715325 8.85332178 14.822491867698073 
Si 13.626356939999999 11.557103399999999 17.313335347580075 
Si 16.13876364 9.00182142 20.58210495498766 
Si 15.243546689999999 11.14866423 20.842452771676832 
Si 15.40861326 12.1342581 18.703250125783565 
Si 13.036170239999999 9.15603885 17.871233313711638 
Si 13.01054607 11.05128261 21.5973929274921 
Si 13.43915226 10.75066695 23.870983005605314 
Si 13.5534429 8.357991749999998 24.175350157089962 
Si 15.184088189999999 10.97126613 25.673103741469443 
Si 16.07420637 11.916656279999998 29.783584691491463 
Si 14.79249288 8.30164464 29.46304857033875 
Si 13.296891689999999 11.055013019999999 27.105393552468264 
Si 12.939472799999999 8.848190429999999 28.001606655129073 
Si 15.279726779999999 10.05019695 31.03918055005834 
Si 13.153604849999999 9.58404231 32.06991811010578 
Si 15.862029119999999 10.99599435 34.24005418737672 
Si 13.9989744 13.003704269999998 0.14925294998998626 
Si 14.82554529 14.81816592 1.439257540724424 
Si 13.57496199 13.57470135 5.431198019052861 
Si 12.21769548 12.217581449999999 6.787815681753473 
Si 14.932163339999999 14.93248914 6.787815681753473 
Si 12.217793219999999 14.9315769 9.502455515113155 
Si 14.931821249999999 12.21821676 9.5018389018631 
Si 13.57903449 13.573903139999999 10.857976976480339 
Si 14.948094959999999 14.90790753 12.229187819432214 
Si 12.54730734 14.525108819999998 14.948452252167295 
Si 14.16791799 12.62023767 15.093493391096501 
Si 13.59263664 16.17932574 13.648220445554891 
Si 12.82135401 14.565589469999999 20.332171050966053 
Si 15.033421979999998 14.39459334 19.36134774504879 
Si 15.2717121 12.68912808 24.213203359384902 
Si 14.40935208 14.700649859999999 25.053030605957503 
Si 14.791678379999999 14.5862289 27.393763015743193 
Si 14.17216968 12.63167325 28.619761438307513 
Si 13.63549563 16.25665437 28.55015265363483 
Si 15.20663355 15.1099524 32.42453924146977 
Si 13.127899229999999 13.93099623 32.36609800788139 
Si 12.54292533 12.68262837 30.34641556362345 
