&CONTROL
  dt          = 30.D0,
  prefix = 'x2.33_y.66_z3.15_struc30-scf',
  pseudo_dir = './',
  outdir='./',
  wf_collect= .true.,
  verbosity= 'high',
/

&SYSTEM
ibrav= 6, celldm(1) =30.783621515, celldm(3) =2.1043587689124634, nat=  432, ntyp= 1,
  ecutwfc     = 12.D0, nbnd= 1728,
  degauss     = 0.05D0,
  occupations = "smearing",
  smearing    = "methfessel-paxton",
/
&ELECTRONS
  electron_maxstep=200,
  conv_thr    = 1.D-8,
  mixing_beta = 0.3D0,
  scf_must_converge=.false.,
/
ATOMIC_SPECIES
Si  28.08  Si.pbe-hgh.UPF
K_POINTS {automatic}
1 1 1 0 0 0
ATOMIC_POSITIONS (angstrom)
Si 2.7202671 -0.015099803729999998 2.730556606145323 
Si 1.434192777 1.359744219 1.4058743982189192 
Si 3.9835566 3.94449318 1.2628376520865354 
Si 0.000346256982 -0.00062330427 5.430809688449149 
Si -0.000246215205 2.71492398 8.145443232575948 
Si 2.7148914 -8.023704659999999e-06 8.144380552441234 
Si 2.7159991199999998 2.7132624 5.429918408336165 
Si 1.3572616229999999 1.357774758 6.787612260447364 
Si 2.7146470499999995 2.71546155 10.86192789693741 
Si 1.3654294289999998 1.357791048 12.24529747230345 
Si 4.07170179 1.356588846 9.502348644587201 
Si 3.73876677 1.3882354289999999 17.109630088941824 
Si 0.006523200179999999 2.52459162 13.896085361569396 
Si 1.2671143919999999 4.04738082 15.360355747191019 
Si 1.97687295 3.22682094 19.604837325252543 
Si 1.0416282119999998 1.058928192 19.566066640337684 
Si 2.7046775699999994 3.47304429 17.18340065829352 
Si 0.6380125109999999 0.0871127298 21.657009785400927 
Si 2.43566451 0.3813733349999999 25.20735555546872 
Si 3.3568803 3.30023997 29.60750263326354 
Si 0.686647935 1.54896723 26.36392862208438 
Si 0.752215185 3.90712392 26.755680511745712 
Si 0.7388964809999999 0.823666383 28.673783874898525 
Si 3.2210379899999997 1.9656817199999999 34.241199380664824 
Si 1.226988864 2.55195882 30.250218434738898 
Si 2.11924755 1.3938733979999998 32.13325335344617 
Si 1.3545411929999998 4.07458512 4.069276475851242 
Si 2.7046449900000002 5.43541914 2.6741248629916226 
Si 1.3981495229999998 6.82026462 1.058237446149917 
Si 2.7152009099999996 5.43012489 8.145306112558565 
Si 1.3574571029999998 6.787684619999999 6.787166620390872 
Si 4.07096874 4.07082213 12.239092791516901 
Si 1.358706546 4.0728258 9.502040124548092 
Si -0.0017029403099999999 5.43214485 10.865458737385005 
Si 1.360632024 6.780631049999999 12.245023232268688 
Si 2.71533123 8.14477194 10.862510657011283 
Si 4.03257321 6.73531227 15.03997482657719 
Si 2.6586909 5.35677102 13.686017494939657 
Si 0.08961031259999999 8.10238536 13.818098351683192 
Si 0.380060361 4.67166249 20.67841850134754 
Si 3.65071932 7.076050199999999 20.86023964439652 
Si 1.322997237 6.8165667899999995 20.57650404842812 
Si 1.462700277 6.992629109999999 18.016370483886867 
Si 0.881245017 5.04900405 24.64173548376658 
Si 0.206661456 8.11272951 22.32046498950536 
Si 3.22641369 5.33523564 24.56121175355881 
Si 2.29882851 4.99327596 28.294886986866786 
Si 3.2079082499999996 6.45127983 26.699564144631992 
Si 0.213315921 5.33210796 33.93929538239326 
Si 3.47949513 6.670983059999999 31.783220229073414 
Si 1.7547425099999998 6.55051851 30.139425460693968 
Si 2.8404873 8.13793014 33.770672041017335 
Si -0.0012931474409999999 8.15176035 2.661132741344646 
Si 1.3599804239999997 9.49992075 4.067699595651346 
Si 2.72883564 10.84435074 2.685646372452173 
Si 1.3415841269999997 12.21406281 1.320781143431876 
Si 9.477196199999998e-05 8.14506516 8.145374672567257 
Si 2.71450044 8.14477194 5.430192648370928 
Si -0.000975743307 10.86020091 5.429849848327473 
Si 2.7150868799999994 10.859907689999998 8.145168992541183 
Si 4.07381949 9.49697226 12.22496942972652 
Si 1.357141077 9.50296698 9.502725724635 
Si -0.0028269340199999996 10.862888759999999 10.862030736950445 
Si 0.508709007 11.40326064 16.774474486455052 
Si 2.84469012 8.20274805 16.520836734302073 
Si 1.368190584 9.573046559999998 15.26601717523197 
Si 2.63746503 10.748532959999999 13.631546568034524 
Si 1.8680231699999998 10.718722259999998 20.581851729106035 
Si 3.73041 9.36080415 20.118626030384156 
Si 1.6709141699999999 9.88032483 22.759043365102762 
Si 3.8557941299999996 9.200298779999999 23.598732071547843 
Si 0.7638218099999999 11.22335388 24.410893934503424 
Si 0.45230813999999997 9.29020329 25.711991499440064 
Si 1.96372692 8.7055389 29.080139046411073 
Si 2.4682445099999994 8.70404022 26.78389295532213 
Si 2.1138718499999998 10.2117123 32.61217929415833 
Si 0.1071315108 11.186261550000001 33.799021604611134 
Si 2.6970375599999996 10.75586346 30.159547823244825 
Si 3.90723795 11.715344459999999 33.06477819153307 
Si 0.20288869199999998 16.08342651 0.2654170472462058 
Si -0.0024680978999999997 13.56903243 2.7114180797191834 
Si 1.358100558 14.93371089 4.072807316298838 
Si 0.000237630375 13.57499457 8.144860472502073 
Si 2.71386513 13.57582536 5.4308439684534955 
Si 1.3575173759999999 12.21743484 6.787612260447364 
Si 0.001560243168 16.286155559999997 10.860625256772277 
Si 1.357193205 14.93327106 9.501765884513325 
Si 2.7177910199999995 13.572160109999999 10.862990577072122 
Si 1.354702464 12.21670179 12.2387157114691 
Si 2.7548996399999996 16.233001289999997 13.603574084488528 
Si 3.66075396 12.44599983 14.963393296869155 
Si 1.87910037 13.44268719 16.411552080448352 
Si 0.010495370070000001 13.62060657 13.687662935148245 
Si 1.081686951 15.307598969999999 15.070586870457797 
Si 0.0420277113 14.23609164 20.724353707170625 
Si 2.07966285 13.04410347 20.512777520349676 
Si 2.75823909 16.09364034 18.576951394950203 
Si 3.03583698 13.75209945 18.47561970210466 
Si 2.52874557 12.753033749999998 24.613351640168442 
Si 3.03274188 13.71525147 22.530018656069917 
Si 2.63687859 16.05267099 22.86921929906947 
Si 2.62544301 14.05962207 28.006797830346493 
Si 1.451849508 12.660881219999998 29.509084740787365 
Si 2.82352941 16.13451195 29.019360598706356 
Si 1.74153132 14.533221239999998 25.896726442858416 
Si 2.7328266899999996 13.44372975 34.17678725249947 
Si 3.2394294 15.69973185 31.28091532539757 
Si 1.6505353799999998 13.971688649999999 31.802451311511287 
Si 6.788710889999999 4.07336337 4.07263591627711 
Si 8.16143661 -0.010434738689999999 2.6854098404221887 
Si 7.57783107 3.1743997200000003 0.16591316423236596 
Si 4.07295612 1.358659305 4.075652556659522 
Si 5.4174024 2.71919196 2.716899452414042 
Si 6.71740956 1.320995196 1.3519622353846195 
Si 8.14312665 2.71555929 5.430981088470877 
Si 5.4291312000000005 0.0010843373339999999 5.431323888514333 
Si 5.4297828 2.71492398 8.144826192497728 
Si 6.78703302 1.3575760199999998 6.788092180508203 
Si 5.42737188 0.00283561659 10.862030736950445 
Si 6.776232749999999 1.366387281 12.225552189800396 
Si 7.2243543599999995 0.907268292 16.052743274963124 
Si 4.399163369999999 1.073089089 14.932472732949439 
Si 5.4607500899999994 2.7619857899999998 13.684303494722379 
Si 4.29471189 3.28284225 20.28471265143851 
Si 4.90131891 0.05844852 19.60329472505699 
Si 5.540619959999999 2.1080237399999997 18.65637816501892 
Si 7.72255143 2.3251205699999997 17.916855631271638 
Si 5.261441939999999 2.4720400799999998 22.30263938724566 
Si 7.6827223799999995 2.13309405 22.361326754685297 
Si 4.60770795 3.37102002 24.47760282295993 
Si 4.7851875 0.174405627 22.05016715524043 
Si 4.266839699999999 1.5764109929999999 26.053660302752498 
Si 8.109764729999998 1.413343206 26.118655190991724 
Si 4.5256063499999994 1.5341270399999998 28.46306468818622 
Si 6.368624369999999 3.3155525699999995 28.481747290554562 
Si 6.1092387 0.189309348 25.788950109195902 
Si 7.905064589999999 0.37958958 30.677621528919634 
Si 5.092058519999999 0.309599595 34.16101845050051 
Si 4.0757579999999995 6.786951569999999 4.067562475633964 
Si 6.772893299999999 6.670754999999999 1.1844118581447083 
Si 8.14568418 5.42605239 2.6973872739405356 
Si 4.07248371 4.07228823 6.787509420434328 
Si 5.4309231 5.42862621 5.430946808466531 
Si 6.7875054299999995 6.78778236 6.7875437004386745 
Si 6.7867723799999995 4.07158776 9.503068524678458 
Si 4.07215791 6.787489139999999 9.502691444630656 
Si 5.42965248 5.42953845 10.862613497024322 
Si 6.78537144 6.80083065 12.223563949548351 
Si 7.91340507 4.44115899 17.05581048211926 
Si 6.809529509999999 4.21221933 14.96521013709947 
Si 4.67798301 4.74213303 16.094084960203897 
Si 7.102928699999999 5.73942312 21.145175040517014 
Si 7.44861879 7.73028918 19.93365112693538 
Si 5.10093657 5.41378602 19.94842580880833 
Si 6.45903387 7.6621644 17.82872174009914 
Si 5.962726439999999 5.440745969999999 17.826390699803643 
Si 4.25817342 6.93603765 23.13677473298675 
Si 6.556268879999999 6.357302819999999 23.354589880598596 
Si 6.57231453 4.5706970700000005 24.899726796471448 
Si 6.46828659 5.235622289999999 27.151957361980664 
Si 5.10373845 6.9473592 27.951744143367485 
Si 5.79847437 4.787810189999999 34.24407890102985 
Si 6.49773891 4.550481179999999 30.474032583111214 
Si 5.41321587 6.725228759999999 30.320081083595195 
Si 4.5908478 4.38228693 31.885306082014562 
Si 4.19294826 9.40661163 1.1239899224851817 
Si 5.43468609 8.12787921 2.686198280522137 
Si 6.78672351 9.50255973 4.0696192758946985 
Si 4.07241855 9.50264118 6.787303740408255 
Si 5.43005973 8.14498371 8.14496331251511 
Si 5.429489579999999 10.859598179999999 5.429884128331818 
Si 8.14214925 8.14690593 10.861310856859188 
Si 6.78693528 9.502250219999999 9.501937284535053 
Si 5.431379219999999 10.86292134 10.860625256772277 
Si 5.42786058 8.150343119999999 13.647143970011765 
Si 6.787375109999999 9.68678334 15.075660311100943 
Si 6.00850134 10.71114741 17.18466901845431 
Si 7.138815569999999 9.703252529999999 21.08511647290355 
Si 7.19125308 11.27028537 19.304647327198264 
Si 4.51869939 9.029286359999999 17.924397232227665 
Si 5.01707565 10.27597635 21.851171730014315 
Si 4.5938940299999995 12.105147869999998 25.537403437308004 
Si 4.90500045 11.83699818 29.672120441454968 
Si 6.64856802 10.230787889999998 29.266279470007596 
Si 4.35307896 9.80618904 25.831902954640917 
Si 8.12041839 8.36520822 26.47664127637266 
Si 6.02658324 8.998270199999999 27.291374139654156 
Si 5.75670681 10.66200048 34.12790396630267 
Si 7.05146859 8.41798782 30.712861373386897 
Si 7.60436748 9.57596247 32.84274660338672 
Si 4.07170179 12.2161968 4.069893515929463 
Si 4.1044284 14.97028194 1.3153820427474465 
Si 5.43963825 13.572453329999998 2.6993823701934487 
Si 6.84222354 12.243091589999999 1.2802073302884427 
Si 6.78825477 14.929850159999999 4.070099195955537 
Si 4.07269548 14.93258688 6.78788650048213 
Si 5.4299457 13.57499457 8.145100432532493 
Si 6.78794526 12.21735339 6.78757798044302 
Si 4.07243484 12.21679953 9.50173160450898 
Si 6.78807558 14.93261946 9.502314364582856 
Si 4.089979169999999 14.92020648 12.220444469152904 
Si 6.77471778 12.21811902 12.226614869935108 
Si 4.59821088 12.489070589999999 17.09687792732527 
Si 5.39047503 13.545542249999999 13.679127214066193 
Si 7.28226531 14.348818439999999 14.998804541358142 
Si 8.028575369999999 16.15467897 13.566654519808333 
Si 7.403348879999999 15.13375209 17.299746993042433 
Si 6.473173589999999 13.301713529999999 20.265550129009327 
Si 5.47697493 14.32327572 18.455531619558144 
Si 8.06770395 16.13576628 22.68259895541211 
Si 6.171759719999999 15.335634059999999 23.734823688799814 
Si 6.228123119999999 12.95186949 23.999431042343375 
Si 5.072917769999999 12.631314869999999 22.02953059262439 
Si 6.3499560299999995 14.79094533 27.418175875728473 
Si 6.01503363 15.945271019999998 29.467914455568323 
Si 4.72804218 13.09237074 27.643429784283306 
Si 7.07569182 14.7742155 32.33008913839851 
Si 5.20770123 14.010947550000001 30.899858797092058 
Si 9.50166378 1.359587835 4.06883083579475 
Si 10.86806898 2.69966025 2.675410363154582 
Si 8.145 -3.24566847e-05 8.145100432532493 
Si 10.85977737 -9.442824299999999e-05 5.429335648262289 
Si 10.86024978 2.71544526 8.145100432532493 
Si 9.504270179999999 1.358436132 9.501251684448142 
Si 8.147671560000001 2.7121220999999998 10.861756496915682 
Si 10.86031494 -0.00174366531 10.860488136754896 
Si 9.45233766 1.104851331 15.093040273304153 
Si 10.70922519 2.6594728199999995 13.791839868354476 
Si 9.680837489999998 1.5273992699999999 18.90034895594644 
Si 9.632048939999999 2.46391137 21.056492669274988 
Si 11.747908169999999 2.07902754 17.78014697394145 
Si 11.3073777 1.69370388 22.631110388885045 
Si 12.16362897 3.1105755 24.323788443461293 
Si 8.32691043 3.0704369399999996 24.461731180947925 
Si 11.670041969999998 0.0742263624 27.06985675157299 
Si 9.5623929 1.81024254 29.830116981483762 
Si 11.41534782 0.5031573749999999 29.376558243987343 
Si 8.56785582 2.7613179 27.975123106331175 
Si 10.47287358 3.7092330000000002 30.91730731930396 
Si 11.274325289999998 4.01828688 33.163641724065734 
Si 8.53320699 7.816479569999999 0.013368310414664785 
Si 10.87163649 8.14908879 2.727766213791592 
Si 12.218803199999998 6.85344735 1.2917288397489934 
Si 9.55643076 4.1088755699999995 1.2035229605673712 
Si 9.5029344 6.7849479 4.072601636272765 
Si 9.502380539999999 4.0725814499999995 6.78757798044302 
Si 8.14496742 5.430271499999999 8.144826192497728 
Si 10.85850675 5.4305973 5.430329768388311 
Si 9.50137056 6.786707219999999 9.50282856464804 
Si 9.50348826 4.06994247 12.237447351308314 
Si 10.86376842 5.4295873199999996 10.862716337037357 
Si 8.20822149 5.5154682 13.581909121742118 
Si 9.64881135 6.69300714 15.178054684081204 
Si 11.48480838 5.60160972 16.467222807505582 
Si 9.181711889999999 4.699257749999999 20.643761416954156 
Si 9.55691946 7.688489039999999 18.930652479787938 
Si 9.660149189999998 5.3937493199999995 18.409150773678572 
Si 10.99294812 7.97946102 20.74464746974321 
Si 10.207020779999999 6.45139386 24.090170213846136 
Si 8.23250988 7.79945652 24.204699708364735 
Si 10.264719959999999 4.3131033 25.057860456517627 
Si 11.990824649999999 7.70802075 25.022723452063406 
Si 10.66801149 5.970822569999999 21.874927773025806 
Si 10.987930799999999 7.87846302 29.24728834760014 
Si 8.85411999 7.01499528 29.960278157983943 
Si 11.720801609999999 4.355636489999999 28.961255991340593 
Si 9.97441587 4.5834847199999995 27.38146199107435 
Si 8.45617158 6.35137326 27.73327767567308 
Si 8.612979119999999 5.12035425 31.341111013028414 
Si 10.43055216 6.026159699999999 34.22769305895266 
Si 9.458723339999999 9.43186113 1.43591053802652 
Si 8.13579615 10.871799389999998 2.7165875043744974 
Si 10.85994027 10.72670436 0.04069002235816478 
Si 12.18487113 12.171334139999999 1.3517496993576765 
Si 9.50506839 12.218705459999999 4.073355796368367 
Si 8.146987379999999 8.14514661 5.430604008423076 
Si 9.502478279999998 9.50255973 6.787509420434328 
Si 10.86039639 8.14442985 8.145134712536839 
Si 8.14501629 10.86011946 8.144654792476 
Si 10.860412679999998 10.860542999999998 5.4313581685186785 
Si 9.500849279999999 9.50666481 12.232716710708624 
Si 10.86101541 10.85933754 10.862579217019974 
Si 10.83573333 8.19413064 13.692085055708827 
Si 8.15532786 10.92663153 13.622393806874253 
Si 8.32935393 8.378745209999998 16.467634167557726 
Si 10.690784909999998 11.45343384 20.61880557379057 
Si 9.38804103 11.11934223 18.732959694726958 
Si 10.798347779999999 9.75904578 22.187150052605382 
Si 8.59022199 9.7640631 22.933665707239168 
Si 8.36468694 11.97994293 23.684089282368348 
Si 9.463756949999999 12.188748149999999 25.718093340213578 
Si 8.94664719 10.91473983 29.21712194377603 
Si 9.52497477 10.1807613 27.01219778426372 
Si 11.388420449999998 8.7563637 27.04836318884831 
Si 10.87101747 9.87931485 30.453396020495173 
Si 11.977189919999999 9.515314799999999 32.66785002121556 
Si 9.10715256 11.506180859999999 32.95405377749683 
Si 12.215854709999999 14.933482829999999 4.072498796259728 
Si 9.57348639 14.88936951 1.1379350282529652 
Si 10.84694085 13.576069709999999 2.6999102822603707 
Si 8.14438098 13.57387056 5.430706848436112 
Si 9.50242941 14.93214705 6.787509420434328 
Si 10.859972849999998 13.57492941 8.144929032510765 
Si 9.501614909999999 12.21689727 9.502554324613275 
Si 8.14535838 13.575809069999998 10.862270696980865 
Si 9.509727329999999 14.938109189999999 12.211325987996979 
Si 11.025006839999998 16.09495983 16.22668001701262 
Si 9.12746619 12.68802036 14.941762614127091 
Si 10.88468478 13.612038029999999 13.595072643410823 
Si 10.19714904 12.488858819999999 17.08008072519593 
Si 8.309626739999999 14.620160969999999 20.923383412401083 
Si 9.16042086 15.52546143 18.969560284720174 
Si 10.978221959999999 14.5515312 18.00193860205738 
Si 9.67767723 13.068929429999999 22.003889149373894 
Si 11.314138049999999 14.212503719999999 23.209174102164624 
Si 10.16142507 16.15684554 23.711787525879583 
Si 11.620960199999999 13.04778501 25.241806959836033 
Si 11.563766009999998 13.45355262 29.132998813111968 
Si 9.244314359999999 13.24437273 28.94816102968058 
Si 9.657347309999999 15.993505709999999 25.99860661577349 
Si 8.546809139999999 14.05054854 26.865616485682004 
Si 8.15918859 13.46363613 34.077306679888586 
Si 8.967319199999999 14.599896209999999 30.821494707158053 
Si 11.26378566 15.02340363 30.896670756687918 
Si 11.47798287 15.63892128 33.97906018743414 
Si 16.27937892 2.73059496 2.6860337365012783 
Si 13.57320267 0.0129112911 2.713666848004254 
Si 12.24384093 1.212103062 1.1411813446644923 
Si 14.93270091 1.356440607 4.0699963559425 
Si 12.21746742 4.0720927499999995 4.068967955812132 
Si 13.574978279999998 0.0001426785714 8.145237552549874 
Si 13.57554843 2.7145656000000002 5.430809688449149 
Si 12.21764661 1.357426152 6.787235180399564 
Si 14.93129997 1.356763149 9.502177244565473 
Si 13.575499559999999 2.71650411 10.863127697089505 
Si 12.217793219999999 1.3630673789999999 12.258700954002576 
Si 14.92698312 4.05818109 12.265042754806508 
Si 13.82217903 0.10276106669999999 13.701169256860405 
Si 15.53373675 0.714262743 15.457505279506403 
Si 12.4212879 3.6223095599999997 15.212677488470241 
Si 15.30891846 0.705839184 18.374253729254765 
Si 13.4170956 1.5350229899999999 19.41667438139963 
Si 13.26409992 3.88413873 19.552491758616835 
Si 15.341531039999998 1.414646406 22.852833456992283 
Si 15.93939033 3.8367348299999997 22.904219183506314 
Si 13.300752419999998 0.836318826 21.636681742824 
Si 15.08944329 0.699376941 25.16553395016711 
Si 13.54327794 1.3598012339999999 29.696287844518604 
Si 13.0484529 1.6755242399999999 26.008102176977218 
Si 13.39935579 2.94788727 27.973546226131276 
Si 13.27095801 2.82422988 33.95019642377516 
Si 15.658013159999998 3.99034953 30.465599702042198 
Si 14.37198282 2.31435288 31.776672748243406 
Si 16.09570917 0.683122779 32.44794379333863 
Si 14.853922469999999 4.11855183 1.116760269568698 
Si 13.57243704 5.43426255 2.6945557455815905 
Si 14.93333622 6.7877171999999995 4.067185395586162 
Si 16.290488699999997 5.429701349999999 5.430364048392657 
Si 14.93252172 4.072548869999999 6.787338020412601 
Si 13.57442442 5.42992941 8.145134712536839 
Si 12.21741855 6.7874728499999994 6.787303740408255 
Si 12.211684469999998 6.78584385 12.25455307347676 
Si 13.57830144 8.141399909999999 10.864498897263328 
Si 12.2184774 4.07293983 9.501903004530709 
Si 14.93258688 6.787831229999999 9.501525924482905 
Si 14.85753885 6.75148824 15.097668073890807 
Si 16.26022188 5.552283599999999 16.78146760734155 
Si 12.96628614 7.56015642 16.474113088379042 
Si 13.45368294 5.28566517 13.782549987176823 
Si 13.25890341 7.53261003 20.63340885564179 
Si 14.17650282 7.36791813 18.535404029683356 
Si 15.13660284 5.16814911 18.865554751535676 
Si 13.82709861 4.67998668 23.63801695652788 
Si 12.90242934 5.3347143599999995 21.52386624852268 
Si 16.12146366 7.25843304 24.501118905941 
Si 14.013977489999998 6.50974464 25.297203446858497 
Si 12.81832407 6.411825449999999 29.400142886977104 
Si 14.54617179 6.593084279999999 27.741059236659527 
Si 15.21749898 4.38965001 28.131851286199183 
Si 13.947872669999999 7.0392185099999995 31.64195233116526 
Si 16.071176429999998 5.947837379999999 31.683602536445147 
Si 13.48256511 8.08596504 33.88804677589662 
Si 12.217548869999998 9.50003478 4.072293116233654 
Si 14.966274599999998 9.58778901 1.0060187155302889 
Si 13.5910728 10.8455562 2.687007288624693 
Si 13.573968299999999 8.145847080000001 5.430295488383965 
Si 14.932798649999999 9.502380539999999 6.78702950037349 
Si 13.574978279999998 10.86018462 8.145374672567257 
Si 12.215708099999999 9.50205474 9.502965684665421 
Si 14.95609335 9.48258819 12.24509179227738 
Si 12.228854129999998 12.20134032 12.243720592103555 
Si 12.423959459999999 11.531674709999999 17.068425523718435 
Si 12.23745525 9.631348469999999 15.281751697226595 
Si 13.72355937 10.810597859999998 13.761330664486906 
Si 15.152501879999999 12.189611519999998 15.212746048478932 
Si 14.40571941 11.116898729999999 20.886498127725236 
Si 12.6819279 11.7004554 19.435528383789702 
Si 16.176198059999997 10.72885464 19.37283025584163 
Si 16.215636149999998 8.428380839999999 19.005759969309114 
Si 14.330019779999999 9.06678594 22.0302161927113 
Si 12.65329008 9.529487099999999 23.65666527889188 
Si 13.189882679999998 11.37105531 25.064716457386748 
Si 12.347591940000001 11.29300992 29.313140235948012 
Si 15.8951304 8.36660916 28.821942053680136 
Si 13.063586309999998 10.3679334 27.21798065035026 
Si 15.34627143 10.08603495 27.419547075902294 
Si 15.63683616 12.110637599999999 28.62373506855397 
Si 14.340152159999999 11.34505647 30.483493864310596 
Si 14.8486608 9.03958164 30.79372790363813 
Si 14.935062959999998 12.216278249999998 4.070784796042449 
Si 14.8449141 14.88471057 1.3781247347011691 
Si 13.57582536 13.57509231 5.429884128331818 
Si 12.21735339 12.217662899999999 6.78788650048213 
Si 14.93245656 14.93242398 6.787509420434328 
Si 12.21631083 14.932309949999999 9.500120444304738 
Si 14.93276607 12.217679189999998 9.501663044500289 
Si 13.57198092 13.576493249999999 10.861962176941754 
Si 14.94030834 14.92592427 12.227197630008984 
Si 13.753842479999998 13.503155669999998 16.542501697048483 
Si 12.50229807 14.851886219999999 14.940665653988033 
Si 12.84549579 14.05299204 19.480298069465036 
Si 14.989455269999999 14.631352199999998 18.66323416588804 
Si 14.780959559999998 13.13118981 22.104946602184675 
Si 15.139209239999998 12.623723729999998 24.380144770605433 
Si 13.055164379999999 14.72760981 21.731191714804773 
Si 15.672641579999999 14.64218505 25.63222192932789 
Si 15.118634969999999 15.881984369999998 29.344060799867727 
Si 12.4967106 14.197142249999999 27.131834999429806 
Si 14.75528652 14.15452761 27.73612291603376 
Si 14.75111628 12.790663649999999 32.450069153608055 
Si 13.295230109999999 13.77545931 34.17315357203884 
Si 15.72055047 14.824991429999999 31.483955791136463 
