&CONTROL
  dt          = 30.D0,
  prefix = 'x2.33_y.66_z3.18_struc10-scf',
  pseudo_dir = './',
  outdir='./',
  wf_collect= .true.,
  verbosity= 'high',
/

&SYSTEM
ibrav= 6, celldm(1) =30.783621515, celldm(3) =2.120051451958549, nat=  432, ntyp= 1,
  ecutwfc     = 12.D0, nbnd= 1728,
  degauss     = 0.05D0,
  occupations = "smearing",
  smearing    = "methfessel-paxton",
/
&ELECTRONS
  electron_maxstep=200,
  conv_thr    = 1.D-8,
  mixing_beta = 0.3D0,
  scf_must_converge=.false.,
/
ATOMIC_SPECIES
Si  28.08  Si.pbe-hgh.UPF
K_POINTS {automatic}
1 1 1 0 0 0
ATOMIC_POSITIONS (angstrom)
Si -0.00507392775 2.7142397999999996 2.69613855997338 
Si 2.7174000599999997 -0.00981549063 2.7407344295195806 
Si 2.9901598199999997 2.1232386 0.09753416784449542 
Si 1.260557667 1.144807443 1.406394792480379 
Si 4.06156941 4.0265622 1.160642644951682 
Si 0.0013865787359999997 0.000853916913 5.430245600531514 
Si 0.000311279094 2.7146470499999995 8.145230258244663 
Si 2.71539639 0.000337274676 8.144988508777596 
Si 2.71383255 2.7135556199999997 5.430383743084124 
Si 1.357730775 1.357274655 6.787945143217002 
Si 2.7161783099999997 2.71050939 10.860594807977487 
Si 1.3702724459999998 1.3675666770000001 12.23718534473234 
Si 2.12494905 2.4969149099999997 17.087232224303456 
Si 0.0833393142 2.81839806 13.66830765412984 
Si 2.70032814 -0.000314408403 13.758860097365446 
Si 1.519213545 3.99706101 15.253320767134456 
Si 0.9623105729999999 2.45208483 20.354441736073554 
Si 1.5160255919999999 0.243854784 19.598732902022633 
Si 3.89774088 0.16181785529999998 19.265602136404535 
Si 2.4199446599999996 3.82622778 19.08311582440723 
Si 0.809169912 0.40517628299999997 17.390869554939396 
Si 3.9212799299999994 0.42032435399999996 23.23126039416887 
Si 2.9299031099999997 2.51864577 23.578585307067605 
Si 0.730661886 2.83507902 22.736986340931654 
Si 3.80972601 3.17977542 25.64695921165328 
Si 0.035198617499999994 3.93659253 29.549935286170996 
Si 3.71029185 2.55147012 29.350630118393468 
Si 0.265606821 3.00509775 27.380164747969864 
Si 2.48611464 2.19986676 27.352329023619024 
Si 3.25073466 0.8213450579999999 30.969695370616357 
Si 1.581315912 1.20150153 32.709255464352985 
Si 1.361431863 4.07354256 4.069748671155682 
Si 2.7089781299999998 5.41764675 2.6848212313508375 
Si 1.187325972 6.61734009 1.2286502236013974 
Si 2.7147122099999996 5.430141180000001 8.145126651330205 
Si 1.357346331 6.787831229999999 6.787530715559173 
Si 1.356856002 4.0718483999999995 9.502860729653845 
Si 1.347775956 6.77188332 12.244299686191734 
Si 3.62939571 7.1522874 15.079986399247536 
Si 0.8325574649999999 5.98072689 16.574550675931008 
Si 2.68995141 5.350238729999999 13.722770355496182 
Si 0.555120846 6.97775634 20.424963509180763 
Si 1.9511510399999998 6.11725338 18.719697304129475 
Si 3.11596749 7.718202 22.954146433633973 
Si 0.994761882 6.89764212 22.69830642620096 
Si 3.7776672899999997 6.95768706 26.523680921790227 
Si 3.4733863799999996 4.79641131 30.175203014920285 
Si 1.457272449 5.87181195 29.40032690169478 
Si 1.5700464899999997 6.300499589999999 27.047379338733293 
Si 2.6251986599999997 7.94591991 34.35588015582149 
Si 3.9724793999999997 9.389279069999999 1.178352520196235 
Si 1.3578187409999998 9.501549749999999 4.070232170089815 
Si 2.7231993 10.849351769999998 2.6954651150294087 
Si 1.384788465 12.22132815 1.3065833446561141 
Si 0.000259538796 8.14493484 8.144850366224986 
Si 2.7147122099999996 8.145 5.4304873499985815 
Si 0.000651929058 10.85950044 5.4307636351038004 
Si 2.71497285 10.85994027 8.145264793882815 
Si 4.06508805 9.51557544 12.227170009668143 
Si 1.35612621 9.50269005 9.502446301996017 
Si 2.7156244499999995 8.147622689999999 10.863392194667831 
Si 0.0022137458399999997 10.85782257 10.861389127654991 
Si 0.371708478 8.23755978 16.006301285771336 
Si 2.35988343 9.447629849999998 15.794010718048506 
Si 2.75548608 10.828109609999998 13.764454870746135 
Si 2.53161261 10.806720839999999 17.894986265050047 
Si 1.1012039999999998 11.15762373 19.883513774227364 
Si 3.9332367899999996 9.39131532 19.24553693063799 
Si 2.6845105499999997 11.592827369999998 21.72343443243488 
Si 3.83707692 9.505524509999999 21.61136628663033 
Si 3.1329416699999997 8.711892 25.07584336352696 
Si 2.7409554 9.302599979999998 29.632613603907853 
Si 0.692171874 8.15809716 29.442115023859188 
Si 2.20393926 11.597714369999998 29.4451541600166 
Si 0.9816858989999999 8.41477869 26.15079963665871 
Si 1.0561654079999998 12.094852589999999 27.460874534332035 
Si 0.828784701 11.571927299999999 31.312876006936804 
Si 3.59696232 9.6462864 31.81322833248884 
Si 1.412100279 9.67046076 33.06832249422354 
Si 4.07178324 12.2189661 4.070024956260901 
Si 4.0593050999999996 15.056749259999998 1.291318592592751 
Si 0.00592983693 13.584312449999999 2.694967801840014 
Si 1.357864353 14.93045289 4.074652731773323 
Si -0.000393869394 13.5752715 8.145299329520967 
Si 2.71313208 13.575434399999999 5.430798170741953 
Si 1.357766613 12.217744349999998 6.787496179921021 
Si 1.3576265189999999 14.93270091 9.501859196147425 
Si 2.7157221899999997 13.57595568 10.863115909562612 
Si 1.347832971 12.21411168 12.257077872308123 
Si 1.167199677 14.14100691 17.021441833623125 
Si 0.831192363 15.34962717 14.961736374213704 
Si 3.38219496 13.090513679999999 17.242884345456343 
Si 0.09814659839999999 14.81378391 20.487921977532597 
Si 0.569589624 14.40358542 22.791759863041367 
Si 1.331051013 12.30461892 23.611083342569017 
Si 2.79526626 14.97608118 22.3082609289077 
Si 2.58706377 12.55843341 25.646026749423164 
Si 3.49023024 13.507456229999999 30.012781908689526 
Si 2.15407557 15.42074931 29.633649673052428 
Si 3.74166639 14.511132 26.43081459079841 
Si 0.024222252599999997 15.7011165 26.55604081473903 
Si 2.2169549699999997 16.101166319999997 27.327187079044073 
Si 0.85543677 15.33683952 33.66551274915492 
Si 2.6394687 13.835162159999998 34.39625231682165 
Si 6.78915072 4.070105369999999 4.074652731773323 
Si 4.07368917 1.360412109 4.072787807313093 
Si 5.430255209999999 2.72072322 2.695161201413667 
Si 6.70449159 1.216074564 1.324638576282191 
Si 5.42957103 -5.0026264200000004e-05 5.429865708511838 
Si 5.430173759999999 2.71441899 8.144643152396071 
Si 6.78766833 1.3577177429999998 6.787599786835479 
Si 8.14182345 2.71073745 10.856761352142568 
Si 4.07323305 1.358328618 9.501997338700034 
Si 5.43002715 0.00280663668 10.860629343615638 
Si 6.79317435 1.352358333 12.223750981491055 
Si 7.381145609999999 3.63858327 14.864932980472513 
Si 8.13569841 0.0385383933 13.724428066127498 
Si 4.59417096 0.79680906 15.055293417968569 
Si 5.497255979999999 2.7110469599999996 13.640092037759326 
Si 7.98179049 2.19152628 19.573211065428005 
Si 6.06913272 2.8787687999999996 18.330791482895243 
Si 4.26775194 1.46709369 17.295862014382134 
Si 5.044165919999999 0.9533233799999999 21.220319255830645 
Si 7.3813248 0.572657031 21.223600141455126 
Si 4.656529079999999 3.91715856 19.867282024295733 
Si 4.55885424 3.49345566 22.161035503464 
Si 6.82969653 3.73216932 22.940401249649316 
Si 8.138255939999999 0.46597219199999995 23.48844729148983 
Si 7.4520722699999995 2.3430232799999997 24.704930609770134 
Si 5.58918045 1.6905110399999999 25.995458336249193 
Si 7.6309527600000004 1.108692513 29.090058728533574 
Si 5.88196062 2.31796926 28.21395865988337 
Si 7.278404579999999 2.03949171 31.32762272442788 
Si 5.48665119 0.5758661609999999 32.17675045968105 
Si 4.90933359 0.607252104 34.506800894547496 
Si 4.07562768 6.78807558 4.068816208925567 
Si 6.76414557 6.658716689999999 1.198272676282542 
Si 4.07253258 4.07253258 6.787599786835479 
Si 5.42906604 5.42779542 5.430141993617058 
Si 6.787358819999999 6.78770091 6.787288966092107 
Si 6.78875976 4.07132712 9.502549908910474 
Si 4.0723696799999995 6.78688641 9.503827727522113 
Si 4.07460141 4.0736403 12.238290485153216 
Si 5.43203082 5.42906604 10.862010769141735 
Si 6.76857645 6.799152779999999 12.235942061758852 
Si 5.49960174 6.972087419999999 16.696185193503776 
Si 6.68627937 4.822182089999999 16.893349151715853 
Si 5.39063793 6.14706408 20.267929962501782 
Si 7.76368368 6.03205668 20.126920951925513 
Si 4.108810409999999 7.15539879 18.582901641407798 
Si 6.278149709999999 5.75686971 23.971186441584145 
Si 7.0389415799999995 7.945724429999999 23.988730545765563 
Si 4.538687219999999 5.9474464199999995 22.451065792667894 
Si 5.16521691 5.15591532 25.962753086918866 
Si 5.75126595 5.29586271 29.794516675566328 
Si 6.16724739 7.56273024 29.601876885952215 
Si 6.62890599 4.51663056 27.7368488188079 
Si 8.04380652 7.89887439 28.066491484972605 
Si 5.65285806 5.21496657 34.133332503567395 
Si 6.89484024 4.458784769999999 31.803592889444324 
Si 4.13816499 6.60176685 32.96768564464743 
Si 8.15203728 10.8563076 2.7028177523920554 
Si 5.42315277 8.138760929999998 2.6839647475246577 
Si 6.78814074 9.503309069999998 4.07030124136612 
Si 6.74766009 12.18026106 1.3078024526828937 
Si 4.07253258 9.502657469999999 6.787116287901346 
Si 5.4299457 8.14539096 8.145230258244663 
Si 5.42953845 10.85971221 5.429623959044771 
Si 6.787489139999999 9.50282037 9.503137014759064 
Si 5.42971764 10.86160185 10.862839624457392 
Si 6.800293079999999 12.21160302 12.247615107454365 
Si 6.23208159 10.76891175 16.67183756860633 
Si 5.2993324799999995 8.156631059999999 13.65566761056606 
Si 6.92365725 9.033880139999999 15.122741519280215 
Si 4.439676599999999 12.156526529999999 15.253251695858152 
Si 7.64214399 9.595119509999998 20.523079257171744 
Si 6.1505338499999995 9.50894541 18.732440954607714 
Si 8.06969133 12.16105515 17.31520197174748 
Si 6.11192655 9.50980878 22.397604624807972 
Si 6.163516979999999 11.29473666 23.941313114582314 
Si 4.21225191 10.831106969999999 25.30574710670752 
Si 8.13159333 10.85879997 25.243755636223955 
Si 7.15372092 8.93151378 26.1391265909632 
Si 5.38299792 10.07021736 27.158031523373594 
Si 6.43204134 11.842015499999999 28.248874190055453 
Si 4.39355961 8.33629347 28.31618414881449 
Si 5.45513004 8.14612401 31.834226000485504 
Si 5.74518978 10.531664189999999 34.36838205683266 
Si 5.1911505899999995 11.383451999999998 32.19032296547495 
Si 7.291892699999999 9.201976649999999 32.883971257766 
Si 7.18294518 11.69004609 30.477527991306438 
Si 5.42067669 13.58084268 2.697336946617269 
Si 6.79310919 14.92677135 4.0705775264713395 
Si 4.07253258 14.9320656 6.787876071940698 
Si 5.4297990899999995 13.575304079999999 8.144850366224986 
Si 6.787896389999999 12.21736968 6.787565251197326 
Si 4.07170179 12.21676695 9.502239088167103 
Si 6.786479159999999 14.93183754 9.502273623805255 
Si 4.05140445 14.93480232 12.230658109121537 
Si 5.4743359499999995 13.66929738 13.627348387281089 
Si 6.408714059999999 15.298802369999999 15.075013267353592 
Si 4.304469599999999 13.435421849999999 21.34765215369856 
Si 4.73731119 14.24350359 18.999574115716563 
Si 6.88905729 14.32472553 17.51647567089969 
Si 6.36854292 13.310021429999999 22.786683124232965 
Si 7.07836338 14.897123549999998 24.46345742780852 
Si 5.07809799 15.87361131 25.097359066095912 
Si 5.10021981 13.84506648 28.293252485081293 
Si 7.0721243099999995 15.12712206 28.601862947611185 
Si 7.79942394 13.82571396 34.46418391706743 
Si 4.17372606 13.545411929999998 32.44267487345457 
Si 6.3286161299999995 14.65772571 32.60951654136884 
Si 7.644587489999999 14.03047926 30.644956765069296 
Si 8.158113449999998 -0.01068400827 2.695116305084069 
Si 8.51098743 2.15531361 0.11990566352686018 
Si 9.502152480000001 1.359366291 4.071440917425149 
Si 10.877158799999998 2.6842662 2.7195571762045256 
Si 9.45777852 3.92419584 1.4324657457216292 
Si 8.144462429999999 0.000372578364 8.144677688034223 
Si 8.14462533 2.71559187 5.430936313294563 
Si 10.85873481 0.00010157629499999999 5.429589423406618 
Si 10.85985882 2.71528236 8.1450575800539 
Si 9.50164749 1.3579620929999998 9.50147930412775 
Si 10.858555619999999 0.001428396795 10.863703015411202 
Si 9.12616299 1.8435393 15.162215753688413 
Si 10.89364428 2.72093499 13.658844889276082 
Si 9.47041956 1.490807043 17.794556629302857 
Si 8.334990269999999 3.95962659 21.118922622215187 
Si 11.67085647 1.94805594 20.80937969745518 
Si 10.69151796 3.2648580899999997 18.744321214132142 
Si 10.55580597 3.71384307 21.914796403437354 
Si 10.48686669 0.298279674 23.532514765772294 
Si 10.97888985 2.53102617 23.894655467438415 
Si 9.49534326 2.876814 25.719173231029956 
Si 12.169656269999999 4.0294781099999994 29.425814202651253 
Si 9.583602479999998 1.4656911209999999 27.684492791368854 
Si 11.71146744 1.9589050799999999 28.48706648639259 
Si 10.636066799999998 3.73616037 32.495997898761885 
Si 9.40188753 1.72880883 32.43835791868552 
Si 10.870007489999999 8.139021569999999 2.7117935647478655 
Si 12.19032828 6.64149816 1.4045609500944862 
Si 8.13675726 5.426101259999999 2.7039090785576714 
Si 9.502413119999998 6.78818961 4.069783206793834 
Si 11.13302583 4.85226972 0.16268392243709937 
Si 9.50239683 4.07253258 6.787979678855155 
Si 8.14550499 5.430206339999999 8.144815830586833 
Si 10.86039639 5.42919636 5.430141993617058 
Si 10.857399029999998 5.43203082 10.851408328228947 
Si 12.222712799999998 6.78605562 12.181686574221425 
Si 9.503243909999998 6.786397709999999 9.501237554660683 
Si 9.50169636 4.08144321 12.21204340015739 
Si 8.19676962 5.49259704 13.599927090588078 
Si 10.065819059999999 6.453267209999999 14.854606824664945 
Si 10.917867509999999 8.11175211 13.505748405346472 
Si 10.079584109999999 7.546179599999999 16.98407427314222 
Si 11.34282474 4.8223449899999995 14.094201143825297 
Si 8.67501144 5.48023293 17.960396763710705 
Si 9.10764126 7.782433469999999 20.90114088802612 
Si 11.32213644 7.29441765 20.227626872777922 
Si 11.84252049 6.45676956 18.121816336435042 
Si 11.74971636 5.74049826 22.09738632234912 
Si 10.77070365 6.59653776 24.12808184571052 
Si 10.304239499999998 5.078505239999999 25.938439997659575 
Si 10.32755049 5.51968731 29.411447377179854 
Si 11.463712829999999 7.57869444 29.116892919377992 
Si 8.76978666 5.66799147 27.661319378168592 
Si 9.17798148 5.3003424599999995 31.54129471767681 
Si 10.182374009999998 6.57521415 33.32948098993202 
Si 8.431736579999999 7.85166597 34.5060756461463 
Si 9.530708849999998 9.44792307 1.3141052066457077 
Si 12.16978659 12.193341929999999 1.343836937531113 
Si 9.50107734 12.22056252 4.071717202530369 
Si 12.21909642 9.50304843 4.07403109028658 
Si 8.14400631 8.14421808 5.430280136169666 
Si 9.50198958 9.50283666 6.787461644282868 
Si 10.85969592 8.14449501 8.144746759310529 
Si 8.145097739999999 10.86008688 8.145195722606509 
Si 10.85964705 10.85933754 5.430280136169666 
Si 12.21517053 9.50093073 9.501824660509273 
Si 8.14664529 8.14495113 10.861458198931297 
Si 9.50834268 9.49451247 12.222438627241264 
Si 10.86406164 10.859744789999999 10.859973166490743 
Si 12.203539469999999 12.212759609999999 12.230761716035992 
Si 8.18789157 10.665062999999998 13.759792559595562 
Si 11.132504549999998 9.84987882 16.456162508344562 
Si 9.637212869999999 11.73341007 15.436394184980355 
Si 10.95556257 11.29807611 20.408455474143913 
Si 8.68739184 11.57658624 19.819035737796824 
Si 12.13204266 10.32442281 24.82179920927787 
Si 9.96478848 10.39541463 23.882878814828445 
Si 9.253876589999999 8.16707295 23.228324864925916 
Si 9.79156062 9.23823819 28.945078119569782 
Si 10.414995209999999 11.414321549999999 28.16726647710132 
Si 10.71585522 10.93039452 34.45358147615464 
Si 10.98296235 10.35112212 32.15644350444744 
Si 8.918270009999999 10.11284829 30.99373217477043 
Si 12.13820028 8.46886149 31.1598485942835 
Si 9.600462629999999 15.03391068 1.0703733939489264 
Si 10.84423671 13.58191782 2.6959935102931403 
Si 8.144136629999998 13.573626209999999 5.431212598399782 
Si 9.50255973 14.931886409999999 6.787081752263193 
Si 10.86007059 13.574750219999999 8.144746759310529 
Si 9.50303214 12.217581449999999 9.502100945614494 
Si 8.145244349999999 13.573284119999999 10.863323123391526 
Si 9.50164749 14.92970355 12.249618174467205 
Si 10.75500009 13.414912739999998 13.7431463820061 
Si 11.61014364 14.666750369999999 17.409069836245717 
Si 10.94464827 16.038417239999998 21.337878568101434 
Si 8.888084639999999 15.18962679 20.592979388792212 
Si 12.15155808 13.03563267 19.33871408237318 
Si 9.21880422 15.405453 18.201213768547422 
Si 8.4255138 13.135343759999998 21.59351136170553 
Si 10.45744695 12.25682406 22.541100201331215 
Si 11.80396206 16.08720579 25.3830378648926 
Si 11.19087162 12.93808815 29.852122120004537 
Si 8.25122709 14.480832599999998 26.595066085851247 
Si 10.279283219999998 15.565697729999998 27.052525148818 
Si 8.45783316 12.218233049999998 27.070276466828336 
Si 11.99536956 14.64277149 28.45146024345746 
Si 9.85343004 14.14507941 31.4714981929708 
Si 10.95983055 16.239549869999998 31.910308011335253 
Si 9.512105669999999 12.72649734 33.355797146204154 
Si 11.514146669999999 15.758994869999999 34.25013203179883 
Si 13.59320679 0.012405242249999998 2.6882264452726643 
Si 13.1341383 3.1374377099999995 0.03282688384790008 
Si 12.22588935 1.316420964 1.1827938032626344 
Si 14.92768359 1.3590763289999999 4.071993487635588 
Si 13.57551585 -0.000441432936 8.14491943750129 
Si 13.575434399999999 2.7150705900000003 5.431247134037934 
Si 12.21743484 1.358296038 6.787807000664393 
Si 14.93235882 1.356930936 9.501444768489597 
Si 13.578431759999999 2.7124967699999996 10.86121644946423 
Si 12.21642486 1.3568853239999998 12.232281284114698 
Si 15.302369879999999 0.9136067309999999 14.689008439724164 
Si 14.853222 1.140212034 16.948709779674157 
Si 12.95501346 0.289597104 18.237338046054838 
Si 13.99583043 1.70606799 21.283346795458787 
Si 15.08646222 3.1628664 19.78052850125689 
Si 14.19953688 3.21970221 17.602054982241352 
Si 15.02799741 1.64279763 23.442825713490503 
Si 13.238068499999999 3.0157514099999996 24.468568702255073 
Si 12.97130346 1.6507797299999998 26.492667918729367 
Si 14.90321601 0.569719944 29.873499680020878 
Si 12.51489024 0.226341405 29.854090651379224 
Si 15.08183586 1.170328986 27.524558251085068 
Si 16.03354653 2.30672916 31.332664927598127 
Si 14.540095619999999 3.67065828 32.75487704235231 
Si 12.22196346 4.07142486 4.0740656259247325 
Si 14.819273639999999 4.08025404 1.3415126890834561 
Si 13.5791811 5.42119797 2.745935496625333 
Si 14.93283123 6.78822219 4.073409448799836 
Si 16.28858277 5.42991312 5.430245600531514 
Si 14.93187012 4.07274435 6.78832503523668 
Si 13.574733929999999 5.43069504 8.145575614626186 
Si 12.217614029999998 6.787342529999999 6.787876071940698 
Si 16.28907147 5.434555769999999 10.860007702128895 
Si 12.217874669999999 4.07381949 9.500408699345025 
Si 14.93276607 6.786984149999999 9.501962803061884 
Si 14.92628265 4.07582316 12.230036467634791 
Si 16.02549927 7.95369024 13.643718279765329 
Si 14.08778748 7.216469999999999 14.852569222013951 
Si 13.42294371 5.33733705 13.585042230544394 
Si 15.03083187 4.89985281 15.650411534610807 
Si 14.118542999999999 6.541005149999999 18.33386515469081 
Si 15.0032529 5.49243414 20.229802617981527 
Si 12.215561489999999 4.30204239 17.317757608970755 
Si 16.20638343 4.931553149999999 23.527127206220523 
Si 14.07646593 7.74840366 23.406252472687104 
Si 14.11803801 5.607294929999999 22.4195692906729 
Si 12.41667783 8.01472887 25.059887898700552 
Si 14.28916446 5.03812233 29.33584886526424 
Si 16.27054974 4.92013386 25.96479068956986 
Si 12.652003169999999 4.406396129999999 26.271052728705385 
Si 14.36264865 5.78220066 27.134305539962895 
Si 13.09126302 7.74192024 27.30674198125785 
Si 15.57745911 5.697166859999999 34.341686008540854 
Si 12.497671709999999 6.73619193 32.59936306375204 
Si 12.65493537 4.525296839999999 31.649322193817532 
Si 13.91918598 7.48385406 34.50124065680496 
Si 16.291629 8.14192119 2.6954720221570385 
Si 14.833950929999999 9.39022389 1.2573631531613068 
Si 13.57141077 10.84708746 2.70043479335954 
Si 14.932228499999999 9.50236425 6.787634322473631 
Si 13.575043439999998 10.85984253 8.145161186968357 
Si 13.57408233 8.14368051 5.430521885636733 
Si 13.5772263 8.146987379999999 10.86021491595781 
Si 14.93553537 9.519159239999999 12.238843055363656 
Si 12.545596889999999 9.1409706 14.758874035706478 
Si 13.56409656 10.928846969999999 13.684919296081148 
Si 15.109349669999999 8.75678724 17.99500147313941 
Si 12.36922506 9.432382409999999 20.146329980567163 
Si 15.98580054 9.194304059999999 20.166187972504797 
Si 13.05983961 10.08225567 17.924652378222966 
Si 13.779450359999998 11.162527019999999 23.295358538579734 
Si 16.18162263 8.457360750000001 24.051619942841093 
Si 15.869278169999998 10.82540547 24.360230405370984 
Si 14.104940849999998 9.438002459999998 21.704301688898447 
Si 16.022844 10.31044599 26.75955933037115 
Si 12.46403286 11.321826929999999 26.95409858008365 
Si 14.00526234 9.817950419999999 27.98388223851205 
Si 16.05631995 9.359028539999999 31.30462198941838 
Si 12.91482603 11.90681712 31.216556112129744 
Si 13.8160377 9.886580189999998 30.397888809726993 
Si 16.05195423 11.047177529999999 34.45406497508878 
Si 13.268384189999999 13.964993459999999 0.1761811405398222 
Si 12.21500763 14.930583209999998 4.068367245629585 
Si 14.930827559999999 12.2204322 4.067469319037623 
Si 15.214550489999999 15.11578422 1.1274469895595904 
Si 13.5741312 13.57483167 5.430072922340753 
Si 12.217548869999998 12.21771177 6.787219894815802 
Si 14.93276607 14.93200044 6.787081752263193 
Si 16.2901629 16.28923437 10.863772086687506 
Si 12.21828192 14.93177238 9.502446301996017 
Si 14.93074611 12.21609906 9.502446301996017 
Si 13.57734033 13.575238919999999 10.857935563839751 
Si 14.93447652 14.921151299999998 12.20776098102649 
Si 12.47033709 14.384379509999999 15.064583504631564 
Si 14.241337019999998 12.7321011 15.087860524746285 
Si 13.49922978 16.14260808 13.563526527975444 
Si 16.10800812 13.551471809999999 13.713860160852862 
Si 12.72198501 14.523740459999999 21.059279575125984 
Si 14.349632939999998 15.93640926 20.18518257348862 
Si 16.12473795 12.98096343 18.9476670515735 
Si 13.918746149999999 12.33247482 17.71004792274392 
Si 13.447378709999999 14.49697599 24.870908886730593 
Si 12.64366269 13.22524827 23.022181640794212 
Si 15.48581157 15.680542229999999 24.316646430022647 
Si 15.751941299999999 13.818139109999999 27.86262761295896 
Si 16.16011983 14.83062777 30.02759769745691 
Si 13.524723629999999 13.47275853 27.037640288774313 
Si 16.22801655 13.660468199999999 32.090031472280366 
Si 14.34362193 12.60963288 33.07305387665042 
