&CONTROL
  dt          = 30.D0,
  prefix = 'x2.33_y1.33_z3.17_struc8-scf',
  pseudo_dir = './',
  outdir='./',
  wf_collect= .true.,
  verbosity= 'high',
/

&SYSTEM
ibrav= 6, celldm(1) =30.783621515, celldm(3) =2.1173634481158685, nat=  432, ntyp= 1,
  ecutwfc     = 12.D0, nbnd= 1728,
  degauss     = 0.05D0,
  occupations = "smearing",
  smearing    = "methfessel-paxton",
/
&ELECTRONS
  electron_maxstep=200,
  conv_thr    = 1.D-8,
  mixing_beta = 0.3D0,
  scf_must_converge=.false.,
/
ATOMIC_SPECIES
Si  28.08  Si.pbe-hgh.UPF
K_POINTS {automatic}
1 1 1 0 0 0
ATOMIC_POSITIONS (angstrom)
Si 2.7341461799999998 -0.0022112371799999997 2.6876981243959386 
Si 1.2779749349999998 1.235070333 1.27608119879094 
Si 3.96441585 3.9015853199999997 1.194394149086465 
Si 1.3585355009999998 4.0728258 4.067692921398537 
Si 4.0735262699999994 1.3545737729999998 4.071693976064635 
Si 0.0012029285339999998 0.0008754897599999999 5.430465937411632 
Si 0.000189828999 2.7146796299999996 8.145078052807191 
Si 2.71459818 0.000272679939 8.1451815283589 
Si 2.7169439399999997 2.7153801 5.43081085591733 
Si 1.357958835 1.357589052 6.787375338827859 
Si 2.71393029 2.71762812 10.860966366673834 
Si 1.340461746 1.359338598 12.217220422929234 
Si 2.70868491 0.0383746788 13.575612973919963 
Si 1.5981874649999999 3.7839389399999996 15.042413411251596 
Si 3.52202832 1.8572717699999999 14.862193492024351 
Si 0.63394164 2.7391146299999996 17.45856754366661 
Si 2.1447414 2.80401399 19.491103314044228 
Si 1.76477715 0.48466659599999995 19.383626707668707 
Si 2.8827598500000002 2.88741879 23.427934154380917 
Si 2.4967357199999998 0.568592676 23.432763013460686 
Si 0.32036239799999994 0.21181235399999998 24.253910499976094 
Si 1.589413671 3.8424852 21.690165738972873 
Si 2.39345712 3.9137050799999997 25.506102643062388 
Si 0.763787601 0.520980264 29.570173920151095 
Si 0.056834832599999996 3.73088241 25.99430029602744 
Si 0.0327688011 1.4019190289999999 26.254886227082338 
Si 1.8523359 1.4497155179999999 27.72227302587366 
Si 3.14450757 3.36136005 27.69868060008391 
Si 2.73755079 2.2172156100000002 34.17090390025544 
Si 3.96855351 0.7093138410000001 32.75801422536441 
Si 1.3254374789999999 3.46636539 32.760014752697465 
Si 2.71634121 5.42514015 2.6771332705664066 
Si 1.421952471 6.7952268899999995 1.1404937342010268 
Si -0.00165224583 5.43087423 5.430086527055364 
Si 2.7152334899999997 5.42997828 8.145043560956621 
Si 1.357538553 6.787456559999999 6.787685765482987 
Si 1.3581803789999998 4.073053859999999 9.501849486821138 
Si 0.00177508872 5.42786058 10.86331181251258 
Si 1.3733659169999999 6.78825477 12.234397364512999 
Si 0.141253848 5.36856498 16.468685924163704 
Si 2.8062620099999998 5.45578164 13.703094853625972 
Si 2.8652318099999996 6.589972889999999 19.486515897918444 
Si 0.593171028 6.67041291 18.61463089921485 
Si 0.383183154 7.57556676 22.417840310444102 
Si 4.01722803 6.85681938 23.148136262558637 
Si 2.1974884199999996 6.18985791 21.727037527232 
Si 3.6308129399999998 5.8538277899999995 25.234341352422874 
Si 0.20347839 4.49048511 29.97593605025431 
Si 2.4668924399999996 4.83337332 29.40816569802471 
Si 2.28848436 7.34133285 26.499674890576262 
Si 3.02376609 7.053244199999999 28.739886093234688 
Si 0.23781771000000002 5.25041361 33.968781655916366 
Si 3.28010553 4.18957623 31.517859738126983 
Si 1.3575271500000001 9.50176152 4.069383022076458 
Si 2.7166507199999996 10.87662123 2.7013258545560697 
Si 0.0001454861529 8.145309509999999 8.144491691347504 
Si 2.71446786 8.144397269999999 5.430362461859922 
Si -0.0013649961149999998 10.860168329999999 5.429776100400236 
Si 2.7146470499999995 10.859663339999999 8.144836609853202 
Si 4.07165292 12.21608277 9.502539323832535 
Si 1.357155738 9.50174523 9.502815258637094 
Si 2.71393029 8.14392486 10.860897382972695 
Si 1.3258105199999999 10.161750869999999 17.033938371301712 
Si 3.49935264 9.21549735 16.92315054727149 
Si 0.12451554719999999 8.22299652 13.627902619383791 
Si 1.75146822 9.46984941 14.892753271629202 
Si 2.8584877499999997 10.99794915 13.564368630634204 
Si 3.1410866699999995 10.31640813 20.905338171107477 
Si 3.8336071499999997 8.722236149999999 19.28432466987823 
Si 1.003494951 9.755494559999999 21.747698145723312 
Si 0.9954330299999999 10.655256419999999 23.897885618394543 
Si 2.54777229 9.36746676 25.246723926777435 
Si 2.89183338 10.393867079999998 29.471354768268597 
Si 2.3803273799999998 10.647453509999998 27.17174859892896 
Si 0.0460099647 10.99439793 27.320167031930843 
Si 3.80459466 8.16190902 32.404817675529586 
Si 2.51139672 8.639792459999999 34.381959533892086 
Si 0.701041779 10.38402792 34.26492868490873 
Si 1.4536870199999998 12.110556149999999 30.390873012609095 
Si 2.3146623899999996 8.37986922 30.499522341903987 
Si -0.0219761874 10.71259722 31.976290924050296 
Si 0.5569013429999999 15.62201226 0.1651814723788081 
Si 1.33817463 12.23976843 1.2569416709097538 
Si 1.362042738 14.93004564 4.067658429547968 
Si 0.0001326307365 13.57525521 8.14500906910605 
Si 2.71549413 13.57455474 5.431052298871318 
Si 1.357662357 12.21707646 6.787444322528998 
Si 1.3573479599999998 14.93491635 9.501194141660312 
Si 2.7115356599999996 13.57637922 10.86341528806429 
Si 1.349067753 12.21824934 12.231465557214566 
Si 4.00149189 12.504024809999999 15.04351715046983 
Si 2.4635692799999998 13.889538179999999 16.4587522711996 
Si 1.1452391279999998 15.12811575 14.991882850166828 
Si 2.63889855 15.805942649999999 21.326518158415396 
Si 1.5676991009999999 13.715479529999998 21.377428129856433 
Si 2.80406286 12.35941848 19.80753155117164 
Si 1.3231194119999998 12.341662379999999 17.90120146202895 
Si 3.17420424 15.828520589999998 17.692905176437886 
Si 1.6446546899999999 12.92254749 23.61570778888295 
Si 3.7124095499999994 13.37575158 24.61383296067204 
Si 0.367346016 14.27795694 25.07033260296344 
Si 3.93294357 15.709978259999998 24.938539241936205 
Si 3.47087772 12.650944319999999 26.809377216842567 
Si 1.68935445 14.18119434 27.122563220016417 
Si 3.2057416799999996 15.994189889999998 27.147776762782946 
Si 0.187365951 13.0637655 28.57104848469548 
Si 2.3837156999999998 14.0294367 34.25658165707084 
Si 2.829573 13.59014427 31.792345884961513 
Si 2.6864490599999997 15.67638828 30.61758794640444 
Si 6.786365129999999 4.07424303 4.070383285742983 
Si 8.14149765 0.00811536849 2.704085202601654 
Si 5.43302451 2.7058341599999998 2.6791372470845123 
Si 6.918656219999999 1.3605342839999999 1.1714674160127139 
Si 5.429212649999999 0.001038803526 5.430052035204794 
Si 5.43004344 2.71531494 8.144836609853202 
Si 6.7872936600000005 1.357654212 6.787444322528998 
Si 6.786446579999999 4.07359143 9.501780503119999 
Si 4.0729887 1.358608806 9.502401356430255 
Si 5.42748591 0.000630937764 10.862173581443775 
Si 6.78898782 1.358092413 12.250367091326819 
Si 4.5880622099999995 1.265983866 16.91076797291693 
Si 5.40249705 2.81862612 13.703612231384518 
Si 5.3222688 2.03729256 20.711597446456864 
Si 7.56984897 2.47669902 20.390133399146258 
Si 4.409605259999999 2.90551698 18.70658617283396 
Si 6.92144181 3.8938638599999997 17.328774709972425 
Si 6.87169215 0.0018166119299999998 17.248443189995346 
Si 6.554102309999999 2.18962035 24.141467067118526 
Si 5.07167973 3.34094868 22.683220608728202 
Si 6.70128246 3.36598641 26.265785651862398 
Si 5.80938867 1.4898589649999998 29.864458389212693 
Si 5.42818638 3.16239399 28.231821134341423 
Si 5.044898969999999 2.57259825 31.79248385236379 
Si 6.85864386 3.86608941 32.708897830153006 
Si 4.073037569999999 6.78794526 4.067382494743409 
Si 6.670803869999999 6.730408979999999 1.2133991587504287 
Si 5.42162151 8.149561199999999 2.69079204339205 
Si 8.12623392 5.43910068 2.696441808515385 
Si 4.072304519999999 4.07276064 6.787892716586406 
Si 5.43038553 5.43001086 5.4298105922508055 
Si 6.78709818 6.7875054299999995 6.787651273632417 
Si 4.07492721 6.78895524 9.503298144545072 
Si 4.07469915 4.08092193 12.226119320376245 
Si 5.43230775 5.426182709999999 10.858586428984516 
Si 6.808258889999999 6.78097314 12.240743865017842 
Si 6.48596124 4.62689757 15.058141695111429 
Si 4.590701189999999 6.27749811 15.24074155202799 
Si 5.336587709999999 7.975144169999999 13.661601157390493 
Si 7.17286167 6.53097051 20.538689799550422 
Si 8.03220804 4.61621133 19.436192287937097 
Si 4.42374498 5.1891795 17.89778676882254 
Si 5.87865375 5.65044714 22.347201000477135 
Si 7.519561739999999 5.936515829999999 24.008914885378754 
Si 5.95850733 5.49842886 25.730713573972974 
Si 5.71085046 5.077185749999999 29.684203978134878 
Si 5.33319939 7.260322679999999 28.97953547099371 
Si 6.563241 7.301145419999999 27.03705792245386 
Si 5.48756343 5.150213819999999 34.31559721339578 
Si 7.863378479999999 8.05390632 34.06273745686852 
Si 7.8693732 5.2177684499999994 30.481862514412246 
Si 4.57239123 5.92569927 32.3361444010451 
Si 4.1161409099999995 9.6374898 1.256576057293714 
Si 6.78900411 9.50223393 4.068313774708794 
Si 4.06893249 12.21616422 4.0697279405821565 
Si 4.07227194 9.502282799999998 6.787444322528998 
Si 5.43015747 8.145 8.144871101703773 
Si 5.42965248 10.860152040000001 5.429879575951945 
Si 6.789883769999999 9.50278779 9.500607780200626 
Si 4.08220884 9.49329072 12.227533486249607 
Si 5.433285150000001 10.855704869999999 10.862242565144916 
Si 4.95712845 11.2088232 16.910009152204392 
Si 7.02683811 9.11984247 14.758200562556382 
Si 6.51414294 9.44877015 16.97833750818318 
Si 6.895980539999999 10.120732649999999 21.040235798685995 
Si 6.21334809 8.488751579999999 19.4281901786049 
Si 6.46541955 9.10910736 25.553046051687897 
Si 5.007497129999999 10.64558016 22.3793474052082 
Si 4.57465554 9.057077099999999 24.06320505817563 
Si 6.461917199999999 8.98745364 30.175298946547798 
Si 5.1430136399999995 10.98797967 29.858629266466394 
Si 7.06876857 11.191881599999999 26.633089368580276 
Si 6.1602752700000005 9.07589205 32.63004945975043 
Si 5.47150149 11.00146779 34.013931488312245 
Si 4.2691203 15.0056964 1.111054939739696 
Si 5.43735765 13.574473289999998 2.6749568347954518 
Si 6.9203829599999995 12.24380835 1.1488028210032935 
Si 6.785729819999999 14.93019225 4.069245054674179 
Si 4.0723370999999995 14.932538009999998 6.787375338827859 
Si 5.430173759999999 13.57507602 8.145112544657762 
Si 6.78763575 12.217809509999999 6.7874788143795675 
Si 6.787619459999999 14.932863809999999 9.502884242338233 
Si 4.09064706 14.93563311 12.236397891846048 
Si 6.780419279999999 12.23027136 12.237053237006874 
Si 5.58790983 13.72364082 13.733585649529681 
Si 7.40940876 14.83227306 15.284442726699936 
Si 8.12556603 13.91043825 21.454206989224822 
Si 4.9080303899999995 15.949701899999999 20.713391022686498 
Si 7.173904229999999 12.254152499999998 19.981680904698603 
Si 5.045143319999999 12.7304721 18.916676034654653 
Si 5.179519529999999 15.056863289999999 18.541749618960846 
Si 7.48562967 12.71791251 24.833339097698293 
Si 6.17278599 14.829406019999999 22.337508790467023 
Si 5.556502709999999 12.75533064 23.385750621134044 
Si 6.13533528 16.169747219999998 24.295887082119553 
Si 7.860397409999999 15.04915812 25.41725163599456 
Si 5.53227948 12.42400833 27.98979181889309 
Si 4.5086973299999995 15.92743347 29.108259057320232 
Si 6.32755728 14.48477478 28.95477032228459 
Si 8.07573492 15.541637399999999 27.70012925780784 
Si 7.82770338 14.87741265 32.88897978197797 
Si 7.0430629499999995 13.659832889999999 31.062670786157238 
Si 5.0442636599999995 12.41969148 31.799658157282312 
Si 5.87259387 16.09261407 34.17376672385274 
Si 12.200428079999998 1.3178121299999999 1.4352576399855448 
Si 9.50339052 1.3563037709999999 4.078350903224608 
Si 10.84257513 2.70277164 2.730985396861047 
Si 9.40384233 3.9651651899999996 1.380346613878411 
Si 8.1448371 -0.000181688886 8.144836609853202 
Si 8.14521177 2.7132949799999997 5.429983051503655 
Si 10.858262400000001 0.00042129198 5.4301210189059335 
Si 10.86008688 2.7151031699999995 8.144802118002634 
Si 9.508701059999998 4.062872609999999 12.232845231237357 
Si 9.501680069999999 1.356492735 9.502263389027977 
Si 8.142377309999999 2.7148914 10.863587747317139 
Si 8.34610005 0.040283541 13.638250174554733 
Si 9.76982976 1.369031148 14.961564513515968 
Si 11.019109859999999 2.85457815 13.646459234990347 
Si 8.2530027 1.9560054599999999 16.64342163915035 
Si 12.098957669999999 0.483472539 17.508235808487132 
Si 10.2457584 1.9977404399999998 18.00481498114065 
Si 11.80529784 4.06788993 20.99067100941718 
Si 8.56969659 0.725971995 19.10262160107649 
Si 11.8294722 1.97672634 22.1908494418442 
Si 9.89635419 0.6549003539999999 22.41980634592658 
Si 8.34746841 2.3980509 22.596611571947413 
Si 10.45513377 3.3396617699999998 25.425943582338153 
Si 11.28735729 1.083343644 25.67535415380843 
Si 8.87453136 3.4879822199999997 27.139050324588784 
Si 11.3974614 0.905109867 28.071847931398654 
Si 9.091660769999999 1.399190454 28.181359556957798 
Si 8.50784346 2.66116698 34.10323088943748 
Si 10.403559629999998 1.549345158 32.93061144561573 
Si 8.16730101 1.389655917 30.279464335268617 
Si 10.85283783 8.15630526 2.6858838530559668 
Si 9.50583402 6.78522483 4.067658429547968 
Si 11.20059675 4.98286665 0.33313298527687746 
Si 9.502250219999999 4.07228823 6.7874788143795675 
Si 8.144674199999999 5.42991312 8.14514703650833 
Si 10.85984253 5.4297828 5.430603904813911 
Si 10.85751306 5.43118374 10.862139089593207 
Si 8.144185499999999 8.14480452 10.862035614041497 
Si 9.501468299999999 6.78913443 9.50336712824621 
Si 8.33090148 5.4144702 13.767318679386952 
Si 10.353256109999998 6.22592397 15.247329495486824 
Si 10.87041474 8.13806046 13.719857893002898 
Si 12.13323183 4.47833277 14.995194067821531 
Si 10.85159979 6.363655919999999 17.664173464913233 
Si 9.38172051 7.3303696799999996 21.099078895758083 
Si 10.381046849999999 4.311897839999999 19.038742693821202 
Si 10.731623939999999 5.70630555 22.348097788591954 
Si 9.26617554 4.32159039 23.568764380257438 
Si 11.74763124 6.278051969999999 24.423093027021004 
Si 10.22798601 7.71593769 25.632135865044464 
Si 11.71335708 5.31506862 29.226635088475813 
Si 8.85130182 7.25706468 27.5514348900014 
Si 9.37383615 5.269863869999999 28.612783623884948 
Si 10.246377419999998 5.03988165 32.720556075645604 
Si 8.88287184 6.810327719999999 32.080628772023964 
Si 9.41197104 9.54818802 1.1774517520865755 
Si 8.13853287 10.86321456 2.692792570725099 
Si 12.139552349999999 12.118131 1.3208550700156072 
Si 8.14495113 8.14488597 5.429638132997956 
Si 9.50278779 9.50270634 6.7874788143795675 
Si 10.8600543 8.145 8.145078052807191 
Si 8.14501629 10.85995656 8.144629658749784 
Si 10.86111315 10.86075477 5.430672888515051 
Si 9.499399469999998 9.48651408 12.22870620916898 
Si 10.86505533 10.85713839 10.85965567635218 
Si 11.649288509999998 10.154176019999998 14.932970769393597 
Si 8.1489096 10.852691219999999 13.59406611397481 
Si 9.9430902 11.82587211 14.7982800929185 
Si 8.425416059999998 9.55687059 18.241256616796683 
Si 10.722550409999998 11.76905259 20.050871556941633 
Si 11.96568918 9.90835992 19.28446263728051 
Si 10.25088975 8.21343429 19.050952808922915 
Si 8.958636629999999 11.86770483 18.485700361784907 
Si 10.32947271 10.96071021 22.24127652737726 
Si 8.29978758 8.22478842 24.311994776335652 
Si 8.7697215 9.24030702 22.260040094087234 
Si 11.820561569999999 9.31129884 26.34446156301213 
Si 8.75927961 8.71444953 29.436069605135682 
Si 10.786521239999999 11.12563017 27.365351356177293 
Si 8.732156759999999 10.782627929999999 28.360303277713957 
Si 10.7947314 10.96131294 34.27210298982725 
Si 10.54428894 8.254501379999999 31.07391512944299 
Si 12.139633799999999 9.63208152 32.851970026316565 
Si 12.21966657 14.928009389999998 4.072142370122043 
Si 9.50223393 12.21850998 4.0707626960992505 
Si 9.599289749999999 15.00408369 1.3756522730158602 
Si 10.8714573 13.571801729999999 2.7120907611189065 
Si 8.14561902 13.57533666 5.430258986308213 
Si 9.50283666 14.932033019999999 6.787927208436976 
Si 10.86007059 13.57502715 8.144871101703773 
Si 12.22978266 12.206341349999999 12.199491611736354 
Si 9.50435163 12.218004989999999 9.502573815683105 
Si 8.14462533 13.573723949999998 10.860586956317565 
Si 9.50415615 14.930208539999999 12.201561122770542 
Si 10.8600543 16.28910405 10.859241774145342 
Si 9.43464672 13.39321446 16.581922669584383 
Si 10.815126479999998 13.50444258 13.474103457693019 
Si 11.70309438 14.362990739999999 17.131722767667114 
Si 9.66699099 15.45150483 20.574975226349856 
Si 11.56252797 14.00731488 20.03566065084035 
Si 9.21451995 12.72252258 23.233055198661503 
Si 10.954259369999999 13.83986997 24.322100888552605 
Si 9.92686536 15.885323819999998 24.4951809947119 
Si 11.047877999999999 13.301762399999998 26.619189152800647 
Si 8.85428289 12.518864999999998 29.979281759759584 
Si 11.187711359999998 15.51787029 29.752221907458537 
Si 9.80516277 14.129001179999998 28.478575833317826 
Si 10.43921844 12.51451557 32.395332416622885 
Si 11.950881569999998 14.45651163 32.970104614518156 
Si 8.69824098 13.36283361 34.41286423200264 
Si 11.05392159 16.18377291 34.432421111275715 
Si 9.424693529999999 16.1370369 31.524585648988097 
Si 16.28069841 2.7156570299999996 2.6860873549743287 
Si 13.6013355 -0.0173258811 2.708389785552766 
Si 12.97583208 3.26441826 0.31699045429170186 
Si 14.933417669999999 1.35658233 4.0712455820072275 
Si 12.21575697 4.07228823 4.067658429547968 
Si 13.57519005 -5.60063232e-05 8.144836609853202 
Si 13.574473289999998 2.7146470499999995 5.4301210189059335 
Si 12.21692985 1.3574896829999998 6.787547798080707 
Si 14.93447652 1.357569504 9.501849486821138 
Si 13.575434399999999 2.71410948 10.862484008098905 
Si 12.21639228 1.363249827 12.229189095076958 
Si 16.22756043 2.67835293 13.659428170804595 
Si 16.26724287 0.492847434 16.435435780214412 
Si 13.553003069999999 0.016085723399999998 13.620176444856153 
Si 14.6148993 1.61746668 15.085700683716704 
Si 14.725785329999999 3.07907064 18.457865438375073 
Si 13.51561752 0.618420528 21.22514660959073 
Si 14.00039163 0.883929609 18.912571504436848 
Si 15.579772289999998 3.52015497 22.33450799946745 
Si 14.93144658 1.321606071 22.99737238371801 
Si 13.00394862 2.01521961 24.302302566325537 
Si 15.121974419999999 0.406308438 28.045841076069024 
Si 13.394631689999999 1.97773632 28.691976912793226 
Si 13.962647699999998 1.79696619 30.985512516432575 
Si 12.599549369999998 2.7224010899999995 32.5898664538366 
Si 16.26836688 2.3089283099999998 30.919219179637405 
Si 16.293257999999998 8.13146301 2.6825346943656383 
Si 14.988705929999998 4.20003441 1.2263508486393915 
Si 13.599690209999999 5.44242384 2.715977992678124 
Si 12.330634049999999 6.85051515 1.347403447399188 
Si 14.933042999999998 6.786674639999999 4.075074177420476 
Si 14.932244789999999 4.07287467 6.78716838772444 
Si 13.57486425 5.429701349999999 8.144871101703773 
Si 12.2178258 6.787554299999999 6.787513306230138 
Si 13.571589959999999 8.1458145 10.860104070409587 
Si 12.21813531 4.07183211 9.502849750487663 
Si 14.932847519999997 6.78825477 9.501918470522277 
Si 14.93446023 4.078396979999999 12.230879195754877 
Si 12.216652919999998 6.8126571899999995 12.221014526491913 
Si 13.946764949999999 4.489817219999999 16.671360038111896 
Si 13.65136209 5.5860039 13.57806189531042 
Si 15.094737539999999 6.80961096 15.017786229944754 
Si 14.178082949999999 4.1432474699999995 20.512613960519648 
Si 14.72723514 6.26648607 19.743031790606103 
Si 13.217820029999999 6.856298099999999 17.720740099847717 
Si 14.388452009999998 7.6597209 21.61055854785776 
Si 13.5682668 7.59827502 23.83252356156476 
Si 15.04350549 4.692969809999999 24.321583510794056 
Si 15.67855485 6.935418629999999 24.5401928597055 
Si 12.77416188 4.2374851200000005 25.33364339021335 
Si 12.499496189999999 7.47494343 29.993009516286367 
Si 16.257485159999998 7.047998819999999 26.840247423102543 
Si 13.28084604 4.20801651 27.73141336627466 
Si 15.54194691 4.9695088499999995 27.85834337637155 
Si 12.23084151 4.7502128699999995 31.50044135358923 
Si 13.591496339999999 6.65210295 32.03447867596156 
Si 15.949718189999999 6.34966281 31.59553538561019 
Si 13.3965702 8.009793 34.08795099963505 
Si 12.21943851 9.50124024 4.069900399835006 
Si 15.080548949999999 9.4411953 1.083140685073551 
Si 13.589541539999999 10.84549104 2.6855492821054394 
Si 14.932472849999998 9.50236425 6.787409830678429 
Si 13.574750219999999 10.86018462 8.144940085404912 
Si 13.57548327 8.14436469 5.430603904813911 
Si 12.21821676 9.504367919999998 9.501470076464871 
Si 14.93584488 9.507120930000001 12.239398682845621 
Si 16.2869049 10.862693279999998 10.860414497064717 
Si 13.53464424 10.890728369999998 13.663360241769553 
Si 12.6975663 10.326084389999998 17.061669819159835 
Si 14.398014239999998 8.66276136 16.597168067536238 
Si 13.617430019999999 9.78545187 20.980150994993387 
Si 15.682480739999999 10.25238843 20.049043488861436 
Si 16.1409465 8.837487900000001 18.210110475732147 
Si 12.63136374 11.02692906 22.77352027351996 
Si 13.33235502 9.774504989999999 24.62228346406164 
Si 15.33599244 10.908533339999998 25.17770573378725 
Si 15.59624148 8.9233362 28.174116268338135 
Si 13.24188036 8.992943369999999 28.2798337903346 
Si 12.739887719999999 11.28211191 28.691976912793226 
Si 13.92381234 11.339534159999998 32.483355619277035 
Si 16.2636102 8.6708412 30.497107912364104 
Si 14.93364573 12.21686469 4.070590236846401 
Si 14.85213057 14.83427673 1.1426701699719815 
Si 16.26926283 13.577715 2.6925787212515666 
Si 13.57535295 13.57514118 5.431397217377016 
Si 12.21722307 12.217939829999999 6.788065175839255 
Si 14.93248914 14.932033019999999 6.787375338827859 
Si 16.2901629 16.2901629 10.856930820157165 
Si 12.21837966 14.93234253 9.501849486821138 
Si 14.93213076 12.21837966 9.502642799384246 
Si 13.57352847 13.575043439999998 10.85989711930617 
Si 14.937636779999998 14.933987819999999 12.227981880307015 
Si 12.46318578 14.55206877 14.822113961662236 
Si 14.25726864 12.770903879999999 14.897099244800998 
Si 13.70350638 12.448932029999998 17.22026334807981 
Si 16.21798191 13.54295214 13.691885002190784 
Si 13.471895159999999 14.56493787 21.378807803879223 
Si 15.642814589999999 14.1535665 20.410483590982448 
Si 15.478138979999999 12.336791669999998 18.971518077060647 
Si 15.957684 15.890129369999999 18.78815939943155 
Si 13.05136881 13.32917847 23.348016536610672 
Si 14.59365714 13.12337061 25.137177809367728 
Si 13.326669809999999 13.07461464 27.15063958638024 
Si 14.55019542 14.466823199999999 28.55666538300787 
Si 13.555283669999998 13.22954883 34.3307736276465 
Si 12.608329679999999 12.308626259999999 30.817364744904765 
Si 13.19724576 14.55943185 30.51176694885627 
