&CONTROL
  dt          = 30.D0,
  prefix = 'x2.33_y1.66_z3.18_struc10-scf',
  pseudo_dir = './',
  outdir='./',
  wf_collect= .true.,
  verbosity= 'high',
/

&SYSTEM
ibrav= 6, celldm(1) =30.783621515, celldm(3) =2.120051451958549, nat=  432, ntyp= 1,
  ecutwfc     = 12.D0, nbnd= 1728,
  degauss     = 0.05D0,
  occupations = "smearing",
  smearing    = "methfessel-paxton",
/
&ELECTRONS
  electron_maxstep=200,
  conv_thr    = 1.D-8,
  mixing_beta = 0.3D0,
  scf_must_converge=.false.,
/
&IONS
/
ATOMIC_SPECIES
Si  28.08  Si.pbe-hgh.UPF
K_POINTS {automatic}
1 1 1 0 0 0
ATOMIC_POSITIONS (angstrom)
Si -0.00549681615 2.7141746399999995 2.6945671884374462 
Si 2.71761183 -0.010636620659999999 2.7428756390850295 
Si 2.9897036999999997 2.12263587 0.09704341642634974 
Si 1.2592707570000001 1.146412008 1.4054277946121116 
Si 4.06251423 4.02657849 1.1605010488352572 
Si 0.001501128387 0.0009237782069999999 5.430280136169666 
Si 0.0007690997699999999 2.71443528 8.144746759310529 
Si 2.71542897 0.00036534886199999996 8.144988508777596 
Si 2.7137348099999996 2.71344159 5.430418278722276 
Si 1.3577503229999999 1.3572567359999999 6.787979678855155 
Si 2.71591767 2.71050939 10.861009235635315 
Si 1.370971287 1.3705493759999998 12.240397159080514 
Si 2.12768577 2.49714297 17.084089481231587 
Si 0.0860100597 2.81631294 13.669136509445497 
Si 2.70091458 -0.00211996431 13.757375064924894 
Si 1.518265467 4.00150818 15.252146555437275 
Si 0.9615954419999999 2.45299707 20.354303593520942 
Si 1.515940884 0.24343938899999998 19.601461217436672 
Si 3.89725218 0.1615340835 19.266085635338673 
Si 2.4212152799999997 3.82582053 19.084082822275498 
Si 0.806638446 0.40566987 17.39090409057755 
Si 3.9213939599999996 0.420650154 23.23126039416887 
Si 2.93011488 2.51861319 23.57855077142945 
Si 0.731003976 2.83519305 22.736917269655347 
Si 3.8094164999999998 3.1794007499999997 25.64682106910067 
Si 0.035168806799999994 3.9368694599999996 29.550418785105133 
Si 3.7106339399999997 2.55194253 29.350561047117164 
Si 0.265986378 3.0049348499999997 27.380199283608018 
Si 2.48593545 2.1998016 27.352294487980874 
Si 3.25141884 0.8213955569999999 30.97073143976093 
Si 1.58195448 1.203021387 32.70815032393211 
Si 1.36176255 4.07362401 4.069541457326767 
Si 2.7084731399999997 5.41662048 2.682307036893342 
Si 1.186902432 6.6179754 1.2285258953040488 
Si 2.7147284999999997 5.4301086000000005 8.145092115692053 
Si 1.357334928 6.787863809999999 6.787530715559173 
Si 1.3567338269999998 4.07170179 9.50306794348276 
Si 1.345604499 6.769879649999999 12.248064070750347 
Si 3.6332890199999994 7.15518702 15.077741582767631 
Si 0.835492923 5.97052935 16.58024905622615 
Si 2.69364924 5.34888666 13.721078109226715 
Si 0.551185182 6.976387979999999 20.416778562938646 
Si 1.9515094199999998 6.117742079999999 18.717383416373266 
Si 3.11542992 7.7183160299999996 22.95421550491028 
Si 0.99500949 6.898814999999999 22.699066210240314 
Si 3.7776509999999996 6.95775222 26.524095349448054 
Si 3.47426604 4.79670453 30.175997334597792 
Si 1.457601507 5.87174679 29.400534115523694 
Si 1.570015539 6.30033669 27.0475174812859 
Si 2.62482399 7.945023959999999 34.355569335078116 
Si 3.9744341999999997 9.390142439999998 1.1793989500322528 
Si 1.3578431759999998 9.501468299999999 4.070024956260901 
Si 2.72388348 10.84845582 2.6938315793447996 
Si 1.3841792189999997 12.222566189999998 1.3051708370556805 
Si 0.000223083405 8.14493484 8.14478129494868 
Si 2.7146796299999996 8.145 5.430521885636733 
Si 0.0007061943059999999 10.85945157 5.430832706380105 
Si 2.71495656 10.85994027 8.145299329520967 
Si 4.0653486899999995 9.516911219999999 12.228585970832391 
Si 1.356409656 9.50236425 9.501686517956664 
Si 2.71640637 8.14716657 10.864428263812401 
Si 0.0021677917499999997 10.85984253 10.862114376056192 
Si 0.399614877 8.2355724 15.999221479950094 
Si 2.36279934 9.44350848 15.78862315849673 
Si 2.7572942699999996 10.829217329999999 13.76265901756221 
Si 2.53166148 10.80766566 17.8971274746155 
Si 1.102487652 11.15936676 19.886000340174334 
Si 3.9328458299999998 9.39105468 19.245018896065705 
Si 2.6850155399999998 11.59307172 21.72288186222444 
Si 3.8359854899999997 9.50629014 21.611504429182936 
Si 3.13261587 8.71163136 25.075877899165114 
Si 2.7401083199999996 9.30302352 29.632924424651225 
Si 0.692452062 8.15796684 29.44315109300376 
Si 2.20450941 11.597926139999998 29.444187162148335 
Si 0.981948168 8.4150882 26.151041386125776 
Si 1.056101877 12.09503178 27.460460106674205 
Si 0.828095634 11.570884739999999 31.31373939789061 
Si 3.5965062 9.64666107 31.812295870258726 
Si 1.4115627089999998 9.67119381 33.06832249422354 
Si 4.07171808 12.21909642 4.069817742431987 
Si 4.0609341 15.055218 1.2905760763724743 
Si 0.00641553957 13.585078079999999 2.6932997305172526 
Si 1.357895304 14.930289989999999 4.074825409964085 
Si -0.00041534450099999995 13.5752715 8.145402936435424 
Si 2.71296918 13.57546698 5.430867242018258 
Si 1.35778779 12.21776064 6.787496179921021 
Si 1.3574831669999998 14.93261946 9.50206640997634 
Si 2.71593396 13.57634664 10.86321951647707 
Si 1.3476635549999998 12.213460079999999 12.260876792504888 
Si 1.168268301 14.14025757 17.021579976175733 
Si 0.8310424949999999 15.35130504 14.96080391198359 
Si 3.3791976 13.08992724 17.24388587896276 
Si 0.09815979329999999 14.81378391 20.4864714807302 
Si 0.5694120629999999 14.403243329999999 22.79120729283093 
Si 1.3313507489999998 12.30474924 23.610461701082276 
Si 2.7951196499999997 14.97617892 22.308433607098465 
Si 2.58683571 12.55836825 25.645923142508703 
Si 3.49086555 13.50817299 30.014508690597147 
Si 2.15409186 15.420439799999999 29.633476994861663 
Si 3.7419759 14.51142522 26.430918197712867 
Si 0.024303539699999998 15.70105134 26.55631709984425 
Si 2.21669433 16.1011989 27.327152543405923 
Si 0.854531046 15.335829539999999 33.666721496490254 
Si 2.63898 13.834982969999999 34.39639045937426 
Si 6.78928104 4.06990989 4.074859945602237 
Si 4.07378691 1.360656459 4.072787807313093 
Si 5.4302877899999995 2.72119563 2.6935138514737975 
Si 6.705289799999999 1.218307923 1.3255192350550773 
Si 5.42953845 -5.43225888e-05 5.429865708511838 
Si 5.430190049999999 2.71437012 8.14460861675792 
Si 6.787684619999999 1.3577356619999998 6.787599786835479 
Si 8.14490226 2.71399545 10.858419062773885 
Si 4.07329821 1.358398665 9.501962803061884 
Si 5.43004344 0.00303557634 10.86066387925379 
Si 6.7930928999999995 1.352319237 12.224061802234427 
Si 7.38075465 3.64223223 14.866348941636762 
Si 8.1357147 0.0402920118 13.728123379409807 
Si 4.59594657 0.796581 15.054119206271386 
Si 5.497011629999999 2.7094668299999998 13.642405925515536 
Si 7.985211389999999 2.19186837 19.57383270691475 
Si 6.06515796 2.87997426 18.329202843540234 
Si 4.2690714299999994 1.468172088 17.297174368631925 
Si 5.043856409999999 0.952965 21.22094089731739 
Si 7.38202527 0.5727498839999999 21.22225325156718 
Si 4.65696891 3.91642551 19.867903665782475 
Si 4.5597338999999995 3.49335792 22.160379326339104 
Si 6.8293870199999995 3.73215303 22.94002135762964 
Si 8.13773466 0.465462315 23.488689040956896 
Si 7.451941949999999 2.34313731 24.704585253388608 
Si 5.58927819 1.69046217 25.9955274075255 
Si 7.63065954 1.1096324459999998 29.09071490565847 
Si 5.88192804 2.31751314 28.213613303501845 
Si 7.279007309999999 2.03952429 31.328106223362013 
Si 5.48652087 0.5753318489999999 32.176992209148125 
Si 4.90804668 0.607173912 34.505902967955535 
Si 4.07588832 6.78812445 4.068505388182195 
Si 6.76509039 6.65904249 1.1989772033008512 
Si 4.07253258 4.07253258 6.787634322473631 
Si 5.42900088 5.42761623 5.43017652925521 
Si 6.787358819999999 6.7877171999999995 6.787254430453955 
Si 6.78851541 4.07116422 9.502100945614494 
Si 4.07220678 6.78669093 9.50406947698918 
Si 4.074471089999999 4.07438964 12.239533768126703 
Si 5.43214485 5.4288054 10.861527270207601 
Si 6.7679085599999995 6.79866408 12.23677091707451 
Si 5.50054656 6.96514788 16.69825733179292 
Si 6.687484829999999 4.81237551 16.89369450809738 
Si 5.3930162699999995 6.1476831 20.26661760825199 
Si 7.766176049999999 6.024270059999999 20.129200304043568 
Si 4.10508 7.15689747 18.584248531295742 
Si 6.27797052 5.75646246 23.97101376339338 
Si 7.03895787 7.945740719999999 23.988454260660344 
Si 4.53956688 5.9474464199999995 22.45103125702974 
Si 5.16542868 5.155768709999999 25.962856693833327 
Si 5.75111934 5.29626996 29.795621815987204 
Si 6.16630257 7.5629420099999995 29.6023949205245 
Si 6.62893857 4.51713555 27.737401389018338 
Si 8.04392055 7.89861375 28.06590437912401 
Si 5.65153857 5.21441271 34.13329796792924 
Si 6.894921689999999 4.45826349 31.80297124795758 
Si 4.137171299999999 6.60131073 32.967616573371124 
Si 8.15262372 10.85601438 2.701795497502744 
Si 5.42258262 8.13822336 2.681381481790858 
Si 6.7882059 9.503374229999999 4.070128563175358 
Si 6.7476438 12.180375089999998 1.3074363749184783 
Si 4.072548869999999 9.502673759999999 6.787081752263193 
Si 5.4299457 8.14542354 8.145230258244663 
Si 5.42950587 10.85969592 5.429589423406618 
Si 6.787342529999999 9.50255973 9.50220455252895 
Si 5.42957103 10.86215571 10.862701481904782 
Si 6.80063517 12.20994144 12.250308887230254 
Si 6.23030598 10.77360327 16.672079318073397 
Si 5.297980409999999 8.14804623 13.654251649401813 
Si 6.938432279999999 9.04376817 15.129614111272543 
Si 4.439187899999999 12.15633105 15.2539424086212 
Si 7.64173674 9.59570595 20.52425346886893 
Si 6.158401919999999 9.50806575 18.72422147272744 
Si 8.069512139999999 12.15725958 17.318137500990435 
Si 6.11318088 9.509466689999998 22.39660309130155 
Si 6.163516979999999 11.294704079999999 23.941451257134922 
Si 4.21234965 10.831106969999999 25.305850713621975 
Si 8.13113721 10.85876739 25.243755636223955 
Si 7.1536557599999995 8.931318300000001 26.139679161173635 
Si 5.38337259 10.07013591 27.157824309544683 
Si 6.4315200599999995 11.84177115 28.248874190055453 
Si 4.393917989999999 8.336374919999999 28.316011470623728 
Si 5.45657985 8.14599369 31.833189931340936 
Si 5.74504317 10.53192483 34.368002164812985 
Si 5.1911343 11.38522761 32.19025389419865 
Si 7.29337509 9.20168343 32.88486918435796 
Si 7.181218439999999 11.69032302 30.479220237575905 
Si 5.419894769999999 13.581331379999998 2.6958588213043457 
Si 6.79356531 14.92629894 4.070404848280577 
Si 4.07253258 14.932033019999999 6.7879106075788505 
Si 5.4297828 13.57533666 8.144850366224986 
Si 6.787928969999999 12.21736968 6.787599786835479 
Si 4.07149002 12.21658776 9.502446301996017 
Si 6.78638142 14.93177238 9.502239088167103 
Si 4.04979174 14.935062959999998 12.23172871390426 
Si 5.47484094 13.66783128 13.627762814938917 
Si 6.4077692399999995 15.29927478 15.076670977984907 
Si 4.3049583 13.435421849999999 21.3474794755078 
Si 4.7378813399999995 14.24254248 18.998607117848298 
Si 6.8929994699999995 14.324301989999999 17.5150942453736 
Si 6.36904791 13.309630469999998 22.787063016252638 
Si 7.078151609999999 14.897156129999999 24.46356103472298 
Si 5.0777559 15.873709049999999 25.097600815562977 
Si 5.100089489999999 13.8450339 28.293528770186512 
Si 7.07245011 15.12713835 28.602139232716404 
Si 7.79961942 13.825616219999999 34.4644947378108 
Si 4.17439395 13.543734059999998 32.441535197395545 
Si 6.328583549999999 14.657627969999998 32.6082387227572 
Si 7.64444088 14.03005572 30.64602736985202 
Si 8.159204879999999 -0.01157487579 2.6934551408889384 
Si 8.511394679999999 2.15609553 0.12014465014287481 
Si 9.50213619 1.359521046 4.071371846148844 
Si 10.87859232 2.68169238 2.719933614660387 
Si 9.45513954 3.92391891 1.4315332834915144 
Si 8.14441356 0.000402701832 8.144643152396071 
Si 8.14459275 2.7156407399999996 5.43103992020902 
Si 10.858620779999999 0.00011003145659999999 5.429554887768466 
Si 10.86002172 2.7150380100000002 8.144401402929004 
Si 9.50063751 1.358191782 9.501721053594816 
Si 10.85881626 0.00202776291 10.86411744306903 
Si 9.12609783 1.8363391199999999 15.15644830211696 
Si 10.90801206 2.8060013699999997 13.678322989194038 
Si 9.46963764 1.4872183559999999 17.793140668138605 
Si 8.337010229999999 3.9621189599999997 21.11712676903126 
Si 11.677291019999998 1.9445210099999999 20.84008187977267 
Si 11.586604589999999 2.35773315 18.552406672919226 
Si 10.555643069999999 3.71227923 21.917144826831716 
Si 10.48707846 0.297460287 23.533205478535344 
Si 10.97729343 2.53175922 23.895829679135595 
Si 9.49557132 2.87700948 25.718896945924737 
Si 12.16947708 4.03086276 29.424743597868527 
Si 9.58378167 1.465624332 27.684561862645158 
Si 11.71159776 1.9580579999999999 28.487446378412265 
Si 10.63521972 3.7360789199999997 32.496895825353846 
Si 9.40113819 1.72843416 32.438806881981506 
Si 10.87083828 8.13853287 2.7115276403340918 
Si 12.18988845 6.643062 1.4034834381841312 
Si 8.13607308 5.42577546 2.702983523455187 
Si 9.502413119999998 6.78823848 4.069541457326767 
Si 11.134329029999998 4.85189505 0.1616647757552219 
Si 9.502380539999999 4.07248371 6.78804875013146 
Si 8.14534209 5.4300760200000004 8.144815830586833 
Si 10.860412679999998 5.429147489999999 5.430072922340753 
Si 10.85503698 5.4310534200000005 10.855967032465063 
Si 12.229815239999999 6.778464479999999 12.196813183732178 
Si 9.50282037 6.78561579 9.50147930412775 
Si 9.50591547 4.0769797500000005 12.219434026722004 
Si 8.207130059999999 5.48494074 13.595541064542724 
Si 10.09031922 6.3958938299999994 14.836855506654608 
Si 10.91483757 8.12908467 13.530752207368813 
Si 11.61410211 4.54161942 15.18528555997422 
Si 8.475491519999999 7.964181 16.805076060598306 
Si 10.89465426 4.46578947 17.67423446597988 
Si 9.1070874 7.78565889 20.904594451841362 
Si 11.33676486 7.3281379499999995 20.202968427137105 
Si 11.734517789999998 6.8397963299999995 17.885005465624005 
Si 8.658363060000001 5.49668583 17.94644436589713 
Si 11.7514431 5.73890184 22.09110083620538 
Si 10.77008463 6.59735226 24.12697670528964 
Si 10.30441869 5.07884733 25.939476066804147 
Si 10.326638249999998 5.51910087 29.412448910686276 
Si 11.463582509999998 7.5793623299999995 29.11637488480571 
Si 8.76950973 5.66821953 27.661077628701523 
Si 9.17819325 5.30079858 31.541950894801705 
Si 10.18164096 6.574904639999999 33.32865213461636 
Si 8.43185061 7.85241531 34.50483236317281 
Si 9.52924275 9.44831403 1.3145334485587976 
Si 12.170259 12.193651439999998 1.3438749267330807 
Si 9.50094702 12.220806869999999 4.071648131254064 
Si 12.21924303 9.50308101 4.074134697201037 
Si 8.14392486 8.14415292 5.430314671807819 
Si 9.50194071 9.50285295 6.787461644282868 
Si 10.859744789999999 8.14491855 8.14460861675792 
Si 8.14514661 10.85998914 8.14533386515912 
Si 10.85963076 10.85927238 5.430280136169666 
Si 12.21494247 9.501403139999999 9.50120301902253 
Si 8.14535838 8.14602627 10.860456665424877 
Si 9.50888025 9.489902399999998 12.219054134702327 
Si 10.86453405 10.86018462 10.861527270207601 
Si 12.20467977 12.21463296 12.234077137298623 
Si 8.18134299 10.67366412 13.757651350030113 
Si 9.64438047 11.72115999 15.417572262187294 
Si 10.9426446 9.311608349999998 15.69641300462981 
Si 10.96504335 11.2948344 20.402135452362025 
Si 8.68623525 11.576211569999998 19.81482238994223 
Si 12.13267797 10.32422733 24.822317243850158 
Si 9.96534234 10.3954635 23.880564927072232 
Si 9.25244307 8.16565572 23.228428471840374 
Si 9.79107192 9.23786352 28.944594620635645 
Si 10.4153373 11.41404462 28.167853582949913 
Si 10.71624618 10.93151853 34.452234586266705 
Si 10.98460764 10.352360159999998 32.15585639859885 
Si 8.916250049999999 10.11262023 30.996287811993707 
Si 12.13831431 8.46912213 31.159917665559803 
Si 9.59930604 15.03221652 1.0722141434624495 
Si 10.842933509999998 13.582487969999999 2.6944083245019446 
Si 8.144055179999999 13.57351218 5.431316205314238 
Si 9.50257602 14.931821249999999 6.78704721662504 
Si 10.860038009999998 13.57476651 8.144505009843462 
Si 9.503227619999999 12.21732081 9.502446301996017 
Si 8.1454887 13.57294203 10.863875693601965 
Si 9.501680069999999 14.929198559999998 12.252450096795704 
Si 10.75457655 13.41131265 13.743664416578387 
Si 11.60773272 14.66616393 17.412523400060955 
Si 10.94787369 16.037228069999998 21.340088848943186 
Si 8.887253849999999 15.190310969999999 20.589802110082193 
Si 12.14917974 13.03375932 19.338610475458722 
Si 9.21404754 15.399718919999998 18.19831277494262 
Si 8.42543235 13.13588133 21.59247529256096 
Si 10.45907595 12.257491949999999 22.542550698133613 
Si 11.804027219999998 16.087401269999997 25.382796115425535 
Si 11.190920489999998 12.93911442 29.853814366274005 
Si 8.25147144 14.481288719999998 26.595307835318312 
Si 10.27910403 15.566381909999999 27.052870505199525 
Si 8.457556229999998 12.218102729999998 27.070276466828336 
Si 11.99510892 14.642999549999999 28.451356636543 
Si 9.85419567 14.14384137 31.47008223180655 
Si 10.96002603 16.23943584 31.910826045907537 
Si 9.51179616 12.72636702 33.35596982439492 
Si 11.51536842 15.758994869999999 34.2505119238185 
Si 13.594721759999999 0.0134342001 2.685991989484204 
Si 13.132639619999999 3.1370304599999996 0.03296595886273981 
Si 12.22608483 1.315681398 1.183619205014477 
Si 14.927276339999999 1.359209907 4.071924416359283 
Si 13.57562988 -0.000672540795 8.144677688034223 
Si 13.57548327 2.7150868799999994 5.431247134037934 
Si 12.21736968 1.358242281 6.787772465026241 
Si 14.93248914 1.357082433 9.501824660509273 
Si 13.577389199999999 2.71272483 10.863564872858593 
Si 12.214665539999999 1.357887159 12.23791059313354 
Si 15.30000783 0.9161105039999999 14.690044508868734 
Si 14.8525704 1.163068533 16.956031334962468 
Si 12.96262089 0.287067267 18.220450118998315 
Si 13.994853029999998 1.7057747699999999 21.286420467254352 
Si 15.08380695 3.16255689 19.777109473079804 
Si 14.00817825 3.2203538099999998 17.673854573960202 
Si 15.027671609999999 1.6419668399999998 23.44234221455637 
Si 13.238247689999998 3.0153115799999997 24.46836148842616 
Si 12.9720528 1.65113811 26.492598847453063 
Si 14.903867609999999 0.571197447 29.874155857145773 
Si 12.51374994 0.225852705 29.85599011147761 
Si 15.082031339999999 1.170201924 27.524489179808764 
Si 16.03291122 2.30615901 31.333355640361177 
Si 14.54014449 3.67065828 32.75415179395111 
Si 12.222338129999999 4.07134341 4.074203768477342 
Si 14.821228439999999 4.079537279999999 1.343336170777903 
Si 13.57953948 5.42046492 2.748508401667687 
Si 14.932847519999997 6.78828735 4.073513055714294 
Si 16.28846874 5.42991312 5.430280136169666 
Si 14.931951569999999 4.07284209 6.788290499598527 
Si 13.575010859999999 5.430466979999999 8.144643152396071 
Si 12.217679189999998 6.787358819999999 6.787807000664393 
Si 16.28977194 5.43398562 10.859696881385522 
Si 12.21776064 4.07518785 9.503171550397218 
Si 14.932016729999999 6.78760317 9.501582911042206 
Si 14.924555909999999 4.07808747 12.238290485153216 
Si 16.02993015 7.957127429999999 13.642095104772165 
Si 14.81205717 5.39894583 16.47187622370391 
Si 13.34929662 5.32010223 13.612947026171536 
Si 14.09629086 7.20663084 14.863378876755654 
Si 14.06389005 6.54230835 18.336593470104848 
Si 15.0032529 5.49262962 20.231080436593164 
Si 16.20568296 4.931650889999999 23.526989063667912 
Si 14.07622158 7.74656289 23.407219470555372 
Si 14.118135749999999 5.60683881 22.419189398653224 
Si 12.41701992 8.01446823 25.060578611463598 
Si 14.28913188 5.03846442 29.335641651435328 
Si 16.27058232 4.9196940300000005 25.96565408052367 
Si 12.65141673 4.40665677 26.27153622763952 
Si 14.36144319 5.78202147 27.13468543198257 
Si 13.0916214 7.74188766 27.30684558817231 
Si 15.578208449999998 5.69822571 34.34220404311314 
Si 12.49806267 6.73747884 32.60057181108736 
Si 12.65658066 4.525101359999999 31.64977115711351 
Si 13.918404059999999 7.482273929999999 34.500549944041914 
Si 16.2917919 8.14167684 2.6938557542915063 
Si 14.834944619999998 9.39113613 1.256834757897575 
Si 13.57111755 10.846012319999998 2.69922259246039 
Si 14.93221221 9.502380539999999 6.787634322473631 
Si 13.574913119999998 10.859744789999999 8.145610150264337 
Si 13.57400088 8.14356648 5.430556421274886 
Si 13.575743909999998 8.14480452 10.859109775536933 
Si 14.93094159 9.51617817 12.244403293106194 
Si 13.560512759999998 10.924383509999998 13.699735084848529 
Si 13.258072619999998 9.00736002 16.446147173280366 
Si 15.32903661 10.91537514 16.114017941168687 
Si 15.98907483 9.19826253 20.159280844874317 
Si 15.31693314 9.20930715 17.80180911331486 
Si 12.65763951 9.68104926 19.82673718510481 
Si 13.778945369999999 11.1627225 23.29542760985604 
Si 16.18075926 8.4580938 24.050065839124233 
Si 15.86952252 10.82507967 24.35947062133163 
Si 14.09945112 9.44358993 21.69905227189928 
Si 16.02263223 10.31054373 26.759524794733 
Si 12.46444011 11.32190838 26.954167651359953 
Si 14.004887669999999 9.81780381 27.98381316723575 
Si 16.055880119999998 9.359582399999999 31.303689527188265 
Si 12.913343639999999 11.905302149999999 31.217384967445405 
Si 13.81867668 9.887313240000001 30.397508917707317 
Si 16.05208455 11.045792879999999 34.45337426232573 
Si 13.26861225 13.965693929999999 0.1749647953640945 
Si 12.214795859999999 14.930420309999999 4.068021889248061 
Si 14.93068095 12.220676549999999 4.067054891379794 
Si 15.214240979999998 15.11490456 1.1281238880673776 
Si 13.574049749999999 13.574815379999999 5.430072922340753 
Si 12.217581449999999 12.217728059999999 6.787219894815802 
Si 14.932782360000001 14.931967859999999 6.78704721662504 
Si 16.290325799999998 16.289038889999997 10.864151978707184 
Si 12.21875433 14.93172351 9.501790124871121 
Si 14.93025741 12.216718079999998 9.502688051463084 
Si 13.577715 13.57546698 10.855518069169083 
Si 14.933906369999999 14.917583789999998 12.209211477828891 
Si 12.46360932 14.386301729999998 15.069038601953226 
Si 14.23553778 12.74381361 15.067380891321909 
Si 13.500744749999999 16.139415239999998 13.567325448172209 
Si 16.110353879999998 13.5514881 13.706296856097486 
Si 12.72222936 14.52463641 21.05969400278381 
Si 14.34398031 15.940416599999999 20.1885325303894 
Si 16.1271 12.9870396 18.9483922999747 
Si 13.93029576 12.32853264 17.70870103285598 
Si 13.4469063 14.4969597 24.87059806598722 
Si 12.64436316 13.22609535 23.022043498241604 
Si 15.48584415 15.680753999999999 24.31650828747004 
Si 15.75190872 13.818416039999999 27.86269668423526 
Si 16.15959855 14.83082325 30.026941520332013 
Si 13.52464218 13.472807399999999 27.03802018079399 
Si 16.22751156 13.66098948 32.08940983079362 
Si 14.34411063 12.60990981 33.07346830430824 
