&CONTROL
  dt          = 30.D0,
  prefix = 'x2.33_y1.66_z3.17_struc34-scf',
  pseudo_dir = './',
  outdir='./',
  wf_collect= .true.,
  verbosity= 'high',
/

&SYSTEM
ibrav= 6, celldm(1) =30.783621515, celldm(3) =2.117028552714252, nat=  432, ntyp= 1,
  ecutwfc     = 12.D0, nbnd= 1728,
  degauss     = 0.05D0,
  occupations = "smearing",
  smearing    = "methfessel-paxton",
/
&ELECTRONS
  electron_maxstep=200,
  conv_thr    = 1.D-8,
  mixing_beta = 0.3D0,
  scf_must_converge=.false.,
/
&IONS
/
ATOMIC_SPECIES
Si  28.08  Si.pbe-hgh.UPF
K_POINTS {automatic}
1 1 1 0 0 0
ATOMIC_POSITIONS (angstrom)
Si 2.73810465 -0.01172575377 2.694973833337845 
Si 2.06441541 3.1718096099999995 0.007954942276792252 
Si 1.338067116 1.342208034 1.4040894369854764 
Si 4.07482947 1.357274655 4.07218802260341 
Si -0.0007173220049999999 0.001296262089 5.430434694550931 
Si 0.00012130348499999999 2.7147447899999997 8.144893341133676 
Si 2.71539639 -4.1801280299999996e-05 8.145445123455655 
Si 2.7143049599999998 2.71401174 5.430089830599695 
Si 1.357294203 1.357655841 6.787612288249618 
Si 2.7142397999999996 2.71816569 10.865111215702079 
Si 1.353773934 1.3528812419999998 12.248257064928923 
Si 1.67912433 3.14753751 16.76780260507717 
Si 2.7270763199999997 0.0225657225 13.751932865113153 
Si 3.77431155 1.8606275099999998 15.420108770037501 
Si 1.85500746 3.36064329 20.315211153083006 
Si 3.8260322999999996 2.02095369 19.777464793918917 
Si 2.5979292 0.034500102299999995 19.236304281637576 
Si 0.8699690789999999 0.911226762 17.8177753910138 
Si 1.7986440599999998 1.0964913029999999 24.49927304146775 
Si 0.737901162 0.348353505 22.491406144574803 
Si 3.76277823 2.26606932 25.21255515181155 
Si 2.6531034300000003 0.833859036 29.23573800694416 
Si 0.757670706 1.2377793599999998 30.597260886428433 
Si 1.0277605349999999 2.90774871 32.27678281534848 
Si 4.07140857 6.78638142 4.073877855964472 
Si 1.355404563 4.07219049 4.067497872866585 
Si 0.356599503 5.12910198 0.0055197544579213545 
Si 2.7282817799999997 5.44879323 2.6912424053854593 
Si 1.3613259779999998 6.86211363 1.2967367376048633 
Si -0.0187048296 8.13874464 2.708878747851727 
Si 2.71498914 5.42988054 8.1449278275288 
Si 1.3571280449999998 6.787586879999999 6.787267424298381 
Si 4.07129454 4.074373349999999 12.249602034338748 
Si 1.357427781 4.07186469 9.501795043671374 
Si 1.3716245159999998 6.785697239999999 12.224771829849674 
Si 4.00004208 6.9882471 15.145424632877111 
Si 0.761083461 4.34770326 14.925401431987808 
Si 2.6640503099999995 5.45791563 13.714342694428305 
Si 2.4968823299999996 7.05024684 18.454325272207335 
Si 1.367641611 4.903469189999999 18.573613712940265 
Si 2.3276455199999995 4.60927179 22.273486613788045 
Si 0.23969105999999998 5.653297889999999 22.83789095638277 
Si 3.3021458999999997 7.403185979999999 23.98746045143669 
Si 1.0318248899999998 7.02628425 24.602042498936417 
Si 3.4541478899999998 6.66166518 21.72225607413058 
Si 3.2994743399999997 4.36857075 26.24214647823006 
Si 3.19458303 6.00444513 29.91429231739838 
Si 1.4568244739999998 5.76918495 26.53145284692291 
Si 2.3851818 7.289726129999999 28.13434600587807 
Si 1.432824417 4.96985094 31.102659006966476 
Si 2.23080147 8.859153599999999 0.17590441074358268 
Si 1.3561539029999998 9.5027715 4.064290638120079 
Si 0.360992916 10.331802179999999 0.04379703207921578 
Si 2.72748357 10.886607 2.6944841265270885 
Si -5.33085363e-05 8.14485339 8.144962313923923 
Si 2.71702539 8.144120339999999 5.430331235365561 
Si -0.001087473159 10.861438949999998 5.432779769419344 
Si 2.71458189 10.85992398 8.14503128671417 
Si 1.3572730259999999 9.50068638 9.501450179720136 
Si 2.71265967 8.14773672 10.857420749589492 
Si 1.3542105059999998 12.22158879 12.21480526165892 
Si 2.75882553 9.121161959999998 16.228814735688623 
Si 0.883545165 9.805244219999999 14.848531257257047 
Si 2.6734170600000002 10.878217649999998 13.611331832193766 
Si 0.7582929839999999 8.360028 17.332793216388993 
Si 2.85560442 11.212195229999999 17.598614350002592 
Si 0.37675511999999994 9.239345909999999 20.94796753081293 
Si 2.4967194299999997 8.38200321 20.435948022411132 
Si 0.828854748 11.90279349 18.581062774286988 
Si 3.64708665 11.161191239999999 24.817858359620626 
Si 0.460249515 11.35574271 22.276935253300415 
Si 2.8549202399999998 11.44760202 22.595486085058173 
Si 0.9355640219999999 9.005616989999998 28.80420974476111 
Si 1.7945389799999998 11.86426764 26.095717244534768 
Si 0.174276936 10.26926487 26.947393258510036 
Si 2.73841416 9.0844443 32.31713189764323 
Si 1.4846885189999999 10.363355910000001 30.687684214442815 
Si 4.08137805 14.913038879999998 1.0741684407554304 
Si 0.01600327971 13.56113178 2.694915206466135 
Si 1.496347272 12.272560200000001 1.1047440786721163 
Si 1.3577486939999999 14.932114469999998 4.068739383091039 
Si 0.000367196148 13.57442442 8.145376150665408 
Si 2.7174163499999997 13.57388685 5.430227776180189 
Si 1.357520634 12.21657147 6.787853693015484 
Si 1.3576933079999998 14.932538009999998 9.502415798783598 
Si 2.7137673899999997 13.572013499999999 10.862662681648295 
Si 3.21543423 13.24728864 16.37945130958901 
Si 1.5804883799999998 14.57445123 14.995374327693826 
Si 4.06277487 14.8366062 18.080975558597995 
Si 1.81784997 15.011039519999999 21.135952870632302 
Si 0.504597411 13.078312469999998 20.627864811274605 
Si 3.5506498499999997 13.66009353 21.97917971780226 
Si 1.222279425 13.387545539999998 24.372397593807598 
Si 2.60188767 15.25455873 25.06871239775053 
Si 2.01215709 12.55677183 29.96088343721052 
Si 2.34264861 15.413255909999998 27.466172100356086 
Si 0.0542158893 14.94149751 27.580425527400955 
Si 2.8317558599999995 13.09183317 27.838763113272705 
Si 1.153162584 15.331284629999999 33.19374157529295 
Si 2.67125049 13.68500094 33.8947465289727 
Si 3.5208717299999996 13.6018242 31.431417811680856 
Si 6.78621852 4.07175066 4.067394413681214 
Si 5.4121570199999995 2.7120895199999997 2.688790422692163 
Si 6.817690799999999 1.3758550289999998 1.2880323714756376 
Si 5.43012489 0.000346817358 5.430745072107046 
Si 5.42996199 2.71533123 8.1449278275288 
Si 6.787440269999999 1.3575010859999999 6.7875088290642465 
Si 4.07385207 1.357947432 9.503691795403176 
Si 5.4281212199999995 -0.001093389687 10.861731548979956 
Si 6.7860882 1.363398066 12.2556371534854 
Si 5.367783059999999 2.7386747999999996 13.805421263950034 
Si 7.76459592 2.3236870499999998 20.75536101404698 
Si 5.17108131 2.05934922 17.565438437893576 
Si 7.161084 3.49168005 17.476325592893897 
Si 5.46925347 1.9613159999999998 21.555859217658657 
Si 5.07345534 3.3667520399999997 23.498615800558028 
Si 7.35775317 3.248226 24.24700506113777 
Si 5.2545024 1.361622456 26.947945040832018 
Si 7.27659639 2.5609508999999995 26.502829138970224 
Si 4.480417889999999 2.3756032799999995 28.973124108077066 
Si 7.933474349999999 2.9425278599999998 34.41842243892632 
Si 7.885435139999999 3.21056352 30.337164494405375 
Si 5.70402495 2.4526712699999997 31.032927516026326 
Si 5.816605139999999 0.14876044289999998 31.878947761201307 
Si 4.07952099 4.13824644 1.176479229168956 
Si 6.852453659999999 6.759779849999999 1.258629270993158 
Si 4.07256516 4.07259774 6.7873363970886285 
Si 5.4296199 5.43188421 5.430296748970437 
Si 6.787489139999999 6.787456559999999 6.7875778018544946 
Si 6.787619459999999 4.07215791 9.501932989251868 
Si 4.0718483999999995 6.788564279999999 9.502208880412857 
Si 5.42971764 5.42888685 10.864387001404483 
Si 6.7955038199999995 6.78079395 12.241394272299305 
Si 6.030590579999999 6.140694689999999 16.532846795099296 
Si 6.64221492 4.243838220000001 15.232433807774244 
Si 5.30700507 8.097791579999999 13.547152650868533 
Si 8.125403129999999 5.39894583 13.76293402515762 
Si 5.57683263 7.075936169999999 20.60737989257112 
Si 7.754968529999999 6.23840211 20.632761879382173 
Si 4.912559009999999 7.45163244 18.20998916275581 
Si 4.5787932 5.48515251 24.59093787970658 
Si 6.56791623 6.47993394 25.43099197852516 
Si 7.23342789 7.04755899 29.75179242357543 
Si 6.11531487 6.18195726 27.80551822837344 
Si 7.872891839999999 4.185520019999999 28.168280618679802 
Si 4.31297298 4.6246006799999995 28.3440922610205 
Si 6.05554686 4.803220529999999 34.39583385012028 
Si 5.06524518 6.9079374 31.07555270039924 
Si 6.01316028 4.9099526099999995 32.065484672425484 
Si 7.76425383 8.64090018 0.2085506118234964 
Si 8.15666364 10.880302769999998 2.7157346432023215 
Si 4.2075441 9.625239719999998 1.3329440038452518 
Si 5.42966877 8.125272809999998 2.699332913681483 
Si 6.78665835 9.502185059999999 4.067532359261708 
Si 6.10573635 10.50586083 0.14366273507847016 
Si 4.07134341 12.2173371 4.075291798164544 
Si 4.0721253299999995 9.50295069 6.787405369878876 
Si 5.42968506 8.145244349999999 8.145100259504419 
Si 5.429489579999999 10.8610317 5.43115890884853 
Si 6.78766833 9.50275521 9.502622717154342 
Si 4.04674551 9.50508468 12.211908404468527 
Si 5.4275999399999995 10.86109686 10.863766246292256 
Si 8.03241981 10.860217200000001 13.643714557214935 
Si 6.642703619999999 9.2248641 16.890884549273707 
Si 6.05983113 10.01760066 14.7370712282172 
Si 4.5071172 12.128735789999999 14.701998564376382 
Si 4.09222719 10.0620072 21.05053006991086 
Si 4.6257084 11.36859552 19.12449938864649 
Si 6.79200147 11.277241199999999 18.027763050922104 
Si 6.100376939999999 9.04246497 21.981214415114557 
Si 6.51279087 8.64744876 24.407297825672796 
Si 4.42913697 9.01208412 25.335706068798334 
Si 7.3741572 9.864767879999999 29.411101326148252 
Si 4.95680265 9.828017639999999 29.31502222933358 
Si 6.09030972 11.88506997 29.05896074553999 
Si 4.50868104 8.20017423 27.608531939426783 
Si 4.93108074 9.18881433 31.56484567441451 
Si 6.361978049999999 10.86937218 32.35589460576229 
Si 5.41605033 13.57764984 2.688266229486283 
Si 6.93520686 12.36397968 1.3077447949283532 
Si 6.7853388599999995 14.93485119 4.068911815066657 
Si 8.14734576 13.57665615 5.428986265955736 
Si 4.0723696799999995 14.932880099999998 6.7871639651130105 
Si 5.43009231 13.57553214 8.144755395553181 
Si 6.787391399999999 12.21743484 6.7879916385959795 
Si 4.07227194 12.21738597 9.502105421227487 
Si 6.78828735 14.93143029 9.501657098090877 
Si 4.06002186 14.963098049999997 12.22546155775215 
Si 6.79952745 12.227990759999999 12.2032868056876 
Si 8.09780787 13.31816643 16.990205367230008 
Si 5.63337522 13.79086965 13.475731326567319 
Si 6.9317370899999995 14.93490006 15.176117524537217 
Si 5.812451189999999 16.150036319999998 17.081904691863965 
Si 6.7630541399999995 14.748151499999999 20.558650616261307 
Si 4.83154884 13.53752757 19.978072154353566 
Si 7.5448764 15.53790699 18.49667456541926 
Si 6.06121578 16.07199093 22.49492375687742 
Si 4.58312634 14.71912272 23.831857836638484 
Si 5.341751639999999 12.847597200000001 25.119028048236032 
Si 7.64753598 12.387290669999999 25.020603876552947 
Si 5.12594172 13.30381494 27.42258129691971 
Si 5.5058082299999995 15.5577645 28.104066950959446 
Si 7.80856263 15.256252889999999 28.469139929739093 
Si 7.83029349 14.18544603 34.41483585383345 
Si 7.32846375 14.797184399999999 30.778659324779174 
Si 5.7567556799999995 12.83876802 31.15114687851042 
Si 4.23908154 15.683132339999998 30.238567890746673 
Si 6.04463256 15.949783349999999 34.29240915114426 
Si 9.50106105 1.3558688279999997 4.071739699466802 
Si 10.86095025 2.7181494 2.703343681434371 
Si 8.14498371 4.5438348599999996e-05 8.144755395553181 
Si 8.146628999999999 2.71446786 5.430227776180189 
Si 10.85994027 -0.0006140026799999999 5.432710796629097 
Si 10.85971221 2.71533123 8.144789881948304 
Si 9.50213619 1.356699618 9.502312339598229 
Si 8.14436469 2.71803537 10.861972953745823 
Si 10.85883255 0.000610392816 10.861248739448223 
Si 12.04989219 0.407601864 16.22481431385427 
Si 8.2458351 0.09661713029999999 13.757554147518318 
Si 9.854928719999998 1.2414527549999999 15.09769546202589 
Si 10.83912165 2.8114422299999995 13.684822340202404 
Si 9.18014805 2.2096896299999997 17.15639530533119 
Si 11.18525157 3.6198171899999996 17.363486108049102 
Si 11.23273692 0.46740897 19.997384535622846 
Si 9.02886282 0.970815582 19.209749757392313 
Si 10.860380099999999 2.80982952 23.073605467053362 
Si 8.72829603 1.9544742 22.81988905812819 
Si 10.87228809 3.0421574999999996 25.431509274452015 
Si 9.36306846 1.5215902559999999 26.506415724063093 
Si 9.67705821 0.44069174099999997 28.59691202367246 
Si 10.724765849999999 0.19662681599999998 34.417905142999466 
Si 11.728783709999998 3.16133514 30.639782611615974 
Si 9.12306789 1.059260508 32.768213945861426 
Si 9.7842627 1.79150904 30.557015263319055 
Si 9.53939142 4.08489669 1.2512353878786335 
Si 8.16065469 5.43475125 2.7000812684556674 
Si 9.501289109999998 6.786006749999999 4.074636556657194 
Si 9.50272263 4.0725814499999995 6.787474342669123 
Si 8.14490226 5.4297990899999995 8.144824368343428 
Si 10.86098283 5.4314769599999995 5.431193395243653 
Si 8.14648239 8.14447872 10.863662787106884 
Si 12.21077223 6.79972293 12.232358836776891 
Si 9.50174523 6.7865280299999995 9.502622717154342 
Si 9.48424977 4.0744548 12.232255377591521 
Si 10.86111315 5.42852847 10.862662681648295 
Si 8.21006226 7.41393738 16.81532485755765 
Si 10.844953469999998 8.10971586 13.713446048155086 
Si 11.498068439999999 4.6454518799999995 15.186222038308468 
Si 9.757661129999999 6.49435059 15.085590737337466 
Si 11.10758085 7.22759607 19.290034085240322 
Si 8.808361380000001 7.79903298 19.165572685238836 
Si 11.12927913 4.87075887 19.627311029550256 
Si 8.49282408 4.2538402799999995 19.659314404225064 
Si 10.3285116 5.282504909999999 25.81937776040844 
Si 9.09555408 6.416793899999999 22.546308485611757 
Si 8.373776759999998 5.378208659999999 24.500928388433685 
Si 10.930997249999999 4.95839907 22.07032726011424 
Si 11.43228942 7.90675875 30.008302230505624 
Si 10.04161212 5.33292246 28.10465321967655 
Si 9.45196299 7.59566862 28.682472769974396 
Si 8.388568079999999 5.40911079 31.0564472375007 
Si 10.276106669999999 6.6064583699999995 32.071312873201386 
Si 10.979916119999999 5.37799689 34.16122290409365 
Si 9.61461864 9.577347119999999 1.447549192120382 
Si 10.884505589999998 8.111768399999999 2.7079545124624116 
Si 8.14669416 8.14653126 5.429641507463086 
Si 9.502804079999999 9.50262489 6.787612288249618 
Si 10.860217200000001 8.14472307 8.1449278275288 
Si 8.14465791 10.860608159999998 8.1449278275288 
Si 10.859809949999999 10.86187878 5.429779453043581 
Si 9.49408893 9.5029344 12.247567337026451 
Si 10.861829909999999 10.86002172 10.862386790487307 
Si 11.15863371 10.86039639 16.209364408838848 
Si 11.72197449 8.54689059 21.135711465866436 
Si 12.20666715 10.60492032 20.19440531096463 
Si 8.42781069 10.14938676 19.36731809671257 
Si 10.49750406 10.941895259999999 18.59651267930241 
Si 8.15472513 10.25756865 21.683217474850537 
Si 9.79242399 8.69486895 22.495130675248166 
Si 10.918095569999998 11.943893159999998 23.55386300554622 
Si 10.288649969999998 9.864360629999998 24.42771377158604 
Si 8.15897682 10.087761689999999 25.428474471681128 
Si 12.14116506 8.94886263 25.425060318563883 
Si 8.847701729999999 9.664547489999999 27.63850061678929 
Si 10.67063418 11.086387559999999 28.226976463180364 
Si 11.595841019999998 9.65529477 33.57098825155127 
Si 11.97710847 9.91489221 31.202152256898398 
Si 8.48966382 10.25706366 31.45245451270632 
Si 9.305222670000001 8.569224179999999 32.91885051976181 
Si 10.33765029 11.414793959999999 30.554497756475026 
Si 12.20889888 14.94079704 4.076257417228009 
Si 9.50278779 12.211179479999998 4.073050182481503 
Si 9.523133999999999 14.989471559999998 1.297681664831253 
Si 10.878217649999998 13.57942545 2.6804343691536867 
Si 8.15039199 16.2968418 2.7092580981980876 
Si 9.502217639999998 14.93374347 6.787957152200856 
Si 10.85998914 13.57505973 8.144893341133676 
Si 9.502380539999999 12.21927561 9.502484771573846 
Si 8.14521177 13.574277809999998 10.858765718999317 
Si 9.491417369999999 14.947671419999999 12.228599819708407 
Si 12.17066625 14.76898641 14.931091687183223 
Si 12.136587569999998 13.17452121 16.711417349049892 
Si 9.37539999 12.20599926 15.040861882862007 
Si 10.74656187 13.51708362 13.580328562977547 
Si 10.83408804 14.466318209999999 20.32628128591772 
Si 10.36058661 13.24966698 18.330967436849804 
Si 11.820838499999999 15.559018829999998 24.880037330028685 
Si 8.6975568 12.3268059 22.860858895535163 
Si 8.35826868 15.98524668 23.19168688395696 
Si 8.83740645 14.289490259999999 21.61110642264685 
Si 9.43930566 15.803645759999998 25.25269731573555 
Si 11.88946827 13.25017197 25.24693808774989 
Si 11.52139572 15.27418818 28.280844212363608 
Si 8.64935469 13.96595457 26.577526670808194 
Si 10.75102533 13.236178859999999 27.255908549286794 
Si 9.06038397 14.697310409999998 32.45283586245505 
Si 11.008716839999998 13.422226949999999 31.77445398397645 
Si 16.2927693 2.7026576099999997 2.7295774822049808 
Si 16.00946991 0.163191591 0.16943821165788608 
Si 13.575434399999999 -0.010472938739999998 2.7221042803816715 
Si 12.292580609999998 1.411308585 1.3591088318256146 
Si 14.93491635 1.3587489 4.074222719915709 
Si 15.05818278 4.006916459999999 1.2633745989621812 
Si 13.57499457 -0.000169551207 8.145065773109295 
Si 13.574538449999999 2.7150380100000002 5.431055449663159 
Si 12.216408569999999 1.357290945 6.788302016152092 
Si 16.2930951 -3.01319388e-05 10.86390419187275 
Si 14.930143379999999 1.357737291 9.502381312388476 
Si 13.576004549999999 2.71713942 10.857662154355358 
Si 12.22052994 1.360796553 12.246532745172738 
Si 16.08782481 2.5709366699999996 13.685581040895126 
Si 14.800084019999998 1.0620917099999998 15.230295651276576 
Si 13.40551341 2.8488766500000002 17.752320213068987 
Si 14.241662819999998 2.92513014 21.50640572705125 
Si 16.236405899999998 1.84707423 20.836438528982836 
Si 15.30842976 0.256661982 19.279550221122715 
Si 13.05791739 0.59160393 18.475982728345027 
Si 12.360200399999998 1.500320403 21.836578473965698 
Si 15.933819149999998 1.432571922 25.484514863757166 
Si 14.707068119999999 3.39708402 25.503378921889837 
Si 15.23308851 2.12099058 29.340231784169013 
Si 12.86142741 0.27828858599999995 26.814068854961757 
Si 12.736678589999999 2.68949529 26.71850705407394 
Si 15.105945059999998 0.5899456080000001 27.527523397281175 
Si 13.57553214 2.83261923 34.403558802628 
Si 13.64381982 1.8177848099999998 31.019546794718327 
Si 15.24527343 1.83326031 33.02375813372816 
Si 12.215561489999999 4.07398239 4.070946512378956 
Si 13.589346059999999 5.422028759999999 2.688011030162367 
Si 12.25369638 6.73687611 1.1855250106099067 
Si 14.93178867 6.787391399999999 4.071981104232668 
Si 16.28845245 5.43079278 5.430779558502169 
Si 14.933010419999999 4.0723370999999995 6.7873363970886285 
Si 13.574815379999999 5.4297990899999995 8.14503128671417 
Si 12.217174199999999 6.7872936600000005 6.7875088290642465 
Si 16.2911403 5.4305321399999995 10.864662892565471 
Si 12.21722307 4.0699261799999995 9.502726176339714 
Si 14.930029349999998 6.78773349 9.502346825993351 
Si 14.912485019999998 4.05601452 12.231945000035406 
Si 15.327260999999998 6.156267929999999 14.993787953518137 
Si 16.246310219999998 8.00876673 13.615021876472003 
Si 13.48647471 5.374087289999999 13.641714346297759 
Si 14.915677859999999 7.024345739999999 17.152532829077334 
Si 12.60999126 7.741594439999999 17.209745758587577 
Si 15.633675899999998 7.12452924 21.161127939072614 
Si 13.670763479999998 4.23924444 19.6388639719167 
Si 15.41552022 5.79813228 19.14767424616963 
Si 13.62536325 7.73380782 22.197651030910997 
Si 14.59419471 4.338694889999999 23.354014345804288 
Si 12.80239245 5.83383996 23.210964778831116 
Si 12.227436899999999 6.59508795 25.347121065584282 
Si 15.35669703 8.07716844 29.939639817814307 
Si 14.762258639999999 4.41618642 29.015197510127997 
Si 14.199764939999998 6.860419469999999 26.680951369784214 
Si 15.58465929 5.00808357 26.95511821101775 
Si 13.398932249999998 7.93508706 28.64788291566531 
Si 12.30957108 4.19081427 28.5937737617162 
Si 12.540514409999998 4.2665139 32.801251912389944 
Si 15.608263499999998 5.8655403 30.69696105473109 
Si 14.54439618 5.90603724 32.88574358044305 
Si 13.458993479999998 8.10194553 34.2116075273694 
Si 12.21329718 9.5037489 4.070153325291111 
Si 14.87060343 9.38737314 1.249466235808787 
Si 13.587863669999999 10.87105005 2.686524666532535 
Si 13.577454359999999 8.14534209 5.429607021067962 
Si 14.933368799999998 9.50246199 6.787888179410608 
Si 13.57507602 10.85969592 8.145065773109295 
Si 12.21790725 9.50073525 9.502277853203104 
Si 13.57678647 8.14574934 10.857524208774862 
Si 14.9284818 9.48076371 12.22008168011285 
Si 16.2937467 10.85800176 10.860248633989638 
Si 14.1408603 12.010649579999999 16.8681925012823 
Si 13.52677617 10.702367099999998 13.626057522911593 
Si 15.355133189999998 11.50973208 14.868740284799545 
Si 12.498176699999998 9.114857729999999 15.141665615808627 
Si 15.97056939 9.87529122 18.79522328800526 
Si 13.30229997 10.1204883 18.133532824766537 
Si 14.61170646 11.32576911 23.42040065641744 
Si 14.045954759999999 9.166969439999999 24.018118856701673 
Si 12.771457739999999 11.95016481 22.05287714418164 
Si 15.66395901 8.45582949 25.549245827404377 
Si 14.412284279999998 11.40588333 27.444238753057405 
Si 12.63204792 9.883501379999998 27.546180537043103 
Si 15.90379668 10.16856009 32.175185895314016 
Si 13.94226891 11.438398170000001 31.649578747233477 
Si 12.38880564 12.00064752 33.50291210757705 
Si 12.83262669 12.76197696 1.3179700110825345 
Si 14.94302877 12.2078889 4.0747745022376884 
Si 14.63104269 14.632476209999998 1.4445109407099828 
Si 13.57406604 13.57463619 5.427986160497149 
Si 12.21764661 12.21689727 6.787819206620361 
Si 14.93274978 14.93270091 6.7875088290642465 
Si 12.217239359999999 14.93261946 9.503346931451938 
Si 14.93138142 12.216473729999999 9.503243472266568 
Si 13.5786924 13.57357734 10.86093836189211 
Si 12.21507279 12.20925726 12.237324877674707 
Si 14.946514829999998 14.911344719999999 12.225875394493634 
Si 13.566491189999999 16.16052708 13.613849339037797 
Si 16.261932329999997 15.621670169999998 16.348275608397174 
Si 16.24521879 13.41602046 13.671751996450515 
Si 15.62022036 13.61096289 17.643584609243916 
Si 12.98878263 14.114291309999999 21.237584277061888 
Si 14.911361009999998 14.244920819999999 19.797053066349182 
Si 13.081326119999998 15.84207387 22.907312069766807 
Si 15.194644109999999 16.095350789999998 23.913521620291444 
Si 15.645192929999999 14.294458709999999 25.388090902991255 
Si 14.120497799999999 12.56569875 25.398402335133248 
Si 16.27866216 13.74641424 29.619226720719873 
Si 12.64778406 14.35559508 30.108795585896132 
Si 14.23356669 12.62199699 29.54718464130643 
Si 13.8590433 15.82791786 31.525082860836868 
Si 16.169193359999998 15.38155557 31.263020744291754 
