&CONTROL
  dt          = 30.D0,
  prefix = 'x2.33_y.66_z3.16_struc31-scf',
  pseudo_dir = './',
  outdir='./',
  wf_collect= .true.,
  verbosity= 'high',
/

&SYSTEM
ibrav= 6, celldm(1) =30.783621515, celldm(3) =2.1115588181846787, nat=  432, ntyp= 1,
  ecutwfc     = 12.D0, nbnd= 1728,
  degauss     = 0.05D0,
  occupations = "smearing",
  smearing    = "methfessel-paxton",
/
&ELECTRONS
  electron_maxstep=200,
  conv_thr    = 1.D-8,
  mixing_beta = 0.3D0,
  scf_must_converge=.false.,
/
ATOMIC_SPECIES
Si  28.08  Si.pbe-hgh.UPF
K_POINTS {automatic}
1 1 1 0 0 0
ATOMIC_POSITIONS (angstrom)
Si -0.0237918708 2.7156081599999995 2.7113907105143085 
Si 2.3214716099999997 3.2667640199999997 0.3215273218113392 
Si 1.268248176 1.376905734 1.2922891049323673 
Si -0.000431070867 2.71549413 8.145554195845675 
Si 2.71595025 -0.0007160627879999999 8.145038236448451 
Si 2.7146796299999996 2.7155267100000002 5.431023012466933 
Si 1.3567517459999998 1.3578594659999998 6.787824240698803 
Si 2.7163575 2.7146796299999996 10.8613580790709 
Si 1.360001601 1.3542039899999998 12.246605868736356 
Si 1.3592734379999998 4.0742593199999995 9.5022522321981 
Si 2.51203203 3.0995145899999996 16.682962355235965 
Si 2.76091065 0.0615041982 13.739689172421505 
Si 3.8214548099999996 1.72687032 15.1164064333862 
Si 3.5090777699999998 2.38112559 20.15468115268666 
Si 2.13022701 1.4581358189999998 18.50949301870004 
Si 0.0644368869 1.86160491 22.16520293720061 
Si 3.4589371499999997 1.432873287 23.75391071583784 
Si 2.285487 2.6970538499999996 22.19299595006438 
Si 2.77895997 1.7965752299999997 25.946634962157955 
Si 3.38893902 1.76524956 29.670795494023494 
Si 0.429854004 1.9609413299999998 26.231031781907507 
Si 4.03446285 3.6861012 26.45303191188617 
Si 3.54727782 0.393958989 27.722807988453024 
Si 3.25207044 3.90963258 28.625048987731056 
Si -0.01075190499 0.06818684489999999 34.11310271223775 
Si 1.83943422 1.3749346439999999 31.408890716803477 
Si 2.4543328499999997 3.52652436 32.38756250145687 
Si 4.07043117 6.7896719999999995 4.072983481681726 
Si 1.360091196 4.07134341 4.070266095523016 
Si 2.7350421299999996 5.41852641 2.727956446894495 
Si 1.4896993229999997 6.709688099999999 1.2550712337459842 
Si 0.01524512682 8.1399501 2.685947032772564 
Si 3.35137428 7.53687801 0.009935382947520591 
Si 0.000656172603 5.429733929999999 5.430610244949153 
Si 2.71593396 5.42997828 8.144212701412894 
Si 1.3578040799999997 6.787554299999999 6.787205089422134 
Si 2.71761183 8.14596111 5.429819107206744 
Si 4.06707543 4.072923540000001 12.227137000814459 
Si -0.00433589301 5.43032037 10.857436787652002 
Si 1.369905921 6.780419279999999 12.21251815122646 
Si 4.07732184 6.573210479999999 14.89413112506235 
Si 0.9168647309999999 4.33810845 15.203053214826587 
Si 2.54093049 5.271965279999999 13.636738074028859 
Si 3.66112863 7.64939304 16.937089557015078 
Si 0.26538201899999997 5.587795799999999 20.96177923911669 
Si 4.06554417 4.55160519 19.380948440610407 
Si 0.7770769829999999 7.00976619 19.12833471972982 
Si 2.5401974399999996 5.67981801 17.902896754031037 
Si 0.08676607859999999 5.998075739999999 24.87512488329749 
Si 2.18797506 5.083669169999999 22.143291861465187 
Si 2.25047979 6.323142689999999 24.083436784197865 
Si 3.46590927 7.4995087499999995 28.802539020375914 
Si 1.023701067 4.6546068599999995 28.43761813736636 
Si 1.1041052489999998 6.96508272 28.51487445777728 
Si 0.508578687 4.83011532 34.397637121159896 
Si 0.221745996 7.17610338 32.37163655472924 
Si 0.584985303 4.90408821 31.998150745725777 
Si 4.0423634999999996 9.433034009999998 1.2207461749133672 
Si 1.353560535 9.503993249999999 4.068958998383383 
Si 2.72126079 10.85342427 2.690043750386518 
Si -0.000341873343 8.14478823 8.14486624998271 
Si 0.00080995509 10.86117831 5.430851026001191 
Si 2.71485882 10.860103169999999 8.144625468930672 
Si 1.358514324 9.502250219999999 9.504694440011622 
Si 2.72329704 8.13607308 10.856920828254779 
Si 2.6641806299999997 12.04682967 17.019333484932492 
Si 0.34694116199999997 8.40601467 13.562267934362943 
Si 1.236643947 10.56647592 15.6416187024665 
Si 2.13744348 10.318086 13.510534405468007 
Si 1.242835776 9.28034784 20.05437864586643 
Si 3.71537433 9.337721219999999 19.777377244143743 
Si 2.51276508 11.64536262 19.42146845193902 
Si 0.36835110899999995 11.786271119999999 22.52709685841312 
Si 2.6287987499999996 8.657059859999999 23.78658814432865 
Si 0.847016469 9.495750509999999 22.413104228919895 
Si 3.3308488799999996 11.73158559 25.00136294915149 
Si 2.7563820299999997 9.665866979999999 25.908385172177127 
Si 0.643134087 9.8572419 26.970435995421823 
Si 0.9287792369999999 11.59637859 30.616411479961446 
Si 3.59285724 8.91931257 30.68348620160049 
Si 2.2250999699999996 8.38307835 32.54462054197168 
Si 1.390219551 10.668109229999999 32.72307369882469 
Si 3.20297238 11.15957853 30.22699972423035 
Si 3.45914892 11.9997027 32.855434482859074 
Si 2.71953405 16.2970047 2.683625215485059 
Si 1.570385322 12.446537399999999 1.3096975749946858 
Si 1.3550592149999998 14.93056692 4.074359373407655 
Si -0.0006308840069999999 13.5742941 8.144556674344376 
Si 2.71360449 13.574880539999999 5.430163080138227 
Si 1.3575043439999999 12.217304519999999 6.787411473181024 
Si -0.00217166877 16.287898589999998 10.863387519366647 
Si 1.356329835 14.9327172 9.502527410543285 
Si 2.71801908 13.5721764 10.86410986252276 
Si 1.355073876 12.206911499999999 12.234704405307069 
Si 0.069023988 13.531516559999998 13.760809110414518 
Si 1.175732379 15.13428966 15.089473352851138 
Si 1.7327835899999997 14.2392519 17.17587556605008 
Si 1.91788686 15.06419379 21.173391386564596 
Si 1.046334393 12.9683061 20.67311715501676 
Si 2.7279234 15.47649369 18.97616109484206 
Si 3.07257093 15.469896239999999 23.265228372080955 
Si 1.23619923 12.6118809 24.521761490785742 
Si 1.435580685 14.88334221 24.945467347785616 
Si 3.9850389899999996 13.03180452 26.860330260054347 
Si 2.35050039 14.71729824 27.176406986793417 
Si 0.438793956 14.66065791 28.52282023249452 
Si 2.69301393 13.82783166 34.11169242321868 
Si 1.516770045 15.321038219999998 32.615582157736476 
Si 0.593812854 13.970662379999998 30.798510749888163 
Si 6.78986748 4.07178324 4.0696125469532 
Si 4.06937232 1.359578061 4.068924601090235 
Si 5.44757148 2.69547372 2.6910068745946685 
Si 6.82267554 1.2422998349999999 1.2083665891093196 
Si 5.43045069 0.00019106541 5.429887901793041 
Si 5.43045069 2.71490769 8.14486624998271 
Si 6.787928969999999 1.357553214 6.787652254233062 
Si 8.137897559999999 2.7187847099999995 10.860257365690158 
Si 4.0723370999999995 1.358335134 9.501770670094023 
Si 5.43326886 -0.00407637702 10.86194283305442 
Si 6.78714705 1.367587854 12.231436662457986 
Si 7.16248494 3.9363970499999996 14.923093645893156 
Si 5.7858822 0.9136132469999999 16.101304128099425 
Si 5.4416419199999995 2.77247655 13.665563005687073 
Si 6.59697759 2.1638007 18.14601682200271 
Si 5.51958957 1.027811034 19.992429120906465 
Si 5.6522390399999995 2.24937207 23.630630817194586 
Si 6.867570779999999 1.0817309339999999 21.95727130011957 
Si 7.181185859999999 2.61814509 29.386226687808204 
Si 7.224289199999999 1.3509248129999998 27.258582120124533 
Si 6.20137494 2.9340081899999997 25.891599293120787 
Si 5.351493059999999 2.3511682799999996 30.897987721672838 
Si 5.90906718 0.14698564739999997 31.926673170563763 
Si 8.158422960000001 2.6750949299999998 34.282302997233884 
Si 4.20866811 4.18275072 1.3321280498566455 
Si 6.8473060199999995 6.77282814 1.232726752116895 
Si 5.44260303 8.14368051 2.6911788610604095 
Si 8.148241709999999 5.42528676 2.7007860250367095 
Si 4.0721742 4.07280951 6.787617856939913 
Si 5.42919636 5.430711329999999 5.429543928861558 
Si 6.7877171999999995 6.7874728499999994 6.787858637991951 
Si 6.787423979999999 4.0728909600000005 9.50128910798995 
Si 4.0720927499999995 6.788368799999999 9.49895009205587 
Si 5.42908233 5.43103713 10.858743884791636 
Si 6.79040505 6.77962107 12.218881650458883 
Si 5.37742674 8.06969133 13.570557682011666 
Si 5.901867 5.34261501 16.32041488545364 
Si 6.144017849999999 7.63862535 16.615027701268215 
Si 4.27070043 5.65380288 21.360306277532064 
Si 4.95927873 7.91698887 21.24277072684457 
Si 7.0429815 8.13173994 20.124893096820294 
Si 7.6306758299999995 5.84369541 20.048737489790117 
Si 6.23315673 4.566021839999999 18.547364438456242 
Si 7.56745434 4.942027619999999 22.2275996269715 
Si 5.41929204 4.521973679999999 23.055301691997318 
Si 4.2432191999999995 5.44244013 24.917295964697217 
Si 5.50693224 7.38288864 25.219957747108477 
Si 7.75131957 6.85742211 25.557223206426862 
Si 4.659852239999999 5.5401475499999995 29.544798209221536 
Si 6.934441229999999 4.95514107 28.930118580662693 
Si 7.537415579999999 4.7877939 26.647789385691443 
Si 5.05081224 5.78765781 34.11169242321868 
Si 4.65511185 4.4629712999999995 31.827780952762602 
Si 6.785697239999999 9.50220135 4.07270830333654 
Si 4.0725814499999995 9.50246199 6.787445870474172 
Si 5.43002715 8.143973729999999 8.144247098706042 
Si 5.43093939 10.86042897 5.43088542329434 
Si 6.78908556 9.500458319999998 9.503559329337731 
Si 4.05678015 9.503586 12.239692012813562 
Si 5.42626416 10.86653772 10.864006670643313 
Si 6.782308919999999 12.2150565 12.248016157755432 
Si 8.10043056 10.71737019 13.573653438395008 
Si 7.32198033 8.72135649 14.693010152024655 
Si 6.5992419 11.49119406 17.565459308246915 
Si 4.51081503 11.562576839999998 20.69819278172182 
Si 7.19842068 9.137908079999999 17.986585368260677 
Si 4.76764317 12.14134425 23.119039876200986 
Si 5.04915066 8.82320157 23.392016794625327 
Si 6.606132569999999 10.7642691 23.54064749831882 
Si 7.575078059999999 11.03564421 25.679471186275663 
Si 4.53816594 8.57124414 26.970676776473862 
Si 6.16827366 10.16860896 27.505520287635665 
Si 8.09147106 9.42192423 28.638842302283496 
Si 4.83050628 11.77802838 28.652945192474267 
Si 7.916451299999999 8.33880213 30.66914253035768 
Si 5.15456325 11.05831989 34.25234295490178 
Si 7.27053651 9.45318474 32.57289511693953 
Si 5.58051417 11.129360579999998 31.889936861481452 
Si 7.943541569999999 13.8430791 -0.0009392868839986733 
Si 4.07680056 12.2155452 4.071985960180428 
Si 4.14152073 14.94617274 1.225097432496618 
Si 5.420057669999999 13.574815379999999 2.7053127088150166 
Si 6.72258978 12.24423189 1.2564677638478023 
Si 6.7874728499999994 14.934052979999999 4.072054754766724 
Si 4.07271177 14.932163339999999 6.787411473181024 
Si 5.42968506 13.575222629999999 8.145760579604563 
Si 6.7877171999999995 12.217304519999999 6.787445870474172 
Si 4.07196243 12.21785838 9.502871383474767 
Si 6.786609479999999 14.933108159999998 9.502286629491248 
Si 4.077272969999999 14.927276339999999 12.255961932472674 
Si 5.6449411199999995 14.775388379999999 16.78323046476305 
Si 8.079563069999999 14.465373389999998 16.484593165650132 
Si 4.92366879 12.550060349999999 16.063467105636374 
Si 5.48704215 13.580956709999999 13.7796244297666 
Si 6.79102407 15.379796249999998 14.691496671126133 
Si 7.86945465 13.524104609999998 20.91523970148714 
Si 6.00495012 12.97778688 19.48847437899177 
Si 5.0632578 15.184169639999999 18.94819609551255 
Si 7.32515688 15.1151652 22.69220386552462 
Si 5.22172692 14.42704302 23.672595514835425 
Si 5.768793989999999 14.269632749999998 26.03273138690797 
Si 6.31260306 14.9090967 29.962346950747882 
Si 7.9431669 13.366287089999998 26.11896540083058 
Si 5.7661875899999995 15.8695551 27.73295518993175 
Si 6.49648458 12.53249973 30.146682044729236 
Si 5.9307003 15.797455559999998 34.20459951201204 
Si 9.50047461 1.358838495 4.071573192662649 
Si 12.218868359999998 4.07033343 4.0696125469532 
Si 10.87448724 2.70692559 2.701050884193951 
Si 8.145097739999999 4.28975973e-05 8.145313414793637 
Si 8.14638465 2.715543 5.430610244949153 
Si 10.86077106 0.0017048462399999998 5.43067903953545 
Si 10.85979366 2.7151194599999995 8.145003839155303 
Si 12.201389189999999 1.3563053999999999 12.243303728594125 
Si 9.50334165 1.357642809 9.503352945578843 
Si 10.86191136 -0.00320437332 10.85884707667108 
Si 9.52126065 4.0728258 12.224522806535193 
Si 8.40827898 0.35290656 13.657342052624646 
Si 8.98828443 2.2609705499999997 15.289528009801234 
Si 10.80567828 2.7222219 13.725723871403325 
Si 12.02711877 2.2599605699999996 20.49758776808135 
Si 9.889658999999998 3.0845603699999997 19.869768373539884 
Si 8.99084196 1.81029141 17.809508103133595 
Si 8.491081049999998 2.77591374 21.802965043056616 
Si 11.79254277 1.399420143 22.780226538690933 
Si 9.71921673 2.1949145999999997 23.720407752311463 
Si 9.07074441 0.8369508779999999 25.66867043622712 
Si 10.81225944 1.9002284999999999 29.416152332847158 
Si 10.52882973 2.1043259099999996 27.094507031807485 
Si 10.758535019999998 0.0880945281 34.330356015761964 
Si 11.757682169999999 3.92579226 30.157242013725742 
Si 8.90357643 1.69363872 30.737730732895244 
Si 11.635947 3.5917006499999995 32.630029020858736 
Si 9.94652739 1.8784161899999998 32.87215156732911 
Si 10.87523658 8.127700019999999 2.711827556137291 
Si 12.15305676 6.76020339 1.1959113292603463 
Si 9.52603362 4.07976534 1.320064919149562 
Si 9.49941576 6.789753449999999 4.070954041385981 
Si 9.50249457 4.072027589999999 6.787549062353617 
Si 8.14459275 5.429701349999999 8.144694263516968 
Si 10.860380099999999 5.430206339999999 5.430025490965634 
Si 10.86068961 5.42470032 10.862011627640715 
Si 9.50137056 6.7889389499999995 9.502217834904952 
Si 9.24561756 7.16950593 14.94204655441783 
Si 10.04918697 6.3579544199999996 17.17277980966674 
Si 8.26463376 5.497223399999999 13.576061248915382 
Si 11.412497069999999 6.97860342 20.83867132693918 
Si 9.904580639999999 5.49437265 19.576359462985497 
Si 10.077287219999999 8.03370672 22.489741398054147 
Si 8.96697711 6.23309157 23.620105245491228 
Si 10.23116256 4.39051338 24.447463337585567 
Si 9.819774899999999 4.33649574 26.74778231687334 
Si 10.71326511 5.99413356 29.781864353599126 
Si 9.21663765 8.105969159999999 26.954682035159934 
Si 10.905584849999999 6.48820926 27.471226186366884 
Si 8.46091197 6.09325821 30.4357224990538 
Si 9.41218281 6.69657465 32.77546077628944 
Si 11.506180859999999 7.304289389999999 31.578262988265354 
Si 10.7751834 5.3024764499999995 34.066253598969865 
Si 9.642816629999999 9.55924893 1.3490996742959815 
Si 8.14298004 10.85902803 2.6910343924291866 
Si 10.95505758 11.10373641 0.008115284577875232 
Si 8.14452759 8.14542354 5.430919820587488 
Si 9.502315379999999 9.50239683 6.787583459646765 
Si 10.86007059 8.14470678 8.14486624998271 
Si 8.14501629 10.86024978 8.145175825621044 
Si 10.86033123 10.85951673 5.429853504499893 
Si 12.21746742 9.50413986 9.502217834904952 
Si 8.14674303 8.14444614 10.856576855323297 
Si 9.51259437 9.48962547 12.206945789736448 
Si 10.85933754 10.858783679999998 10.86390347876387 
Si 12.2434011 12.225058559999999 12.234498021548179 
Si 9.504986939999998 12.216913559999998 9.502080245732358 
Si 11.785212269999999 9.995397389999999 14.902352078124775 
Si 10.89960642 8.20809117 13.632541604264775 
Si 9.94841703 11.69206605 14.697309813668186 
Si 9.53867466 8.65256382 17.42745736813622 
Si 8.85526029 9.378951209999999 20.978255542534693 
Si 10.408593239999998 9.89798319 19.209409139680194 
Si 10.18722843 12.189937319999999 18.379746428944923 
Si 8.40567258 11.4308559 22.01089668013766 
Si 10.70406126 11.69861463 22.735441263011943 
Si 11.10044583 9.655262189999998 23.900305595476695 
Si 9.81532773 10.082728079999999 25.851148076378472 
Si 8.542150199999998 11.644759889999998 29.429464085295525 
Si 12.11379786 10.36319301 28.997950042750997 
Si 11.003243399999999 11.63795067 27.265014413943252 
Si 8.32567239 8.16085017 34.349893678270156 
Si 11.18531673 9.611800469999999 31.07994940242697 
Si 9.17301303 10.815892109999998 31.501316243492766 
Si 8.15360112 16.28846874 2.711442306454031 
Si 12.21569181 14.93268462 4.072398727698206 
Si 9.49866642 12.21777693 4.06940616319431 
Si 9.50075154 14.96270709 1.316456643098313 
Si 10.86127605 13.58929719 2.7077411577112813 
Si 8.14594482 13.57615116 5.430231874724524 
Si 9.502103609999999 14.93265204 6.787411473181024 
Si 10.86033123 13.57540182 8.144831852689562 
Si 12.218363369999999 14.933499119999999 9.501185916110504 
Si 8.14392486 13.574310389999999 10.862596381624238 
Si 9.50192442 14.955995609999999 12.2360115024467 
Si 8.661865409999999 12.21932448 16.62097843298286 
Si 10.9382463 13.653414629999999 13.607259593800828 
Si 12.17439666 13.017241259999999 17.503337796821214 
Si 11.901180779999999 14.77377567 20.472856114307774 
Si 9.76315086 14.212080180000001 19.61165108575558 
Si 9.487654379999999 15.77460069 17.843733409816085 
Si 11.78377875 15.462419129999999 17.28054652910014 
Si 8.924981489999999 14.87723346 24.56795705548381 
Si 10.98315783 13.76842203 23.952348700009967 
Si 9.465565139999999 13.25056293 28.005244162493128 
Si 10.41900255 14.70928356 29.69301614539725 
Si 9.65250918 12.539618459999998 33.00767690233314 
Si 12.160810799999998 14.8827069 33.12115357242914 
Si 8.43201351 15.669660509999998 30.815606204582835 
Si 11.33891514 13.40996058 31.501763408303695 
Si 13.57393572 0.0045000962099999995 2.7023854991681024 
Si 12.24775053 1.341040041 1.2512806520410495 
Si 14.932375109999999 1.360081422 4.075494484081547 
Si 13.574733929999999 -0.000399114774 8.144900647275858 
Si 13.574782799999998 2.71388142 5.430369463897117 
Si 12.21732081 1.3579800119999998 6.787549062353617 
Si 14.933352509999999 1.3578757559999999 9.502389821370691 
Si 13.5725022 2.7173511899999996 10.865210575903502 
Si 16.267470929999998 2.7979866899999997 13.61902346805752 
Si 14.34298662 2.19090726 14.85718843222115 
Si 13.61446524 0.179787843 13.773157738654731 
Si 12.70349586 4.00955544 15.087512707141688 
Si 14.6093607 2.8948144499999997 17.038871147440684 
Si 15.64221186 3.4369130699999997 20.534771241974582 
Si 12.7912338 0.309612627 19.317932599562855 
Si 15.13938843 0.08421343559999998 19.029064131704033 
Si 16.168558049999998 2.16137349 18.630846668926996 
Si 12.53403099 3.9915712799999996 17.652862830136563 
Si 13.287362039999998 2.43566451 24.264091367812362 
Si 15.44298516 1.4944331969999998 24.314792977912848 
Si 12.78820386 2.15407557 26.51924670119651 
Si 12.25459233 0.055873396799999996 29.61090980665243 
Si 13.60342062 0.273201219 27.665158125136593 
Si 15.913424069999998 0.592128468 28.110293495767817 
Si 13.423155479999998 2.7319307399999997 34.000657960936195 
Si 15.933444479999999 3.7969872299999996 30.136638035129952 
Si 15.994580849999998 1.4868534599999998 30.342540231915248 
Si 14.827581539999999 1.286401752 32.61059455022998 
Si 14.927015699999998 4.06095039 1.22728854007016 
Si 13.57261623 5.43897036 2.6818537548879244 
Si 14.933433959999999 6.78659319 4.069302971314866 
Si 14.93242398 4.07210904 6.787583459646765 
Si 13.57505973 5.43009231 8.144728660810117 
Si 12.21732081 6.787684619999999 6.787308281301579 
Si 12.218233049999998 4.0735588499999995 9.501529889041986 
Si 14.934052979999999 6.78665835 9.503008972647361 
Si 14.92726005 4.09621824 12.22552032803649 
Si 12.227159969999999 6.7952268899999995 12.245470758062464 
Si 13.790413529999999 5.67672291 13.728544449441479 
Si 15.761992229999999 6.7172955299999995 15.14591931090738 
Si 15.297906419999999 7.12017981 17.486070355660804 
Si 13.452216839999998 4.14741771 20.155919455239996 
Si 13.23342585 6.17578335 18.25622574924964 
Si 12.49304535 4.67606079 24.022072013221425 
Si 15.158203379999998 6.35174793 22.72188872951154 
Si 13.02193278 5.62635423 21.953350008700674 
Si 12.78470151 5.92690473 25.99778373706937 
Si 13.881360599999999 6.967656539999999 29.68448561669649 
Si 13.87113048 4.62495906 29.41728744352105 
Si 13.88727387 7.98710103 26.24554743961606 
Si 16.13118879 4.21305012 26.463282305244345 
Si 16.183430819999998 7.681435469999999 26.551648951342145 
Si 13.86318096 4.17685374 27.137400456363324 
Si 15.984220409999999 7.880271209999999 30.188302769438593 
Si 16.12600857 11.41103097 0.1188013710753513 
Si 12.22022043 9.501126209999999 4.072605111457096 
Si 14.993511479999999 9.549328319999999 1.2657034370581015 
Si 13.58247168 10.85295186 2.7090792124147476 
Si 13.57507602 10.861357499999999 8.144350290585487 
Si 13.57492941 8.1464661 5.430335066603968 
Si 14.932179629999998 9.50291811 6.787514665060469 
Si 13.57274655 8.14350132 10.86407546522961 
Si 14.93149545 9.49697226 12.23621788620559 
Si 16.28385867 10.86862284 10.86094531155312 
Si 13.696583129999999 10.913632109999998 13.732947302964453 
Si 15.468918839999999 11.806275239999998 15.185304211562102 
Si 14.17546026 9.23636484 17.72946560197767 
Si 12.677790239999998 11.45885841 21.364812322934483 
Si 13.83307704 9.522286919999999 20.66530896947211 
Si 12.35601387 8.42191371 19.15654050011137 
Si 15.527008979999998 10.47562659 19.238474852390446 
Si 13.957809569999998 11.576960909999999 24.81692466329069 
Si 14.903916479999998 8.66443923 22.613124488576844 
Si 13.437735029999999 9.34977582 24.38568579909135 
Si 12.61287459 8.23464387 28.150882301682728 
Si 14.20261569 11.452928850000001 29.116242333887758 
Si 16.103512079999998 10.06360362 29.232161211797287 
Si 15.961446989999999 11.74197861 26.00803413042754 
Si 12.63023973 10.230592409999998 32.920204585857185 
Si 13.38682878 12.06784377 31.308760196448983 
Si 13.573088639999998 8.29376028 34.22781768488709 
Si 12.326300909999999 12.321055529999999 1.3980470224459105 
Si 14.933140739999999 12.213883619999999 4.07019730093672 
Si 15.019624349999999 15.03119025 1.3034751046641715 
Si 16.3064529 13.58791254 2.7045456491778106 
Si 16.2909774 16.290325799999998 5.43030066931082 
Si 13.575939389999998 13.57611858 5.429234353223225 
Si 12.21785838 12.21699501 6.787377075887875 
Si 14.932668329999998 14.932798649999999 6.787789843405655 
Si 14.93340138 12.218917229999999 9.500601162126985 
Si 13.573609919999999 13.57444071 10.860429352155897 
Si 14.9406993 14.93460684 12.262153445239354 
Si 12.386313269999999 14.91074199 15.058722172776621 
Si 16.03025595 15.99700806 21.204452142277443 
Si 13.17738825 12.97988829 19.677762683186476 
Si 15.46629615 12.86997966 19.23768371464804 
Si 15.607774799999998 14.49968013 17.556997574132453 
Si 15.39163908 15.44679702 24.70523665243839 
Si 14.57389737 14.75246835 22.655536351028605 
Si 12.27003525 15.338061269999999 22.69079357650554 
Si 14.398014239999998 12.398758829999998 22.691171946730172 
Si 12.30411393 12.96745902 25.754526079925096 
Si 15.15139416 13.145036309999998 27.679261015327366 
Si 13.86687879 14.6160396 26.400576039835123 
Si 14.0357898 13.435633619999999 34.25794971368494 
Si 14.76445779 13.865233499999999 31.800985461400135 
Si 13.55411079 15.94484748 31.565707976266253 
