&CONTROL
  dt          = 30.D0,
  prefix = 'x2.66_y1.66_z3.16_struc22-scf',
  pseudo_dir = './',
  outdir='./',
  wf_collect= .true.,
  verbosity= 'high',
/

&SYSTEM
ibrav= 6, celldm(1) =30.783621515, celldm(3) =2.1107125888071807, nat=  432, ntyp= 1,
  ecutwfc     = 12.D0, nbnd= 1728,
  degauss     = 0.05D0,
  occupations = "smearing",
  smearing    = "methfessel-paxton",
/
&ELECTRONS
  electron_maxstep=200,
  conv_thr    = 1.D-8,
  mixing_beta = 0.3D0,
  scf_must_converge=.false.,
/
&IONS
/
ATOMIC_SPECIES
Si  28.08  Si.pbe-hgh.UPF
K_POINTS {automatic}
1 1 1 0 0 0
ATOMIC_POSITIONS (angstrom)
Si 0.0137415924 2.71857294 2.685004706965823 
Si 1.388013885 1.533846852 1.0264439897619193 
Si 7.535444489999999e-05 2.7151846199999996 8.144902926049232 
Si 2.71557558 -5.50790964e-05 8.144696625000803 
Si 2.71298547 2.7141909299999996 5.429946745202179 
Si 1.3575124889999999 1.357227414 6.787063808790953 
Si 2.71713942 2.71241532 10.857933630444272 
Si 1.3786536509999998 1.370912643 12.221755478107022 
Si 4.07404755 1.3614269759999997 9.502776426815585 
Si 2.83931442 3.55770342 17.02148690386358 
Si 0.22790035799999997 2.92426677 13.570826800807025 
Si 2.6849666699999997 0.0283533966 13.706091521560971 
Si 3.94916841 2.1635889299999995 19.992256384763852 
Si 1.8283896 2.75669154 18.91725600490312 
Si 0.28123056 1.027793115 18.610142510806973 
Si 1.6320462299999998 3.30639759 24.803437518708275 
Si 2.33947206 3.8616096599999996 22.62943707035279 
Si 2.11592439 0.1008738702 22.676576859919045 
Si 3.5841258 1.93455153 22.28580829068453 
Si 1.3746919229999999 1.63429425 27.953998363315304 
Si 2.11618503 3.5194544999999997 29.131771048802253 
Si 2.71705797 1.621335555 26.031650810536362 
Si 2.71321353 3.15662733 34.09994728060192 
Si 0.5651229059999999 3.60968481 30.912664849374348 
Si 0.07595538299999999 1.3195193219999999 31.581802299957097 
Si 4.07030085 6.78814074 4.0680847574995145 
Si 1.357061256 4.07061036 4.072417079516545 
Si 2.7164878199999998 5.43317112 2.694800568415441 
Si 1.2910492889999998 6.845758469999999 1.325119770977279 
Si -0.00684774585 8.15171148 2.738044706517179 
Si 0.00043403564699999995 5.431216319999999 5.433935232138493 
Si 2.7147773699999997 5.430190049999999 8.14462785798466 
Si 1.3574489579999998 6.786511739999999 6.788095314033103 
Si 2.713914 8.14441356 5.43163153709769 
Si 1.358548533 4.072516289999999 9.50250135875101 
Si 1.362555873 6.78998151 12.246099001821763 
Si 0.8241958079999999 6.24934899 16.51959083654143 
Si 1.548610479 4.288554270000001 15.198129470822975 
Si 2.8182351599999995 5.487514559999999 13.653759822275891 
Si 2.30604498 8.065113839999999 15.984170848849399 
Si 3.17154897 6.60455244 19.84200045449066 
Si 0.229724838 4.39942401 19.60960232343425 
Si 0.91193049 6.581664989999999 19.039042390492973 
Si 0.1610499447 4.246265429999999 21.937125135329737 
Si 0.47035094399999994 8.03364156 23.627040173544195 
Si 2.67385689 7.163999909999999 23.89602235718886 
Si 3.51855855 5.79440187 22.114956639076407 
Si 1.9640852999999998 5.580188369999999 25.539794727571138 
Si 2.53638558 5.52688749 27.793496147636752 
Si 1.6693177499999998 7.500013739999999 28.801930055870734 
Si 1.546559568 4.841746379999999 32.755827183064234 
Si 3.50443512 6.4891214999999995 32.577273625648054 
Si 2.68242543 8.09489196 34.23620912308994 
Si 4.06440387 9.52326432 1.238552412705238 
Si 1.3599364409999999 9.50501952 4.075030226129991 
Si 2.70459612 10.846468439999999 2.7056520035628595 
Si 4.07491092 12.216604049999999 4.072176394960043 
Si 1.1088472679999999 11.92946022 1.315516457172862 
Si -0.000395524458 8.14490226 8.145143610605734 
Si -0.000631152792 10.85818095 5.429946745202179 
Si 2.7153801 10.85982624 8.145624979718738 
Si 1.358133138 9.50345568 9.502363824718723 
Si 2.71125873 8.146563839999999 10.862575404033947 
Si -0.001144150956 10.85692662 10.863744443308384 
Si 1.3957386029999999 12.212270909999999 12.226397251696698 
Si 0.1064299005 8.279017829999999 13.691512914138585 
Si 3.0109621499999997 10.89462168 13.867487708449387 
Si 1.118000619 10.05068565 15.05340928534932 
Si 3.3254568899999994 9.705435389999998 17.390903314585593 
Si 3.2409280799999998 10.570369229999999 21.22954692272286 
Si 0.9458625599999999 11.02987755 21.16218963041046 
Si 3.79858365 8.88448455 19.626209557832862 
Si 0.361999638 11.56493889 18.928258727486053 
Si 2.03020641 11.67116598 17.253747500887705 
Si 3.06543591 11.93525946 24.92116665034567 
Si 3.07519362 10.74421611 27.009861615175346 
Si 1.140938568 9.5187357 27.60414616868607 
Si 3.08669436 8.14462533 30.646089511294697 
Si 0.1169011125 10.337585129999999 31.48363738441248 
Si 1.78166988 12.14888652 32.19571983657674 
Si 2.02434201 9.35168175 32.33201606257284 
Si 3.5978419799999997 12.11436801 30.630101180041372 
Si 2.6903423699999998 16.2966789 2.6822265195136317 
Si 3.7265166899999995 14.59673595 1.4265132979298236 
Si 1.354158378 14.94063414 4.070319685524173 
Si 3.3560658000000004e-05 13.574847959999998 8.145109227097661 
Si 2.7155267100000002 13.574538449999999 5.428055652258237 
Si 1.357110126 12.21706017 6.787992163508888 
Si 1.360105857 14.93366202 9.50184807209765 
Si 2.71611315 13.57243704 10.8617845833483 
Si 0.1212241527 13.59182214 13.603422366458968 
Si 0.681446538 15.514889219999999 14.836690033973591 
Si 3.4791856199999995 15.35928714 17.638189504637033 
Si 2.0803307399999995 14.681167019999998 21.11838504112715 
Si 1.388564487 15.24625083 18.86592142735212 
Si 3.94646427 13.016540789999999 17.859344228554008 
Si 0.6362906580000001 13.09818627 22.150646720454798 
Si 0.8685502199999999 12.68284014 24.4558202521037 
Si 2.5588983599999997 15.80033889 24.914874468368552 
Si 2.19188466 16.06395996 29.135553234690136 
Si 0.7856618129999999 14.56464465 25.856638754451566 
Si 1.3745567159999998 14.139948059999998 28.09277020189256 
Si 3.20367285 12.631656959999999 28.36147731747265 
Si 3.7870340399999995 16.271461979999998 32.48237514337025 
Si 2.93694039 12.72231081 34.35555427960671 
Si 1.6830502199999997 15.885942839999998 31.46592987775557 
Si 0.1436774742 13.93777287 31.788653484516256 
Si 6.78928104 4.07204388 4.070594753588746 
Si 8.130778829999999 -0.015072762329999998 2.7261205059179243 
Si 4.0718809799999995 1.359496611 4.068531743104446 
Si 5.42647593 2.71350675 2.6980429332265996 
Si 6.604096319999999 1.12291857 1.3611021121742808 
Si 8.1453258 2.71547784 5.430049895726394 
Si 5.4319982399999995 -0.000836854767 5.430703182379756 
Si 5.43009231 2.71484253 8.144799775525017 
Si 6.787586879999999 1.357279542 6.787476410887813 
Si 5.42911491 -0.00192129147 10.864638414518247 
Si 6.7971654 1.3721115869999998 12.245961467789476 
Si 4.3572654900000005 0.8837944019999999 15.326448722946443 
Si 5.4423749699999995 2.66892102 13.787717969723115 
Si 7.445963519999999 3.2372954099999998 17.50835737815841 
Si 5.72383359 3.7757124899999996 19.347221773339342 
Si 7.0287766199999995 0.47750876999999997 19.19349310875091 
Si 5.84669277 2.40313338 23.004939362003487 
Si 7.330206779999999 0.926741358 21.52565769423607 
Si 6.6166233299999995 2.1762788399999997 25.283637592437206 
Si 7.63179984 1.109306646 29.25527660979569 
Si 4.78311867 2.6583325199999996 26.696387172085938 
Si 5.3973657 1.576197594 28.6724761479809 
Si 4.24722654 2.2460000399999998 32.51001948385987 
Si 6.670722419999999 2.30293359 32.73567844733424 
Si 4.20223356 2.9258469 30.216089359350406 
Si 7.21536228 0.37850792399999994 31.4436837480332 
Si 4.18449375 4.174068149999999 1.2376515647937605 
Si 6.893569619999999 6.84251676 1.2333158044259231 
Si 5.43903552 8.152721459999999 2.6838253526389644 
Si 8.14438098 5.41855899 2.695694539625305 
Si 4.0725 4.0723370999999995 6.787098192299024 
Si 5.4289683 5.42960361 5.429706060645677 
Si 6.7879615499999995 6.786576899999999 6.787270109839382 
Si 6.789753449999999 4.074161579999999 9.501401086492718 
Si 4.07360772 6.78757059 9.501951222621862 
Si 4.07958615 4.0614228 12.246821055491269 
Si 5.430678749999999 5.428137509999999 10.862059651412872 
Si 6.807737609999999 6.764780879999999 12.2225119152846 
Si 5.75804259 6.09154776 16.25304988196985 
Si 6.7429685699999995 4.2482853899999995 15.1875393503369 
Si 4.13026434 7.07782581 14.853434802404495 
Si 7.57949265 7.70122782 16.455465593987768 
Si 4.410859589999999 5.1609978 17.936947806271768 
Si 7.506431999999999 7.389567539999999 20.832692472559657 
Si 6.9515783099999995 5.098134689999999 20.912187143221352 
Si 5.62785291 4.9464910799999995 22.818546364746968 
Si 8.06654736 7.752981149999999 23.1617281588103 
Si 6.14970306 6.867717389999999 24.22672293782217 
Si 7.789666229999999 4.1953266 25.74705851422716 
Si 5.19843222 4.97455875 29.75614117187569 
Si 6.555535829999999 6.085715939999999 26.38882669238486 
Si 7.98444576 7.6401403199999995 27.49817619680919 
Si 4.77946971 4.9897899 27.457844341841117 
Si 5.480460989999999 5.59960605 34.07797621894412 
Si 7.45360353 5.09301963 30.272203244523368 
Si 7.22399598 4.60761021 32.594981132304966 
Si 8.141970059999998 10.85050836 2.6671252827685548 
Si 6.78867831 9.50169636 4.068875578185162 
Si 4.0721253299999995 9.50270634 6.7876827119362435 
Si 5.42991312 8.14488597 8.145315528146092 
Si 5.42883798 10.85806692 5.431184551492758 
Si 6.78833622 9.50282037 9.503085878388228 
Si 4.05047592 9.524942189999999 12.209618099757723 
Si 5.42308761 10.86259554 10.861715816332156 
Si 4.84148574 10.70560881 15.651716709304432 
Si 5.522000489999999 8.2619622 13.433395919044566 
Si 6.8067765 9.42589899 14.998258138402363 
Si 6.09355143 9.09711792 20.053149577558777 
Si 6.49092969 11.27652444 20.829185354736346 
Si 8.11978308 8.4831804 18.73464519353449 
Si 4.4704484099999995 8.49557709 24.672780188035933 
Si 6.246889199999999 11.82535083 23.117373433397844 
Si 4.26493377 10.53414027 23.42589665132493 
Si 6.7665402 9.67925736 27.58066223267312 
Si 6.78553434 10.292608439999999 29.888552061459684 
Si 8.02126116 11.54666151 26.846608718851062 
Si 4.56685263 8.898282179999999 27.051018674337133 
Si 4.57605648 9.998215559999998 30.77079849507064 
Si 4.88579454 11.3684652 34.33011048363367 
Si 7.9089579 8.425236869999999 31.72277468305094 
Si 5.42290842 13.58294409 2.7121986234997055 
Si 6.67587006 12.243010139999999 1.2502668739052558 
Si 6.78753801 14.93322219 4.075924197339854 
Si 5.03331678 15.972687089999999 0.10266984277216497 
Si 4.07256516 14.93263575 6.787751478952386 
Si 5.42981538 13.574750219999999 8.144971693065376 
Si 6.786984149999999 12.21764661 6.787579561412028 
Si 4.07215791 12.2197806 9.500025746169849 
Si 6.78763575 14.93172351 9.501744921573433 
Si 4.05824625 14.934052979999999 12.246958589523555 
Si 6.803648819999999 12.22162137 12.252563101339238 
Si 5.71220253 12.86545104 16.12837528170198 
Si 5.62752711 13.803983099999998 13.646057916467838 
Si 6.404038829999999 15.61411161 14.983713914488048 
Si 7.92699093 13.1026986 17.13636220433103 
Si 4.41353115 14.46363036 21.1597140178293 
Si 4.486526639999999 12.33356625 20.197766612508218 
Si 4.7693862 16.22943378 19.49414250332958 
Si 7.742441519999999 15.105016529999999 22.52075080133824 
Si 5.65026795 14.09743116 23.16692006852912 
Si 4.23583983 14.09966289 25.146413011723173 
Si 4.486624379999999 15.77794014 28.91852453174176 
Si 4.91703876 13.992409529999998 27.45554064680032 
Si 7.17185169 13.486800509999998 27.929861140648992 
Si 7.334360729999999 12.65180769 30.13546003292234 
Si 5.35701537 15.310775519999998 31.050473949725593 
Si 5.55076863 13.042637369999998 31.669308327999495 
Si 8.39630583 2.12447664 0.16337151942713152 
Si 9.502478279999998 1.359452628 4.066846951208934 
Si 10.34957457 0.634205538 0.16821546804426826 
Si 10.86775947 2.73417876 2.6897840145877847 
Si 9.40016079 4.02025797 1.212781973405522 
Si 8.14459275 -1.66350222e-05 8.14507484358959 
Si 10.86000543 2.7151357499999995 8.145006076573447 
Si 9.503357939999999 1.3589688149999999 9.503429713468945 
Si 8.14063428 2.71396287 10.859687189355927 
Si 10.862188289999999 -0.00410141475 10.863366224719595 
Si 8.32396194 0.21254051699999998 13.680269506999148 
Si 10.24196283 1.1027710979999998 15.188192636990262 
Si 10.90082817 2.7984753899999997 13.640866006749015 
Si 11.09078586 2.16870399 17.5822819205125 
Si 9.48056823 1.83936906 21.351161390772354 
Si 11.041247969999999 1.1077411769999999 19.720420369949238 
Si 10.598029649999999 0.8435304089999999 23.189750717888707 
Si 10.738482029999998 2.80451898 24.455098198434197 
Si 8.324597249999998 0.531940176 25.93847150366214 
Si 12.21015321 1.78035039 29.543066572355556 
Si 8.63055603 3.22747254 29.451572057376847 
Si 10.180256309999999 1.91787057 26.48568503462275 
Si 9.436568939999999 3.9082479299999995 27.412389344170375 
Si 11.84670702 0.638781399 27.493809491284086 
Si 10.52430111 2.87987652 30.772689588014583 
Si 10.56224052 0.718147908 32.1647059122961 
Si 12.209615639999999 4.077615059999999 4.0690131122174495 
Si 9.50801688 6.78186909 4.0673970873380805 
Si 9.50272263 4.0725814499999995 6.78720134282324 
Si 8.14462533 5.43012489 8.14504046008152 
Si 10.86213942 5.430678749999999 5.431047017460473 
Si 10.85985882 5.428235249999999 10.860649927581933 
Si 8.14381083 8.14496742 10.862334719477445 
Si 9.50311359 6.78936249 9.502363824718723 
Si 9.497069999999999 4.07323305 12.215222611573406 
Si 8.21012742 5.386630589999999 13.668097745141777 
Si 9.41218281 6.8506943399999995 15.064377624424184 
Si 10.85200704 5.60504691 16.41069826647845 
Si 10.75625442 4.79470086 20.172425967059397 
Si 11.44509336 6.944247809999999 19.5128127482125 
Si 11.4512184 7.903142369999999 17.41242739063846 
Si 9.821469059999998 4.1078981699999995 18.007605915359047 
Si 12.021303239999998 7.25496327 23.10530482206469 
Si 9.208134269999999 4.42666089 23.890555379405466 
Si 9.93057948 6.60292344 24.026404619796626 
Si 8.99996436 4.1345160299999995 21.584797328119343 
Si 10.006816679999998 7.32681846 26.277664810789155 
Si 10.88347932 6.561481679999999 29.871016472343133 
Si 8.57614743 7.109232929999999 29.773986212564886 
Si 10.98918513 5.69157939 27.679205366806524 
Si 11.03724063 4.98719979 31.75021272249213 
Si 8.544007259999999 7.67013021 34.040326277605644 
Si 9.33504966 5.39744715 33.576423986702686 
Si 9.65659797 9.3465504 1.0608103060795526 
Si 10.885825079999998 8.14377825 2.681645438227221 
Si 9.50223393 12.21846111 4.066950101733149 
Si 12.20673231 9.5096133 4.075098993146135 
Si 8.14355019 8.145716760000001 5.429706060645677 
Si 9.5030973 9.50299956 6.787717095444315 
Si 10.86042897 8.1445113 8.145418678670307 
Si 8.14486968 10.860282360000001 8.14507484358959 
Si 10.86139008 10.8598914 5.4322504402429805 
Si 12.21878691 9.50290182 9.50291396084787 
Si 9.5048892 9.509222339999999 12.22849464568907 
Si 10.85850675 10.85853933 10.86285047209852 
Si 9.503993249999999 12.219992369999998 9.502982727864014 
Si 11.595222 11.44957311 16.281106824556332 
Si 10.899296909999999 8.19494514 13.606516882185419 
Si 8.26645824 10.860608159999998 13.764234033710164 
Si 11.867851439999999 8.57999187 21.155209778271914 
Si 9.425035620000001 10.305949949999999 19.586840441090803 
Si 11.43860994 10.53778923 18.40752049774063 
Si 10.22039487 10.1928159 21.825653802161384 
Si 9.148398839999999 9.729593459999998 23.86146693157683 
Si 8.18471502 11.74383567 24.514237832317466 
Si 10.74278259 9.4605804 25.66656672183138 
Si 11.093180489999998 10.4992308 29.72519601461119 
Si 10.33517421 11.05719588 27.4267960340524 
Si 11.194895249999998 10.582879949999999 34.087019081566964 
Si 9.09843741 10.33983315 31.171366364105584 
Si 9.46087362 11.84177115 32.98911928533051 
Si 9.4903911 14.959774889999998 1.3231117741058938 
Si 10.871261819999999 13.56803874 2.692613777302083 
Si 8.14213296 13.574717639999998 5.431150167984687 
Si 9.502038449999999 14.933140739999999 6.7876139449201 
Si 10.860217200000001 13.574978279999998 8.145006076573447 
Si 10.8592398 16.287605369999998 5.430668798871684 
Si 12.21657147 12.22944057 12.240322572465722 
Si 8.143990019999999 13.575857939999999 10.86078746161422 
Si 9.49570164 14.9340204 12.235027512222686 
Si 11.884076279999999 15.66876456 14.685918351079321 
Si 9.56245806 12.298998869999998 15.333703643149565 
Si 10.8577737 13.645807199999998 13.703512758455595 
Si 9.350069040000001 13.8787542 21.069216624584666 
Si 8.244173519999999 12.29204304 19.707973540027293 
Si 10.325497949999999 15.214631939999999 19.340104387168505 
Si 8.42536719 15.373736369999998 17.8416367218971 
Si 10.872858240000001 12.46846374 22.300799500203777 
Si 9.273864419999999 15.477519959999999 24.23593771798538 
Si 10.13114196 13.22091513 24.446433554400137 
Si 11.397054149999999 12.9722157 26.49249296922094 
Si 8.42655636 15.535935899999998 27.89705927394862 
Si 10.7681787 14.867703809999998 27.890148188826213 
Si 8.23651722 13.50357921 34.19821534667075 
Si 9.407475 13.38148566 31.14619763619712 
Si 8.86024503 15.32784744 32.35708163995709 
Si 11.37242367 14.27241834 30.095300095494633 
Si 12.293443980000001 1.496373336 1.249200985155034 
Si 14.93463942 1.3556407679999998 4.068738044152876 
Si 13.57455474 4.2130012499999996e-05 8.14504046008152 
Si 13.57597197 2.71627605 5.4289496234681005 
Si 12.216604049999999 1.357284429 6.787132575807096 
Si 16.28982081 -0.000711806211 10.863366224719595 
Si 14.9323914 1.3584850019999999 9.502157523670293 
Si 13.572013499999999 2.71368594 10.85889636867028 
Si 12.2140791 1.387091871 12.21429425685547 
Si 14.93177238 4.09010949 12.238534630045995 
Si 14.789088269999999 1.2516942779999998 16.907643108638283 
Si 13.73587461 0.168482583 13.454163557919854 
Si 15.485306579999998 1.121835285 14.656314150629614 
Si 12.83959881 3.9754115999999997 21.026959293164587 
Si 13.033466099999998 1.6165511819999998 20.9303416354832 
Si 15.10195401 0.6633043649999999 20.383437556095227 
Si 13.30868565 3.05501031 17.302193863760685 
Si 12.713840009999998 3.9674132099999997 24.842978552990694 
Si 16.1104842 0.492203979 22.54478487348034 
Si 12.88721448 0.6121358459999999 23.02739179277429 
Si 15.920673119999998 2.5940033099999997 23.548130022519715 
Si 13.923779759999999 2.0455678799999997 24.57781293874198 
Si 13.87302012 3.25029483 28.76668696009727 
Si 14.857636589999998 0.0753668253 29.969765907524966 
Si 13.977911429999999 0.6293103929999999 26.43995496888743 
Si 15.300724589999998 1.500703218 28.109205518750816 
Si 15.75303273 1.228951809 33.808994035299456 
Si 13.84094511 2.70949941 34.0931737295118 
Si 14.97339333 4.12182612 1.2686826808284417 
Si 13.58779851 5.432715 2.7018663793241693 
Si 12.934145969999998 7.27016184 1.3758354453829909 
Si 14.941872179999999 6.77769885 4.080600354437602 
Si 14.93345025 4.07297241 6.78782024596853 
Si 13.574750219999999 5.430613589999999 8.145212377621878 
Si 12.21714162 6.78766833 6.7876827119362435 
Si 16.28444511 5.43194937 10.862300335969374 
Si 12.219552539999999 4.07264661 9.502226290686437 
Si 14.933433959999999 6.78926475 9.502191907178366 
Si 12.22587306 6.78405195 12.230041903552294 
Si 12.347657100000001 4.13739936 15.198713990460194 
Si 13.626813059999998 5.57142435 13.78063496706035 
Si 12.769779869999999 6.9514317 15.571706286021657 
Si 15.230987099999998 7.08821883 15.339961441618609 
Si 14.18981175 4.37700897 19.137138539021446 
Si 15.59088207 5.960559869999999 23.278013183108683 
Si 13.317808049999998 5.32285524 22.98320898490219 
Si 16.06694103 4.91140242 25.295878121310718 
Si 15.680037239999999 6.63090966 29.153742110460048 
Si 14.24783673 8.10717462 26.361560570484027 
Si 14.89399587 5.94247797 26.998893276100482 
Si 12.978454769999999 4.65082758 27.078972466399396 
Si 16.08463197 5.7325813199999995 34.24064459563119 
Si 14.832810629999999 4.71214314 30.377416779222678 
Si 13.344914609999998 4.80201507 32.404221429523346 
Si 13.92022854 6.81332508 33.64144320046621 
Si 12.29329737 12.173777639999999 1.2575802460720997 
Si 14.93589375 12.21732081 4.073689269315196 
Si 16.10590671 10.24061076 0.06931337008659677 
Si 14.576210549999999 9.131587559999998 1.5035839312724697 
Si 13.58136396 10.857219839999999 2.7226271414978425 
Si 14.932863809999999 9.502380539999999 6.787751478952386 
Si 13.575222629999999 10.85964705 8.144971693065376 
Si 13.57597197 8.14488597 5.428158802782453 
Si 13.57769871 8.14415292 10.860478010041577 
Si 14.943370859999998 9.48895758 12.22086150689716 
Si 12.40631739 9.632879729999999 14.990900067675026 
Si 13.69653426 10.925979929999999 13.554941620077916 
Si 15.494070599999999 11.829162689999999 14.915084432376997 
Si 14.30887536 10.68555582 16.82928309374295 
Si 14.06410182 8.371202939999998 17.01512595487032 
Si 15.355687049999998 9.083499479999999 19.177882996086375 
Si 13.1747004 10.26608832 19.981941332342352 
Si 12.788285310000001 8.85138327 24.656138570129244 
Si 15.777630629999999 9.30106872 21.889435209634332 
Si 14.0662521 10.339393320000001 23.275434420003304 
Si 13.101444269999998 11.87304795 21.77039950469021 
Si 15.27824439 11.342205719999999 25.023973339479962 
Si 16.15138839 9.21649104 25.656389203442167 
Si 14.26557654 8.51483187 28.712979920489325 
Si 12.31598934 8.4843207 30.02777088564187 
Si 15.756567659999998 10.31295465 29.152229236104894 
Si 12.91912659 8.93122056 32.50462127309262 
Si 14.524750439999998 10.67355009 32.80482368206636 
Si 12.216457440000001 14.93359686 4.07272653108919 
Si 14.81261103 14.71509909 1.3915796537290082 
Si 13.569912089999999 16.2906516 2.6903960410314607 
Si 16.3035207 13.546373039999999 2.719690789908522 
Si 16.288159229999998 16.28749134 5.42956852661339 
Si 13.573837979999999 13.574457 5.429396609073032 
Si 12.216473729999999 12.21732081 6.787957780000816 
Si 14.93252172 14.932847519999997 6.78782024596853 
Si 12.219259319999999 14.93333622 9.50208875665415 
Si 14.932244789999999 12.218640299999999 9.502191907178366 
Si 13.57248591 13.57476651 10.858690067621849 
Si 14.93980335 14.906864969999999 12.220139453227652 
Si 13.40209251 15.54662214 16.485482396534334 
Si 15.38699643 14.074853219999998 16.196282710143524 
Si 14.27305365 14.77402002 19.77154864645181 
Si 15.9115833 13.739376959999998 18.457307817428408 
Si 12.360852 14.55434937 18.362237417610242 
Si 14.47048845 15.227468459999999 23.401484360594047 
Si 14.64417243 13.6013355 21.758777878961986 
Si 14.748216659999999 14.83657362 25.697099276999023 
Si 15.75888084 14.15247507 29.475365444962442 
Si 13.85161506 12.742477829999999 26.4495823511475 
Si 14.47527771 12.32488368 28.74151823218881 
Si 13.9991373 12.85233759 32.183548074719376 
Si 13.29700572 13.80017124 34.24521760220472 
Si 12.636413639999999 12.290804999999999 30.218083602818563 
Si 12.536246429999998 16.21407231 30.972629687451338 
Si 15.907657409999999 15.21787365 33.80411157715328 
