&CONTROL
  dt          = 30.D0,
  prefix = 'x2.66_y1.66_z3.18_struc44-scf',
  pseudo_dir = './',
  outdir='./',
  wf_collect= .true.,
  verbosity= 'high',
/

&SYSTEM
ibrav= 6, celldm(1) =30.783621515, celldm(3) =2.1217994675793617, nat=  432, ntyp= 1,
  ecutwfc     = 12.D0, nbnd= 1728,
  degauss     = 0.05D0,
  occupations = "smearing",
  smearing    = "methfessel-paxton",
/
&ELECTRONS
  electron_maxstep=200,
  conv_thr    = 1.D-8,
  mixing_beta = 0.3D0,
  scf_must_converge=.false.,
/
&IONS
/
ATOMIC_SPECIES
Si  28.08  Si.pbe-hgh.UPF
K_POINTS {automatic}
1 1 1 0 0 0
ATOMIC_POSITIONS (angstrom)
Si 2.7249912 0.0013605456869999998 2.6876328676592536 
Si 1.375825707 1.411256457 1.2639232140802383 
Si 1.092542607e-05 2.7146633399999995 8.144929613136416 
Si 2.71487511 0.000282791142 8.144722228456454 
Si 2.71482624 2.7147122099999996 5.431543024637313 
Si 1.3576314059999999 1.357864353 6.787631446903644 
Si 0.00247267539 -9.86595705e-05 10.859111176242036 
Si 2.71661814 2.71340901 10.863327998067914 
Si 1.365913242 1.333312065 12.232654475738435 
Si 2.12498163 2.38545873 16.4905039041353 
Si 1.4229640799999999 4.03711812 14.973001072632496 
Si 4.006362599999999 1.250581671 15.092420084176823 
Si 3.62796219 3.49166376 17.908876858616647 
Si 0.9542665709999999 1.5645290669999998 20.906242202209295 
Si 2.80715796 0.482324094 19.881519934407645 
Si 0.17648586 3.4724741399999997 19.788162264311772 
Si 1.95294294 2.6757628199999997 22.764685447568326 
Si 3.65853852 1.321361721 23.673617935724963 
Si 2.7952011 0.769314798 25.77940197605106 
Si 0.330193413 0.23420947499999997 29.255203776314215 
Si 1.9378583999999999 1.92692781 29.364841143787036 
Si 2.19967128 2.7788622299999997 27.160895021612635 
Si 0.01223825346 3.90435462 27.41304022833214 
Si 2.3157049499999998 3.1391481599999995 34.50041166600638 
Si 3.6098639999999995 0.595938699 30.271699785144065 
Si 1.7744534099999998 3.35277522 31.321930368580944 
Si 3.3119198999999995 1.4332153769999998 32.92961097175355 
Si 4.07246742 6.7848175799999995 4.070650190618547 
Si 1.3591724399999998 4.07033343 4.070581062391893 
Si 2.7250237799999995 5.4319982399999995 2.69821639915994 
Si 1.2616246619999998 6.648063029999999 1.271758898571439 
Si 0.000447719247 5.42981538 5.429123536704432 
Si 2.71448415 5.43005973 8.145240690156358 
Si 1.3577356619999998 6.78716334 6.787700575130298 
Si 4.077305549999999 4.0705452 12.224186267973353 
Si 1.3556749769999998 4.07280951 9.502296907595841 
Si -0.000892727838 5.42911491 10.856829944762465 
Si 1.3583677140000001 6.78198312 12.212261648875584 
Si 2.7156570299999996 8.142931169999999 10.860839381908379 
Si 0.627757956 6.95266974 17.168651807608445 
Si 2.72220561 5.41912914 13.573430995800965 
Si 2.41592103 8.030513879999999 16.08482490601785 
Si 0.254194047 7.6943534399999995 20.97813555792918 
Si 2.27274822 4.549292009999999 19.67952725612543 
Si 1.456474239 6.65378082 19.25864004814416 
Si 3.38677245 8.01122652 19.037187774058918 
Si 3.00757383 4.661839619999999 21.941091755215716 
Si 2.55223575 6.70915053 23.23126641336771 
Si 1.2386671649999998 6.82301763 25.269235663346493 
Si 1.4868387989999998 6.656240609999999 29.302487483345367 
Si 3.76756749 4.61753082 27.019251285199132 
Si 2.58975162 6.6853997099999996 27.219446629588354 
Si 0.404909127 4.858508789999999 34.31908832749363 
Si 3.0380035499999996 5.22586458 30.46643399962764 
Si 1.8763962299999999 7.006491899999999 32.307975393569826 
Si 2.61400743 7.94412801 34.427792463906634 
Si 3.95917047 9.339904079999998 1.3337841999365032 
Si -0.00609470802 8.13949398 2.684947236053756 
Si 1.358217846 9.50583402 4.072447524511545 
Si 2.70705591 10.8497916 2.6951713007758435 
Si 1.3064351939999999 12.210267239999999 1.320888329254249 
Si 0.0001609657254 8.14456017 8.145240690156358 
Si 2.7161294399999996 8.14527693 5.429711126630989 
Si -0.0014867980739999998 10.86039639 5.430333280670872 
Si 2.71544526 10.8598914 8.145136997816378 
Si 1.3575076019999999 9.50278779 9.502435164049148 
Si 0.00133670853 10.85844159 10.86270584402803 
Si 1.361656665 12.22546581 12.245927095255952 
Si 1.7682143399999999 11.406355739999999 17.25226239774614 
Si 1.3436594729999998 9.56263725 14.76229823779191 
Si 2.87943669 10.93503717 13.602292030428899 
Si 3.5072044199999994 9.812102309999998 17.41080798557648 
Si 3.97629126 9.25120503 20.94616375310183 
Si 2.8152052199999997 11.09305017 24.90959606418043 
Si 1.97094339 8.74885401 22.17028639068618 
Si 0.976025124 10.16139249 23.768323606240582 
Si 0.1065307356 8.95974435 25.612077103435695 
Si 4.00878981 10.29026268 28.543701503480637 
Si 2.3887167299999996 11.41728633 27.250830844489148 
Si 0.492016644 10.08956988 27.713022167896025 
Si 1.2168271619999997 8.59686831 30.66624913877026 
Si 3.21905061 9.90135522 30.714258692181282 
Si 3.72578364 12.135593879999998 33.55847044962258 
Si -9.208916189999999e-05 13.58092413 2.715138989044775 
Si 2.55831192 13.78381608 0.1339912417229357 
Si 1.356220692 14.931088199999998 4.071721678131681 
Si 0.000294128982 13.574847959999998 8.145136997816378 
Si 2.7140606099999998 13.57553214 5.4304369730108535 
Si 1.356976548 12.21789096 6.787251241657049 
Si 4.0817853 14.92458849 12.252978174374634 
Si 1.358524098 14.93444394 9.501916702349247 
Si 2.7156407399999996 13.573056059999999 10.860735689568399 
Si 2.62585026 16.15384818 13.709129704722248 
Si 2.6450724599999997 13.50568062 16.3809011007758 
Si 1.1263459859999998 14.937897419999999 15.205652119435642 
Si 0.35380739699999997 14.40550764 17.953879334168228 
Si 2.5641763199999996 12.989075849999999 20.143377656971996 
Si 0.581302134 12.273765659999999 19.031450131246658 
Si 2.55612906 14.778288 18.568567525573243 
Si 2.40490899 13.97004336 22.365884708002923 
Si 0.389208825 14.78798055 23.232545285560807 
Si 3.9068144099999995 12.8620953 23.82407552103682 
Si 3.6234335699999995 15.92090118 21.92813021271814 
Si 0.783029349 15.936963119999998 25.359586255582926 
Si 0.526491171 14.97502233 27.47660363274025 
Si 2.1047657399999995 13.49817093 28.35456667535602 
Si 3.9484353599999995 14.929736129999998 28.862555448920993 
Si 3.2401624499999997 12.2065857 31.3104205188431 
Si 1.1327463269999998 15.387403679999998 31.204516075609572 
Si 1.1922260040000001 13.074663509999999 30.487137903510433 
Si 6.7884828299999995 4.075138979999999 4.071894498698314 
Si 8.14408776 -0.0203890527 2.7034597751516265 
Si 4.0670265599999995 1.3601742749999999 4.069440446652107 
Si 5.42152377 2.72404638 2.7039091086248757 
Si 6.6551491799999996 1.2213655559999999 1.3739407867996585 
Si 5.42992941 -0.000196472061 5.428674203231183 
Si 5.429701349999999 2.71454931 8.145067869589724 
Si 6.7877171999999995 1.35751086 6.78745862633701 
Si 4.07267919 1.3563575279999998 9.501190855969382 
Si 5.429294099999999 0.0032479653599999997 10.861426971834938 
Si 6.78439404 1.335576375 12.245823402915974 
Si 7.15399785 3.62942829 14.940337985538607 
Si 5.41015335 2.6917921799999998 13.636545066735826 
Si 5.8494620699999995 0.313111719 16.9156770621691 
Si 6.226314929999999 2.67178806 20.357156697898674 
Si 4.62144042 1.64963943 18.924681585179965 
Si 7.56004239 3.53993103 18.606864563139414 
Si 7.97980311 1.4951629889999998 21.464383504211558 
Si 6.869818799999999 0.08366755769999999 22.916179956279983 
Si 5.93188947 1.82987199 24.313157724612 
Si 6.40964259 0.8420463899999999 26.47175573010155 
Si 5.309709209999999 2.2367798999999997 30.073993056914382 
Si 6.860272859999999 1.092055536 28.767884342518702 
Si 7.172242649999999 2.78632305 31.587521015384596 
Si 7.2814670999999995 0.804703194 32.85090848570827 
Si 5.29661205 0.26084688300000003 34.17436838499404 
Si 4.136764049999999 4.13809983 1.223030411603221 
Si 6.94706598 6.8564935799999995 1.1347329276984044 
Si 5.4513507599999995 8.13006207 2.6940652491493835 
Si 8.13788127 5.41824948 2.685693820901616 
Si 4.07214162 4.07240226 6.787700575130298 
Si 5.4279909 5.42856105 5.430713485917469 
Si 6.78773349 6.78730995 6.787389498110356 
Si 6.787440269999999 4.07377062 9.502988189862378 
Si 4.07313531 6.78802671 9.502227779369187 
Si 5.428447019999999 5.4307764899999995 10.862913228707992 
Si 6.79185486 6.78923217 12.237493451604196 
Si 5.99673996 4.1677313400000005 17.007859552411855 
Si 5.91028893 6.35500593 16.302924461110386 
Si 4.080514679999999 6.8804561699999995 14.873249041571155 
Si 7.84940166 7.720140509999999 16.182261141486293 
Si 6.406694099999999 6.164494379999999 20.580924767576818 
Si 5.3116803 6.71807745 18.563935934387445 
Si 5.40301833 4.39437411 21.762429853429136 
Si 5.82932763 8.033804459999999 21.93034231597106 
Si 4.699160009999999 7.28666361 23.90958713740749 
Si 6.527989439999999 4.12060437 23.853247632684695 
Si 5.35411575 5.49611568 25.406662577934117 
Si 4.880304809999999 4.37187762 29.113560039900708 
Si 6.303122279999999 6.952946669999999 27.049771397266756 
Si 7.01538624 5.5336478399999995 28.83151687515347 
Si 5.660498069999999 5.531253209999999 34.178619770933246 
Si 7.57053315 4.95562977 32.71009428801461 
Si 4.21736697 6.96895974 32.89798480805946 
Si 6.79133358 9.50099589 4.072343832171564 
Si 4.07137599 12.22136073 4.068472651478954 
Si 6.62240628 11.993577659999998 1.2755194741014022 
Si 4.07220678 9.50282037 6.787596882790317 
Si 5.42997828 8.14526064 8.145275254269684 
Si 5.43116745 10.859679629999999 5.429987639537604 
Si 6.78864573 9.50384664 9.502815369295744 
Si 4.08859452 9.49726548 12.212918367028795 
Si 5.42663883 10.85795289 10.863051485161298 
Si 5.54180913 10.916906399999998 16.7472807020406 
Si 5.53995207 8.302784939999999 13.625104345224631 
Si 6.91433937 9.675087119999999 15.228948331817952 
Si 4.34750778 12.18966039 15.121453939371392 
Si 7.91428473 9.843607169999999 19.43875364269047 
Si 4.4786585699999995 11.51945721 20.252323742178284 
Si 6.4327092299999995 11.638569689999999 18.836128326836526 
Si 7.210296089999999 11.30076396 23.024261938653098 
Si 7.75006524 9.4006332 21.77300647210716 
Si 6.433425989999999 10.290865409999999 25.056286161139656 
Si 4.334785289999999 9.26858646 25.136232955264703 
Si 7.70318262 8.452881 25.924571252023902 
Si 7.67558736 10.20982266 29.668452315250242 
Si 6.597987569999999 12.10369806 26.566703349410453 
Si 4.33952568 8.3074113 27.292999062747924 
Si 5.95036233 11.59870806 28.798093377566385 
Si 5.2432623 10.54819854 34.3518551069275 
Si 7.194885749999999 8.422206929999998 31.145653390613916 
Si 5.10504165 9.09094401 32.156826525991434 
Si 4.1996597399999995 15.027899669999998 1.2482829527998305 
Si 5.43427884 13.56906501 2.6914383765365417 
Si 6.79382595 14.92805826 4.073069678551428 
Si 4.07235339 14.93242398 6.787354933997029 
Si 5.42984796 13.57505973 8.145240690156358 
Si 6.78763575 12.21736968 6.787873395696932 
Si 4.0730701499999995 12.21850998 9.501778445895939 
Si 6.78672351 14.932440269999999 9.50295362574905 
Si 6.800895809999999 12.23046684 12.259994689379988 
Si 5.64046137 13.71577275 13.819873123821532 
Si 7.184166929999999 14.94301248 15.574209259840035 
Si 8.0938494 16.18880652 13.785205318154684 
Si 8.083635569999998 13.259180339999999 19.196148131249185 
Si 5.70086469 14.922096119999999 21.44146749707584 
Si 6.77141091 15.19995465 19.326558530831456 
Si 5.46443163 12.578861069999999 22.09168759698088 
Si 7.46691246 14.62864806 24.323354138043427 
Si 5.44349898 13.87422558 25.36314635925559 
Si 5.55080121 13.6241415 29.969229229420645 
Si 7.40993004 15.20419005 29.558538434870805 
Si 4.5634806 15.68635776 26.696111389706246 
Si 8.646862319999999 1.8010224 0.08021708549126132 
Si 9.50127282 1.361891241 4.069060241405511 
Si 10.86283989 2.7128388599999997 2.7012545847213723 
Si 12.21595245 4.07162034 4.070200857145299 
Si 9.41765625 3.9172725899999996 1.2360161489801251 
Si 8.14465791 0.000287917605 8.144964177249742 
Si 8.14464162 2.71461447 5.430195024217565 
Si 10.859044319999999 -0.001070446851 5.4283976903245685 
Si 10.8597285 2.7152009099999996 8.144791356683108 
Si 9.5032602 1.356720795 9.50174388178261 
Si 8.149219109999999 2.71052568 10.863500818634549 
Si 10.8580995 0.00486199485 10.86039004843513 
Si 9.51735105 4.0809708 12.201996107217504 
Si 12.06041553 0.226417968 16.789379792072726 
Si 10.67530941 2.16059157 17.08607814087056 
Si 8.97622983 1.9055390399999999 15.046484377565417 
Si 10.905633719999999 2.86099641 13.640381683315107 
Si 11.64516714 0.9268228079999999 21.127141450481307 
Si 8.65407879 0.234965331 19.65367329935693 
Si 8.362732139999999 1.5752087909999999 17.571531112546417 
Si 9.67503825 1.321474122 24.88941062199754 
Si 10.004698979999999 1.96100649 22.583604057848863 
Si 9.00615456 3.39341877 25.891424267343435 
Si 11.2524804 0.12025473479999998 28.064712020996904 
Si 10.772560709999999 1.400063598 30.01675488524509 
Si 8.62030962 2.3084559 29.764609678525588 
Si 11.712754349999999 1.0867629149999998 25.95253361970534 
Si 8.61858288 3.94872858 28.09312372215159 
Si 10.61875053 0.23198589 34.367236137357956 
Si 12.03777243 3.28401513 30.830774318206153 
Si 10.861422659999999 8.13144672 2.7235726326965306 
Si 12.07893726 6.73834221 1.2717035959901162 
Si 9.505817729999999 6.78726108 4.072412960398218 
Si 9.50264118 4.07276064 6.787389498110356 
Si 8.14527693 5.43058101 8.144825920796436 
Si 10.86000543 5.43062988 5.431197383504045 
Si 10.8567963 5.430678749999999 10.85741753468902 
Si 8.14508145 8.14368051 10.863016921047972 
Si 9.50519871 6.78809187 9.501709317669285 
Si 8.19160569 5.36763645 13.600114491289307 
Si 9.611295479999999 6.762646889999999 14.99844026004107 
Si 11.34266184 6.60367278 16.708188689867914 
Si 11.999833019999999 4.39359219 17.108302865739734 
Si 11.155277969999998 7.40075877 20.940979136102797 
Si 10.65598947 5.15905929 20.68040028573154 
Si 8.503151939999999 5.49228753 19.549462497676426 
Si 10.92940083 7.95406491 18.647511960411812 
Si 8.55381384 7.5531843 18.385343160827517 
Si 10.591888319999999 4.20669702 22.851164859112146 
Si 8.76980295 4.97604114 24.178703323770485 
Si 9.32995089 7.2708134399999995 24.65292295861511 
Si 10.96926246 6.927550559999999 26.387004524224068 
Si 10.55383488 6.94506231 30.16800744516346 
Si 11.943730259999999 5.20186941 29.362732732874097 
Si 10.86793866 4.70824983 27.298218243860283 
Si 8.278578 6.36898275 30.70554853562291 
Si 8.85306114 7.56942543 34.28507723997999 
Si 12.068707139999999 4.30681536 33.05556260071665 
Si 10.50972156 5.549204789999999 34.48471955855598 
Si 9.52295481 9.32980428 1.2568652221388918 
Si 8.14620546 10.83933342 2.686049831268883 
Si 11.33793774 10.22422302 0.023031313017771782 
Si 12.21722307 12.129175619999998 1.2225603396619755 
Si 8.14263795 8.14286601 5.4304715371241805 
Si 9.50252715 9.502022160000001 6.78690560052378 
Si 10.85984253 8.145 8.144549407889821 
Si 8.14508145 10.86024978 8.144722228456454 
Si 10.85984253 10.85751306 5.430160460104238 
Si 9.495929699999998 9.51731847 12.237908220964119 
Si 10.858262400000001 10.86055929 10.859871586735228 
Si 11.26116297 11.106359099999999 16.59060157632991 
Si 10.863882449999998 8.206282980000001 13.612937777333574 
Si 8.27851284 10.96955568 13.783338856035034 
Si 9.75476151 12.209306129999998 15.161824823737174 
Si 11.06721423 11.41021647 20.874132140928637 
Si 10.2807819 10.19125206 18.980191551182912 
Si 9.792733499999999 8.463909329999998 22.604688166978253 
Si 11.165328899999999 10.34462241 23.011196703815543 
Si 10.28291589 11.843628209999999 24.587112886840753 
Si 8.94182535 11.62876311 26.55979052674508 
Si 11.16431892 12.10969278 29.64142317862863 
Si 8.75260071 9.57226464 27.68094667072869 
Si 10.636669529999999 8.38138419 28.257683465700808 
Si 12.205087019999999 10.09046583 28.77683644787036 
Si 9.30896937 11.41792164 30.9445593792782 
Si 11.87972685 8.181782819999999 31.795320464705725 
Si 10.22251257 9.74401011 32.51881648486373 
Si 8.28219438 13.153963229999999 0.13326677790760455 
Si 9.50290182 12.21732081 4.064705163126326 
Si 9.52386705 14.864739029999999 1.276881300166481 
Si 10.873086299999999 13.56303771 2.6954581829164566 
Si 8.143419869999999 13.575988259999999 5.430851742370776 
Si 9.50251086 14.932016729999999 6.787666011016971 
Si 10.859907689999998 13.574457 8.144791356683108 
Si 9.503374229999999 12.21790725 9.50174388178261 
Si 8.14490226 13.571866889999999 10.861254151268302 
Si 9.495962279999999 14.9403735 12.23856493911733 
Si 10.91009718 13.62697596 13.608755519621024 
Si 8.93745963 13.68747702 16.879073666155946 
Si 9.627943859999998 13.29749442 21.040454654257523 
Si 10.5925725 15.32015856 20.230133581422432 
Si 11.01928905 14.752680119999999 18.001819759352593 
Si 8.8055595 13.02457176 23.246785700251476 
Si 8.37125181 15.95193363 25.962868289590073 
Si 11.968605089999999 12.736662299999999 25.92502058549715 
Si 10.38653658 13.08978063 27.667328410077904 
Si 9.261353699999999 15.09310854 27.965513015748794 
Si 8.351394299999999 15.309423449999999 31.7184844407801 
Si 8.225032769999999 13.04990271 32.39618301077999 
Si 10.7800704 15.855741179999999 31.754465682753366 
Si 16.28481978 2.7064206 2.7043826369774537 
Si 13.58105445 -0.009902446649999999 2.7054852321925806 
Si 12.23343162 1.3409325269999999 1.3132462037976786 
Si 14.934688289999999 1.3574961989999998 4.071687114018354 
Si 16.290325799999998 3.39416811e-05 5.430091331877584 
Si 13.57514118 0.00032691423599999996 8.144687664343127 
Si 13.574603609999999 2.71461447 5.431301075844025 
Si 12.218004989999999 1.357572762 6.787804267470278 
Si 14.93165835 1.3568038740000001 9.502677112842436 
Si 13.57672131 2.7142397999999996 10.859940714961882 
Si 12.20047695 1.3603583519999998 12.234866578991356 
Si 14.94268668 4.06657044 12.202099799557486 
Si 16.28227854 2.69467551 13.556183503250857 
Si 13.61076741 0.01621772127 13.60768403210789 
Si 14.53577877 1.7848790099999998 14.841346364970455 
Si 12.863414789999998 3.5641705499999996 15.020008266757037 
Si 15.86025351 2.85226497 17.54775100257753 
Si 12.36080313 2.14146711 19.173750585813373 
Si 14.09684472 0.977536836 17.968845595238765 
Si 14.23043901 2.9340244799999997 22.637454946412124 
Si 16.21345329 3.00708513 23.959566845278143 
Si 13.43475396 0.10262748869999999 24.67379968306454 
Si 13.6013355 0.6174626759999999 22.376772403700883 
Si 15.38080623 1.2618429479999997 25.37804349209947 
Si 14.40518184 0.961816986 29.190776269072927 
Si 12.507999569999999 3.2495780699999997 26.258633407328084 
Si 14.53353075 2.3928869699999997 27.277687160544122 
Si 16.18580916 0.19336555799999997 34.37283552371691 
Si 13.418463959999999 2.85187401 34.46484519339303 
Si 14.15744352 2.23778988 31.150734315272967 
Si 14.31048807 0.9944670330000001 33.18597300029892 
Si 15.74358453 4.0593050999999996 31.335272116325115 
Si 14.965997669999998 4.07766393 1.2852216207122542 
Si 13.57406604 5.43810699 2.6880683754871724 
Si 14.929589519999999 6.79148019 4.0700971648053175 
Si 14.93257059 4.07220678 6.787804267470278 
Si 13.575108599999998 5.43004344 8.144791356683108 
Si 12.21699501 6.78778236 6.787804267470278 
Si 13.57764984 8.14465791 10.858592714542134 
Si 12.21776064 4.0733144999999995 9.502884497522398 
Si 14.93268462 6.78688641 9.501951266462571 
Si 12.207123269999999 6.78898782 12.228679602705846 
Si 16.266395789999997 8.115189299999999 13.514775695485271 
Si 16.02818712 4.98615723 16.32687739164591 
Si 14.990595569999998 6.5769246 14.882719608622716 
Si 13.52816082 5.3256897 13.540871601047057 
Si 13.45050639 7.8240218399999995 16.10801742606018 
Si 13.349687579999998 8.05331988 21.523902907360423 
Si 14.55760737 4.47022035 20.874788859081846 
Si 12.60645633 4.4593875 19.4517843134147 
Si 14.88370059 6.42873447 22.21349153234476 
Si 12.69973287 4.078315529999999 24.02513496825921 
Si 14.164578539999999 5.845878269999999 24.471979825348956 
Si 16.12064916 4.92818112 25.32287916722979 
Si 15.794311589999998 5.3963883 29.20633012007002 
Si 13.299823889999999 7.11095967 26.27868059305766 
Si 13.787856 6.6270652199999995 28.67753375028227 
Si 13.579979309999999 10.85790402 2.699588594459017 
Si 15.595752779999998 11.46089466 0.30110008863000975 
Si 12.217679189999998 9.50332536 4.0728622938714665 
Si 14.852179439999999 9.452239919999998 1.2171787072169822 
Si 13.573919429999998 8.14482081 5.431439332297333 
Si 14.93177238 9.503309069999998 6.787424062223683 
Si 13.574913119999998 10.86007059 8.145033305476396 
Si 12.216718079999998 9.502022160000001 9.502573420502456 
Si 14.920858079999999 9.501223949999998 12.207007903649899 
Si 12.21419313 12.225221459999998 12.21606370134154 
Si 16.06674555 10.39473045 16.2684640401235 
Si 12.23165601 9.489527729999999 15.046518941678743 
Si 13.51452609 10.80233883 13.551068014478481 
Si 14.767715789999999 11.97846054 15.132825532655932 
Si 15.180781319999998 11.20315428 20.36600511091035 
Si 14.83551477 8.94708702 19.877890702508324 
Si 15.16196637 8.56319688 17.55027418285039 
Si 13.445765999999999 9.687956219999998 23.239976569926082 
Si 15.339673979999999 11.10694554 22.73247169394768 
Si 14.03126118 9.159492329999999 25.46732259682277 
Si 13.548555899999998 8.66051334 30.122866713158576 
Si 13.20508125 10.906073549999999 26.833814817200487 
Si 15.08069556 11.77791435 27.923206541036706 
Si 15.34894299 11.970934559999998 30.29945476814554 
Si 15.459894180000001 9.738096839999999 31.056305157663967 
Si 12.995575559999999 8.47594764 34.421916564641066 
Si 12.21901497 14.929850159999999 4.0700971648053175 
Si 14.92991532 12.219992369999998 4.075247217691021 
Si 14.985822599999999 14.96565558 1.2871399290018952 
Si 13.57590681 13.57486425 5.430713485917469 
Si 12.217532579999999 12.2173371 6.787424062223683 
Si 14.93276607 14.9323914 6.787527754563664 
Si 12.2163597 14.93133255 9.502435164049148 
Si 14.93289639 12.21844482 9.502849933409072 
Si 13.575010859999999 13.575108599999998 10.861357843608284 
Si 14.940976229999999 14.92686909 12.23756257983085 
Si 12.981501 12.86831808 16.403506030891574 
Si 12.41941455 14.841493199999999 15.046035044092166 
Si 16.19768457 13.52154708 13.772001826863821 
Si 13.33911537 13.750991729999999 18.565180242467214 
Si 15.677105039999999 16.14008313 21.5072775688502 
Si 13.145003729999999 12.431094479999999 20.469490066210994 
Si 14.96881584 15.445396079999998 19.260679330830445 
Si 13.160202299999998 14.18979546 22.06963569267834 
Si 14.87615832 13.309532729999999 23.41144913614067 
Si 13.715430659999999 14.12419563 25.25364724823607 
Si 14.70649797 14.03647398 27.383487911437665 
Si 13.181574779999998 15.246690659999999 28.784959014502174 
Si 14.02339311 13.17891951 34.52484849412848 
Si 14.12795862 13.30671456 31.995930578454868 
Si 15.461181089999998 15.24579471 32.41076906660393 
Si 12.237031709999998 14.046590069999999 30.61554358451975 
