&CONTROL
  dt          = 30.D0,
  prefix = 'x2.66_y1.33_z3.15_struc27-scf',
  pseudo_dir = './',
  outdir='./',
  wf_collect= .true.,
  verbosity= 'high',
/

&SYSTEM
ibrav= 6, celldm(1) =30.783621515, celldm(3) =2.1056208385809962, nat=  432, ntyp= 1,
  ecutwfc     = 12.D0, nbnd= 1728,
  degauss     = 0.05D0,
  occupations = "smearing",
  smearing    = "methfessel-paxton",
/
&ELECTRONS
  electron_maxstep=200,
  conv_thr    = 1.D-8,
  mixing_beta = 0.3D0,
  scf_must_converge=.false.,
/
ATOMIC_SPECIES
Si  28.08  Si.pbe-hgh.UPF
K_POINTS {automatic}
1 1 1 0 0 0
ATOMIC_POSITIONS (angstrom)
Si 1.2271338449999998 1.320638445 1.2651831433526601 
Si 3.92250168 3.8885859 1.1714259831897722 
Si 4.074438509999999 1.356132726 4.068252629794216 
Si -0.000291560049 2.7147773699999997 8.144737394818948 
Si 2.7150705900000003 0.000195857928 8.144771695382408 
Si 2.71443528 2.7174489299999998 5.429093184525475 
Si 1.357375653 1.3575923099999998 6.787601300941422 
Si 2.7169113599999997 2.7137510999999996 10.863468655823864 
Si 1.348461765 1.356888582 12.215322462928476 
Si 2.0976307199999997 2.20204962 16.195662748573472 
Si 0.321098706 0.48500705699999996 16.62911896902361 
Si 1.159315317 4.08318624 15.032119034866918 
Si 3.8887325099999996 1.2456832679999998 14.946539129033008 
Si 1.4620454189999998 2.97137745 20.9401852875546 
Si 3.1328765099999996 3.7220043599999997 19.515099777461852 
Si 3.64487121 2.09969955 17.960426738615393 
Si 2.4098611500000002 1.2725291879999998 22.372919823299032 
Si 3.7781722799999997 3.99074049 24.26030832771219 
Si 2.41649118 2.0840937299999998 24.54287636949966 
Si 0.348061914 2.76455961 25.329010983450498 
Si 1.437427971 2.97126342 29.002807133449146 
Si 3.06380691 0.774061704 26.401315198352165 
Si 1.266311295 0.8312754419999999 27.909236569201983 
Si 2.34137799 2.46860289 33.779229196448526 
Si 3.51785808 3.05075862 30.13609775018355 
Si 2.5148176199999996 1.16918217 31.704593916104585 
Si 4.07064294 6.786006749999999 4.067463716834625 
Si 1.356056163 4.074373349999999 4.075112742486312 
Si 2.7152497799999997 5.40912708 2.694374430891626 
Si 1.5612270839999998 6.91518645 1.2697999991944413 
Si 0.0008270595899999999 5.42875653 5.430979715515802 
Si 2.71492398 5.43001086 8.145286203834315 
Si 1.3573805399999999 6.78693528 6.787772803758724 
Si 4.073184179999999 6.78812445 9.501256078554187 
Si 1.355960052 4.07179953 9.50293680616375 
Si 1.341150813 6.7953735 12.20774203840371 
Si 3.4070535 7.38779193 14.866824619550844 
Si 2.55309912 5.40181287 13.624869817773625 
Si 1.2968517869999998 7.324000289999999 19.460115974234693 
Si 3.0881930399999997 5.98165542 18.676382399726084 
Si 3.04823367 5.62374783 22.6666012476477 
Si 2.54505186 7.74929961 23.381287787910352 
Si 0.879811497 4.91229837 22.090145978130796 
Si 0.89779077 7.50177306 25.09532124459422 
Si 1.9489844699999999 7.39886913 28.797998469026595 
Si 3.85548462 4.92855579 26.42806963785134 
Si 1.8243333899999998 6.10120773 26.822834822718058 
Si 0.5910126029999999 4.15414548 27.169785022120855 
Si 1.4828526359999998 4.385887019999999 32.56025577218983 
Si 0.222980778 5.730219269999999 34.02039645813919 
Si 0.007279789229999999 6.63302736 30.05580013112256 
Si 3.8147270399999997 7.1001594 30.204767478231442 
Si 0.0997754355 4.220348039999999 30.515393380929588 
Si 3.5022685499999997 5.02616547 31.402028645819648 
Si 3.47838741 7.82763822 34.264513568287455 
Si 1.357077546 9.50031171 4.068081126976914 
Si 2.7282491999999996 10.85850675 2.669626574354887 
Si 1.322989092 12.15877455 1.1368510152216038 
Si -0.0001336337118 8.14495113 8.144737394818948 
Si 2.71450044 8.14519548 5.430739611571578 
Si 0.001090894059 10.860738479999998 5.430019299738908 
Si 2.715543 10.859549309999998 8.144394389184342 
Si 4.0897673999999995 9.506876579999998 12.210691886861312 
Si 1.357274655 9.502804079999999 9.501942089823395 
Si 2.7188661599999997 8.14123701 10.86240533835659 
Si 0.00321400071 10.857431609999999 10.861925130468142 
Si 1.68049269 9.2144385 14.9528847332732 
Si 2.79889893 10.85277267 13.608165443368367 
Si 1.014775776 10.397955869999999 16.945816071454267 
Si 2.0799723599999997 8.83217736 21.237331068812775 
Si 2.6182917 11.99453877 17.821715259981197 
Si 0.056421555299999995 8.57362248 17.90969620525734 
Si 3.6537166799999996 10.853815229999999 25.00583107452582 
Si 0.0711095967 9.643859189999999 25.775432816888703 
Si 1.89688905 10.96435917 26.533029362040427 
Si 2.57885361 9.69321789 28.388003833983426 
Si 3.4427611799999998 8.782737209999999 31.9918954356496 
Si 0.931615326 9.43702506 32.31305161133012 
Si 1.2381409979999998 10.6921044 30.083857992033234 
Si 2.71287144 16.284037859999998 2.67562231284778 
Si 3.9853484999999997 14.92854696 1.0792020582135675 
Si 0.00733923144 13.573658789999998 2.6813950976781795 
Si 1.357730775 14.932114469999998 4.068355531484597 
Si 4.1362264799999996e-05 13.57489683 8.145183302143934 
Si 2.7162434699999998 13.57628148 5.428955982271633 
Si 1.357383798 12.217614029999998 6.787155393616435 
Si 4.07215791 14.929100819999999 12.22177096885905 
Si 1.358538759 14.934167009999998 9.50293680616375 
Si 2.7161945999999997 13.571964629999998 10.860724610747027 
Si 1.3459905719999998 12.22652466 12.258232467817542 
Si 2.57647527 16.1671734 13.532807105445684 
Si 3.1491827999999997 13.82437818 16.28614763498223 
Si 1.3624108919999998 15.051992579999999 15.235109769426064 
Si 3.50427222 12.332588849999999 21.19510707519292 
Si 1.71890451 12.9761253 19.808403895612454 
Si 1.58416992 15.319018259999998 19.48964875937417 
Si 3.6595810799999997 16.16241672 18.682968107910497 
Si 0.7500909689999999 16.149563909999998 21.546790752353264 
Si 2.8843562699999996 12.414397229999999 23.404097662611576 
Si 4.00849659 14.39811198 23.955067613477336 
Si 0.671398866 12.79274877 24.036428550005606 
Si 3.05585739 14.734419029999998 26.08087933450432 
Si 3.0260304 14.251290209999999 29.68717197561273 
Si 0.9559200059999999 15.10454412 29.072197173329705 
Si 1.165425696 13.21910694 26.300951749666787 
Si 2.40712443 13.563787049999998 33.73690230113829 
Si 0.320087097 16.24593555 31.060154929809002 
Si 2.6708432399999995 12.337117469999999 30.93492357261477 
Si 3.91621374 15.572620979999998 31.496149391955218 
Si 0.240842763 14.75155611 32.91447769104625 
Si 6.78682125 4.07595348 4.070447865855686 
Si 5.43085794 2.7151031699999995 2.6844581379952004 
Si 6.92295678 1.404854487 1.2892758591273044 
Si 5.4312326099999995 0.0005189961420000001 5.43012220142929 
Si 5.4297990899999995 2.71490769 8.144977498763172 
Si 6.78713076 1.357520634 6.787807104322185 
Si 6.78586014 4.07263032 9.501701985879173 
Si 4.07210904 1.356629571 9.501187477427266 
Si 6.77678661 1.371582162 12.240361874254631 
Si 7.958267729999999 2.84566752 17.091078957709417 
Si 5.45710113 2.7563983199999997 13.769480993323027 
Si 5.1698758499999995 3.96264024 20.69274102275066 
Si 7.283503349999999 0.6975101069999999 19.966529493165286 
Si 6.70812426 2.8778728499999997 19.116561530614483 
Si 5.6969876699999995 3.44623095 22.97455170639593 
Si 6.18171291 1.220200821 23.359404028422563 
Si 6.829289279999999 1.075017825 25.567091194429725 
Si 8.11245258 0.7099768439999999 22.134668109502506 
Si 5.19704757 1.3738464719999999 27.2322463481824 
Si 4.82824197 3.52002465 28.19595497916817 
Si 5.98686822 2.08508742 32.54972549920746 
Si 5.005297979999999 5.8564504799999995 0.14946573429596471 
Si 6.800162759999999 6.83992665 1.3600722221097443 
Si 4.07196243 4.0728909600000005 6.787258295306816 
Si 5.43219372 5.431411799999999 5.430568108754276 
Si 6.787456559999999 6.78812445 6.787807104322185 
Si 4.076148959999999 4.07893455 12.248010899906317 
Si 5.431558409999999 5.43082536 10.859901397223974 
Si 6.78141297 6.768820799999999 12.236485910583594 
Si 7.023400919999999 4.092113159999999 15.267489501332761 
Si 4.37015088 6.884626409999999 16.918478522376258 
Si 5.33534967 8.089907219999999 13.613104724506677 
Si 6.3794409299999995 5.63001948 17.04960957648569 
Si 6.540630479999999 7.45679637 21.128152375318052 
Si 4.51340514 6.2434683 20.84623604423633 
Si 8.049182219999999 4.79551536 19.73599540614737 
Si 7.2509396399999995 6.90034626 18.888977292054168 
Si 7.563332969999999 4.74431589 23.661866397017114 
Si 7.21306539 6.11052561 25.516909470087036 
Si 6.63897321 4.890258 28.88817465036421 
Si 5.09968224 6.88588074 26.300711645722565 
Si 5.63200686 7.01248662 28.618160614803276 
Si 7.344737459999999 4.98513096 31.188541938841595 
Si 5.5007094599999995 4.57763661 32.576342736452794 
Si 4.44356991 9.684421289999998 1.1687779796906226 
Si 5.43729249 8.1715527 2.720744704080047 
Si 6.78546918 9.50120766 4.075387146993997 
Si 4.07264661 12.21551262 4.068698537119202 
Si 4.0728583800000004 9.50213619 6.787223994743355 
Si 5.42989683 8.145374669999999 8.145251903270855 
Si 5.430646169999999 10.85914206 5.430671010444657 
Si 8.14379454 8.146628999999999 10.863571557514247 
Si 6.787928969999999 9.50376519 9.502593800529144 
Si 5.42805606 10.86031494 10.858254970177871 
Si 8.03124693 10.75527702 13.72650238730704 
Si 7.10558397 8.75854656 15.099313838686006 
Si 4.40983332 12.19919004 15.016718081873162 
Si 5.835566699999999 8.82447219 17.272014429963473 
Si 4.09181994 10.1159271 20.732392474110984 
Si 4.492912319999999 10.61449884 18.42262683124542 
Si 6.4317318299999995 9.46771542 24.270701398440714 
Si 4.29238242 8.56207287 24.75872981535649 
Si 7.9910269199999995 11.16366732 21.536020375426673 
Si 6.209617679999999 9.65229741 21.8892818785062 
Si 5.87997324 11.559286259999999 25.335253686000307 
Si 4.92132303 10.307253150000001 28.731386774786333 
Si 6.89021388 8.94490416 28.867457110034074 
Si 5.7366701099999995 12.14121393 27.586708370983047 
Si 5.97368961 11.09624301 34.059018892595695 
Si 4.6209680099999995 11.082054419999999 30.91207939735009 
Si 6.94234188 9.25148196 32.87736448138201 
Si 5.42579175 13.58866188 2.6765587182302513 
Si 7.103987549999999 12.46188258 1.3109538152343305 
Si 6.78612078 14.931283679999998 4.070104860221082 
Si 8.14519548 13.57408233 5.430293704246592 
Si 4.07279322 14.932375109999999 6.787464098687579 
Si 5.42984796 13.574782799999998 8.145114701017013 
Si 6.7874728499999994 12.217581449999999 6.78749839925104 
Si 4.07271177 12.216050189999999 9.501256078554187 
Si 6.78714705 14.9304366 9.504205927011787 
Si 6.79288113 12.210169500000001 12.23466798072019 
Si 5.42683431 16.292606399999997 10.860793211873945 
Si 6.89658327 13.15696059 16.202111254504043 
Si 5.59880784 13.713215219999999 13.591015161638126 
Si 6.863416829999999 15.434677259999999 15.720908649716906 
Si 4.65196788 15.774845039999999 16.54683191728191 
Si 8.1085104 16.235640269999998 13.566284455383116 
Si 5.47801749 13.516757819999999 20.5878498996885 
Si 5.25660381 15.79480029 20.312759380735418 
Si 6.10049097 12.370121009999998 18.609564902105063 
Si 7.19420157 13.28017815 22.18069946566648 
Si 4.3756569 16.28043777 22.461552479280925 
Si 6.19705809 13.639014269999999 24.31422881347207 
Si 7.52573565 15.09421626 25.67163931185728 
Si 7.924775489999999 14.93973819 27.983840294728534 
Si 4.48638003 14.12248518 27.857271215559347 
Si 7.9041849299999996 12.636657989999998 28.34018884851951 
Si 5.892858629999999 15.87084201 28.59734017278276 
Si 6.427300949999999 12.26645145 31.969154162075302 
Si 6.79134987 14.68455534 32.52492619182553 
Si 6.02891271 16.26664014 30.907448821282927 
Si 5.6829294 16.167401459999997 34.19615254531071 
Si 8.16244659 -0.005808394979999999 2.698171503266702 
Si 9.503862929999999 1.3524300089999999 4.070447865855686 
Si 10.87109892 2.7079518599999997 2.704791512014576 
Si 9.561725009999998 4.05954945 1.3039290598376234 
Si 8.1453258 -0.00037259954099999994 8.145149001580474 
Si 8.145537569999998 2.71495656 5.428544375510107 
Si 10.861227179999998 -0.00010018985309999998 5.431014016079263 
Si 10.860152040000001 2.7152009099999996 8.144977498763172 
Si 9.503732609999998 1.358470341 9.502113592640699 
Si 12.218982389999999 4.07241855 9.502147893204159 
Si 8.14589595 2.7153801 10.862130933848904 
Si 10.856209859999998 0.000535291029 10.86463487498152 
Si 8.526365189999998 0.5791518539999999 16.774621959222987 
Si 9.969479999999999 0.758240856 14.884077802971468 
Si 10.9832067 2.6469458099999996 13.794691907466483 
Si 11.02235157 2.74170474 20.4291754931203 
Si 11.14377723 0.48866090399999995 19.750401642800774 
Si 9.9123021 3.93364404 18.66386269406301 
Si 11.54190483 0.580971447 23.39020593441008 
Si 9.521032589999999 3.5578988999999996 24.24363825387039 
Si 9.97294977 2.10908259 22.484053648911 
Si 8.660969459999999 2.4759170999999998 26.134251011248836 
Si 11.10170016 3.582171 29.05202844201494 
Si 9.62144415 0.005374950659999999 28.95355152431989 
Si 10.292755049999998 0.9524046239999999 26.944018713423947 
Si 12.18402405 2.06902548 27.55388273175136 
Si 8.21410218 2.9606260499999997 31.935471008757105 
Si 8.70747741 2.3531719499999997 34.15252222858898 
Si 9.69896826 2.0690417699999997 30.290656089136494 
Si 10.97002809 1.80840177 32.35503550100575 
Si 8.14065057 5.42365776 2.6983635864220807 
Si 9.50182668 6.78662577 4.068389832048058 
Si 10.861634429999999 5.43133035 5.429676294104303 
Si 9.50236425 4.07272806 6.787635601504882 
Si 8.14514661 5.43005973 8.145046099890093 
Si 9.50200587 6.78675609 9.502525199402223 
Si 9.520983719999998 4.05943542 12.25024043653125 
Si 10.86202539 5.427225269999999 10.861650725960459 
Si 12.21176592 6.78791268 12.236931817908582 
Si 8.27079138 5.48966484 13.699919450625163 
Si 9.14691645 7.272149219999999 15.158585212345724 
Si 12.1283937 4.15608399 15.27860288389396 
Si 11.16555696 5.31570393 17.182112653133544 
Si 11.05574607 7.67457738 19.918783108828293 
Si 9.39278142 7.68697407 18.087201621165345 
Si 11.65741722 4.5629919 24.638334837610188 
Si 10.32447168 6.87449403 22.039106739701598 
Si 8.198561519999998 5.92900614 21.81430084678158 
Si 10.27120338 5.432470649999999 27.792717555126718 
Si 10.203192629999998 7.36868376 29.06166690034734 
Si 11.78894268 6.28668567 26.201411514504464 
Si 8.178378209999998 4.648286339999999 27.127904034135607 
Si 8.88539679 6.824907269999999 31.05240300246693 
Si 10.22174694 7.11050355 32.92480216064786 
Si 8.394171839999998 8.033674139999999 34.232065235253835 
Si 11.053204829999999 5.330283479999999 34.22078034987534 
Si 9.55509498 9.530741429999999 1.3161332003168635 
Si 10.86762915 8.149072499999999 2.70452739767593 
Si 8.15338935 10.86270957 2.7070827896537364 
Si 12.218167889999998 9.502087320000001 4.070516466982608 
Si 8.14583079 8.14796478 5.430945414952341 
Si 9.502152480000001 9.50275521 6.787978607139486 
Si 10.85958189 8.14482081 8.144977498763172 
Si 8.14521177 10.85985882 8.14494319819971 
Si 10.861064279999999 10.861732169999998 5.430430906500433 
Si 9.49962753 9.513702089999999 12.2381323376297 
Si 10.857366449999999 10.858148369999999 10.86240533835659 
Si 11.299411889999998 10.690915229999998 16.88946024568869 
Si 10.84874904 8.17062417 13.669186145764568 
Si 8.25792228 11.69983638 19.243679418799037 
Si 9.06388632 10.01312091 17.71301677437492 
Si 9.83171547 10.67812758 22.943338193646888 
Si 10.08812007 8.510270669999999 23.767443531348487 
Si 11.805151229999998 11.107646009999998 21.735272348568625 
Si 10.055002499999999 12.065221079999999 24.87452851759908 
Si 12.03707196 8.401648949999998 25.093880620928882 
Si 8.25867162 8.18168508 25.219009076432727 
Si 9.32058414 11.28291012 27.01152222231418 
Si 8.80282278 8.94979116 27.428822877374436 
Si 11.23882938 11.192907869999999 28.3113763752127 
Si 10.62397962 11.11512312 34.172485156522974 
Si 8.160198569999999 9.07758621 30.86755726597838 
Si 11.7568188 10.66398786 31.999750264682053 
Si 10.10247156 10.452168989999999 30.31576410158957 
Si 12.20974596 8.26948818 32.1509128478524 
Si 9.502380539999999 12.217679189999998 4.0722314951556315 
Si 9.76999266 15.06699567 1.2300044854675873 
Si 10.86906267 13.572078659999999 2.7024522135865703 
Si 9.502315379999999 14.932538009999998 6.78749839925104 
Si 10.8598914 13.57486425 8.144462990311263 
Si 12.21885207 14.93305929 9.502079292077237 
Si 9.5030973 12.22015527 9.501118876300344 
Si 8.149887 13.57123158 10.857225953274055 
Si 9.49415409 14.91823539 12.210863389678613 
Si 11.789480249999999 15.42922011 14.690279619419732 
Si 10.67081337 13.02866055 16.942180211727454 
Si 9.15809139 12.561528509999999 15.095883782339959 
Si 10.825258859999998 13.592327130000001 13.599727504757087 
Si 11.331389159999999 13.07953422 20.452259772329207 
Si 9.60688089 13.622202989999998 18.92989786426253 
Si 9.116177219999999 15.97281741 18.85790098155897 
Si 8.99603847 14.8160808 22.33100453475032 
Si 9.412915859999998 14.314365089999999 24.575976413239026 
Si 11.26743462 15.32182014 21.62842609338922 
Si 11.05897149 15.71530509 25.348836709130662 
Si 11.755515599999999 15.85230399 34.221740765652235 
Si 9.044501219999999 13.153213889999998 34.149023571116004 
Si 8.52369363 12.239866169999999 30.577202996285383 
Si 9.16890795 14.112531989999999 31.906315529815693 
Si 11.07034191 14.920401959999998 30.20126882075847 
Si 16.2877194 2.738349 2.6942475188068227 
Si 13.565171699999999 0.0159115833 2.7229296499724795 
Si 12.37930857 1.4655770909999999 1.2707947155347954 
Si 14.930224829999998 1.355859054 4.070722270363371 
Si 16.2901629 0.001238217561 5.43015650199275 
Si 13.57476651 0.00046669220999999997 8.144497290874725 
Si 13.57502715 2.7147773699999997 5.43159712565809 
Si 12.21745113 1.3571508509999999 6.7873954975606585 
Si 16.28923437 0.00182452887 10.860141501168197 
Si 14.930794979999998 1.3568201639999997 9.500981674046503 
Si 13.57463619 2.71704168 10.85684864707599 
Si 12.22085574 1.3817748149999998 12.217792103497633 
Si 16.25567697 2.7184752 13.577740843578917 
Si 13.604153669999999 0.15635418929999997 13.623120489037138 
Si 14.97710745 1.459973331 15.141640733996246 
Si 13.908695219999998 3.0198401999999995 16.63045669099857 
Si 12.925300499999999 3.98305161 21.093680309040266 
Si 15.763360589999998 1.67218479 20.70951399828284 
Si 14.84620101 1.307937132 18.527517954307584 
Si 14.48011584 2.77182495 22.35576954156879 
Si 13.618619189999999 1.367595999 23.993930151878068 
Si 13.16942244 3.02414076 25.6545233306905 
Si 14.342937749999999 3.3802727399999997 29.774535510746585 
Si 15.694502759999999 0.8576538389999999 26.462301600184908 
Si 14.55915492 3.93120054 27.432767442172395 
Si 13.941519569999999 0.53879175 28.121762860403145 
Si 15.623462069999999 0.49222189799999994 34.24238970485544 
Si 12.4054866 0.0701628219 31.57054731410101 
Si 14.000912909999998 2.54878227 34.22517082199828 
Si 14.446542149999999 1.026590913 30.381243877235633 
Si 12.29507298 3.7130122799999996 32.86007699739792 
Si 16.2937467 8.15760846 2.67523128642433 
Si 12.22167024 4.06785735 4.069727554023017 
Si 15.09576381 4.24725912 1.1459646749330545 
Si 13.5881406 5.43093939 2.6926594027186024 
Si 12.28121019 6.815442779999999 1.3094960412872598 
Si 14.93351541 6.783742439999999 4.068595635428821 
Si 13.57582536 8.14612401 5.429367589033159 
Si 14.93261946 4.07271177 6.787669902068342 
Si 13.57492941 5.429766509999999 8.14494319819971 
Si 12.21764661 6.787391399999999 6.78749839925104 
Si 13.57287687 8.14583079 10.86391456314885 
Si 16.28727957 5.43424626 10.85887238032016 
Si 14.93367831 6.78577869 9.501873488696475 
Si 14.90693013 4.079749049999999 12.227945070281935 
Si 15.320044529999999 6.291572669999999 14.94722514030222 
Si 16.2968418 8.12395332 13.617014988741172 
Si 13.482532529999999 5.42572659 13.721460204478348 
Si 14.651600669999999 5.182500599999999 17.077701737959828 
Si 14.366004389999999 8.05618692 16.527417798363278 
Si 14.261618069999999 4.94007282 19.393435678867515 
Si 15.821418149999998 6.245732609999999 20.612752108760812 
Si 12.90907566 6.598183049999999 18.181047962793233 
Si 15.162862319999999 6.3139062599999995 24.79501981149768 
Si 12.23820459 5.64673302 22.646192412388714 
Si 13.610083229999999 7.45241436 23.454245086390802 
Si 15.703755479999998 4.23160443 23.773206026009845 
Si 14.4682893 7.52335731 28.745552907495515 
Si 14.02088445 6.118735769999999 26.900354096138752 
Si 15.76371897 7.43193783 32.398597216600564 
Si 12.537484469999999 4.62165219 30.602413910428837 
Si 12.47625036 7.03659582 30.036008706005855 
Si 13.773227579999999 7.8547936499999995 33.94119645710893 
Si 13.581950399999998 10.84480686 2.693712430016839 
Si 12.22575903 12.15940986 1.2892175481694215 
Si 14.855176799999999 9.495131489999999 1.114010270013267 
Si 14.932668329999998 9.50229909 6.787429798124119 
Si 13.57486425 10.86024978 8.145389105524696 
Si 12.21727194 9.50270634 9.502079292077237 
Si 14.929833869999998 9.520771949999999 12.242968717077629 
Si 12.222387 12.22017156 12.23542259311632 
Si 12.42332415 9.495929699999998 15.031021416836184 
Si 13.7075463 11.057961509999998 13.715800611507367 
Si 15.10579845 11.456023949999999 17.774449083532648 
Si 14.58446958 8.26256493 21.419912968112932 
Si 12.646692629999999 9.345670740000001 20.369046605374074 
Si 15.886757339999999 11.9944899 20.23781264957426 
Si 13.2450732 10.0247031 18.175148265878025 
Si 16.27788024 9.985623389999999 21.570252337760234 
Si 13.56171822 11.748347999999998 23.186734991962485 
Si 15.700741829999998 10.800107099999998 23.735475406203314 
Si 12.435916319999999 12.176709840000001 25.19239183918739 
Si 15.43759317 11.411943209999999 29.219209388321342 
Si 12.6918648 10.230234029999998 26.630511563395125 
Si 14.785260119999998 9.688070249999999 27.649478402115733 
Si 13.722842609999999 11.97082053 30.901000315352356 
Si 16.125633899999997 10.94927463 33.94908558670484 
Si 13.343839469999999 13.795772939999999 0.05996253001344585 
Si 12.215724389999998 14.933042999999998 4.074941239669011 
Si 14.93322219 12.21909642 4.068321230921137 
Si 14.85748998 14.96707281 1.3504783545098469 
Si 13.574717639999998 13.576900499999999 5.430739611571578 
Si 12.21738597 12.217679189999998 6.787807104322185 
Si 14.93245656 14.93268462 6.787635601504882 
Si 14.932798649999999 12.21728823 9.503760019686801 
Si 13.57128045 13.576998239999998 10.862885546245037 
Si 14.92998048 14.940911069999999 12.251406655688907 
Si 12.671502299999998 14.26911147 16.565594325494796 
Si 14.503834079999999 12.68787375 15.647917050672994 
Si 16.167271139999997 13.665306329999998 13.899445828274802 
Si 13.161293729999999 14.42725479 20.32994396302912 
Si 13.06876653 15.99573744 18.584696993596214 
Si 14.784559649999998 15.75016569 24.75907282099109 
Si 15.999337529999998 14.683121819999998 23.045965479520657 
Si 14.59720836 13.3488405 21.754206259598813 
Si 13.013266499999999 14.4306594 25.70189240882943 
Si 15.856653419999999 13.48807113 28.03614865400577 
Si 12.34532763 13.137754679999999 29.285066470165475 
Si 13.71684789 14.47539174 27.89925510523498 
Si 14.94177444 12.84412743 32.830612813385365 
