&CONTROL
  dt          = 30.D0,
  prefix = 'x2.66_y.66_z3.17_struc42-scf',
  pseudo_dir = './',
  outdir='./',
  wf_collect= .true.,
  verbosity= 'high',
/

&SYSTEM
ibrav= 6, celldm(1) =30.783621515, celldm(3) =2.118804555752091, nat=  432, ntyp= 1,
  ecutwfc     = 12.D0, nbnd= 1728,
  degauss     = 0.05D0,
  occupations = "smearing",
  smearing    = "methfessel-paxton",
/
&ELECTRONS
  electron_maxstep=200,
  conv_thr    = 1.D-8,
  mixing_beta = 0.3D0,
  scf_must_converge=.false.,
/
ATOMIC_SPECIES
Si  28.08  Si.pbe-hgh.UPF
K_POINTS {automatic}
1 1 1 0 0 0
ATOMIC_POSITIONS (angstrom)
Si -0.00221744367 2.6953759799999997 2.7136605260017115 
Si 1.3214529449999999 1.315101474 1.3286053549900103 
Si 3.9226645799999997 3.99932532 1.257231111913731 
Si -0.0005791632569999999 0.00029278016999999994 5.4301927271443615 
Si 9.64543932e-05 2.71484253 8.144788618486452 
Si 2.71482624 0.0006036536429999999 8.144857649138878 
Si 2.71441899 2.71389771 5.429467905293885 
Si 1.3576069709999998 1.357290945 6.787887599066859 
Si 2.71448415 2.7133112699999997 10.858970325913981 
Si 1.363321503 1.3476928769999998 12.226294973849962 
Si 4.06277487 4.09084254 12.238720491286715 
Si 0.19818413999999998 2.83330341 13.62709948821275 
Si 2.3004900900000003 3.47680728 14.629390046117908 
Si 3.74868738 1.423288251 15.077468011017691 
Si 3.9800868299999994 0.8963100089999999 17.495715311493232 
Si 0.598976784 0.07237728449999999 21.393289493466593 
Si 1.4608546199999999 3.2420358 20.02789770379855 
Si 1.7855143199999999 1.612613889 18.29443447539293 
Si 3.1401092699999995 3.08201913 21.70579125700092 
Si 2.7219123899999995 0.7914105539999999 22.313916789551318 
Si 2.98154241 0.543230775 24.70317121600777 
Si 3.91753323 4.01921541 25.330107601344363 
Si 2.0428963199999997 3.92935977 29.936108853843685 
Si 1.232200035 0.388979136 29.02935671889667 
Si 2.2096896299999997 2.4775461 25.974129073156487 
Si 2.4945365699999997 2.21175846 28.34805869477428 
Si 1.9923810299999998 3.2598570599999994 34.34816848835102 
Si 3.16933353 3.6626924699999996 32.245011600875806 
Si 0.497828916 1.376234586 33.08331984394204 
Si 4.07096874 6.787456559999999 4.070703058258779 
Si 1.3587293520000001 4.07556252 4.070047267060728 
Si 0.392815431 5.04776601 0.04120025459417444 
Si 2.7251866799999998 5.43227517 2.706346728377134 
Si 1.343317383 6.78370986 1.3448275583102152 
Si -0.000792197361 5.4304995599999994 5.430330788449215 
Si 2.7150380100000002 5.429522159999999 8.145168287074798 
Si 1.357665615 6.78713076 6.78757696113094 
Si 1.3577177429999998 4.07091987 9.501448030622553 
Si 1.359890829 6.78512709 12.249972487632219 
Si 4.03446285 7.02051759 15.6202560310465 
Si 2.84250726 5.60234277 13.83336307766284 
Si 0.015988602419999998 8.119522439999999 13.749007620397776 
Si 1.0639438829999999 5.59864494 19.812970767468947 
Si 3.14975295 6.71483574 19.916344169477483 
Si 3.97309842 6.75479511 22.199740090438045 
Si 2.96359083 4.86116406 23.33218794349319 
Si 0.666370143 5.132343689999999 23.639063708854763 
Si 0.36545148899999996 6.56948007 21.903460530223924 
Si 1.146006387 7.9726517999999995 26.695879059600745 
Si 3.18796929 5.8288878 29.160135289918486 
Si 1.328169312 7.271856 28.884392348801217 
Si 1.515331638 7.448944589999999 32.60935538438236 
Si 3.2997186899999997 5.95500498 32.79477171679967 
Si 2.0986244099999998 8.6620446 0.07443506220486622 
Si 1.35925389 9.50220135 4.069564052493743 
Si 2.7255124799999995 10.85704065 2.691646650942932 
Si 1.438219665 12.158285849999999 1.1370556491046055 
Si -0.00024319341 8.145228059999999 8.144754103160238 
Si 2.71432125 8.14438098 5.431538824866677 
Si -0.001288682352 10.858653359999998 5.429882089208443 
Si 2.7152009099999996 10.859972849999998 8.144512495876747 
Si 1.3577193719999998 9.50327649 9.503173796933213 
Si 2.7151683299999996 8.142947459999998 10.86356086430034 
Si -0.00450038943 10.86668433 10.862767011797434 
Si 3.8385918899999996 11.47871592 16.836403550168654 
Si 1.181683116 9.690464879999999 15.283006778617306 
Si 2.63010195 10.764448289999999 13.55834495839605 
Si 2.75861376 9.274141349999999 17.104518604192805 
Si 0.469191096 9.652411439999998 20.868276866437583 
Si 0.484230024 11.953455389999998 20.55784602247605 
Si 3.98223711 10.26845037 20.48967825320497 
Si 2.32577217 8.90593848 19.546615995081666 
Si 0.821801178 8.75243781 22.99290228681742 
Si 2.73838158 9.51331113 24.07230008348287 
Si 2.57204439 11.649418829999998 24.977395482771655 
Si 3.38059854 8.674539029999998 26.20224086409954 
Si 1.452147615 11.39459436 27.03129899974064 
Si 3.30944382 10.34216262 27.920620894949995 
Si 0.436282038 10.45718631 34.2192192296185 
Si 1.507598775 8.79910866 30.706421904269916 
Si 0.0439395057 10.590699149999999 31.47328342207483 
Si 3.3390427499999995 12.165681509999999 31.529405342497494 
Si 3.48786819 9.94665771 30.226037594034576 
Si 2.72795598 16.27411725 2.6855823081272723 
Si 4.02690429 14.65647138 1.1310120154846741 
Si 0.006950617199999999 13.56298884 2.681043542730236 
Si 1.357207866 14.93553537 4.068908261295693 
Si -0.00031327624799999996 13.57525521 8.145168287074798 
Si 2.7153801 13.574978279999998 5.430089181165722 
Si 1.35775521 12.217793219999999 6.787266323195021 
Si -0.000906572709 16.290488699999997 10.85872871863049 
Si 4.062807449999999 14.931251099999999 12.237029240302268 
Si 1.3567859549999999 14.932912679999998 9.502483490408949 
Si 2.71461447 13.57540182 10.864147624845964 
Si 1.347272595 12.22706223 12.238064700088666 
Si 2.5438626899999996 16.15994064 13.714216171574868 
Si 3.5197151399999997 12.498307019999999 14.759029611374693 
Si 0.753642189 15.348763799999999 15.162341198175953 
Si 0.907015797 14.25510207 17.4731422881498 
Si 2.8042583399999996 12.31558209 20.427136482106654 
Si 0.41851616399999997 16.00963281 19.02363977229924 
Si 3.01324275 13.27038786 18.296332818334655 
Si 2.0024645399999996 13.49230653 23.726974244719788 
Si 3.75917814 13.617935009999998 22.129328824963114 
Si 1.55142702 15.15064482 25.37732456760402 
Si 2.10349512 14.886306989999998 27.719914273020226 
Si 0.7832867309999999 13.146534990000001 28.39475793114074 
Si 0.47230574399999997 15.779243339999999 34.50093332217065 
Si 1.51816284 16.297493399999997 31.415573796646356 
Si 3.27648915 12.8440134 34.16882685334723 
Si 3.83663709 16.13581515 32.094007048693044 
Si 0.280440495 14.41321281 32.17052752690771 
Si 1.12001895 12.641691599999998 30.70362616284665 
Si 6.7857949799999995 4.07647476 4.069598567819956 
Si 8.127064709999999 -0.021018987 2.6825760232141023 
Si 4.0754322 1.356021954 4.0681144087927885 
Si 5.41927575 2.7162271799999997 2.6854787621486325 
Si 6.64130268 1.246628088 1.2259774840276767 
Si 5.430711329999999 -0.0005115076289999999 5.431159156278332 
Si 5.43045069 2.7146633399999995 8.14444346522432 
Si 6.787652039999999 1.3571736570000001 6.787680507109579 
Si 4.07391723 1.358116848 9.50110287736042 
Si 6.7841496900000005 1.332178281 12.240377226944949 
Si 7.01800893 3.41311338 15.019585808958153 
Si 5.286430799999999 2.58883938 13.581504742285109 
Si 6.136638479999999 2.26129635 17.34402045278621 
Si 5.42430936 3.00798108 21.094248707155415 
Si 5.84465652 4.03444656 18.945773196362254 
Si 6.2433054 0.8247496679999999 21.658850413350965 
Si 6.703465319999999 4.04294994 22.72223309865349 
Si 6.71009535 0.8738575019999999 24.013554998268003 
Si 6.04859103 2.99216349 24.718288928889148 
Si 7.56010755 3.08374587 26.512671708061074 
Si 5.98066173 3.70107171 28.09923770810331 
Si 4.7845847699999995 1.7294767199999999 28.623974212522615 
Si 7.487340119999999 1.032782742 31.556258266291366 
Si 5.57240175 3.2033959199999997 32.40278115699635 
Si 5.27025483 1.298405853 30.896256198442526 
Si 4.73390658 0.22508055899999999 34.460930059089556 
Si 6.656517539999999 6.778497059999999 1.1615580791833575 
Si 5.42872395 8.135111969999999 2.694784094095712 
Si 8.13297798 5.42551482 2.681029736599751 
Si 4.071995009999999 4.07271177 6.787715022435792 
Si 5.429326679999999 5.429489579999999 5.430296273123002 
Si 6.78763575 6.78727737 6.787197292542595 
Si 6.78688641 4.07222307 9.502034791168176 
Si 4.07196243 6.78616965 9.503518950195344 
Si 5.43183534 5.429212649999999 10.86142091407512 
Si 6.773903279999999 6.79350015 12.258808411142798 
Si 8.03751858 5.33007171 13.719980231052475 
Si 7.4099463299999995 7.33330188 20.90672693983909 
Si 6.40545606 7.750928609999999 18.754075074574136 
Si 8.06776911 4.69757988 18.444092929853372 
Si 4.74713406 6.215970779999999 18.03073738312407 
Si 6.21385308 6.32122047 22.691134789735393 
Si 6.903099269999999 6.781298939999999 24.955719857909767 
Si 7.6048236 4.46354145 29.59413100172328 
Si 5.36789709 7.41877551 26.67423795006507 
Si 4.50470628 5.324207309999999 27.2604807657963 
Si 5.10684984 5.4956758500000005 34.383926366307904 
Si 4.59998649 6.42275604 30.996074521851103 
Si 6.57734814 5.26002471 31.625806648610965 
Si 4.13109513 9.51332742 1.229246085420067 
Si 6.78678867 9.50571999 4.070116297713154 
Si 4.07000763 12.21663663 4.070564996953926 
Si 6.89940144 12.17529261 1.2259395171688423 
Si 4.072548869999999 9.50255973 6.7875079304785135 
Si 5.43005973 8.145 8.14520280240101 
Si 5.42895201 10.859174639999999 5.431193671604545 
Si 6.786299969999999 9.500767830000001 9.50237994443031 
Si 4.08750309 9.48565071 12.23519992801297 
Si 5.432421779999999 10.85992398 10.863802471583831 
Si 6.78730995 12.214958759999998 12.248867997193395 
Si 8.16482493 10.856389049999999 13.72802230206015 
Si 6.15555117 11.02383396 16.90339779834848 
Si 5.37721497 8.17707501 13.875057591728387 
Si 6.937959869999999 9.45996138 15.18149720422428 
Si 8.010183959999999 10.79108244 19.887351295458394 
Si 5.92025841 10.01369106 19.10160989421486 
Si 5.925340889999999 10.5272496 23.648348331606115 
Si 4.38300369 9.1430883 22.533399748941065 
Si 4.87528749 11.77265268 25.422539644943317 
Si 4.93477857 12.002064749999999 27.735584231121017 
Si 6.77448972 10.81915011 28.58062296279883 
Si 6.39566577 8.47273851 28.61983237337703 
Si 7.79448807 8.313210539999998 34.25407970909384 
Si 5.227216649999999 11.1322602 34.35565831413929 
Si 7.592817869999999 11.35349469 30.74614904474131 
Si 6.51503889 9.902919059999999 32.62940878891223 
Si 5.31743067 8.58088782 30.71905451366395 
Si 5.452474769999999 13.56953742 2.6880846692777296 
Si 6.787407689999999 14.93480232 4.074016529575246 
Si 4.0723696799999995 14.932603169999998 6.787645991783366 
Si 5.430206339999999 13.574587320000001 8.144857649138878 
Si 6.787652039999999 12.21719049 6.787611476457153 
Si 4.07131083 12.2175 9.502690582366228 
Si 6.784540649999999 14.931886409999999 9.502794128344867 
Si 5.430190049999999 16.293257999999998 10.859142902545049 
Si 7.37710569 13.234240349999999 16.90898928119502 
Si 5.34528657 13.539270599999998 13.6672408125987 
Si 6.7984686 14.781464549999999 15.178218248234026 
Si 8.12595699 16.17367311 13.799261935364198 
Si 4.3470027899999995 15.72599133 21.23413932429752 
Si 7.4725488 12.886611749999998 20.783990439824944 
Si 4.49672418 15.07931091 18.923476295628525 
Si 6.757401509999999 14.264175599999998 18.921060222793606 
Si 5.858584469999999 12.64643199 22.52052553226354 
Si 5.936450669999999 13.678827029999999 24.628203927472693 
Si 5.18623101 15.884199809999998 25.211651001780652 
Si 7.92878283 12.90011616 25.63939943954086 
Si 5.56520157 16.057965239999998 27.555069075025976 
Si 7.82069868 15.91151814 28.21952361995632 
Si 4.319163179999999 14.25189294 28.443528087079997 
Si 6.88272048 13.52746035 31.338397527233635 
Si 4.592150999999999 14.04626427 30.845725760866397 
Si 9.50438421 1.357328412 4.068217954771429 
Si 10.32106707 0.595282212 0.1841247689104208 
Si 10.87147359 2.71899648 2.7258996606769132 
Si 12.21386733 4.07448738 4.072049155981094 
Si 9.43275708 3.91021902 1.3117101028086482 
Si 8.1448371 0.000257815314 8.145064741096157 
Si 8.14423437 2.7147773699999997 5.429640481924951 
Si 10.8590769 -0.00048969369 5.430158211818148 
Si 10.85963076 2.71529865 8.145340863705863 
Si 9.500653799999998 1.357235559 9.502138337146816 
Si 8.14869783 2.71480995 10.863595379626553 
Si 10.85813208 0.0028305015299999996 10.863664410278979 
Si 12.216457440000001 4.0735588499999995 9.502587036387586 
Si 8.922798629999999 1.79103663 14.941684717694956 
Si 10.834527869999999 2.79362097 13.764643063172356 
Si 8.43538554 1.4861350709999999 17.302740122635225 
Si 8.43681906 0.5507925929999999 20.835418275882613 
Si 12.154034159999998 2.0428311599999995 21.339721707183703 
Si 9.906502859999998 2.38764159 20.574516925037024 
Si 9.84315105 3.10669848 18.309655734252953 
Si 12.20806809 3.3604315199999997 17.33870509254938 
Si 11.96906121 3.6725805 24.780036847484567 
Si 8.966113739999999 3.98718927 22.066338354624023 
Si 11.69398827 0.052646836499999995 22.45291000821188 
Si 8.93829042 0.009596129489999999 24.666239816959642 
Si 11.362258709999999 1.5680020949999998 28.06506753515224 
Si 8.67054798 2.48802057 30.14682492037528 
Si 12.198245219999999 3.25563795 29.520026596343538 
Si 8.95963032 1.67544279 27.932632228472183 
Si 8.47391139 2.0991294 34.44236081358685 
Si 10.64256651 2.95731918 31.358243839806228 
Si 11.019663719999999 0.777634101 32.5020127198593 
Si 9.50431905 6.786365129999999 4.067078949006393 
Si 10.5511959 5.6174436 0.03636293162539424 
Si 9.5027715 4.0725814499999995 6.787542445804727 
Si 8.14534209 5.43002715 8.144926679791304 
Si 10.86114573 5.429212649999999 5.430779487689986 
Si 10.85787144 5.42989683 10.861144791465415 
Si 12.220236719999999 6.79354902 12.240480772923588 
Si 9.50275521 6.78700044 9.501378999970127 
Si 9.49622292 4.07401497 12.238789521939141 
Si 8.32482531 8.03038356 16.702622145766284 
Si 10.818775439999998 8.07990516 13.718910255939864 
Si 11.69428149 4.56374124 15.142287793646084 
Si 9.69878907 6.39716445 15.15195208498578 
Si 11.81095047 7.309160099999999 18.21315088216084 
Si 8.91322011 5.63612823 20.407945960732114 
Si 11.09124198 6.4343870999999995 20.2146946492644 
Si 9.99868797 4.79237139 24.057907192451964 
Si 10.5841017 7.10072955 23.758383191573802 
Si 8.42715909 5.11833429 25.83993348483956 
Si 11.99866014 7.3617767999999995 28.966297217905147 
Si 9.13390074 5.58217575 28.075146010406495 
Si 11.53379241 5.1779394 28.268535383179064 
Si 8.634986909999999 7.78285701 28.726174093439905 
Si 10.25636319 7.735159889999999 30.494256194037366 
Si 10.32233769 5.685438059999999 31.852089127264716 
Si 8.311728149999999 6.33190671 33.025886341123275 
Si 12.21606648 9.502543439999998 4.069356960536465 
Si 9.39092436 9.41226426 1.328947056719521 
Si 10.86647256 8.14488597 2.702774392114068 
Si 8.14262166 10.84826034 2.7143301233302477 
Si 12.078497429999999 12.09016107 1.2640099219820036 
Si 8.144250659999999 8.145798209999999 5.430158211818148 
Si 9.5029344 9.50275521 6.787611476457153 
Si 10.86000543 8.14488597 8.144961195117517 
Si 8.14513032 10.860233489999999 8.14499571044373 
Si 10.861292339999999 10.86125976 5.429744027903591 
Si 8.148518639999999 8.14535838 10.863319257016846 
Si 9.4934862 9.49747725 12.24524388794101 
Si 10.86127605 10.862188289999999 10.861179306791627 
Si 11.81810178 9.64113876 15.260813423862217 
Si 10.12886136 11.68690212 14.833513685342782 
Si 10.41628212 9.00591021 17.341707925929924 
Si 8.7278562 9.20815056 21.44941141388926 
Si 11.949985619999998 11.473812629999998 19.6847463305869 
Si 9.94320423 11.06133354 18.51212263781959 
Si 8.752779899999998 8.18013753 24.80116022712705 
Si 10.89043515 8.261701559999999 21.667720852187756 
Si 8.19774702 10.025387279999999 23.543870439158752 
Si 9.29372193 12.03254334 23.99843728538662 
Si 11.44458837 11.856481019999999 24.931386552929457 
Si 10.49543523 11.959352369999998 28.317616177054237 
Si 12.13477938 10.87166907 27.025051725696052 
Si 9.33783525 9.0056007 26.872632045138552 
Si 11.62640106 8.63493804 27.03585502280078 
Si 8.56897983 11.21621886 27.17974941778362 
Si 10.38086766 11.03153913 34.40660293562998 
Si 10.719732239999999 9.77971779 31.92923088135122 
Si 9.95881005 11.491780499999999 30.58282252110044 
Si 9.501158789999998 12.221311859999998 4.0717385180451755 
Si 9.47950938 14.836247819999999 1.191469060879718 
Si 10.861764749999999 13.573984589999998 2.693434544840776 
Si 8.14227957 13.573691369999999 5.430952064321052 
Si 9.50242941 14.93227737 6.787197292542595 
Si 10.86000543 13.574408129999998 8.145064741096157 
Si 9.50321133 12.215496329999999 9.502656067040013 
Si 8.14309407 13.57509231 10.86746109616243 
Si 9.49698855 14.94105768 12.238513399329436 
Si 9.801546389999999 12.835347119999998 16.910680532179466 
Si 10.89050031 13.533178139999999 13.575084891609453 
Si 11.814192180000001 14.3161407 17.04094137330809 
Si 11.72449944 12.884722109999998 21.55368221437934 
Si 8.43823629 15.88364595 18.735229706461727 
Si 11.3992533 16.2675198 24.748558869978126 
Si 9.4560192 13.305557969999999 22.026714760131267 
Si 9.47120148 15.55867674 22.467440960547638 
Si 12.069994049999998 14.087396519999999 25.51973480355969 
Si 10.89159174 14.158388339999998 27.544748992488227 
Si 11.74810365 15.71711328 29.051653619630393 
Si 8.87485716 14.79324222 26.51046272718343 
Si 8.82567765 12.92854221 34.23682204598724 
Si 8.236696409999999 15.26609205 30.488733741843255 
Si 10.53477558 15.328645649999999 31.03980544016323 
Si 10.69158312 13.171507559999998 32.12410441315096 
Si 12.263323769999998 1.454959269 1.3441924763078923 
Si 14.93234253 1.3583074409999998 4.074672320773297 
Si 15.016252319999998 4.05184428 1.3016799490110917 
Si 13.57545069 -5.7839273999999996e-05 8.144857649138878 
Si 13.574978279999998 2.71482624 5.430468849754067 
Si 12.21727194 1.35749457 6.787059231237742 
Si 14.93312445 1.355468094 9.500930300729353 
Si 13.576737599999998 2.71246419 10.866149513766329 
Si 12.21254784 1.35650088 12.257945527987468 
Si 14.9315769 4.07906487 12.248350267300198 
Si 15.26860071 1.0367933399999998 14.93957928279595 
Si 13.57743807 1.394715591 16.672766388591867 
Si 16.01337951 2.21980572 21.3101765879452 
Si 14.079984569999999 2.05488576 19.93632854335493 
Si 14.38975521 0.18260112599999997 18.54960628208713 
Si 16.104815279999997 3.98862279 18.21856978837631 
Si 13.134415229999998 3.6830061 22.766447231532602 
Si 15.47165556 3.3057785699999997 23.351999740739565 
Si 16.06681071 2.9203083 25.686133191233537 
Si 14.50642419 2.7001815299999996 30.07310018358388 
Si 12.43875078 1.6444755 25.97564774750987 
Si 14.760157229999999 1.0930671449999998 26.365015142520996 
Si 15.18951276 0.765690273 28.716716894057488 
Si 13.499246069999998 3.08123721 34.28683475367017 
Si 14.56011603 1.8815927399999999 32.42497451175144 
Si 16.27024023 8.142312149999999 2.6924232457827286 
Si 13.58168976 5.43830247 2.679186618179966 
Si 12.292776089999998 6.9664185 1.1865092085028808 
Si 14.92968726 6.78854799 4.072601401200505 
Si 13.57457103 8.14332213 5.4308140030162 
Si 14.932309949999999 4.0728909600000005 6.787542445804727 
Si 13.57519005 5.43001086 8.145168287074798 
Si 12.217516289999999 6.787521719999999 6.787266323195021 
Si 13.574913119999998 8.14557015 10.861144791465415 
Si 16.28825697 5.4297990899999995 10.863802471583831 
Si 14.933287349999999 6.78919959 9.502034791168176 
Si 13.491329129999999 5.427160109999999 13.736202434372679 
Si 14.81078655 6.84303804 15.186467411198981 
Si 14.038510229999998 7.78777659 18.568071981611194 
Si 13.00029966 5.3252498699999995 21.0523816164588 
Si 14.93794629 5.90734044 17.48353140133997 
Si 14.376934979999998 6.974286569999999 21.9711105696018 
Si 14.33922363 7.70538177 24.219680526413242 
Si 12.33990306 7.27956117 25.29738707209425 
Si 16.1241678 6.53043294 25.322790352187162 
Si 14.142293819999999 7.65167364 29.777752537177513 
Si 12.80086119 5.20703334 26.29229135018978 
Si 15.13891602 4.959539369999999 26.74841138609724 
Si 15.62567751 6.05706183 28.848013194972502 
Si 16.074662489999998 4.47574266 30.470958348843457 
Si 13.87911258 6.82467921 32.27617894044632 
Si 16.00904637 5.834491559999999 32.477161684985795 
Si 12.36984408 5.12273259 33.13526540989291 
Si 14.9964111 9.550338299999998 1.0688982344313966 
Si 13.57968609 10.85389668 2.6767394815514503 
Si 14.934997799999998 12.216604049999999 4.068010862814149 
Si 14.93219592 9.502478279999998 6.787162777216381 
Si 13.574799089999999 10.860168329999999 8.144857649138878 
Si 12.21719049 9.50255973 9.50217285247303 
Si 14.937001469999998 9.489039029999999 12.242896845758512 
Si 12.222142649999999 12.204109619999999 12.212868511953028 
Si 15.632991719999998 10.81766772 16.512891397572318 
Si 13.96846323 8.87031225 16.42397991724711 
Si 13.476879899999998 10.76386185 13.641837532505784 
Si 12.61509003 9.8448615 21.297820101160877 
Si 14.57966403 8.818624080000001 20.599402475236744 
Si 12.726920879999998 11.41176402 23.055720180525448 
Si 14.788729889999999 11.948095979999998 23.97634747661017 
Si 15.44507028 9.74458026 24.399091192069463 
Si 16.02064485 9.895881779999998 26.658775083921558 
Si 14.38320663 9.99269325 30.078864243061485 
Si 14.28610194 11.03706144 27.938120165340084 
Si 13.043223809999999 10.229435819999999 32.11695974062483 
Si 13.57538553 8.52747291 33.92356094527622 
Si 13.245610769999999 13.73494608 0.057275767777973066 
Si 12.216213089999998 14.929931609999999 4.070254359018008 
Si 14.959546829999999 14.85779949 1.1828367777937963 
Si 13.591023929999999 16.27983504 2.6947564818347414 
Si 13.574799089999999 13.575434399999999 5.4301927271443615 
Si 12.21725565 12.217516289999999 6.787887599066859 
Si 14.93252172 14.93281494 6.787645991783366 
Si 12.218347080000001 14.93056692 9.50237994443031 
Si 14.93116965 12.217109039999999 9.501068362034207 
Si 13.57747065 13.57243704 10.86024739298387 
Si 14.934883769999999 14.927879069999998 12.214904916199606 
Si 12.7842291 14.26691232 14.873551463750095 
Si 14.582303009999999 12.41462529 14.90678972289341 
Si 13.58475228 16.18691688 13.657507490606578 
Si 16.22769075 13.63909572 13.71304265048362 
Si 15.775007939999998 12.346549379999999 18.393873130213162 
Si 13.110501509999999 14.7841524 21.574943655326674 
Si 12.83479326 14.88283722 19.231905250669698 
Si 13.421607929999999 12.816678779999998 18.355423056811656 
Si 16.28257176 13.04802936 22.571642730385292 
Si 15.281925929999998 15.14564379 22.588486209577336 
Si 15.52397904 15.57726363 24.965763817837804 
Si 14.39719974 13.66105464 25.665251418874547 
Si 14.00638635 15.093189989999999 29.401259358843912 
Si 14.80036095 13.333772249999999 27.967113039359177 
Si 14.250524579999999 14.513200829999999 31.692524774181084 
Si 13.00992705 12.654365219999999 32.520029720142595 
Si 13.18947543 16.23911004 32.94619045289699 
