&CONTROL
  dt          = 30.D0,
  prefix = 'x2.66_y.66_z3.17_struc40-scf',
  pseudo_dir = './',
  outdir='./',
  wf_collect= .true.,
  verbosity= 'high',
/

&SYSTEM
ibrav= 6, celldm(1) =30.783621515, celldm(3) =2.1138013110639746, nat=  432, ntyp= 1,
  ecutwfc     = 12.D0, nbnd= 1728,
  degauss     = 0.05D0,
  occupations = "smearing",
  smearing    = "methfessel-paxton",
/
&ELECTRONS
  electron_maxstep=200,
  conv_thr    = 1.D-8,
  mixing_beta = 0.3D0,
  scf_must_converge=.false.,
/
ATOMIC_SPECIES
Si  28.08  Si.pbe-hgh.UPF
K_POINTS {automatic}
1 1 1 0 0 0
ATOMIC_POSITIONS (angstrom)
Si -0.006846149429999999 2.70871749 2.680986496153073 
Si 3.09990555 2.40148809 0.04177511449699404 
Si 1.2975913529999998 1.2327001379999998 1.2297867842918675 
Si 0.00014309168580000002 -0.000896383314 5.430489414022366 
Si -6.00936471e-05 2.71494027 8.145424216623336 
Si 2.71539639 0.0007333334459999999 8.144632238686118 
Si 2.71461447 2.7151357499999995 5.429766303731864 
Si 1.3578431759999998 1.3569618869999998 6.787182054297314 
Si 0.0001620012807 0.00038383312499999997 10.859876945697302 
Si 2.7138162599999998 2.71487511 10.865455225081174 
Si 1.341435888 1.3527672119999998 12.222457769766336 
Si 4.07438964 1.356188112 9.500601768670563 
Si 0.8332758539999999 0.5219853569999999 16.386161256299488 
Si 0.07130328479999999 2.8398845699999997 13.608246990778143 
Si 1.96007796 3.5546897699999995 15.010013505827706 
Si 3.67416063 1.67661567 14.936876065016945 
Si 0.895919049 3.526785 17.096668767452616 
Si 0.171198126 0.19638572399999998 21.479991179358198 
Si 0.793676493 2.2803556499999997 20.595730595544477 
Si 2.72088612 1.5430800239999998 19.52738679206299 
Si 3.7215482399999997 3.2968353599999998 18.291074798244928 
Si 1.029456324 0.887225076 24.843969118419633 
Si 0.690262686 3.88977507 22.30151333701504 
Si 2.97430965 0.14771804579999998 23.758511704729607 
Si 1.003332051 3.1932309599999997 24.580653671206882 
Si 3.2443163999999998 3.8979689399999997 25.098779411263152 
Si 3.35021769 1.55540178 28.47133137234054 
Si 1.376653239 2.4413171399999998 29.463094352675537 
Si 3.49796799 0.38115341999999997 31.82484142910138 
Si 1.5989221439999999 1.96626816 31.801254260101675 
Si 3.04404714 3.81800133 32.3946179041935 
Si 1.358151057 4.07131083 4.066083597315401 
Si 2.7147447899999997 5.43400191 2.6933861159440124 
Si 1.3051857509999998 6.75681507 1.2402167893867728 
Si -0.001361101176 5.4314769599999995 5.429766303731864 
Si 2.7146796299999996 5.430141180000001 8.145252047506549 
Si 1.3576069709999998 6.7875054299999995 6.787664127824314 
Si 1.355016861 4.072304519999999 9.502461195131854 
Si 0.0016856729099999999 5.43095568 10.85553828395429 
Si 1.353721806 6.76489491 12.226968600626133 
Si 3.51743454 7.528342049999999 14.900823851961924 
Si 2.7689090399999996 5.49474732 13.735135629849543 
Si 1.037075157 5.521853879999999 18.274202224799883 
Si 3.11779197 5.3678319299999995 19.366202064927787 
Si 0.869113854 6.86724498 24.813873956805413 
Si 1.6755079499999999 7.25256864 22.628290320675173 
Si 2.51465472 5.24632482 21.691690325358458 
Si 2.0634543 6.2725133699999995 28.163561859173598 
Si 3.8536112699999996 6.78155958 29.622488520996164 
Si 0.6176320919999999 4.6447677 29.16365782476105 
Si 2.80763037 6.04629414 25.924399193899507 
Si 0.540096579 5.67367668 31.252620152550897 
Si 2.79635769 6.27590169 31.66555056225082 
Si 4.06578852 9.61088823 1.3649119939103178 
Si 2.23422237 8.698631939999999 0.2564493428353221 
Si 1.3606369109999998 9.503634869999999 4.070043487001482 
Si 0.543965454 10.46033028 0.007687626535088934 
Si 2.7100044 10.865951279999999 2.743656054663236 
Si 1.345571919 12.174575849999998 1.4044661268007703 
Si 0.000255450006 8.14521177 8.144391201922618 
Si 2.7146633399999995 8.145048869999998 5.430868186079296 
Si 0.0006912466019999999 10.86068961 5.430282811082224 
Si 2.71498914 10.859875109999999 8.144907709272976 
Si 1.357235559 9.50229909 9.501979121604853 
Si 2.7147447899999997 8.14661271 10.862218445685594 
Si 0.572279103 10.23314994 16.407613528251044 
Si 1.6333331399999997 9.092833650000001 14.716671764647446 
Si 2.84578155 10.917965249999998 13.646881740584957 
Si 1.245653946 11.47084785 21.480025613181553 
Si 3.17348748 10.26778248 21.135756247255948 
Si 2.511918 8.83339911 19.376153439878024 
Si 2.25983025 10.75982193 17.987368476234142 
Si 3.23833797 9.00724599 23.070179575818532 
Si 2.77175979 10.03636674 25.152633910993863 
Si 0.761070429 9.00905418 25.753125356520634 
Si 2.1621716999999996 9.91077084 29.37959233103425 
Si 1.062554346 8.41775976 27.974003661592036 
Si 1.4581439639999998 12.008238659999998 28.60097471728052 
Si 3.24247563 8.430710309999998 32.631247138304396 
Si 1.2426810209999999 9.44424153 31.482018283756773 
Si 0.27136859399999996 11.66101731 32.18247111848959 
Si 2.7020874599999996 16.278727319999998 2.705393190148679 
Si 3.95762292 14.843643479999999 1.3060370427341224 
Si -0.0234452196 13.58696772 2.6987715659170837 
Si 1.3590698129999998 14.93560053 4.072453854636488 
Si 0.000167604552 13.57457103 8.145045444566406 
Si 2.71368594 13.57243704 5.431419127253012 
Si 1.357672131 12.21745113 6.787870730764458 
Si 1.358217846 14.93504667 9.503425342185857 
Si 2.7169276499999997 13.570074989999998 10.861288732454948 
Si 1.373809005 12.21184737 12.22948226973121 
Si 2.6401528799999996 16.26492969 13.63689593181136 
Si 1.3023252269999999 14.78082924 14.951923645824055 
Si 3.47174109 14.42497419 20.345224530620612 
Si 1.049240529 12.30867513 19.28855379325723 
Si 0.399768003 14.439455999999998 18.49158295165409 
Si 2.24171577 15.97115583 18.11312079913475 
Si 1.12702365 13.13835741 23.059711693517936 
Si 2.01419334 15.06585537 22.07307935286316 
Si 2.38770675 12.36523401 24.968481823679383 
Si 3.2420358 13.61102805 29.142102251339423 
Si 0.5639516549999999 12.377223449999999 26.433365536942755 
Si 0.7167404519999999 16.15883292 26.97724777687024 
Si 2.89675296 15.61178214 27.709069824681492 
Si 0.10600179929999999 15.94911546 34.111316167668306 
Si 2.9949816599999997 13.143537629999999 34.420497467592895 
Si 2.04051798 15.11892819 30.767344279977422 
Si 1.2818877929999999 13.92658164 32.826349181446474 
Si 6.789753449999999 4.06376856 4.071351972289056 
Si 8.132815079999999 0.012708448019999999 2.7094839283635186 
Si 4.07533446 1.353557277 4.068218494363549 
Si 5.46031026 2.70547578 2.6923393277139525 
Si 7.0576425 1.473726978 1.1277352620080383 
Si 5.430646169999999 -0.00177187959 5.4302139434355094 
Si 5.42916378 2.7147122099999996 8.144460069569334 
Si 6.787896389999999 1.357416378 6.786527811653525 
Si 4.08807324 4.08505959 12.246768049056541 
Si 6.779311559999999 1.342981809 12.219978534484614 
Si 7.3024812 3.5379925199999995 15.101710777428016 
Si 5.46834123 2.66967036 13.675909453675104 
Si 5.615847179999999 0.549489393 18.523158767672676 
Si 6.11756289 2.96003961 18.04383994654 
Si 4.46841216 0.32342491799999995 20.587741948525597 
Si 7.3579323599999995 3.76952229 20.078052495191848 
Si 4.51143405 1.6066696679999999 22.62088704865337 
Si 4.14274248 3.9738314699999995 22.827317819679976 
Si 6.5336583599999996 1.76524956 23.914393623067795 
Si 7.32680217 4.0296573 24.154397371867702 
Si 5.82154101 0.7984201409999999 25.91768459834485 
Si 4.50938151 2.625948 26.706115851755392 
Si 7.456340249999999 0.555112701 27.590479737039185 
Si 8.136871289999998 2.7512181 27.965291904282658 
Si 5.059462229999999 3.37725909 31.16657002798117 
Si 6.64231266 3.8704062599999998 32.724528365779136 
Si 4.90314339 1.2683915279999998 30.192092826971503 
Si 4.31339652 0.27326475 34.10346525594286 
Si 4.173335099999999 4.10701851 1.3497921020741572 
Si 4.0677596099999995 6.79249017 4.071696310522629 
Si 6.68448747 6.716920859999999 1.3751388394474156 
Si 5.41631097 8.15366628 2.710361990859128 
Si 8.160638399999998 5.42241972 2.691881357863301 
Si 4.07267919 4.072304519999999 6.787664127824314 
Si 5.4319656599999995 5.4319656599999995 5.428457818444291 
Si 6.78773349 6.787489139999999 6.787664127824314 
Si 8.145114029999998 8.14395744 5.429904039025294 
Si 6.7867723799999995 4.07391723 9.501875820134781 
Si 4.072923540000001 6.78778236 9.501875820134781 
Si 5.4273393 5.42867508 10.861047695691447 
Si 6.78517596 6.78125007 12.245321828475538 
Si 8.11602009 5.38425225 13.724495578432158 
Si 6.474965489999999 7.5612315599999995 19.721008180800705 
Si 4.3153187399999995 7.34871222 18.762611575298862 
Si 6.3368914499999995 4.68697509 22.124661220252296 
Si 6.536492819999999 7.018872299999999 21.990438176805807 
Si 4.88214558 7.2027864 25.593249114673004 
Si 5.49930852 5.099291279999999 29.63987760179157 
Si 6.635421989999999 5.59504485 25.906321436636958 
Si 6.1577991899999995 4.07613267 27.63892812650281 
Si 5.550426539999999 5.287701419999999 34.23741282880249 
Si 7.4202579 6.160747679999999 30.45172385508503 
Si 7.226423189999999 6.3627436799999995 32.829999166722345 
Si 8.146368359999999 10.84830921 2.692831731387961 
Si 6.78952539 9.502038449999999 4.070525560528483 
Si 4.88056545 11.35531917 -0.0004296204838811783 
Si 4.07041488 12.21960141 4.075242994328424 
Si 6.66849069 12.15672201 1.3633280380358852 
Si 4.07210904 9.50275521 6.7875952601776 
Si 5.429489579999999 8.145472409999998 8.14535534897662 
Si 5.42755107 10.859402699999999 5.430041774318723 
Si 8.14671045 8.146107719999998 10.860978828044733 
Si 6.788776049999999 9.50334165 9.503046570128927 
Si 4.08281157 9.50629014 12.220047402131328 
Si 5.42577546 10.859533019999999 10.861219864808234 
Si 4.77007038 8.60384043 16.773094129364708 
Si 7.83298134 10.28731419 17.08485796604109 
Si 5.42168667 8.20745586 13.662067056685496 
Si 6.4019699999999995 10.0409931 15.026576174862535 
Si 4.592053259999999 11.777344199999998 15.281386467706053 
Si 7.39210878 9.73729863 19.387757638349413 
Si 5.99595804 11.67240402 19.404940116204674 
Si 4.54546386 10.97524089 17.520204794746572 
Si 6.55172397 10.38120975 23.978716005099102 
Si 5.387575409999999 8.30470716 23.546915860199412 
Si 6.50363589 10.47937329 26.353134728520402 
Si 7.719830999999999 8.39091384 29.77458271876506 
Si 4.33517625 9.10213524 29.069860089935947 
Si 4.523244299999999 9.30633039 26.688038094492843 
Si 7.96908429 8.943486929999999 27.453915193604402 
Si 6.08617206 9.91049391 30.5432145237452 
Si 7.481068469999999 8.35061238 34.22133223329466 
Si 7.3458125999999995 11.97458352 30.294740054399412 
Si 5.44732713 9.51420708 32.9521703719938 
Si 7.839481049999999 13.69803294 -0.008015918606976785 
Si 5.42592207 13.587326099999999 2.7152102731878265 
Si 6.78405195 14.937473879999999 4.074829788448137 
Si 8.14477194 13.5755973 5.4298351713785795 
Si 4.07214162 14.9325543 6.787423091060814 
Si 5.42989683 13.57483167 8.144838841626262 
Si 6.78687012 12.217532579999999 6.787491958707528 
Si 8.1518418 13.564911059999998 10.857156673652081 
Si 4.073053859999999 12.21756516 9.503218739245712 
Si 6.78626739 14.93261946 9.504905996590217 
Si 4.0682646 14.949854279999998 12.220770512421831 
Si 6.80234562 12.23651043 12.229792174141425 
Si 5.42230569 16.2989595 10.854780739840432 
Si 5.31415638 14.04828423 15.619595480720788 
Si 5.923109159999999 14.154788249999998 13.402642631512109 
Si 7.58799603 14.28245298 16.239025529094036 
Si 4.227645959999999 16.18738929 16.637493732983927 
Si 7.85143791 15.99440166 13.573675432127482 
Si 7.36575156 15.29082027 18.357118871444097 
Si 4.4355878099999995 12.268650599999999 21.062790975561974 
Si 7.64439201 13.366564019999998 19.72321194549557 
Si 7.51838886 13.22337492 22.11357352913127 
Si 5.5241833499999995 12.41750862 23.14176749457822 
Si 4.5789072299999996 13.3066494 25.140375469878688 
Si 4.12207047 15.5232297 25.60440567344075 
Si 6.4733690699999995 15.9171219 29.55031522723941 
Si 5.818168979999999 13.55179761 29.071512913457095 
Si 6.283264769999999 12.828961439999999 26.777359432281504 
Si 7.65305829 16.27068006 31.799980208637457 
Si 6.639966899999999 15.89190498 33.97902141832982 
Si 12.193016129999998 1.4443691399999998 1.3593888086438177 
Si 9.498014819999998 1.358507808 4.074244413451064 
Si 10.58170707 0.261143361 0.12529263135879273 
Si 10.84927032 2.7390006000000002 2.728412201062989 
Si 8.14496742 0.00035437428899999995 8.14487327544962 
Si 8.14576563 2.71577106 5.431591296369798 
Si 10.86020091 0.001355701041 5.43069601696251 
Si 10.85979366 2.7150705900000003 8.144528937216046 
Si 12.22245216 1.333406547 12.222595505059765 
Si 9.50220135 1.3566083939999998 9.503459776009214 
Si 8.14786704 2.7158688 10.863354761856383 
Si 10.323070739999999 1.433513484 16.857801334823495 
Si 10.76397588 2.6178844499999996 13.51982093239677 
Si 9.0015282 1.595563146 14.864978241847044 
Si 12.17327265 3.3599753999999997 15.242097475255452 
Si 11.05939503 2.49347772 21.00718035084004 
Si 8.78218335 1.82851992 20.672965661334747 
Si 9.209388599999999 0.421730181 18.79053740604158 
Si 12.09482001 1.192548546 22.624778070692738 
Si 8.34885306 0.708137703 22.865504929783146 
Si 10.251411029999998 1.381181859 24.06628121789655 
Si 9.69942438 3.64723326 24.443779223361883 
Si 10.996206119999998 0.26464245299999994 26.011585634640017 
Si 9.23884092 2.72305269 30.056423562944005 
Si 11.128024799999999 1.345731561 29.495978653981695 
Si 10.119918149999998 3.5906417999999998 26.790031079276964 
Si 11.87770689 2.034621 27.342315172103614 
Si 9.08030664 2.20928238 34.40565648972593 
Si 8.25531588 2.27167308 32.16429005975697 
Si 12.21564294 4.07140857 4.070594428175197 
Si 9.70828614 4.178336129999999 1.1909351013979022 
Si 9.506713679999999 6.78709818 4.072006214932844 
Si 9.50301585 4.07178324 6.787526392530885 
Si 8.14527693 5.429733929999999 8.144769973979548 
Si 10.85886513 5.4296199 5.429249796381507 
Si 9.5021199 6.78685383 9.501841386311424 
Si 9.49604373 4.0905656100000005 12.230033210904926 
Si 10.8559818 5.43224259 10.858051953059368 
Si 9.6109371 6.828523649999999 14.907125241636297 
Si 11.15873145 5.6541612599999995 16.35403449910719 
Si 10.03226166 6.2734419 20.843654123716547 
Si 12.20458203 7.3528173 20.63140403654257 
Si 8.23381308 5.93014644 19.28183919770257 
Si 9.99384984 6.9082957799999996 18.10048358596265 
Si 8.98318566 4.61899692 17.250897862269657 
Si 8.77501575 7.597753739999999 22.288738388549508 
Si 10.86593499 4.51233 22.095840110102294 
Si 9.828359729999999 7.32683475 24.370297444317547 
Si 11.277208619999998 5.45607486 24.157806320380068 
Si 8.53462422 6.944606189999999 26.326448515418548 
Si 9.44520264 5.068128509999999 29.886630379969496 
Si 10.09259982 5.77576611 27.696708082096244 
Si 11.96331084 7.25253606 27.981613536553983 
Si 11.78381133 7.86582198 30.311406024904308 
Si 11.25031383 5.68009494 31.318044416929638 
Si 11.452879979999999 5.19714531 34.113588800009886 
Si 9.38289339 9.378397349999998 1.1989478520931303 
Si 10.84454622 8.13369474 2.6872844424451108 
Si 12.21631083 9.502673759999999 4.0656703914351136 
Si 9.502608599999999 9.502168769999999 6.7875952601776 
Si 10.85964705 8.1453258 8.14487327544962 
Si 8.14563531 10.860103169999999 8.144838841626262 
Si 10.85964705 10.86013575 5.430110641965437 
Si 9.50259231 9.484005419999999 12.216225247738675 
Si 10.857724829999999 10.860673319999998 10.864732114790671 
Si 11.815593119999999 10.03646448 14.847692462521714 
Si 9.265898609999999 8.505937529999999 16.55485255692657 
Si 10.929417119999998 8.18953686 13.569749976264758 
Si 8.174794409999999 10.84785309 13.598054579064401 
Si 10.00750086 11.78682498 14.846108506647282 
Si 11.2756122 9.64754073 17.34108004564225 
Si 9.07931295 9.60302016 21.10039271066807 
Si 11.45703393 9.64257228 20.919925042452814 
Si 11.432892149999999 11.281639499999999 19.199783396642285 
Si 8.46022779 11.13491547 22.732762540741014 
Si 12.17625372 10.335646619999999 23.100102568315968 
Si 10.47140748 11.78096058 23.742121204811564 
Si 11.773630079999998 8.644060439999999 24.67431367073855 
Si 9.9639414 12.11707215 25.9991205905847 
Si 9.67898043 11.1803157 29.710604674967325 
Si 11.81153691 9.32239233 26.892712740528232 
Si 9.807313050000001 10.37132172 27.52536537707066 
Si 11.268167669999999 10.4397723 34.39852868829098 
Si 11.9469231 11.80184436 30.258136900170673 
Si 9.75569004 9.05285799 30.80642666948788 
Si 10.427587379999999 11.07055368 32.21693937567018 
Si 12.21199398 12.27036105 1.2458088422999873 
Si 9.502673759999999 12.21828192 4.069010472300765 
Si 9.4340277 14.887170359999999 1.355091467488835 
Si 10.85482521 13.57432668 2.7045943254467915 
Si 9.502217639999998 14.93331993 6.786872149887098 
Si 10.8598914 13.57442442 8.14435676809926 
Si 12.242668049999999 12.227225129999999 12.232546880010004 
Si 9.5016312 12.21950367 9.499362151029702 
Si 9.515884949999998 14.92113501 12.244219946128105 
Si 10.86090138 16.291629 10.860359019224303 
Si 8.93325681 12.429009359999998 16.809146342419726 
Si 11.05524108 13.638199769999998 13.740713909233415 
Si 11.98052937 16.04978766 17.371347376373258 
Si 9.877148279999998 13.09929399 18.85217394985103 
Si 10.925198009999999 15.17910345 19.408039160306828 
Si 10.827083339999998 14.08785264 23.34196574357717 
Si 8.565917309999998 14.715555209999998 23.567162948333465 
Si 11.946304079999999 15.2296839 21.61156281840618 
Si 12.194645129999998 14.69084328 25.186998866704382 
Si 10.51139943 15.312306779999998 29.29739879468054 
Si 8.31852108 13.81520691 25.858871628050693 
Si 12.07699875 12.879753659999999 26.716755903172775 
Si 9.28305198 15.47188362 27.243386797598284 
Si 9.70224255 14.844425399999999 31.533944489379483 
Si 11.77462377 15.444255779999999 32.73651133630746 
Si 8.663755049999999 12.80130102 32.20388895661779 
Si 14.93325477 1.358022366 4.069733582591267 
Si 13.5746199 0.000164408454 8.145493084270049 
Si 13.574408129999998 2.7156896099999996 5.430420546375653 
Si 12.21736968 1.358066349 6.787905164587815 
Si 14.93087643 1.355269356 9.502151290721638 
Si 13.58094042 2.71265967 10.863836835383383 
Si 13.607509409999999 0.128125737 13.798907070707138 
Si 14.357305529999998 2.16570663 14.784196492250977 
Si 15.31457109 1.99888074 17.051457157384572 
Si 13.82193468 0.798817617 18.55562986309854 
Si 15.90754338 3.9780505799999997 19.48596290256424 
Si 15.39527175 0.532969704 23.553527154284005 
Si 14.025136139999999 2.4886721699999996 23.420337125538225 
Si 15.01850034 3.57782157 25.35073169676802 
Si 14.22548685 2.6551071 27.381259826320644 
Si 15.83335872 1.251814824 28.487308666378294 
Si 15.759613889999999 0.969118164 32.15223822158194 
Si 13.05060318 3.32324145 34.3607547840681 
Si 13.784532839999999 2.64362265 32.17740934645608 
Si 12.68256321 0.7830505259999999 31.186817116115225 
Si 14.954317739999999 4.07491092 1.1848919653987082 
Si 13.58600661 5.44485105 2.6825015843807916 
Si 12.26166219 6.91587063 1.1741727161876019 
Si 14.9305995 6.78770091 4.072247251696345 
Si 14.9323914 4.07238597 6.787560826354242 
Si 13.574880539999999 5.43001086 8.144563371039403 
Si 12.217516289999999 6.7875054299999995 6.787319789590742 
Si 12.217809509999999 4.074161579999999 9.503804114242786 
Si 14.93457426 6.787375109999999 9.501875820134781 
Si 14.937408719999999 4.085662319999999 12.213022902166454 
Si 12.225058559999999 6.7816899 12.218119108023323 
Si 16.1779248 8.03035098 13.549227417543847 
Si 13.256981189999998 6.613902899999999 16.846231570175465 
Si 13.430502269999998 5.26893534 13.58738009382366 
Si 14.76654291 6.604161479999999 14.978299954515695 
Si 15.955826939999998 7.780169159999999 21.47837278966041 
Si 13.82960727 6.47890767 19.132120933745323 
Si 16.07119272 7.459239869999999 19.118037499992216 
Si 13.630087349999998 4.194919349999999 19.931812047393684 
Si 14.63702112 4.35685824 22.044809183886876 
Si 13.927901129999999 6.659873279999999 22.222591013880265 
Si 13.243655969999999 6.80765616 24.415095848505306 
Si 15.060593699999998 5.950525229999999 25.582540195608907 
Si 14.1846804 6.55133301 27.708484449684416 
Si 14.561158589999998 4.52446605 28.76308915764637 
Si 13.60501704 8.03207772 32.06119519262542 
Si 16.27488288 5.3494568099999995 34.15886927772464 
Si 15.832544219999999 7.77559167 30.917854521871885 
Si 14.646208679999999 5.79006873 32.40877020559332 
Si 13.32539919 4.56763455 30.789932868099765 
Si 14.93843499 9.568143269999998 1.2252311894617056 
Si 13.581201059999998 10.87831539 2.6937270107952487 
Si 16.27328646 8.13731112 2.694174650498893 
Si 13.576086 8.14273569 5.429663002261793 
Si 14.93221221 9.502608599999999 6.7875952601776 
Si 13.575287789999999 10.85985882 8.145148746036478 
Si 12.217043879999999 9.501680069999999 9.502943268658854 
Si 13.575499559999999 8.14519548 10.861082129514806 
Si 14.92673877 9.50060493 12.216156380091961 
Si 16.2955386 10.85757822 10.86325146038631 
Si 13.4076474 8.89390017 16.49039243960183 
Si 13.68467514 10.905568559999999 13.639099696506223 
Si 15.230482109999999 11.89011987 15.212002313641229 
Si 15.30642609 10.99675998 19.44805126304793 
Si 15.31509237 9.294992549999998 17.825081866751503 
Si 14.42477871 11.028346289999998 23.444371934241577 
Si 15.62334804 10.106185680000001 21.632464149184024 
Si 15.355458989999999 10.655468189999999 25.631918298303177 
Si 14.063629409999999 10.581332399999999 29.437957661624758 
Si 13.50232488 10.94674968 27.130650459926706 
Si 15.17749074 8.412840179999998 28.764122172347083 
Si 13.11724557 8.76129957 34.29660457115357 
Si 12.21670179 14.93382492 4.067667553189833 
Si 14.93226108 12.214665539999999 4.072832626693418 
Si 14.82836346 14.859102689999999 1.1201701510164546 
Si 13.582422809999999 16.2909774 2.685452563042506 
Si 13.576265189999999 13.574180069999999 5.429525266968364 
Si 12.21756516 12.21748371 6.787491958707528 
Si 14.93234253 14.932668329999998 6.7875952601776 
Si 12.217532579999999 14.931153359999998 9.502151290721638 
Si 14.932505429999999 12.21958512 9.503322040715785 
Si 13.569586289999998 13.576167449999998 10.857776482472511 
Si 14.928318899999999 14.936056649999998 12.251451049033124 
Si 13.938310439999999 13.3646418 16.7321178795696 
Si 15.74373114 14.908282199999999 16.445938373647643 
Si 12.50345466 14.876842499999999 15.374736562827508 
Si 16.22619207 13.396309559999999 13.63303934359535 
Si 13.86880101 13.975924049999998 21.044093409478993 
Si 15.12000333 15.54807195 19.854473680133342 
Si 13.49118252 12.44538081 19.23518136705352 
Si 15.00577785 13.27235895 23.049278245040693 
Si 14.4415737 14.914244339999998 24.63116809007194 
Si 15.565078709999998 14.34585366 26.67911973424332 
Si 15.745783679999999 12.27317922 29.891175644652648 
Si 14.663541239999999 16.21464246 30.050741982090063 
Si 12.236445269999999 13.72463451 28.89886172314393 
Si 14.564563199999998 14.139377909999999 28.88718865702583 
Si 13.351821569999998 13.741022249999999 33.9967548373588 
