&CONTROL
  dt          = 30.D0,
  prefix = 'x2.66_y.66_z3.17_struc45-scf',
  pseudo_dir = './',
  outdir='./',
  wf_collect= .true.,
  verbosity= 'high',
/

&SYSTEM
ibrav= 6, celldm(1) =30.783621515, celldm(3) =2.119710052438847, nat=  432, ntyp= 1,
  ecutwfc     = 12.D0, nbnd= 1728,
  degauss     = 0.05D0,
  occupations = "smearing",
  smearing    = "methfessel-paxton",
/
&ELECTRONS
  electron_maxstep=200,
  conv_thr    = 1.D-8,
  mixing_beta = 0.3D0,
  scf_must_converge=.false.,
/
ATOMIC_SPECIES
Si  28.08  Si.pbe-hgh.UPF
K_POINTS {automatic}
1 1 1 0 0 0
ATOMIC_POSITIONS (angstrom)
Si 3.26070414 2.44955988 0.209075471137645 
Si 1.4047062479999999 1.292003883 1.2216879275953172 
Si 4.06753155 1.360110744 4.0737203351568985 
Si 0.000190606032 2.71539639 8.145679636399333 
Si 2.7151357499999995 2.7147610799999997 5.430925001981863 
Si 1.3576265189999999 1.356955371 6.787300946964724 
Si 2.7114379200000003 2.71797021 10.863231207033893 
Si 1.3475918789999999 1.363003848 12.242604183135072 
Si 1.3578203699999998 4.07354256 9.503264134068592 
Si 4.0725 1.358144541 9.502642592687017 
Si 0.339993477 0.832098087 16.06808779650582 
Si 0.01001983239 2.8137716999999998 13.737963687053705 
Si 2.36376045 2.14079922 16.417255932644583 
Si 3.96413892 2.75763636 20.378926168734008 
Si 3.28217436 1.415017818 18.58170473382991 
Si 0.902594691 1.2202627229999998 23.845538694398055 
Si 3.6849934799999997 3.95418573 23.979066501206656 
Si 3.22796124 1.64346552 23.7822105336308 
Si 4.00501053 0.22470426 25.459405421737205 
Si 1.4179532759999998 2.89155645 29.673317868516268 
Si 0.683795556 1.230268041 26.245033728049417 
Si 2.58059664 0.299807676 27.309492404152028 
Si 0.365373297 3.2314798799999997 27.48663169790122 
Si 3.3774056999999997 1.96633332 28.829851683640722 
Si 0.39706549199999996 1.2261043169999999 31.081592518860738 
Si 1.3607297639999998 4.06808541 4.069887496637179 
Si 2.71770957 5.42846331 2.6928867368090166 
Si 1.4276865509999999 6.8237181 1.2594189424646631 
Si 4.0726140299999996 4.072548869999999 6.786817525890165 
Si 2.7146959199999996 5.430206339999999 8.144781854403721 
Si 1.357572762 6.78770091 6.786990176273936 
Si -0.0017179271099999997 5.42966877 10.863093086726877 
Si 1.355912811 6.79099149 12.254482529538528 
Si 3.90710763 6.9706864799999995 15.027696583900905 
Si 0.32470694099999997 6.2550342 16.73617572154664 
Si 1.4269763069999999 4.19356728 15.32700328920656 
Si 2.75068053 5.40585279 13.71358545286522 
Si 1.8786442499999998 4.1454140399999995 20.32878849728687 
Si 2.24684712 8.112892409999999 20.103790517156312 
Si 1.9564615799999998 6.0878988 18.834119594903317 
Si 3.7760219999999998 6.1259033700000005 17.326191143046145 
Si 2.16065673 5.14052127 22.572621944930166 
Si 0.36657386999999997 4.947191549999999 24.17547357778471 
Si 2.52677448 7.459272449999999 22.355496822299575 
Si 2.2934691 8.11163808 25.985367550857614 
Si 1.319667561 7.8594363 29.600114105797303 
Si 3.6587665799999995 4.90975713 26.084883232063305 
Si 1.3329129599999998 5.00632425 26.3845352381365 
Si 0.7650908009999999 7.04646756 27.42775791703526 
Si 3.7337983199999996 4.189722839999999 33.11741678413656 
Si 2.5877316599999998 4.677461729999999 30.90279578142734 
Si 0.842253273 6.3135153 31.34243271866218 
Si 3.13494534 7.97361291 34.49737677154256 
Si 0.008409761370000001 8.145847080000001 2.6866091688550973 
Si 1.357274655 9.50018139 4.067884752185434 
Si 2.7198272699999997 10.87435692 2.6924033157344573 
Si 1.301012253 12.17460843 1.2519500868627234 
Si 2.71709055 8.146433519999999 5.429785509448973 
Si 0.000178794153 10.862106840000001 5.430027219986252 
Si 2.71497285 10.86024978 8.145196215324773 
Si 1.3573968299999999 12.21813531 6.787680777809021 
Si 1.356779439 9.500230259999999 9.502435412226491 
Si 2.7105745499999996 8.148372029999999 10.861711883656708 
Si 1.381150908 12.22566129 12.239013055152633 
Si 3.21582519 8.39801628 17.01504062141379 
Si 0.813296169 8.79721902 16.968804848639877 
Si 0.707595246 10.13280354 14.92614362816672 
Si 2.7646410599999998 10.89511038 13.765242447689547 
Si 0.532427247 9.65920437 19.361635577477674 
Si 0.797722929 12.054176459999999 19.3177823799998 
Si 1.029845655 8.28284598 23.97050304217161 
Si 0.622856295 10.581479009999999 23.95441202640414 
Si 2.39990796 11.717804249999999 22.961568729489798 
Si 0.837920133 11.133693719999998 26.280772357490044 
Si 3.35342682 9.0319905 29.141589216577902 
Si 2.85685875 10.10082627 27.02323806785947 
Si 0.48865113 10.5881742 34.18045972709225 
Si 1.101689442 11.67082389 30.555216028819274 
Si 3.271032 10.741039559999999 30.825275759114096 
Si 2.84332176 10.077906239999999 33.203362145177834 
Si 2.7198272699999997 16.282930139999998 2.712320264006296 
Si 4.07069181 12.219992369999998 4.069611256023146 
Si 3.95183997 14.839587269999999 1.3070497303394462 
Si 2.1932856 13.94937135 0.027348338740500536 
Si 1.3601547269999998 14.931479159999999 4.070267327481476 
Si 2.7147122099999996 16.290488699999997 8.144471083712933 
Si 0.000412091388 13.57486425 8.144574673943197 
Si 2.7144027 13.575711329999999 5.429647389141956 
Si 4.09050045 14.89588551 12.227307359132949 
Si 1.358690256 14.932603169999998 9.502366352072983 
Si 2.71699281 13.572583649999999 10.85684314283436 
Si 2.6921831399999996 16.1937261 13.554056498260683 
Si 1.395165195 14.65622703 17.125640457257585 
Si 1.071235287 15.1760898 14.875211764954232 
Si 1.91210391 12.41104149 17.26490025680739 
Si 2.6777013299999997 12.22854462 20.678094753732648 
Si 0.14110463159999997 15.735374369999999 20.570222793952436 
Si 3.75124491 14.31009711 20.31411321466632 
Si 2.14944921 15.79893795 19.336497681600594 
Si 0.264334572 15.393365819999998 22.901382805707176 
Si 1.7027448299999999 13.78484235 24.021055074539802 
Si 3.8891886299999996 14.42785752 24.405927310042436 
Si 0.988081353 13.45580064 26.281773729715916 
Si 0.9406774529999999 14.000212439999999 30.03315579837209 
Si 2.25202734 14.386301729999998 28.077268660782305 
Si 0.61900371 15.697825919999998 34.356321408001534 
Si 1.506396573 15.5778012 31.91594276347317 
Si 3.9294412199999997 15.91112718 32.20019435531398 
Si 5.44856517 2.70441693 2.716629617585224 
Si 6.60696336 1.264848453 1.2153516585109163 
Si 8.14286601 2.71795392 5.4307868816748455 
Si 5.42901717 -0.00016482222 5.430441580907303 
Si 5.430255209999999 2.7151357499999995 8.144816384480476 
Si 6.7878801 1.3577568389999999 6.7879224883463 
Si 4.07313531 4.07683314 12.233626363178974 
Si 6.7790183399999995 1.36405944 12.23939288599693 
Si 5.69174229 0.058283991 16.51953401999061 
Si 6.701233589999999 3.8728008899999997 15.347272444261293 
Si 7.291990439999999 1.92397932 16.69256423460605 
Si 4.0774358699999995 1.16118378 14.95929250185078 
Si 5.34134439 2.7089129699999996 13.66997396592463 
Si 7.61645466 2.85405687 18.916301177578383 
Si 7.42113756 3.52789272 25.11800655286814 
Si 5.89800627 3.50863794 23.351551416352056 
Si 5.031313109999999 1.5999875099999998 22.238163621488706 
Si 6.67979595 0.446609898 29.856430865543945 
Si 6.13598688 0.35876933099999997 26.366096177149743 
Si 6.562703429999999 2.56220523 27.051380080414166 
Si 4.6794654 3.7621917899999997 27.912732845048403 
Si 7.94588733 2.1292821899999996 28.850776910153787 
Si 4.71615048 1.3522459319999998 30.713570960814167 
Si 5.60915199 2.94674697 32.370565754019346 
Si 7.66437984 2.8953357299999998 34.43363424985425 
Si 4.64162373 0.414986121 34.46923475898787 
Si 4.32357777 4.27464261 1.3875704163226326 
Si 6.78905298 4.0696818299999995 4.07634462099022 
Si 4.0677759 6.78949281 4.071096049323578 
Si 6.715976039999999 6.700989239999999 1.3255578514797128 
Si 8.115401069999999 5.43089052 2.734668129681633 
Si 8.14475565 5.42989683 8.144954504787494 
Si 5.4307439099999995 5.42790945 5.429163968067397 
Si 6.78773349 6.787407689999999 6.787646247732266 
Si 6.78612078 4.07002392 9.503229603991839 
Si 4.07121309 6.78672351 9.50250447238 
Si 5.430222629999999 5.4312651899999995 10.858604176748829 
Si 6.789818609999999 6.766865999999999 12.239358355920176 
Si 7.997885009999999 5.22752616 13.707542689433229 
Si 7.48758447 5.869205549999999 16.835207981677765 
Si 5.86312938 4.12368318 19.93189979507376 
Si 6.38564742 7.918568999999999 19.85282591930658 
Si 5.854430519999999 5.98344732 18.508052080113135 
Si 6.51694482 7.36628913 22.1576740125746 
Si 4.58281683 8.101440539999999 23.313948162766703 
Si 6.7965138 5.0420970899999995 21.868657270141703 
Si 4.37813298 7.107343289999999 25.515206025772034 
Si 8.01525015 5.7790729800000005 25.672801296078337 
Si 4.7174211 5.312820599999999 29.80877935962311 
Si 5.30161308 7.547841179999999 29.095042673113202 
Si 6.31540494 7.455297689999999 26.852832139077353 
Si 4.98374631 6.32460879 34.130391115798616 
Si 6.41470878 4.870172429999999 31.35417294475862 
Si 8.119245509999999 10.85119254 2.7042436790534823 
Si 4.261740929999999 9.607597649999999 1.4009093849727912 
Si 5.45218155 8.137848689999998 2.7297959358516115 
Si 6.79102407 9.50093073 4.073064263698568 
Si 6.74075313 11.93809392 1.04897193667834 
Si 4.072304519999999 9.50251086 6.7878534281927925 
Si 5.43005973 8.14477194 8.144954504787494 
Si 5.42906604 10.85741532 5.430199870370024 
Si 6.78719592 9.50145201 9.503643964912888 
Si 4.03825842 9.51378354 12.222127847619815 
Si 5.4268506 10.86215571 10.860468800893557 
Si 6.800293079999999 12.218982389999999 12.218605779790883 
Si 7.90758954 8.19312066 16.063219055683476 
Si 8.10984618 10.80631359 13.548255445365973 
Si 5.3783064 8.15666364 13.539553866023907 
Si 6.45714423 9.79488378 14.888713024965135 
Si 4.793251049999999 11.70226359 15.251037120347258 
Si 6.68105028 11.653654229999999 20.21390693192555 
Si 8.038838069999999 9.70286157 19.589050662981027 
Si 4.43754261 11.15964369 19.493644060909087 
Si 4.31004078 8.86092921 19.21008307060336 
Si 8.135812439999999 11.94241077 23.918915107500794 
Si 4.4731362599999995 10.535752979999998 23.486633076614602 
Si 6.17967666 11.95039287 22.496932016684895 
Si 4.74776937 10.77853914 25.79652256108874 
Si 6.791301 9.759404159999999 26.451350936655935 
Si 7.9002753299999995 11.15518023 28.102475616812892 
Si 5.51971989 10.34564868 34.100315418945684 
Si 6.90656904 8.53597629 30.646858852524996 
Si 6.641547029999999 8.3768067 33.09469599363228 
Si 7.075203119999999 10.944615690000001 30.26606116607936 
Si 5.44100661 13.551260039999999 2.6709463260393793 
Si 6.788564279999999 14.936219549999999 4.0680919326459595 
Si 8.12618505 16.273205009999998 2.677334390238912 
Si 4.07109906 14.933303639999998 6.787957018423055 
Si 5.430271499999999 13.57457103 8.145368865708543 
Si 6.78784752 12.217109039999999 6.787646247732266 
Si 4.07170179 12.218672879999998 9.502124641535701 
Si 6.787554299999999 14.93283123 9.503229603991839 
Si 5.42957103 16.2901629 10.864923180794852 
Si 5.5251281699999995 13.512717899999998 13.713930753632761 
Si 6.91611498 14.816276279999999 15.1235866070474 
Si 8.089972379999999 16.2116451 13.624566914992819 
Si 4.27320909 12.47467023 17.504159158637442 
Si 7.45054101 13.921450290000001 19.601481490612546 
Si 5.3809290899999995 14.461333469999998 18.532602964685392 
Si 6.50207205 15.985002329999999 22.515716378439194 
Si 7.46819937 15.721055459999999 24.675503619262702 
Si 5.056367129999999 14.136804089999998 22.361919416575862 
Si 7.293603149999999 13.51517769 25.458438579588083 
Si 5.01246558 13.05267201 25.994828791888274 
Si 7.9762844699999995 13.59110538 27.68559400015909 
Si 6.2016029999999995 15.14403108 28.212074080430813 
Si 4.47654087 13.5542574 28.26690784231653 
Si 7.73196705 15.637634369999999 31.662906361018177 
Si 5.6212228799999995 14.234185709999998 31.716186269449956 
Si 5.05141497 12.274661609999999 30.283498854840246 
Si 9.50327649 1.35702216 4.068782534181044 
Si 10.858588199999998 2.71529865 2.6968991317278577 
Si 9.35326188 4.03281756 1.3609511801527974 
Si 8.14527693 0.000300917025 8.145230745401527 
Si 10.85995656 2.7146470499999995 8.145541516092315 
Si 9.487556640000001 4.049775449999999 12.248301645799518 
Si 12.19585059 1.3492778939999999 12.23849510400132 
Si 9.501908129999999 1.356041502 9.50284977314754 
Si 8.14721544 2.7169113599999997 10.861262992658903 
Si 9.200722319999999 1.056926151 15.429005135938553 
Si 10.64000898 2.4693196499999996 13.723840885661227 
Si 8.988903449999999 1.418279076 20.236765842736848 
Si 10.92239613 0.866002464 18.87976835637241 
Si 11.55171141 2.95950204 17.955778032506 
Si 9.81811332 2.7266527799999998 22.094932863112163 
Si 9.717082739999999 0.025789676399999996 24.38106565477939 
Si 9.428652 2.39466258 24.394808625327574 
Si 12.123637019999999 2.60969058 21.66565494890359 
Si 10.89537102 3.3635754899999997 26.032984526701696 
Si 11.51955495 1.520700822 27.31284182159719 
Si 9.90446661 0.865023435 28.790038505143098 
Si 8.220210929999999 3.82401234 30.41899487602384 
Si 9.62952399 3.0380361299999996 32.07647309030358 
Si 8.78459427 1.1548095029999998 33.27608248682224 
Si 11.0832273 2.0383025399999997 30.536500727218485 
Si 8.500007969999999 7.699256729999999 0.045803110912181894 
Si 12.12836112 6.813781199999999 1.3158652589348008 
Si 9.50110992 6.78892266 4.07054356809551 
Si 10.24660548 5.867918639999999 0.1046644609505105 
Si 9.50288553 4.07186469 6.787784368039284 
Si 10.86026607 5.43015747 5.43033799067704 
Si 9.500067360000001 6.787440269999999 9.502884303224295 
Si 10.860445259999999 5.43045069 10.868065417779487 
Si 12.230450549999999 6.796807019999999 12.22803249074479 
Si 9.38396853 6.81093045 14.783396290864736 
Si 10.81656 5.498445149999999 16.157313514838748 
Si 12.071443859999999 4.08126402 14.797380971950199 
Si 9.3721257 4.6814690699999995 17.904777109140003 
Si 11.288530169999998 7.73437797 19.989150662332275 
Si 10.269411479999999 5.614641719999999 19.87033266822097 
Si 12.210332399999999 4.15820169 19.864773325863542 
Si 9.593181 6.19026516 23.806692358049546 
Si 11.95619211 6.16289796 24.485104776039883 
Si 9.14157333 4.93629354 21.842207231347963 
Si 11.30161104 7.0263656999999995 26.558843065591848 
Si 9.035476560000001 7.73590923 29.819690863877444 
Si 11.64814821 4.384437210000001 30.15843091683643 
Si 9.592431659999999 5.39023068 29.34849343648924 
Si 9.82233243 5.2510163400000005 27.055489159547918 
Si 10.8012474 7.57667448 31.64688440540422 
Si 11.048464439999998 5.195206799999999 32.40602814284594 
Si 12.22056252 9.501403139999999 4.071406820014365 
Si 9.41998572 9.408484979999999 1.4173595135385058 
Si 12.10026087 12.137288039999998 1.3188590165893925 
Si 10.86189507 8.15508351 2.734274486806635 
Si 10.441792259999998 10.97807535 0.07089093817796685 
Si 9.505312739999999 12.21784209 4.072373662163484 
Si 8.14395744 8.1459774 5.431373892979667 
Si 9.50295069 9.502168769999999 6.787784368039284 
Si 10.86031494 8.14486968 8.14526527547828 
Si 8.14508145 10.85998914 8.144989034864247 
Si 10.85998914 10.858360139999998 5.429612859065202 
Si 8.14993587 8.14438098 10.860192560279522 
Si 12.22266393 12.22733916 12.233142942104413 
Si 9.47375901 9.50910831 12.18901350401251 
Si 10.855835189999999 10.863442619999999 10.860158030202767 
Si 9.502168769999999 12.21850998 9.501226859540093 
Si 11.59556409 9.94326939 15.001557315797953 
Si 10.84938435 8.22268701 13.52194352687925 
Si 9.877066829999999 11.84954148 14.714059896742246 
Si 11.04253488 11.225634479999998 21.51738279932093 
Si 9.789654689999999 9.201292469999999 21.173946655923373 
Si 10.35679104 11.72417364 19.181215926436828 
Si 11.69372763 8.673284699999998 17.77680864468883 
Si 9.51560802 9.882540269999998 17.684233508910747 
Si 8.45672544 9.73786878 24.787829958944204 
Si 8.62156395 8.18821737 22.997549069467706 
Si 9.742234499999999 9.67966461 28.50229937555011 
Si 11.73285621 10.38124233 29.620452321005548 
Si 12.073887359999999 10.560611519999998 25.963613602502452 
Si 10.267798769999999 9.144261179999999 26.293168655044813 
Si 8.79417279 12.13862382 31.68977076073297 
Si 11.05638138 11.24435169 31.82899603020602 
Si 11.60137962 9.31903659 33.152982763193414 
Si 9.36547938 14.68984959 1.2666840706137528 
Si 10.85863707 13.575287789999999 2.7097477732881066 
Si 8.14356648 13.57320267 5.4288531973766085 
Si 9.502869239999999 14.932049309999998 6.787300946964724 
Si 10.86002172 13.574945699999999 8.144747324326968 
Si 10.85943528 16.28848503 5.431132182442388 
Si 8.14631949 13.571703989999998 10.86026162043303 
Si 9.49672791 14.93911917 12.223716231150508 
Si 10.86181362 16.2906516 10.860468800893557 
Si 10.92777183 13.667016779999999 13.626604189521316 
Si 10.56266406 15.79466997 16.87132644196269 
Si 8.32200714 13.0276017 16.183107482174158 
Si 8.30760678 15.59150109 21.080853568993973 
Si 9.39744036 13.699124369999998 18.137509826463507 
Si 10.23723873 15.007944419999998 22.408742200654594 
Si 10.232156250000001 12.77140887 23.208838609126833 
Si 11.64252816 12.72957615 25.18837884929326 
Si 11.58530139 16.1160228 25.755120999060416 
Si 11.664014669999998 14.20383744 27.114984481795457 
Si 9.856525139999999 14.745007529999999 28.537071162841617 
Si 8.69069871 12.72874536 34.17793903148919 
Si 11.276475569999999 15.222728069999999 32.3408008278572 
Si 9.54532098 14.25011733 30.847547658620574 
Si 10.515814019999999 16.24701069 34.40014007540265 
Si 16.28582976 2.72315043 2.6707598636249066 
Si 12.222126359999999 1.4123283389999999 1.1997993119408115 
Si 14.932016729999999 1.357872498 4.066917910036316 
Si 13.574733929999999 0.000238563792 8.145403395785298 
Si 13.57496199 2.7157547699999998 5.42902584776038 
Si 12.2179887 1.357745436 6.786817525890165 
Si 14.932228499999999 1.355611446 9.503091483684821 
Si 13.574114909999999 2.71676475 10.86468147025757 
Si 13.478134229999998 3.38838516 16.59843524537402 
Si 14.57298513 1.81183896 15.103490102376437 
Si 14.800540139999999 0.6405228 17.557680777606496 
Si 15.87641319 3.44139282 20.733860827690727 
Si 12.76122762 0.731833137 20.411073670192195 
Si 15.051275819999999 1.295033823 19.885284191455554 
Si 15.795451889999999 3.0107666699999998 23.08946813378746 
Si 13.530327389999998 2.6022460499999998 23.58331729152644 
Si 13.50157554 0.453189429 24.542735474142688 
Si 14.891780429999999 0.180247221 26.41730428097626 
Si 14.535762479999999 0.534470013 30.220032573765973 
Si 14.327690309999998 3.58726977 27.319747836948032 
Si 13.75481988 1.404838197 28.06677151744902 
Si 13.66924851 2.70953199 34.105046039461016 
Si 12.62820348 0.774498276 31.766462061204113 
Si 14.930159669999998 6.788499119999999 4.066779789729299 
Si 12.218770619999999 4.07500866 4.0689206544880605 
Si 14.9781663 4.138718849999999 1.145542202336892 
Si 13.574668769999999 5.42557998 2.681339879142402 
Si 14.93226108 4.07235339 6.786817525890165 
Si 13.572860579999999 8.1448371 5.430096280139761 
Si 16.290325799999998 5.42989683 5.4287496071463455 
Si 13.575434399999999 5.430369239999999 8.145472455938807 
Si 12.21784209 6.78791268 6.787300946964724 
Si 13.57584165 8.14542354 10.85511663899665 
Si 12.21706017 4.07173437 9.502608062610262 
Si 14.933140739999999 6.78828735 9.502055581382193 
Si 14.94586323 4.07020311 12.217707997795273 
Si 12.732345449999999 6.92671977 16.563352687391724 
Si 13.63999167 5.44571442 13.606645805157374 
Si 14.84163981 6.844667039999999 15.134636231608752 
Si 13.53998736 7.37396172 20.84356288153891 
Si 14.328879479999998 5.21842005 19.899406992848032 
Si 14.46333714 5.4504711 17.469698142036723 
Si 13.43639925 7.515929069999999 23.24951503954331 
Si 15.413940089999999 6.95952783 24.38596892567849 
Si 12.97576692 4.10452614 25.28178270691345 
Si 13.639258619999998 5.04535509 29.017315470339433 
Si 14.94270297 7.92115911 26.624450211424882 
Si 13.14588339 7.1422690499999995 28.068463491209975 
Si 16.23062295 5.6940880499999995 34.331735993352524 
Si 13.342389659999998 4.678227359999999 32.682821238107834 
Si 15.08248746 5.210649719999999 30.917678244508412 
Si 14.79136887 7.01374095 32.771321824828924 
Si 15.09667605 9.52430688 1.1446824034257115 
Si 13.588189469999998 10.8517464 2.6836982833847163 
Si 14.932033019999999 9.50242941 6.786921116120428 
Si 13.57512489 10.86008688 8.144816384480476 
Si 16.2901629 8.14462533 8.144954504787494 
Si 12.21888465 9.501419429999999 9.502400882149736 
Si 14.90188023 9.50011623 12.217777057948782 
Si 16.2913032 10.85803434 10.866753274862825 
Si 15.17964102 11.85431445 14.854562779055204 
Si 13.47103179 10.7779527 13.65405560054093 
Si 16.17546501 8.198431199999998 13.657681258600123 
Si 13.5128808 11.13594174 21.475117985373753 
Si 14.558601059999999 9.41760738 20.113217228110216 
Si 13.5545832 10.08486207 18.02400946417236 
Si 14.69105505 11.24980884 23.562253944706363 
Si 13.643396280000001 9.44365509 24.628680835183967 
Si 15.34630401 10.114933409999999 27.489601284502086 
Si 12.56035563 8.256521339999999 30.13139386673787 
Si 16.2601893 9.78460479 29.598974613264417 
Si 13.269573359999999 11.175444989999999 27.951579181396912 
Si 14.52566268 9.30916485 31.152344646130153 
Si 15.659234909999999 11.27383659 32.19684493786882 
Si 13.44213333 8.325819 34.391852856981636 
Si 13.668580619999998 13.37672898 0.06655914004914884 
Si 12.218933519999998 14.93138142 4.068057402569205 
Si 14.9291334 12.221637659999999 4.070509038018756 
Si 15.03904203 14.94833931 1.2303998659604092 
Si 13.58476857 16.2917919 2.678722499324432 
Si 16.28209935 13.56401511 2.70149163193617 
Si 16.290488699999997 16.28899002 5.429750979372218 
Si 13.575434399999999 13.5741312 5.431926374207735 
Si 12.217043879999999 12.217516289999999 6.787266416887971 
Si 14.932179629999998 14.933108159999998 6.787300946964724 
Si 16.288794539999998 16.2929322 10.863714628108454 
Si 12.215985029999999 14.930355149999999 9.503056953608066 
Si 14.931348839999998 12.21938964 9.502953363377804 
Si 13.572828 13.571964629999998 10.860365210663293 
Si 14.914798199999998 14.94304506 12.23124378788293 
Si 12.259642229999999 14.87277 15.292335092145315 
Si 13.7425698 13.24003959 16.344949951921226 
Si 13.48124562 16.28297901 13.696872895716172 
Si 16.226208359999998 13.555804949999999 13.579712345289074 
Si 12.48234282 12.253452029999998 18.207778532658363 
Si 15.298329959999998 14.637004829999999 17.41054812055673 
Si 12.503959649999999 14.965069139999999 21.47180309800535 
Si 13.36260555 13.13392653 20.197367025160275 
Si 15.46624728 13.836937769999999 19.543022070667636 
Si 14.181715619999999 15.00950826 23.16008214074986 
Si 13.907212829999999 13.21110855 24.604716961916534 
Si 15.043733549999999 14.11981362 26.465404677894906 
Si 14.86990296 14.441280479999998 30.0720021347206 
Si 13.66597422 13.4905635 28.224573968215847 
Si 14.60468547 13.36281732 32.2942542843925 
Si 12.27534579 13.17219174 32.61821546450068 
