&CONTROL
  dt          = 30.D0,
  prefix = 'x2.66_y.66_z3.16_struc35-scf',
  pseudo_dir = './',
  outdir='./',
  wf_collect= .true.,
  verbosity= 'high',
/

&SYSTEM
ibrav= 6, celldm(1) =30.783621515, celldm(3) =2.110272343468375, nat=  432, ntyp= 1,
  ecutwfc     = 12.D0, nbnd= 1728,
  degauss     = 0.05D0,
  occupations = "smearing",
  smearing    = "methfessel-paxton",
/
&ELECTRONS
  electron_maxstep=200,
  conv_thr    = 1.D-8,
  mixing_beta = 0.3D0,
  scf_must_converge=.false.,
/
ATOMIC_SPECIES
Si  28.08  Si.pbe-hgh.UPF
K_POINTS {automatic}
1 1 1 0 0 0
ATOMIC_POSITIONS (angstrom)
Si -0.010242549269999998 2.71658556 2.7069680533653835 
Si 2.7236879999999997 0.00908050212 2.6928668801432973 
Si 1.364507415 1.409708907 1.307600211572552 
Si 4.07694717 4.001850269999999 1.17853425627679 
Si -0.000198262332 0.0005278171769999999 5.430257991289144 
Si 0.000176928948 2.7150543000000003 8.144854153718352 
Si 2.71502172 -0.000447994548 8.144957282727777 
Si 2.7161620199999996 2.71480995 5.429845475251443 
Si 1.357558101 1.357815483 6.787607637008461 
Si 2.71687878 2.7160317 10.863403594842197 
Si 1.350802638 1.3313719259999999 12.233369356047875 
Si 4.068362339999999 4.082485769999999 12.239282085921593 
Si 4.070871 1.35610992 9.501756907063491 
Si 1.65825684 3.35132541 15.027374855734564 
Si 3.62506257 1.603693485 14.950131227675014 
Si 0.534657348 1.89721485 17.696766135699015 
Si 1.93031613 2.57689881 19.563263700951037 
Si 2.1000579299999997 0.553366413 22.82592179580276 
Si 0.8960672879999999 3.8427132599999996 23.723316059485242 
Si 0.7446778019999999 2.3111111699999998 21.751076883235815 
Si 1.0811363489999999 1.4823932579999999 26.646748466000677 
Si 3.3236161199999996 2.22045732 26.944035023837344 
Si 0.277615809 0.641042451 28.69949702227479 
Si 4.04782065 0.7433322479999999 28.672477221805366 
Si 0.257373855 0.03293267849999999 34.18324459311919 
Si 2.3490017099999996 2.9885959799999995 34.228518228256895 
Si 2.33888562 2.74572837 31.73523692005438 
Si 0.398088504 2.5120809 30.243407046044474 
Si 1.35568638 4.0738032 4.068817561529291 
Si 0.673567065 4.848099479999999 0.15644980116846205 
Si 2.72888451 5.43616848 2.6857647290275417 
Si 1.387723923 6.8567379299999995 1.272776982723276 
Si -0.0008787526469999999 5.43051585 5.430601754653895 
Si 2.7146796299999996 5.42997828 8.144716648372452 
Si 1.357463619 6.78753801 6.787435755326086 
Si 1.356360786 4.07243484 9.501894412409392 
Si 1.3306551660000001 6.77813868 12.227972271221285 
Si 3.41716959 7.0462394999999995 15.173577414763164 
Si 2.4834104999999997 5.28157638 13.681266272042604 
Si 0.580937238 6.81058836 16.27592339651019 
Si 0.706718844 6.0246936 20.25948764358123 
Si 2.6527124699999995 4.81211487 19.77258121374792 
Si 3.99608361 5.975172 17.79432617861535 
Si 3.20825034 4.33634913 23.86236834052702 
Si 0.788307309 7.46301915 22.106768836743672 
Si 3.43723887 5.937493229999999 25.573347359565687 
Si 0.6606034829999999 4.7744361 29.390186374732497 
Si 2.8362681899999997 5.6948210999999995 29.165227628839443 
Si 1.626424551 7.521972659999999 25.967850196953936 
Si 3.9447863999999995 4.47256611 27.482196571355033 
Si 2.52263682 7.872859259999999 28.158826002194424 
Si 3.5026920899999996 6.2485507799999995 31.378135536751046 
Si 1.6176409829999998 5.12644671 32.21739941545413 
Si 3.97640529 9.49925286 1.341766852395154 
Si 1.358310699 9.50451453 4.070123862315344 
Si 2.70247842 10.88427753 2.705259549442571 
Si 0.000498006477 8.144609039999999 8.144785401045402 
Si 2.71583622 8.14594482 5.430223614952669 
Si 2.7147936599999998 10.8598914 8.144957282727777 
Si 1.354461372 9.50107734 9.502306928447094 
Si 2.7158688 8.14799736 10.865156788002427 
Si 0.48469428899999994 10.559536379999999 16.413635000429437 
Si 1.6419342599999998 8.98773057 14.951471904797543 
Si 2.7865836899999996 10.73551725 13.690582259227357 
Si 3.17845593 9.42321114 19.75979321657918 
Si 3.6595484999999996 11.746099979999999 19.27714945246878 
Si 1.054596681 9.3913479 18.625030349536136 
Si 1.571592411 10.781862299999998 23.085360007180338 
Si 2.67333561 9.01242621 22.04300073258236 
Si 1.74560382 9.89400843 25.25687880597592 
Si 1.617328215 9.223495739999999 29.888127608574315 
Si 1.016043138 11.41132419 28.925624563607997 
Si 3.75334632 10.95774543 25.877337303014997 
Si 0.1275788817 10.84565394 26.675624588639764 
Si 2.16279072 8.693402849999998 34.27358560537575 
Si 0.371095974 10.411232219999999 34.206758007268164 
Si 3.1791726899999997 8.55169614 32.03324538095702 
Si 1.352332269 12.30092109 1.1853270203642696 
Si 1.356882066 14.93038773 4.067339379060861 
Si 0.00043105294799999997 13.575010859999999 8.145163540746628 
Si 2.7166832999999997 13.574473289999998 5.431289281383397 
Si 1.357620003 12.21743484 6.787504507999036 
Si 4.06275858 14.933173319999998 12.230275485765116 
Si 1.35544203 14.93165835 9.501894412409392 
Si 2.71402803 13.576835339999999 10.863747358206949 
Si 1.3613846219999999 12.19878279 12.23873206453799 
Si 2.60302797 16.119606599999997 13.714508189414024 
Si 3.6894732299999995 12.274466129999999 15.188978013504007 
Si 1.6516756799999999 12.66523065 16.419272719611353 
Si 1.0502765729999999 14.55892686 15.122184791732888 
Si 1.5479409599999998 14.978215169999999 19.505992724383518 
Si 1.5613443719999998 12.75997329 18.780823906441288 
Si 3.7621917899999997 15.771342689999999 18.700039515724804 
Si 1.069143651 16.22917314 24.849416089736557 
Si 2.1247046999999997 13.107080609999999 23.171335224704563 
Si 1.2167717759999999 14.85265185 21.871944082282265 
Si 1.5202430729999998 13.9543398 25.327590930105202 
Si 3.3328525499999997 13.18752063 26.64829540114206 
Si 2.17551321 15.569933129999999 29.347903480868126 
Si 2.6484444899999997 13.213405439999999 28.868044200012204 
Si 2.69889462 13.763339549999998 34.26990733737292 
Si 2.17792413 15.485469479999999 32.834007762808 
Si 0.5448320819999999 14.820658289999999 30.968644616659656 
Si 3.68872389 12.293672039999999 32.77006777696431 
Si 6.788385089999999 4.07267919 4.066170583620708 
Si 4.07357514 1.3564911059999998 4.070467625680095 
Si 5.43310596 2.7000023399999997 2.67564777320292 
Si 6.81718581 1.231023897 1.1712224095085362 
Si 5.4295873199999996 -0.00041136485399999995 5.431083023364546 
Si 5.430336659999999 2.7147122099999996 8.144888530054827 
Si 6.78781494 1.357421265 6.78740137898961 
Si 8.14627062 2.7128551499999998 10.862131670392618 
Si 5.433382889999999 0.00192184533 10.864159874244649 
Si 6.79037247 1.3421656800000001 12.247669912021516 
Si 6.93624942 3.64272093 15.099668291341699 
Si 5.00779035 0.320800599 16.544918229427847 
Si 5.3429571 2.6359663499999995 13.64410545231302 
Si 7.367494589999999 1.99744722 21.338595221871092 
Si 5.0556177899999994 2.3475356099999996 21.334745072185882 
Si 4.0992318899999995 1.7203543199999998 19.277458839497054 
Si 5.87252871 2.1695347799999998 17.753624596228832 
Si 6.75075519 2.9511452699999996 25.017447622426847 
Si 4.4043598799999994 2.5292668499999995 24.841578285020237 
Si 4.3554898799999995 0.944305236 23.1324899644877 
Si 7.96494663 1.473696027 23.61695567443128 
Si 8.04235671 0.427990428 28.147069295119937 
Si 7.704420659999999 2.61687447 27.180166079084803 
Si 4.708722239999999 1.8319734 30.67403941306805 
Si 6.373869749999999 3.5339363099999996 30.491191679356994 
Si 4.07287467 6.78361212 4.0714301631013985 
Si 6.84199548 6.8968764899999995 1.0997196296403284 
Si 4.07253258 4.07246742 6.78774514235436 
Si 5.429456999999999 5.43139551 5.429295453867841 
Si 6.78778236 6.787440269999999 6.787298249980185 
Si 6.78616965 4.0720927499999995 9.502100670428243 
Si 4.0726140299999996 6.785387729999999 9.502375681120045 
Si 5.42981538 5.4319982399999995 10.860412853568864 
Si 6.764878619999999 6.786511739999999 12.231272399522894 
Si 5.26724118 8.01078669 13.718908360482839 
Si 7.99522974 5.2804686599999995 13.550429935418375 
Si 6.10993917 4.51426851 17.227494766477427 
Si 5.443694460000001 6.60197862 21.479435072409576 
Si 4.818891509999999 7.70342697 19.298875297121043 
Si 8.02605042 5.03419644 18.561846643094903 
Si 7.6178555999999995 5.908545899999999 22.18971893665809 
Si 7.753258079999999 5.07692511 24.4151742073831 
Si 4.12583346 4.58912106 21.658020140397717 
Si 5.0142900599999995 7.6544266499999996 25.27272629709094 
Si 7.2428598 7.061340329999999 25.691395699021182 
Si 7.31838024 6.31721313 27.869961646794156 
Si 6.2501472 4.237599149999999 28.2194658597365 
Si 5.63322861 5.289672509999999 34.2134613928808 
Si 5.66284383 5.436966689999999 31.82750300715355 
Si 7.56877383 7.021771919999999 31.32241149532491 
Si 5.43106971 8.14205151 2.6854965936030357 
Si 6.785697239999999 9.50400954 4.067408131733811 
Si 4.07093616 12.21828192 4.0733552379440034 
Si 4.0721742 9.50288553 6.787573260671986 
Si 5.4301086000000005 8.14506516 8.145163540746628 
Si 5.42953845 10.8610317 5.430704883663321 
Si 6.786576899999999 9.501614909999999 9.501103756670465 
Si 4.09030497 9.49402377 12.22639095974343 
Si 5.4315095399999995 10.85915835 10.861616025345493 
Si 6.776965799999999 12.21696243 12.25430454496121 
Si 8.053499069999999 10.73471904 13.716914532967282 
Si 6.80061888 9.24094233 15.209844449744393 
Si 7.361613899999999 10.15448553 19.103617705942476 
Si 4.9549293 11.837112209999999 17.194665365143706 
Si 6.77787804 11.48169699 20.928760538414952 
Si 5.92073082 9.63776673 17.38108823784817 
Si 6.29908236 10.10051676 22.7787918384954 
Si 4.75236315 8.30941497 22.97470258006699 
Si 5.352437879999999 11.6297568 24.24666140598216 
Si 4.3403076 9.044012519999999 27.142283356289244 
Si 7.504509779999999 8.19887103 29.273650594081907 
Si 7.334328149999999 10.99441422 27.21034850250994 
Si 5.929364519999999 9.7829595 28.658107913158773 
Si 5.63374989 10.87743573 30.70470310520384 
Si 7.431677189999999 8.33134131 33.32218611709089 
Si 5.03505981 11.000539259999998 34.29531145002802 
Si 7.825830029999999 11.70009702 31.119625486458297 
Si 5.33966652 9.45191412 32.608808382559616 
Si 4.15781073 14.985741149999999 1.292371494514083 
Si 5.43035295 13.5654975 2.699542764686762 
Si 6.6966561 12.21714162 1.1428413061146936 
Si 6.78791268 14.932098179999999 4.072770840223927 
Si 4.07246742 14.932309949999999 6.787573260671986 
Si 5.43012489 13.57505973 8.144751024708928 
Si 6.78709818 12.217939829999999 6.787710766017885 
Si 4.07132712 12.215903579999999 9.50247881012947 
Si 6.78498048 14.9301108 9.501138133006942 
Si 5.24769318 13.558883759999999 13.720592800970119 
Si 6.47882622 14.93815806 15.274437585981106 
Si 6.7699611 13.471699679999999 17.23701701168103 
Si 5.080297139999999 13.02978456 20.667431628531244 
Si 7.682380289999999 16.21518003 20.04439490625653 
Si 5.87855601 14.727707549999998 19.205406038245247 
Si 4.438845809999999 13.3574742 22.92850078384446 
Si 7.72442478 15.40571364 23.698152581185468 
Si 5.382818729999999 15.24910158 23.961097178883506 
Si 6.73985718 12.71740752 25.799578029908318 
Si 5.27273091 14.47868232 26.274865258013048 
Si 5.931221579999999 15.66179244 28.2559047764001 
Si 4.777531199999999 16.13364858 32.00488490336507 
Si 7.51830741 14.0945967 34.282832839887554 
Si 4.36065381 12.858739559999998 30.498616968035616 
Si 7.7894707499999996 13.90454127 31.934757176955863 
Si 5.95042749 14.60015685 30.42632353242848 
Si 5.7811581 15.88162599 34.19702950404571 
Si 12.079882079999999 1.2673408229999998 1.2933855964400984 
Si 9.501191369999999 1.3618049039999998 4.073423990616954 
Si 10.85365233 2.71003698 2.7052389236406857 
Si 9.5327451 4.00660695 1.2258292199992322 
Si 8.14488597 3.66161733e-05 8.145438551438428 
Si 8.1454887 2.71265967 5.43063613099037 
Si 10.858278689999999 9.68108184e-05 5.429570464559642 
Si 10.86008688 2.7146959199999996 8.145129164410154 
Si 9.500099939999998 1.356222321 9.502513186465945 
Si 9.858479939999999 -0.00235279728 16.000947081045865 
Si 8.99880777 2.0979890999999995 15.210256965782094 
Si 10.76698953 2.67208128 13.573874596894393 
Si 10.5300189 3.5397518399999996 21.09029494351144 
Si 10.56046491 2.41432461 18.99045080626645 
Si 9.712749599999999 0.0275128326 18.45428308626431 
Si 9.45522099 3.5776098 17.209997211211604 
Si 11.357013330000001 1.7367420599999999 22.406324232787693 
Si 10.16310294 1.8752233499999997 24.374747635688383 
Si 11.16133785 0.0823106007 25.75337623368579 
Si 11.39065218 1.519325946 29.926010331369877 
Si 9.838769039999999 3.66982749 27.205604568076378 
Si 11.901131909999998 2.81746953 28.043390264311036 
Si 8.50311936 2.17109862 34.193660623071146 
Si 10.24924446 0.31685841899999995 34.05921477111703 
Si 9.152341019999998 0.7756793009999999 30.252104259172675 
Si 8.29180548 2.5699104 31.71818625716273 
Si 11.53574721 2.17886895 32.09570718433228 
Si 10.117898189999998 4.071538889999999 32.12503019934554 
Si 10.85844159 8.126250209999998 2.703884495983567 
Si 12.21792354 4.06945377 4.0701926149882945 
Si 8.150440859999998 5.439670829999999 2.672474837346268 
Si 9.505752569999999 6.7855506299999995 4.071223905082547 
Si 9.50278779 4.0721742 6.787538884335511 
Si 8.145097739999999 5.42975022 8.145232293419578 
Si 10.8592398 5.4312326099999995 5.429398582877266 
Si 10.85894658 5.43224259 10.860103466540586 
Si 8.14625433 8.14853493 10.860378477232388 
Si 9.501777809999998 6.786609479999999 9.501310014689317 
Si 9.49698855 4.07683314 12.20927154417883 
Si 9.51604785 6.586454249999999 14.70049027219284 
Si 10.801165949999998 5.1936592500000005 16.101188478207256 
Si 12.068853749999999 5.34859344 21.465684537819534 
Si 8.276949 4.144909049999999 20.780839162562597 
Si 9.21973275 7.142969519999999 18.25558786143824 
Si 11.51209413 6.824972429999999 17.62361329168 
Si 11.45397141 5.945116949999999 24.860004001370893 
Si 9.113473079999999 7.788672539999999 22.11154714751371 
Si 11.286461339999999 7.107652799999999 22.805124112235323 
Si 9.92168514 4.1910912 24.931266146883775 
Si 9.520983719999998 5.729372189999999 28.208465432064468 
Si 11.05177131 7.041010409999999 26.914436998132285 
Si 9.589955579999998 5.9089857299999995 30.59236123760321 
Si 11.561387669999998 7.1761848299999995 30.59308314066919 
Si 11.41215498 4.9273503299999994 34.27949833524947 
Si 9.440788049999998 9.45427617 1.3346784518139883 
Si 8.13617082 10.875383189999999 2.691031183775527 
Si 11.47037544 10.05146757 0.17880988922869076 
Si 12.20114484 12.1339323 1.298459543703823 
Si 12.217597739999999 9.50278779 4.067236250051436 
Si 8.14600998 8.143973729999999 5.429673593569068 
Si 9.502869239999999 9.502250219999999 6.787091991961335 
Si 10.86033123 8.14540725 8.145026035400727 
Si 8.14491855 10.86013575 8.144922906391303 
Si 10.85976108 10.85912577 5.429467335550217 
Si 9.471967109999998 9.51088392 12.208687146458754 
Si 10.861357499999999 10.860608159999998 10.861822283364344 
Si 11.61789768 9.87573105 14.836483059288334 
Si 10.79816859 8.13478617 13.494155872608635 
Si 8.624626469999999 8.15052231 16.195001500447805 
Si 9.76139154 11.67453801 15.139372959970439 
Si 8.65409508 12.00175524 17.37857876528549 
Si 9.10031076 8.73275949 19.90046118543529 
Si 10.94759676 10.13133744 19.494579780673785 
Si 9.9079038 11.40726798 22.815987034561456 
Si 8.47586619 9.62061336 23.46542478324904 
Si 11.74605111 10.62477783 21.612608999914112 
Si 8.31469293 9.23353038 25.761489049093907 
Si 9.50422131 9.515314799999999 28.890079431692744 
Si 8.848956059999999 11.75883876 28.879216509366614 
Si 11.71573542 11.16383022 25.929898721485426 
Si 10.42441083 9.27915867 26.74802115325632 
Si 11.278560689999999 9.47243952 30.361214751144644 
Si 8.73813519 10.421999909999998 33.04844734973967 
Si 10.983369599999998 10.810630439999999 32.38690913061285 
Si 9.50269005 12.22217523 4.070811389044846 
Si 9.380254410000001 14.94381069 1.2940387468331251 
Si 10.85085045 13.56803874 2.6902027140664773 
Si 8.13411828 16.2952128 2.7156858922954688 
Si 8.14410405 13.57532037 5.4306705073268455 
Si 9.502282799999998 14.932863809999999 6.787504507999036 
Si 10.860038009999998 13.57533666 8.144647895699501 
Si 9.50242941 12.21692985 9.502788197157745 
Si 8.142100379999999 13.57911594 10.863575476524572 
Si 9.48783357 14.93024112 12.248804331125195 
Si 10.86285618 16.2909774 10.863781734543423 
Si 11.809728719999999 15.03840672 14.967250643239614 
Si 10.67122062 13.41836622 13.664524996179232 
Si 8.19196407 16.192048229999997 13.97116191753712 
Si 8.86785246 12.645291689999999 21.124808785332444 
Si 10.15181397 12.3530328 19.11468688628746 
Si 11.42881965 14.2633611 18.419631739097415 
Si 8.86136904 14.947394489999999 21.685314951558947 
Si 11.14983711 15.644411009999999 22.1163942109567 
Si 11.93343498 14.675563259999999 24.212525703862386 
Si 10.55728836 12.75565644 24.601184564049866 
Si 8.66230524 13.95557784 25.351104344254168 
Si 9.611784179999999 15.193520099999999 27.140014518081887 
Si 10.57624992 13.421526479999999 28.56333235349692 
Si 9.6783777 15.32833614 31.72880854513354 
Si 11.42321589 14.17112712 30.659910738776784 
Si 13.16533365 3.1123674 0.18400346614334884 
Si 14.932928969999999 1.3586006609999999 4.0710863997366475 
Si 13.574603609999999 0.00029869669799999996 8.145060411737203 
Si 13.57554843 2.71528236 5.430704883663321 
Si 12.217174199999999 1.357802451 6.78726387364371 
Si 16.2927693 0.00187494642 10.861100380298364 
Si 14.93219592 1.3554909 9.503063207849547 
Si 13.57212753 2.7173837699999996 10.862131670392618 
Si 12.209175809999998 1.353907512 12.224190874209024 
Si 14.94006399 4.075318169999999 12.236531979003583 
Si 16.201985129999997 2.5547118299999996 13.653730826526049 
Si 12.301312049999998 3.92030253 14.892688369425123 
Si 13.445293589999999 -0.01354606353 13.656240299088733 
Si 14.81277393 1.15285959 15.105306010523616 
Si 14.115610799999999 0.185466537 19.895510992982878 
Si 13.098560939999999 2.40655428 19.321735560876984 
Si 13.54614498 2.38692483 22.99343768344592 
Si 15.038357849999999 1.007841123 21.89645441018901 
Si 13.92325848 2.62721862 25.265472890094696 
Si 16.12382571 3.2250779099999995 25.79607164358786 
Si 12.99656925 1.131035877 26.814848751363918 
Si 15.689192219999999 1.547409906 32.36844903792572 
Si 13.733040149999999 2.8069624799999997 32.31427193164097 
Si 16.28555283 8.13270105 2.712372013459269 
Si 14.97176433 4.12534476 1.3046988487740536 
Si 13.58729352 5.44345011 2.703667925063774 
Si 12.254331689999999 6.757401509999999 1.2576788957434124 
Si 14.93144658 6.788499119999999 4.074730291403008 
Si 14.93261946 4.0726629 6.78726387364371 
Si 13.574750219999999 5.430255209999999 8.144751024708928 
Si 12.217874669999999 6.78708189 6.787917024036736 
Si 16.292606399999997 5.42953845 10.858419026053307 
Si 12.216685499999999 4.07228823 9.502341304783569 
Si 14.932098179999999 6.78613707 9.502341304783569 
Si 12.227778990000001 6.78818961 12.220856369570939 
Si 14.607096389999999 7.137382049999999 15.152092204466227 
Si 16.18646076 8.10909684 13.620935801528805 
Si 13.62427182 5.474026439999999 13.649536913476089 
Si 13.316390819999999 4.82649894 16.92371108104697 
Si 16.15622652 4.5241728299999995 16.32157517134912 
Si 16.20625311 7.33069548 18.457720719911826 
Si 15.56647965 4.1873445 20.80208373850421 
Si 14.2327359 7.86100014 19.596780629014255 
Si 12.903211259999999 5.93775387 19.347036544522656 
Si 14.96770812 4.34027502 18.477590242394434 
Si 16.077725009999998 5.93373024 23.587323272389746 
Si 14.06232621 4.72276422 22.62248263654312 
Si 13.600830509999998 5.01873723 25.083347059449615 
Si 15.59143593 6.720977069999999 25.790227666387093 
Si 15.59397717 4.904821259999999 27.435479130085373 
Si 12.687564239999999 6.783367769999999 28.549409937224507 
Si 13.48162029 4.57574697 28.630641220315166 
Si 14.00967693 4.843065869999999 31.19415338393631 
Si 12.630500369999998 6.3371032199999995 32.47828143296366 
Si 16.012076309999998 6.074019719999999 31.12271935674105 
Si 14.97469653 9.50578515 1.3451357333697138 
Si 13.584051809999998 10.86516936 2.7111413406134606 
Si 16.289006309999998 10.86007059 5.430395496635044 
Si 13.576428089999999 8.144266949999999 5.429639217232593 
Si 14.932375109999999 9.502673759999999 6.787676389681411 
Si 13.574457 10.85995656 8.144819777381876 
Si 12.216718079999998 9.50169636 9.502341304783569 
Si 13.5752715 8.1425565 10.861169132971314 
Si 14.928156 9.505329029999999 12.221715777982816 
Si 16.2930951 10.86096654 10.862750444449171 
Si 12.786493409999999 8.49319875 16.369977053106062 
Si 13.50791235 10.775134529999999 13.64328042023762 
Si 14.79288384 12.01495014 15.182755896602014 
Si 16.25557923 11.251877669999999 19.606749766592035 
Si 14.05106982 11.708372339999999 18.925995175375633 
Si 13.04281656 9.58716999 18.55239315056425 
Si 15.006559769999999 8.602488359999999 21.71291914974845 
Si 12.87867852 8.870084189999998 22.767447647458614 
Si 14.246680139999999 11.96736705 23.044142779746693 
Si 13.427684099999999 10.20403971 24.609228626785036 
Si 15.885926549999999 10.80240399 21.87988501600801 
Si 14.865227729999999 9.03809925 26.220310012027063 
Si 13.042034639999999 10.49737374 29.2094699738829 
Si 14.185071359999998 8.59546737 28.426514534326024 
Si 15.73364763 8.3038275 30.28417738110394 
Si 14.197370309999998 11.49609735 30.983460817680424 
Si 15.11498601 9.755445689999998 32.26157300782464 
Si 13.37812992 8.324434349999999 34.183760238166315 
Si 12.21938964 14.93200044 4.068026905790363 
Si 14.932668329999998 12.216620339999999 4.072736463887452 
Si 14.914863359999998 14.97692826 1.1509163075526947 
Si 13.57092207 16.28639991 2.6885732757175576 
Si 16.277521859999997 13.580191079999999 2.682794613556093 
Si 13.57499457 13.57357734 5.429914227924393 
Si 12.21777693 12.217043879999999 6.787813895027311 
Si 14.9325543 14.932505429999999 6.7872294973072345 
Si 12.21702759 14.93051805 9.500966251324565 
Si 14.93133255 12.21689727 9.502100670428243 
Si 13.5725022 13.57813854 10.860825369606564 
Si 12.21894981 12.21790725 12.241172784427722 
Si 14.91730686 14.93457426 12.233850624758526 
Si 15.36182838 15.34816107 16.2627916359767 
Si 13.27631742 13.78601523 16.496069455296727 
Si 16.096458509999998 13.385541869999999 13.587212615446731 
Si 13.113466289999998 12.476918249999999 21.01219190704002 
Si 12.52249767 14.742482579999999 20.438278969588225 
Si 15.985214099999999 16.10973486 18.436751154662016 
Si 15.67492218 15.549554339999998 23.274223599774537 
Si 14.28168735 13.941438119999999 24.26264640244308 
Si 15.709408109999998 13.07373498 26.0251899261944 
Si 15.73703595 12.905475569999998 29.933882512422677 
Si 12.56081175 12.33850212 27.79550250198909 
Si 14.576748119999998 13.70725308 27.981719116674707 
Si 14.324106509999998 16.04493324 28.293615617513286 
Si 13.47453414 13.51589445 34.272588691617976 
Si 12.89423547 15.997708529999999 30.17805763040531 
Si 12.57511437 12.773200769999999 32.18075424077168 
Si 14.75781147 15.72315687 31.65345561558012 
