&CONTROL
  dt          = 30.D0,
  prefix = 'x2.66_y1.33_z3.15_struc20-scf',
  pseudo_dir = './',
  outdir='./',
  wf_collect= .true.,
  verbosity= 'high',
/

&SYSTEM
ibrav= 6, celldm(1) =30.783621515, celldm(3) =2.1062332589269452, nat=  432, ntyp= 1,
  ecutwfc     = 12.D0, nbnd= 1728,
  degauss     = 0.05D0,
  occupations = "smearing",
  smearing    = "methfessel-paxton",
/
&ELECTRONS
  electron_maxstep=200,
  conv_thr    = 1.D-8,
  mixing_beta = 0.3D0,
  scf_must_converge=.false.,
/
ATOMIC_SPECIES
Si  28.08  Si.pbe-hgh.UPF
K_POINTS {automatic}
1 1 1 0 0 0
ATOMIC_POSITIONS (angstrom)
Si 2.7319959 -0.017196212699999998 2.682981279795975 
Si 4.02796314 4.05937026 1.3729808533153405 
Si 1.376009784 1.408045698 1.3406328764032895 
Si 4.07561139 1.3560805980000001 4.071151409075428 
Si -0.00270912474 -0.000395513055 5.429299816040451 
Si -0.00018427085099999998 2.7156081599999995 8.144567313776859 
Si 2.71559187 -0.000365614389 8.144807487555374 
Si 2.71384884 2.71498914 5.429951716296421 
Si 1.356937452 1.357807338 6.788031502181868 
Si 0.00311746617 -0.0033959274299999996 10.862270859838208 
Si 2.71577106 2.7123664499999998 10.856678241852777 
Si 1.3719698639999998 1.3607297639999998 12.220899614360262 
Si 1.012340421 0.10140948539999999 16.173233624150125 
Si 0.10599642359999999 2.80621314 13.512348331977568 
Si 1.3478134229999998 4.0531149 15.043181685695192 
Si 2.9352625199999998 2.10979935 20.745456156288334 
Si 0.79516377 3.01027797 20.616482837225544 
Si 3.15268515 0.49795109099999996 17.431950086809753 
Si 0.468888102 3.8169098999999997 24.668797759957403 
Si 0.43034270399999996 1.5017441489999999 24.70300536812596 
Si 2.6832888 0.0428211972 21.84476585109329 
Si 2.17952055 0.011253457799999998 24.14576789143035 
Si 4.02112134 0.12228658649999999 25.697427742799242 
Si 0.1090535679 2.8142115299999997 28.417155610708082 
Si 3.08894238 0.841332888 27.72205838514461 
Si 2.3756032799999995 3.0944158199999996 27.911315322614776 
Si 0.13897210769999999 0.21263988599999997 34.07626742224802 
Si 2.26429371 3.28649121 34.20108916599647 
Si 1.3711390739999998 1.589667795 31.848449763278587 
Si 3.06553365 3.20500863 31.934329044367754 
Si 1.356188112 4.07495979 4.0723522779680055 
Si 2.71174743 5.4341811 2.7168869552143975 
Si 1.4929165979999999 6.66230049 1.1118570592053971 
Si -0.000824661702 5.4307439099999995 5.432799491098819 
Si 2.71443528 5.43001086 8.144498692697283 
Si 1.357817112 6.7857949799999995 6.787722707323777 
Si 1.3571443349999999 4.070040209999999 9.503882279094672 
Si 1.352012985 6.78810816 12.2270412009823 
Si 3.79131831 4.4409309299999995 16.0611067801232 
Si 3.9860652599999997 6.708303449999999 15.103774098960658 
Si 3.25288494 8.08220205 16.87663400034227 
Si 2.65963572 5.444769599999999 13.638233702459447 
Si 2.7620998199999995 4.39883757 18.133394762233987 
Si 1.500962229 7.41493107 20.440229594334998 
Si 3.33508428 6.30165618 19.3856265328737 
Si 0.411415353 4.38971517 18.726967100565002 
Si 1.9826070299999998 6.434810639999999 22.548680885382254 
Si 1.168274817 7.290426599999999 24.577222929263446 
Si 0.584493345 4.542873749999999 22.433877819251872 
Si 2.39537934 4.30604973 25.900271654025428 
Si 3.63159486 4.182327180000001 29.564946098233364 
Si 0.13669395119999997 7.013480309999999 28.81368251903707 
Si 2.69260668 6.602174099999999 26.207488227286458 
Si 2.3662691099999997 7.51141674 28.313983817565806 
Si 0.44040992399999995 4.915800719999999 34.24500665692501 
Si 0.572386617 7.50802842 31.195142775176805 
Si 3.00921912 7.81429671 31.71316330489482 
Si 3.32474013 7.4397081599999995 34.096407709103524 
Si 4.03280127 9.273115079999998 1.239396197705053 
Si 1.362665016 9.50296698 4.068337944812819 
Si 0.01606668039 10.05415542 0.23340053485590628 
Si 2.7111121199999997 10.84510008 2.6877744622043473 
Si 1.1999165129999998 11.993838299999998 1.2685464323088698 
Si -0.0001418327946 8.14526064 8.144773177015587 
Si 2.7146959199999996 8.143142939999999 5.430843790330908 
Si -0.0001432022949 10.860380099999999 5.428682226324268 
Si 2.7147936599999998 10.860038009999998 8.144841798095163 
Si 1.355484384 9.50339052 9.501068814832061 
Si 2.7125456399999996 8.14952862 10.86422656060612 
Si 1.11039156 9.13333059 17.104490295073848 
Si 0.79052112 9.95602446 14.924570149648353 
Si 2.69263926 10.94694516 13.76387889916281 
Si 2.0927762999999997 9.7238268 20.437038714134722 
Si 1.310559822 11.05776603 18.68136839318686 
Si 1.8710693999999999 9.445316669999999 24.180284294457 
Si 0.9378886049999999 10.482761609999999 22.309810907378758 
Si 1.395274338 10.73455614 26.006737258987343 
Si 1.096869231 10.68283539 29.787244085519298 
Si 2.43651159 9.87164226 27.953414354934555 
Si 2.33921142 11.613645989999998 31.938411998602515 
Si 4.0306347 14.66288964 1.162561174903985 
Si 1.360330659 14.928318899999999 4.069641745324759 
Si 0.00037244315699999994 13.57505973 8.145081971873678 
Si 2.71484253 13.574799089999999 5.430191890074936 
Si 1.3578187409999998 12.217614029999998 6.787757017863565 
Si 4.08737277 14.92004358 12.206146082251456 
Si 1.359721413 14.932945259999999 9.50175502562782 
Si 2.7140606099999998 13.575792779999999 10.858084973984083 
Si 1.364388498 12.20964822 12.219835987626837 
Si 2.78326053 16.25733855 13.559559634725748 
Si 3.39659532 12.78769887 15.110190169901 
Si 1.75298319 14.56438401 14.815394012043193 
Si 2.6195949 12.883793579999999 17.668555569187248 
Si 2.9575146599999997 14.028312689999998 21.209266033141436 
Si 0.245070018 15.46970076 19.471334261263927 
Si 2.52633465 14.93126739 19.064342638299625 
Si 1.131741234 12.89242728 22.103947668651237 
Si 0.808213689 14.30105616 23.981763511244093 
Si 1.92409335 12.961578329999998 25.49111846705448 
Si 0.36166243499999995 15.727636619999998 29.972074963356825 
Si 1.124871741 15.8926869 27.830788485732526 
Si 1.80937917 13.659002099999999 27.696634275161763 
Si 2.7264573 13.09010643 34.04041290816964 
Si 2.1767838299999998 15.62882148 31.474842295527928 
Si 1.047696237 14.52227436 33.205809027828494 
Si 6.7853388599999995 4.07725668 4.0687839818300615 
Si 5.435500589999999 2.69096139 2.695672748463527 
Si 6.787619459999999 1.249356663 1.2775255005713686 
Si 5.42916378 -0.00010414620539999999 5.430226200614724 
Si 5.43041811 2.71454931 8.144567313776859 
Si 6.787928969999999 1.3570026119999998 6.787619775704413 
Si 4.06231875 4.06772703 12.245225787069897 
Si 4.07313531 1.3580891549999998 9.502441236423577 
Si 6.78996522 1.340888544 12.23081536035897 
Si 7.64610246 3.5803953899999996 15.23274741802345 
Si 5.50240362 2.7921874499999997 15.827074588229799 
Si 4.40773191 0.569641752 15.232575865324511 
Si 5.18474862 2.3822821800000002 13.546933356083791 
Si 7.88440887 3.6383063399999998 19.257305114066884 
Si 6.3876348 1.8831565799999999 18.669428325340665 
Si 4.058718659999999 2.3408567099999997 18.679961661055554 
Si 5.9484238199999995 1.599207219 22.853083994380682 
Si 8.050778639999999 0.661763331 22.841727205710878 
Si 4.1972488199999995 3.74448456 24.52249761830171 
Si 4.369189769999999 3.2510604599999997 22.181112072634267 
Si 5.45516262 1.8805013099999999 25.114869087740153 
Si 4.92977754 0.482381109 29.134760550372427 
Si 7.49952504 2.46814677 26.15338050604091 
Si 7.2194022 3.69204705 28.15653275047904 
Si 5.48497332 2.7621323999999996 29.437242269142725 
Si 6.08372856 0.34546203 32.21649892358361 
Si 8.017188659999999 2.6817575399999996 34.10385309623751 
Si 5.377719959999999 2.5941825 31.792386341265125 
Si 4.07293983 6.7869027 4.072798314985248 
Si 5.2027816499999995 5.65820118 0.052959004373450184 
Si 6.86633274 6.92738766 1.2470234306999077 
Si 4.072060169999999 4.07316789 6.787825638943141 
Si 5.427534779999999 5.42883798 5.431873106524545 
Si 6.78703302 6.787342529999999 6.787619775704413 
Si 6.78517596 4.07140857 9.502612789122518 
Si 4.07175066 6.7849479 9.503985210714035 
Si 5.43685266 5.429456999999999 10.859182911257294 
Si 6.77235573 6.77665629 12.234589519735643 
Si 5.434523189999999 8.07423624 13.73766564676484 
Si 8.136154529999999 5.41385118 13.652952924028465 
Si 4.80607128 5.0774463899999995 20.786903288352143 
Si 7.04408922 5.53819275 20.344125772389038 
Si 7.069648229999999 7.40430999 18.89838255734545 
Si 4.78543185 7.98447834 18.618408552676026 
Si 4.3807068 6.48096021 22.55087675992868 
Si 7.8794567099999995 5.47300017 24.22581438075557 
Si 5.53130208 5.662632059999999 24.444715624602495 
Si 4.87854549 7.487470439999999 25.768107454762358 
Si 4.12197273 6.54318801 29.5983645639868 
Si 7.518942719999999 6.04547964 27.958492314823165 
Si 5.666671979999999 7.479195119999999 28.027936847353917 
Si 7.6631255099999995 6.52680027 32.2468980618357 
Si 6.81254316 4.319098019999999 32.78852424292781 
Si 8.135812439999999 10.86831333 2.6914834315554215 
Si 5.43945906 8.13768579 2.7159125358844207 
Si 6.78367728 9.50444937 4.071803309331399 
Si 6.6853997099999996 12.12946884 1.2400378047990872 
Si 4.07276064 9.502657469999999 6.787310980846321 
Si 5.430304079999999 8.145179189999999 8.144944729714526 
Si 5.429277809999999 10.859663339999999 5.43098103249006 
Si 6.787896389999999 9.50223393 9.502681410202094 
Si 4.07899971 9.504123569999999 12.261248809150855 
Si 5.42867508 10.85937012 10.865427429498697 
Si 6.764813459999999 12.23292663 12.243167154682622 
Si 7.418856959999999 9.12481092 14.847405745665322 
Si 7.94406285 10.90239201 18.75702313341922 
Si 4.42802925 9.625207139999999 20.266412399769397 
Si 5.79111129 11.4460056 19.63986763270219 
Si 5.13806148 11.13147828 25.10097331912604 
Si 5.20393824 8.64562428 22.24839504115838 
Si 7.130605409999999 11.68196625 23.906554808028975 
Si 4.214125259999999 9.226932929999998 24.26129147889628 
Si 7.563723929999999 8.628438329999998 22.260197866845424 
Si 7.6565606399999995 8.80062363 25.933072530062677 
Si 4.4823564000000005 10.95569289 27.39363789829464 
Si 8.10100071 10.262292749999999 27.728234282306435 
Si 6.00472206 9.76463325 28.67410724317981 
Si 4.13190963 10.018871279999999 32.30436821598047 
Si 7.75568529 8.63216874 33.71120327890455 
Si 5.7549312 10.104247169999999 34.183693722323994 
Si 8.11251774 10.40517234 31.51738736486495 
Si 5.86628964 10.8778104 30.764579811378198 
Si 4.07702862 12.217109039999999 4.071734688251823 
Si 5.4225663299999995 13.552400339999998 2.7038249327171364 
Si 6.78605562 14.936708249999999 4.068406565892395 
Si 4.073021279999999 14.93178867 6.787722707323777 
Si 5.43032037 13.57561359 8.144807487555374 
Si 6.78711447 12.21748371 6.787482533545261 
Si 4.07166921 12.21901497 9.502269683724638 
Si 6.78577869 14.93258688 9.501343299150365 
Si 5.433855299999999 16.28791488 10.85664393131299 
Si 5.25921021 13.59292986 13.784842638973227 
Si 6.24853449 15.278781959999998 15.148995390401137 
Si 7.99206948 16.230785849999997 13.770397901722514 
Si 4.99544253 12.745849859999998 17.76321834846212 
Si 6.27554331 15.99705693 19.690750163207674 
Si 6.423928919999999 14.643732599999998 17.45524694332575 
Si 6.58363608 12.44450115 21.72189980811275 
Si 4.8998691 13.85176167 22.48812278265658 
Si 4.10618772 13.15313244 24.609234662885576 
Si 5.02947234 16.06202145 21.77779167742727 
Si 7.34964075 13.60583154 25.26614425766509 
Si 7.522119269999999 13.826886839999998 28.9854410812154 
Si 5.25725541 14.43981438 26.30812104048443 
Si 6.6125997 15.681373019999999 27.902394582269917 
Si 4.14982863 13.1807277 28.072540549078212 
Si 7.79228892 13.804439219999999 34.225072233308225 
Si 5.490658529999999 13.182535889999999 30.02693751647771 
Si 4.527772919999999 15.23911581 30.907311656895946 
Si 5.96787408 15.575878979999999 34.30758908149817 
Si 9.50506839 1.3548327839999998 4.074342289275704 
Si 10.87333065 2.70184311 2.689932595157008 
Si 9.33874749 3.8641020299999997 1.3499962227114128 
Si 8.1443484 5.61697119e-06 8.145356456191982 
Si 8.14627062 2.71500543 5.429162573881299 
Si 10.858979159999999 0.0009940011389999999 5.431083964109422 
Si 10.860363809999999 2.7151520399999995 8.145425077271558 
Si 9.50153346 1.356440607 9.503607794776368 
Si 8.14276827 2.71992501 10.86275120739524 
Si 10.86448518 -0.001421812377 10.864672597623365 
Si 9.10697337 1.531566252 15.190957180561764 
Si 10.761874469999999 2.5884810000000003 13.66688300318236 
Si 11.13076152 3.9036704399999995 17.085962603588367 
Si 9.93289266 0.147369114 17.30664799550427 
Si 10.0874196 0.7302660389999999 19.71504202537752 
Si 12.04360425 0.0949013046 20.844064647638817 
Si 9.789670979999999 2.9845560599999996 20.450316893032646 
Si 9.03664944 3.48125445 24.664062905466672 
Si 9.66710502 2.28411864 22.740785597654817 
Si 11.495217689999999 0.814508145 23.022200644995337 
Si 10.468784789999999 3.1501276199999997 28.440452467224077 
Si 10.854027 3.9588935399999996 26.124628273698633 
Si 8.35771482 0.434138274 26.809466647865516 
Si 10.08763137 0.8264389409999999 28.38054626475437 
Si 9.948074939999998 0.06577006049999999 30.6543743575794 
Si 9.45241911 1.191533679 32.771231730874696 
Si 10.30352274 3.2664708 32.06223873669712 
Si 8.89999263 3.9022695 30.157797915228834 
Si 10.82626884 8.1637335 2.7033137056742964 
Si 8.14757382 5.4344091599999995 2.682274482676344 
Si 9.50682771 6.782146019999999 4.070019161262427 
Si 9.50262489 4.07280951 6.787516844085049 
Si 8.14491855 5.42966877 8.145150592953254 
Si 10.8600543 5.43095568 5.432559317320303 
Si 9.5027715 6.78605562 9.502509857503153 
Si 9.511812449999999 4.07895084 12.236648152122918 
Si 10.8634752 5.42800719 10.855237199181685 
Si 8.14338729 8.14408776 10.86223654929842 
Si 12.212010269999999 6.76013823 12.228859659591059 
Si 8.90839827 7.2215199 14.992573639508011 
Si 10.730157839999999 8.01334422 13.569509691264242 
Si 8.6670945 6.6598407 17.284517697341062 
Si 11.45820681 4.71911526 20.443248921836336 
Si 12.1889925 5.505466139999999 18.362623478557083 
Si 8.772246449999999 4.337049599999999 17.163916149986523 
Si 10.8305694 7.33502862 18.02764967860762 
Si 8.33894874 6.40068309 22.147556364721684 
Si 11.73077109 7.40888748 23.737232294175588 
Si 10.65276405 6.64623855 21.695583624095413 
Si 11.01306627 6.29499357 25.839919414538475 
Si 10.462350240000001 7.59206853 29.67854829547117 
Si 8.70747741 6.7364362799999995 26.031852574112097 
Si 11.90044773 6.84443898 27.95221348604198 
Si 8.618501429999998 6.248176109999999 30.042514501541422 
Si 9.378446219999999 9.49855239 1.1898552093052754 
Si 11.159171279999999 10.66524219 0.06671684461761032 
Si 8.14456017 8.14519548 5.4277215312102065 
Si 9.502608599999999 9.503309069999998 6.787928570562505 
Si 10.86031494 8.14529322 8.144944729714526 
Si 8.14513032 10.859598179999999 8.144670245396222 
Si 10.860673319999998 10.85963076 5.4331082859569095 
Si 9.49908996 9.521244359999999 12.226595163965056 
Si 10.86316569 10.85593293 10.859079979637933 
Si 9.50295069 12.215919869999999 9.503333310458064 
Si 9.231738479999999 10.376290169999999 16.580636973591886 
Si 11.60631549 9.24449355 16.857900445618068 
Si 8.17205769 10.93412493 13.614490808926206 
Si 11.8205127 10.453113809999998 20.43079419589332 
Si 8.29525896 9.03819699 20.07767012039605 
Si 10.55337876 8.44406811 20.100315076656077 
Si 8.53385859 9.799591589999999 24.048600442750963 
Si 10.899932219999998 9.634997429999999 24.274569657794203 
Si 11.60869383 11.18285694 22.68811891908036 
Si 11.91624903 10.58988465 26.25898834750813 
Si 9.620939159999999 9.811906829999998 29.542163899814188 
Si 11.495641229999999 11.05524108 30.419724575969816 
Si 11.04080814 12.13792335 32.54042472972136 
Si 9.50409099 12.21463296 4.070979856376488 
Si 9.492117839999999 14.914765619999999 1.3788205071872446 
Si 10.87144101 13.56282594 2.7111330776919638 
Si 8.15255856 16.2913032 2.7210350994747574 
Si 8.14493484 13.574473289999998 5.429883095216845 
Si 9.50296698 14.93252172 6.787482533545261 
Si 10.86007059 13.57499457 8.145081971873678 
Si 12.20205708 12.220253009999999 12.236064872946525 
Si 8.14234473 13.57856208 10.863162933872694 
Si 9.484445249999998 14.92960581 12.251607547470451 
Si 12.20567346 13.08370446 17.069870960427835 
Si 12.15113454 15.65007993 16.931976901020185 
Si 10.0491381 12.60758034 15.877339529019102 
Si 10.7704593 13.51387449 13.71158963652602 
Si 8.33878584 15.832299869999998 20.824816434817794 
Si 8.61193656 13.58118477 21.37220678659427 
Si 12.14639415 14.04874035 21.015308551720324 
Si 9.1937502 12.805683029999999 19.26794138140114 
Si 11.50984611 12.52388232 19.31875529082705 
Si 8.82432558 14.24220039 17.386866037528428 
Si 8.56521684 15.581222099999998 24.741844899165883 
Si 10.58863032 13.35174012 22.631678081129234 
Si 10.80188271 15.123652289999999 24.178534456927817 
Si 12.10837329 16.07736663 27.683905064900443 
Si 11.30273505 13.075429139999999 29.310224650847847 
Si 11.869480439999998 14.4011745 26.103870397126943 
Si 10.75065066 12.56701824 27.071015892668832 
Si 8.36563176 12.554540099999999 27.15511102568902 
Si 9.380775689999998 14.057064539999999 30.379958660355616 
Si 8.79192477 12.631396319999999 32.27084681860767 
Si 10.80186642 16.237643939999998 34.27382751034686 
Si 11.92050072 14.45128254 33.01246913612356 
Si 16.27862958 2.71414206 2.7111468019078786 
Si 12.34806435 1.3228261919999997 1.2109458981129098 
Si 14.930909009999999 1.359740961 4.076195058424252 
Si 14.93066466 4.00758435 1.250663778971406 
Si 13.57463619 0.00030695409899999995 8.145150592953254 
Si 13.57665615 2.71388142 5.429368437120027 
Si 12.21727194 1.357528779 6.787688396783989 
Si 14.932668329999998 1.35697329 9.50340193153764 
Si 13.571834309999998 2.71593396 10.861550338502663 
Si 12.21544746 1.353827691 12.233594514081792 
Si 14.93012709 4.08067758 12.226252058567178 
Si 14.249889269999999 2.73399957 16.14935348845773 
Si 13.71420891 0.0625609305 13.586664961158203 
Si 15.478481069999999 1.144269873 14.827951669605572 
Si 12.367612349999998 3.7969546499999995 15.054847269223085 
Si 13.354118459999999 3.60009 21.30996746741898 
Si 15.85872225 0.9890766719999999 20.8764881077384 
Si 13.74035436 1.5100846289999998 20.009563698917027 
Si 13.7469681 0.977590593 17.69030845141279 
Si 15.12650304 0.789833682 23.16530990645075 
Si 13.284283229999998 2.28066516 23.339984864511052 
Si 13.070965679999999 3.24568476 25.497911953932487 
Si 12.75733431 2.94159933 28.967016321349284 
Si 15.852808979999999 1.094376861 26.852423443679992 
Si 13.537299509999999 1.5802521749999998 27.13617160772609 
Si 13.84855254 2.50466895 34.07558121145226 
Si 15.83423838 1.6096768019999999 30.37117516216991 
Si 13.50835218 1.79268192 30.89001914484283 
Si 12.646888109999999 3.56803128 32.2468980618357 
Si 12.549050369999998 7.33916628 1.3599805897896977 
Si 12.21298767 4.075220429999999 4.0669998337610895 
Si 13.577877899999999 5.44577958 2.676060843920752 
Si 14.943354569999999 6.776297909999999 4.0740334944176135 
Si 14.93358057 4.07259774 6.7884432286593235 
Si 13.57489683 5.429766509999999 8.145047661333889 
Si 12.21725565 6.78766833 6.788100123261444 
Si 13.575743909999998 8.14724802 10.861996375519904 
Si 16.28784972 5.43115116 10.862545344156512 
Si 12.21666921 4.07427561 9.500965883212698 
Si 14.93178867 6.787456559999999 9.502544168042942 
Si 16.21428408 8.12282931 13.62893554617692 
Si 15.87756978 4.400140769999999 16.574392455350484 
Si 13.57911594 5.39653491 13.7008504375724 
Si 14.461040249999998 7.2684025199999995 14.95630739895218 
Si 15.670409849999999 7.22292084 17.097456634417323 
Si 15.753423689999998 6.337608209999999 19.721801201715742 
Si 13.95420948 8.086714379999998 18.499659774470032 
Si 14.117565599999999 7.463752199999999 23.15264931726901 
Si 14.82117957 5.51315502 21.76290090315931 
Si 15.205248899999999 7.106268149999999 25.22703024230686 
Si 13.313165399999999 5.23003482 29.092421344274133 
Si 14.91522174 4.81040442 25.826057956464155 
Si 15.440981489999999 4.95046584 28.13128019319513 
Si 12.276991079999998 7.7603768099999995 31.423067690987956 
Si 13.544906939999999 5.62593069 31.463931543875372 
Si 15.76257867 5.77539144 32.27997342219126 
Si 14.513200829999999 9.11935377 1.5340859928895187 
Si 13.568690339999998 10.87377048 2.7324605092241345 
Si 14.935616819999998 12.21510537 4.07046519827967 
Si 16.308081899999998 8.11683459 2.7000130317466984 
Si 12.20713956 9.511714709999998 4.079866286181559 
Si 13.575434399999999 8.145032579999999 5.427652910130631 
Si 14.931902699999998 9.50306472 6.787379601925897 
Si 13.575010859999999 10.85933754 8.145013350794102 
Si 12.216848399999998 9.50229909 9.501411920229941 
Si 14.93937981 9.49340475 12.205391250376124 
Si 16.2930951 10.85748048 10.858325147762597 
Si 12.63221082 8.899406189999999 14.713937745890313 
Si 13.58269974 10.81944333 13.557089275861017 
Si 14.29660899 11.839571999999999 16.998333484970022 
Si 15.33936447 11.69276652 14.863325836126915 
Si 15.397405739999998 11.822581529999999 19.121160892188417 
Si 14.095802159999998 10.01559699 19.94337866766613 
Si 13.8983022 11.39260698 23.165104043212022 
Si 14.971568849999999 9.55015911 22.10538871132233 
Si 13.93073559 11.696545799999999 25.516130850559872 
Si 13.243541939999998 9.505622249999998 29.971251510401913 
Si 15.57628623 10.812487499999998 26.91610380552637 
Si 15.165289529999999 8.4631437 27.242843075926736 
Si 12.91681341 8.91848178 27.7118681548276 
Si 15.51892914 9.50093073 30.75466406537949 
Si 16.238491019999998 11.02544667 32.454614069711766 
Si 12.32871183 8.70263928 33.74307777036753 
Si 12.353342309999999 12.283702559999998 1.3312558058792512 
Si 12.217174199999999 14.93213076 4.07128865123458 
Si 15.10462557 15.1176087 1.3499207395238797 
Si 13.58343279 16.289429849999998 2.71384017928123 
Si 16.2978192 13.569814349999998 2.701340849636491 
Si 13.573984589999998 13.573903139999999 5.4295056792791785 
Si 12.216555179999999 12.217581449999999 6.788134433801232 
Si 14.932863809999999 14.932733489999999 6.787791328403353 
Si 12.216457440000001 14.93089272 9.50240692588379 
Si 14.93305929 12.215528909999998 9.502338304804214 
Si 13.575222629999999 13.576004549999999 10.864157939526544 
Si 14.933287349999999 14.92696683 12.218086150097653 
Si 12.460563089999999 14.77498113 14.775113438332173 
Si 16.272862919999998 13.52636892 13.594522074769637 
Si 15.776897579999998 13.58695143 20.60845417091517 
Si 15.461800109999999 15.600346559999998 17.401104911540415 
Si 14.097789539999999 13.528812419999998 22.181009141014904 
Si 14.793861239999998 14.86661238 23.98279282743773 
Si 14.17518333 13.9975083 26.10544868195719 
Si 12.961480589999999 14.72658354 29.48064510197445 
Si 16.285780889999998 12.398807699999999 28.64960951777124 
Si 13.820892119999998 13.70443491 34.19330067346461 
Si 15.12402696 13.955170589999998 30.08197162229753 
Si 12.258224999999998 16.043173919999997 31.298486121018023 
Si 15.34724883 13.191967799999999 32.34835432798858 
