&CONTROL
  dt          = 30.D0,
  prefix = 'x2.66_y1.66_z3.16_struc46-scf',
  pseudo_dir = './',
  outdir='./',
  wf_collect= .true.,
  verbosity= 'high',
/

&SYSTEM
ibrav= 6, celldm(1) =30.783621515, celldm(3) =2.108862401886256, nat=  432, ntyp= 1,
  ecutwfc     = 12.D0, nbnd= 1728,
  degauss     = 0.05D0,
  occupations = "smearing",
  smearing    = "methfessel-paxton",
/
&ELECTRONS
  electron_maxstep=200,
  conv_thr    = 1.D-8,
  mixing_beta = 0.3D0,
  scf_must_converge=.false.,
/
&IONS
/
ATOMIC_SPECIES
Si  28.08  Si.pbe-hgh.UPF
K_POINTS {automatic}
1 1 1 0 0 0
ATOMIC_POSITIONS (angstrom)
Si 0.0314090748 2.71221984 2.726674954682268 
Si 1.49604102 1.5766260209999998 1.2176654534404003 
Si 4.07083842 1.3564748159999998 4.069877922729888 
Si -3.0005365499999998e-05 2.71487511 8.145114970949944 
Si 2.7146796299999996 0.000455344596 8.144908850738783 
Si 2.7156244499999995 2.71661814 5.430717910179128 
Si 1.357126416 1.357823628 6.787435493405162 
Si 2.71300176 2.71536381 10.86171064730647 
Si 1.3715463239999999 1.3598126369999999 12.245739158511252 
Si 0.0334676421 2.7343905299999998 13.697890399504534 
Si 0.028031017499999998 0.402213132 18.240367613056605 
Si 0.9887525009999999 0.656749269 20.830371126392144 
Si 2.11828644 3.98938842 19.294225899351016 
Si 1.8722097 1.6823986199999998 18.75116784968051 
Si 3.92215959 1.3026803489999998 17.533134815196878 
Si 3.22014204 0.375334632 21.610433065528536 
Si 0.027313442999999996 1.9471599899999998 22.612349058610533 
Si 1.076493699 1.1325655079999999 24.579457293819456 
Si 3.93783057 2.94317946 25.191222080543408 
Si 1.64348181 3.1329090899999996 25.69786555957558 
Si 1.83480786 3.0840879599999997 28.01829819008189 
Si 2.8400963399999997 1.0331688149999998 28.542977187590594 
Si 3.0546519299999995 2.96681625 33.99245203698531 
Si 0.599626755 1.144755315 31.909469889735742 
Si 2.8476548999999998 0.5925438630000001 30.833900274532443 
Si 1.3550771339999998 4.07031714 4.075546228536798 
Si 0.11855633939999999 5.551403939999999 0.06513879619826834 
Si 2.72719035 5.423234219999999 2.703774999222352 
Si 1.5598212569999999 6.93717795 1.298196619940754 
Si 2.71485882 5.43038553 8.145664624846372 
Si 1.357548327 6.7872936600000005 6.787710320353376 
Si 4.06311696 4.07798973 12.256938356650965 
Si 1.3581201059999999 4.0720927499999995 9.502657035020619 
Si 0.00021927154499999999 5.43120003 10.863943616260707 
Si 1.3707106470000001 6.7814618399999995 12.228012820351461 
Si 2.7142397999999996 8.14226328 10.859649445194867 
Si 3.3259781699999995 7.50965742 15.19837683001492 
Si 0.725178672 4.581643949999999 15.253136099446523 
Si 2.64979656 5.52745764 13.848461213757178 
Si 3.26015028 4.86854343 17.314544331261313 
Si 0.0535046679 5.12128278 19.084395524389766 
Si 0.6864394229999999 7.40245293 18.765939798147006 
Si 2.87964846 7.24619925 17.80631280172141 
Si 0.399904839 4.96965546 24.859883841103127 
Si 2.9543706899999997 7.11267012 21.65110745386418 
Si 0.6419009339999999 4.24317033 22.61867007841945 
Si 2.69141751 4.70776113 21.55952137337193 
Si 3.5378622 7.4109563099999995 25.669661444015137 
Si 2.8860015599999995 5.1238566 28.526281450486604 
Si 1.2257052119999998 6.945746489999999 25.845069743712607 
Si 1.178837253 6.688902059999999 28.185908275123793 
Si 2.78511759 5.122911779999999 32.932341437619044 
Si 3.72684249 5.4184449599999995 30.70253299328624 
Si 3.64255803 7.04731464 34.22375326727577 
Si 0.6498292769999999 5.40497313 32.13816026401817 
Si 3.70542114 9.143837640000001 1.3443778532512334 
Si 0.013997703779999999 8.1572175 2.696790959400868 
Si 1.353327588 9.506078369999999 4.075340108325637 
Si 2.70280422 10.84956354 2.711391141024727 
Si 0.000276859953 8.14452759 8.144908850738783 
Si 2.7169602299999998 8.147362049999998 5.428725414804578 
Si 0.0021978793799999996 10.85964705 5.431301917444083 
Si 2.7151520399999995 10.859809949999999 8.144908850738783 
Si 4.07821779 9.498829319999999 12.22447442339321 
Si 1.3575678749999998 9.50099589 9.501763847438923 
Si 1.372344534 12.22437438 12.248968375152764 
Si 0.11966438519999999 8.20708119 13.59802515719734 
Si 1.5700937309999998 9.41537565 15.028602482755835 
Si 2.85926967 10.89108675 13.693115281279319 
Si 3.9453402599999996 8.19271341 19.775276118830774 
Si 0.8715492089999999 8.18236926 20.991282304571335 
Si 0.913776147 10.508353199999998 20.64074053212461 
Si 3.2084783999999997 10.474942409999999 19.88616879243505 
Si 0.681440022 10.74755556 24.889599504878746 
Si 3.00063429 10.908370439999999 25.364363057918116 
Si 1.0138488749999999 10.273614299999998 29.827209163225234 
Si 2.43949266 8.59075956 28.976722818609048 
Si 3.6217882799999996 9.356389559999998 27.025485839659478 
Si 0.375440517 12.17863206 28.536106513885247 
Si 1.310471856 11.35442322 32.13149571052398 
Si 3.6818332199999997 11.86447941 32.849824646417844 
Si 2.7214562699999996 16.3028691 2.6797035938956744 
Si 0.00436040946 13.598696519999999 2.7072927841594883 
Si 1.3982765849999998 12.28267629 1.3508431572079636 
Si 1.3555642049999999 14.928318899999999 4.07121770410243 
Si -0.00044083346399999995 13.57499457 8.144977557475837 
Si 2.71389771 13.573789109999998 5.430717910179128 
Si 1.356823422 12.21741855 6.7881225607756965 
Si 7.573090679999999e-05 16.292606399999997 10.865352104370304 
Si 1.358193411 14.93139771 9.502279147966826 
Si 2.7150380100000002 13.576770179999999 10.861538880463836 
Si 2.66694993 16.19737506 13.73014821255113 
Si 0.6593572979999999 15.37218882 15.022556289895132 
Si 0.8485656479999999 14.62885983 17.394072379400683 
Si 3.99655602 14.86361502 20.325239195575147 
Si 2.93314482 13.89786237 18.44920174033058 
Si 2.6855042399999998 13.949192159999999 23.69839645121448 
Si 3.0354134399999997 16.235265599999998 23.9399349853259 
Si 0.36427046399999996 13.714681319999999 23.014249117004713 
Si 3.8996468099999997 13.082971409999999 25.534480938862465 
Si 3.9946663799999995 13.84180848 27.724679949283953 
Si 0.965078244 15.954002459999998 28.155711664188797 
Si 1.93569183 13.91701941 28.79104286172209 
Si 2.863782 13.54718754 34.30280036825577 
Si 1.155348702 13.92444765 32.52542578741996 
Si 2.7619857899999998 14.558470739999999 30.90291619190264 
Si 6.7888575 4.07401497 4.0731758461084535 
Si 5.442765929999999 2.6934537599999997 2.718069435866323 
Si 6.84352674 1.378728585 1.2925764088497815 
Si 5.430190049999999 0.00020033604899999998 5.429927782703014 
Si 5.430336659999999 2.7145656000000002 8.14473708389615 
Si 6.7878801 1.357393572 6.787366786668109 
Si 6.787391399999999 4.07170179 9.501866907544505 
Si 4.07179953 1.3584638249999998 9.50255397491504 
Si 5.43004344 0.000545954463 10.86078310635625 
Si 6.78344922 1.366406829 12.233818539632479 
Si 8.03007405 0.0636122871 16.189643278853634 
Si 4.27649967 1.134925929 15.073742808999954 
Si 5.409583199999999 2.7001815299999996 13.70641003489916 
Si 5.640868619999999 2.07480843 19.097484157798448 
Si 7.304045039999999 0.502851123 18.574660242190188 
Si 5.058484829999999 1.79525574 21.436501960677717 
Si 4.68013329 0.714404466 25.464090886751205 
Si 6.84523719 1.233612378 24.72724548522143 
Si 7.2795122999999995 3.55532508 24.849165590122787 
Si 6.7256523 0.440815545 22.53649682090352 
Si 4.3352577 3.56544117 22.870445916351834 
Si 6.637425659999999 3.2784276599999997 28.61082509043088 
Si 5.647857029999999 3.94701813 26.506990448485585 
Si 8.09324667 1.3848568829999999 28.388043495535054 
Si 4.233526649999999 1.83976002 32.214905689306875 
Si 5.17556106 3.37644459 30.62578756799753 
Si 6.073873109999999 0.30183252299999996 32.28199781803957 
Si 8.03196369 2.8855943099999997 34.08245786252534 
Si 4.28000202 4.1378229 1.3355112488344851 
Si 4.07570913 6.782113439999999 4.07351937979372 
Si 6.91422534 6.90669936 1.3343088809360497 
Si 4.0726629 4.07274435 6.788053854038643 
Si 5.4295547399999995 5.4288542699999995 5.431473684286717 
Si 6.787407689999999 6.786739799999999 6.7879851473015895 
Si 4.07279322 6.789411359999999 9.501420313753657 
Si 5.430646169999999 5.42986425 10.867585073324541 
Si 6.784508069999999 6.79410288 12.264564804463898 
Si 6.6673341 8.026620569999999 17.098908237019046 
Si 6.69253473 4.13663373 15.090369839366891 
Si 5.63632371 5.35626603 16.93761917178606 
Si 7.08776271 4.94137602 20.92360616857368 
Si 7.85886615 7.1200169099999995 20.445441632050166 
Si 6.610791509999999 4.194886769999999 18.7638785960354 
Si 6.260442479999999 4.81351581 23.134520260216785 
Si 4.32131346 7.87210992 23.501070702396962 
Si 6.493047389999999 7.02530685 23.89984460425521 
Si 7.410483899999999 7.583597729999999 26.046002596225435 
Si 7.873136189999999 5.280338339999999 29.115750901036712 
Si 4.6323547199999995 5.93498457 27.15286813015658 
Si 6.50371734 6.93735714 28.144581172786136 
Si 5.621939639999999 5.52359691 34.34031424668695 
Si 4.11877989 7.83821043 30.589304290622145 
Si 8.155409309999998 5.6331308700000005 31.44082123629413 
Si 6.61431015 4.17002823 32.559985276157846 
Si 7.5447786599999995 7.82097561 32.28484914762729 
Si 8.147492369999998 10.85148576 2.69822005953158 
Si 5.4211002299999995 8.1497241 2.704056696844271 
Si 6.7891832999999995 9.50205474 4.071011583891269 
Si 4.07411271 12.221083799999999 4.073072786002873 
Si 6.567899939999999 11.96694351 1.3256621380778724 
Si 8.14309407 8.14273569 5.430202609651227 
Si 4.07215791 9.50255973 6.78777902709043 
Si 5.43001086 8.14495113 8.145218031055524 
Si 5.4304995599999994 10.86114573 5.429515542280693 
Si 8.146417229999999 8.14459275 10.864218443208921 
Si 6.78818961 9.50319504 9.501935614281559 
Si 5.42922894 10.85925609 10.860096038985715 
Si 4.0711479299999995 12.216913559999998 9.502588328283565 
Si 7.96796028 10.73574531 13.782090505763541 
Si 5.25267792 8.18658837 13.799129776552798 
Si 6.217925579999999 9.80043867 15.331530486424514 
Si 4.41253746 11.57490837 15.50814115402042 
Si 4.21546104 11.90365686 17.985328205114183 
Si 6.85779678 10.70793828 20.323727647359974 
Si 6.259367339999999 8.55369981 19.455652378058105 
Si 6.5464460099999995 11.034699389999998 24.32922735747077 
Si 7.9491942 10.99203588 22.44463591346305 
Si 4.43829195 10.200309299999999 23.61835310254721 
Si 4.7028089699999995 11.186261550000001 21.503284909093672 
Si 7.34345055 9.9570996 26.276582405776825 
Si 6.12398115 8.74308735 29.61854680279389 
Si 5.64088491 10.22922405 27.898885881082986 
Si 4.98487032 10.33830189 34.10523414585856 
Si 8.02142406 9.56802924 30.821223881546082 
Si 5.01204204 8.35835013 32.759543993929604 
Si 7.705235159999999 13.785184439999998 0.11645654517086383 
Si 4.21645473 15.011120969999999 1.262352315219967 
Si 5.4225337499999995 13.559095529999999 2.706839319694936 
Si 6.78932991 14.931821249999999 4.068812968305559 
Si 6.178031369999999 15.717276179999999 0.1196435071690883 
Si 4.07279322 14.93219592 6.787710320353376 
Si 5.42986425 13.57507602 8.145183677686997 
Si 6.787456559999999 12.217548869999998 6.787607260247796 
Si 8.14677561 13.57388685 10.857038589186836 
Si 6.78766833 14.93095788 9.502760095126199 
Si 4.06316583 14.91686703 12.245086444509244 
Si 6.7873262400000005 12.225482099999999 12.258209431286454 
Si 5.379577019999999 13.591854719999999 13.781643911972695 
Si 6.005438819999999 15.591517379999999 15.133758143816147 
Si 8.04116754 16.18747074 13.543403301239842 
Si 4.49138106 15.311036159999999 17.377273582191116 
Si 6.06838338 14.82973182 19.12403931166961 
Si 6.47835381 12.50596332 18.71623047388883 
Si 6.21520515 13.345745399999998 24.814777868227534 
Si 6.382421999999999 14.34225357 22.65518770916336 
Si 4.30800453 13.412306339999999 22.05462212057912 
Si 7.5762509399999995 13.64220711 28.776648800309392 
Si 5.53825791 12.405730949999999 28.872975645658336 
Si 6.694815329999999 15.89874678 29.062400119714706 
Si 4.7086082099999995 16.13030913 27.689879986966382 
Si 5.49629487 12.62150829 31.300796906179194 
Si 7.74293022 12.343682339999999 32.21102375866335 
Si 5.15560581 14.96376594 30.829880930414816 
Si 8.161892729999998 0.0014100395939999999 2.7035929263691605 
Si 9.50311359 1.355867199 4.072317011895285 
Si 10.86026607 2.71609686 2.67837411853369 
Si 8.1445113 0.00030382479 8.145286737792578 
Si 8.14563531 2.7158688 5.430374376493861 
Si 10.86018462 0.001212292026 5.430992737127343 
Si 10.85985882 2.7151520399999995 8.145458504635211 
Si 12.22399971 1.369769085 12.236944696168411 
Si 9.500832990000001 1.356165306 9.502073027755666 
Si 8.14545612 2.71625976 10.85951203172076 
Si 10.86049413 0.00345334968 10.86140146698973 
Si 9.955258829999998 0.7984315439999999 14.61406038474382 
Si 10.88442414 2.7933929099999997 13.686794261470402 
Si 10.1294478 3.1050369 19.446514382029996 
Si 8.98235487 3.64044033 21.454159592100453 
Si 9.282872789999999 0.923950881 19.699492587860814 
Si 8.83566342 1.293222375 21.95994423691946 
Si 10.45444959 0.221094396 23.306871110115374 
Si 10.53818019 0.872686251 25.5764264018336 
Si 9.949459589999998 1.2138737849999999 29.86242136596513 
Si 12.051618929999998 2.46099546 29.60734760465418 
Si 11.22048684 3.08969172 25.848917320987603 
Si 8.378517149999999 0.332244324 26.248790530638704 
Si 11.676786029999999 3.36699639 31.794695285487947 
Si 8.491276529999999 0.662797746 31.607400720280232 
Si 9.914240609999998 1.8955532699999997 32.9673818735163 
Si 8.671264739999998 7.76909196 0.07368900609088545 
Si 10.864436309999999 8.160247440000001 2.7095841538402214 
Si 12.18449646 6.79071456 1.3256415260567564 
Si 9.3872754 4.08385413 1.2567046214341733 
Si 8.13547035 5.430206339999999 2.7157883721961484 
Si 9.50347197 6.78506193 4.070461929994842 
Si 10.29272247 5.95493982 0.1123863580678172 
Si 9.50226651 4.07264661 6.787504200142216 
Si 8.14535838 5.429766509999999 8.144874497370257 
Si 10.860412679999998 5.4307602 5.430099549545647 
Si 10.85837643 5.4295873199999996 10.861538880463836 
Si 9.50143572 6.78753801 9.501763847438923 
Si 9.49521294 4.07484576 12.241273220602777 
Si 9.05831514 7.88714559 17.165622478697948 
Si 11.76080985 4.7472318 15.26715227380543 
Si 8.21045322 5.45299605 13.756531599579658 
Si 9.91919277 6.576321869999999 15.205075736877632 
Si 12.11946678 7.95455361 16.525378749465336 
Si 8.9208927 4.49459019 18.02672401418889 
Si 11.38152978 7.101267119999999 20.553414269329668 
Si 9.64473885 6.54568038 18.99627913411871 
Si 11.91302361 5.6161241099999994 22.30766903314699 
Si 8.48414151 7.40662317 22.68655233462826 
Si 9.722116349999999 5.307314579999999 22.926407553681873 
Si 9.460450080000001 4.433437529999999 25.046937932731154 
Si 11.43075816 7.64427798 25.595148987680666 
Si 11.133563399999998 7.631278559999999 29.28542218819022 
Si 9.502869239999999 6.466820489999999 26.196882590794818 
Si 11.7201663 4.11193809 27.951927482088255 
Si 10.03661109 5.752503989999999 28.347197340356775 
Si 10.605946589999999 5.52522591 32.11820095690414 
Si 12.167571149999999 7.104020129999999 31.27194007661674 
Si 9.59023251 9.60003909 1.2377346913337144 
Si 12.21719049 9.50137056 4.074893514534789 
Si 9.50270634 9.50257602 6.787538553510743 
Si 10.859972849999998 8.14469049 8.145114970949944 
Si 8.14539096 10.859972849999998 8.144668377159096 
Si 10.86104799 10.85811579 5.430202609651227 
Si 9.48237642 9.499269149999998 12.250273803156782 
Si 10.85795289 10.8620091 10.8627756017308 
Si 12.23633124 12.20358834 12.232100871206143 
Si 11.81463201 10.04793264 15.364028773050798 
Si 10.92068568 8.2549575 13.755947592314701 
Si 9.793857509999999 11.68458894 14.989989296531794 
Si 10.8356193 9.347446349999998 21.03769370545094 
Si 9.28215603 9.81301455 19.265678250105303 
Si 10.09962081 11.86539165 18.54346738356792 
Si 9.59860557 9.46403388 23.023799353455143 
Si 10.723316039999998 9.80863254 25.098777165837987 
Si 9.8930799 9.65791746 29.26821115055833 
Si 9.465076439999999 10.65178665 27.03812787927731 
Si 11.1428487 10.86888348 34.15456558306294 
Si 11.020005809999999 11.54874663 30.14810397863339 
Si 12.20726988 9.10250991 32.762498383622905 
Si 12.21956883 14.93441136 4.072110891684125 
Si 9.501468299999999 12.21875433 4.069568742413146 
Si 9.499008510000001 14.8383981 1.2991619495963551 
Si 10.87056135 13.56903243 2.7130881974299474 
Si 8.1453258 13.576981949999999 5.430614850073548 
Si 9.50314617 14.93245656 6.787950793933063 
Si 10.85971221 13.574782799999998 8.14494320410731 
Si 9.501680069999999 12.218428529999999 9.501626433964818 
Si 9.498259169999999 14.90787495 12.215439487470679 
Si 11.494859309999999 15.291846539999998 14.970442229840087 
Si 9.591649740000001 14.720458499999998 16.824630942701656 
Si 10.7724141 13.446482759999999 13.587513026428159 
Si 8.59923036 12.61450359 16.930817204817767 
Si 10.03592691 13.365293399999999 20.359008556836923 
Si 10.26893907 15.255014849999998 19.033380772127572 
Si 8.42601879 13.262894459999998 22.075921209065687 
Si 11.73989349 13.206433319999999 23.854498157799927 
Si 9.650586959999998 14.30019279 23.776412951138678 
Si 12.10482207 13.05255798 21.50878144805795 
Si 8.257580189999999 14.29484967 25.68749084228051 
Si 9.38636316 13.08187998 27.310584445062783 
Si 11.3681394 14.30143083 28.107342121303166 
Si 9.170471789999999 13.13819451 30.466284877927936 
Si 11.609101079999999 15.55243767 32.15873793176567 
Si 10.45640439 15.16691853 30.157482448241186 
Si 10.800856439999999 16.26294231 34.207675890805255 
Si 14.067376109999998 2.36980404 0.0999576528685326 
Si 12.25982142 1.300526811 1.2274939521758972 
Si 14.93281494 1.355624478 4.069362622201987 
Si 12.21743484 4.07339595 4.069190855359353 
Si 15.041355209999999 4.065527879999999 1.3648662022405733 
Si 13.57538553 -5.45037336e-05 8.144874497370257 
Si 13.57505973 2.71601541 5.429790369228907 
Si 12.21771177 1.356966774 6.78767596698485 
Si 14.931023039999998 1.358426358 9.501798200807452 
Si 13.57758468 2.71352304 10.861264053515624 
Si 14.81062365 1.7982205199999999 16.990042412157845 
Si 15.27233112 0.9204501599999999 14.824577827075604 
Si 12.43612809 3.3988922099999996 19.306180871598315 
Si 12.766293809999999 1.424814624 18.08120845667228 
Si 12.78351234 0.0585113994 22.886626352927923 
Si 13.93443342 2.0818782899999997 22.920945368086123 
Si 13.26626649 3.85424658 21.476523635011354 
Si 13.465314 2.83845105 25.10399887785405 
Si 16.058844899999997 3.41220114 29.197408858024744 
Si 15.76344204 0.16059512789999997 29.96098118026831 
Si 14.31333882 1.7764244999999999 28.960164494979168 
Si 14.09316318 1.122798024 26.707785887524302 
Si 15.93686538 0.734903802 34.29163552348458 
Si 15.98452992 3.3483769199999998 31.6117292447146 
Si 13.846304519999999 3.84214311 32.60038483754528 
Si 13.57349589 5.42095362 2.6944102709619657 
Si 14.932179629999998 6.78634884 4.068916028411139 
Si 16.2921177 5.43012489 5.42985907596596 
Si 14.93270091 4.07253258 6.787401140036636 
Si 13.5752715 5.42992941 8.145218031055524 
Si 12.21746742 6.7875054299999995 6.787504200142216 
Si 13.5738054 8.14708512 5.4310614438643965 
Si 12.222777959999998 6.806352959999999 12.244468083875763 
Si 13.57545069 8.141742 10.861332760252676 
Si 12.21890094 4.07181582 9.502622681652094 
Si 14.93219592 6.7882059 9.501660787333345 
Si 14.92097211 4.06502289 12.246804112935582 
Si 15.38469954 6.581730149999999 14.999883066667492 
Si 13.547431889999999 5.46632127 13.72585404148529 
Si 15.37503957 4.17265092 17.12645963857748 
Si 15.364271879999999 8.14371309 16.94455855222846 
Si 15.03803205 7.33827033 21.45945001085357 
Si 15.27760908 5.04032148 21.194963426566297 
Si 13.4548884 7.17533775 19.527176091330748 
Si 13.08002292 5.006373119999999 17.556048512004203 
Si 12.964722299999998 6.622145639999999 24.132623029392317 
Si 14.33125782 5.00823018 25.308951074484504 
Si 15.43508451 5.65548075 28.920314587488164 
Si 13.61526345 5.540603669999999 27.477266989154465 
Si 12.70475019 7.689482729999999 27.542160502301453 
Si 14.645752559999998 6.26070312 32.98641363968011 
Si 14.67168624 7.0035922799999994 30.706483630666813 
Si 13.60583154 8.05460679 34.31664477577204 
Si 14.956565759999998 9.54906768 1.2861248462404622 
Si 13.573723949999998 10.85857191 2.7094089516607354 
Si 14.932244789999999 9.50347197 6.787950793933063 
Si 13.57509231 10.86000543 8.14494320410731 
Si 12.21789096 9.50181039 9.502691388389145 
Si 14.92234047 9.49604373 12.241067100391616 
Si 16.28895744 10.86127605 10.867722486798648 
Si 13.50413307 10.760180309999999 13.742378011746645 
Si 14.972823179999999 11.98098549 15.150797414605403 
Si 16.22899395 10.450034999999998 16.53606264707715 
Si 12.70778013 10.786521239999999 21.0696423381808 
Si 14.00609313 9.65878083 19.420783709003477 
Si 15.859797389999999 11.26031589 18.824271817905387 
Si 12.259316429999998 11.890771469999999 17.4451214850314 
Si 12.548822309999998 11.196915209999998 24.727520312169645 
Si 16.26256764 11.40063795 22.710118745437597 
Si 14.023344239999998 10.49308947 22.980033161952093 
Si 14.513412599999999 8.2681524 23.579980389902854 
Si 15.945385049999999 8.68230936 25.504765275086847 
Si 14.491144169999998 9.19775754 27.477713582945313 
Si 15.172440839999998 9.19643805 29.861631238489014 
Si 13.65162273 11.30680755 26.79810089338107 
Si 14.547523859999998 10.87277679 31.456967319501693 
Si 12.342704939999999 11.53416708 32.09329476472226 
Si 15.967392839999999 11.284082999999999 34.07235797217848 
Si 14.19205977 13.16342772 0.03064344519942027 
Si 12.3243624 12.289762439999999 1.3295028446791606 
Si 14.93024112 12.21728823 4.071458177682117 
Si 15.046405109999998 15.06815226 1.251383284649383 
Si 13.57307235 16.28203419 2.6986426059644586 
Si 16.2913032 16.290325799999998 5.429893429334487 
Si 13.5746199 13.57463619 5.429721662491853 
Si 12.21732081 12.217614029999998 6.787435493405162 
Si 14.932375109999999 14.932538009999998 6.787401140036636 
Si 12.21722307 14.930550629999999 9.502416561440933 
Si 14.93072982 12.21841224 9.50190126091303 
Si 13.57849692 13.57546698 10.857897423400003 
Si 14.92335045 14.909112989999999 12.229661782040743 
Si 13.45772286 16.14728331 13.61386206008816 
Si 16.22943378 13.52677617 13.701497503199839 
Si 13.452966179999999 13.850067509999999 17.99000026323382 
Si 13.52190546 14.9820759 21.17077865512348 
Si 15.945515369999999 14.87589768 21.012581393057904 
Si 12.5369469 15.622419509999999 19.154819929869557 
Si 15.645665339999999 13.614856199999998 18.964708388442645 
Si 13.207003469999998 14.824551599999998 24.652458201938746 
Si 15.4632825 14.228516789999999 25.022340920866018 
Si 12.67362 12.432006719999999 28.654179041511608 
Si 14.71477329 12.58195617 29.85860814205866 
Si 16.07493942 16.218861569999998 26.120171518874635 
Si 15.77482875 12.241641779999998 26.307637850924987 
Si 12.26915559 15.86390247 26.529148371185325 
Si 15.30039879 14.401288529999999 31.179907402333637 
Si 13.353157349999998 14.06011077 32.36994244146799 
