&CONTROL
  dt          = 30.D0,
  prefix = 'x2.66_y1.66_z3.16_struc35-scf',
  pseudo_dir = './',
  outdir='./',
  wf_collect= .true.,
  verbosity= 'high',
/

&SYSTEM
ibrav= 6, celldm(1) =30.783621515, celldm(3) =2.110272343468375, nat=  432, ntyp= 1,
  ecutwfc     = 12.D0, nbnd= 1728,
  degauss     = 0.05D0,
  occupations = "smearing",
  smearing    = "methfessel-paxton",
/
&ELECTRONS
  electron_maxstep=200,
  conv_thr    = 1.D-8,
  mixing_beta = 0.3D0,
  scf_must_converge=.false.,
/
&IONS
/
ATOMIC_SPECIES
Si  28.08  Si.pbe-hgh.UPF
K_POINTS {automatic}
1 1 1 0 0 0
ATOMIC_POSITIONS (angstrom)
Si -0.009988474139999998 2.71655298 2.707163998483291 
Si 2.7234762299999997 0.00885548835 2.6934203391605465 
Si 1.3643868689999998 1.40994837 1.3071567568320235 
Si 4.07683314 4.00141044 1.1785858207815025 
Si -0.00019297133999999998 0.000515060478 5.430257991289144 
Si 0.000177114654 2.7150705900000003 8.144854153718352 
Si 2.71502172 -0.000436884768 8.144957282727777 
Si 2.7161294399999996 2.71480995 5.429845475251443 
Si 1.357556472 1.357807338 6.787607637008461 
Si 2.7164715299999997 2.71551042 10.86323171315982 
Si 1.351299483 1.334499606 12.234366269805653 
Si 4.06657044 4.08206223 12.241241537100672 
Si 4.07090358 1.3561457579999998 9.501791283399967 
Si 1.6695783899999999 3.35158605 15.032600058878778 
Si 3.62274939 1.606892841 14.946246701653328 
Si 0.554073399 1.88354754 17.70071941439365 
Si 1.93279221 2.577078 19.561613636800228 
Si 2.10020454 0.553348494 22.826024924812188 
Si 0.895935339 3.8418498899999998 23.72527551066432 
Si 0.7443194219999999 2.3105247299999996 21.75176440996532 
Si 1.081058157 1.482360678 26.64681721867363 
Si 3.32374644 2.22044103 26.944069400173817 
Si 0.277373088 0.641039193 28.69963452762069 
Si 4.04772291 0.743236137 28.67244284546889 
Si 0.25779250800000003 0.0327521853 34.183553980147465 
Si 2.3490342899999996 2.98836792 34.22817446489214 
Si 2.3386575599999997 2.74561434 31.735340049063808 
Si 0.39772197899999995 2.5125533099999995 30.24302890634325 
Si 1.355730363 4.07377062 4.068920690538715 
Si 0.6731288639999999 4.8477411 0.15689497472581462 
Si 2.72852613 5.43602187 2.6864900697271663 
Si 1.3877092619999998 6.857308079999999 1.272756356921391 
Si -0.000856958256 5.4304995599999994 5.43056737831742 
Si 2.7146470499999995 5.43002715 8.144751024708928 
Si 1.3574652479999998 6.78753801 6.787435755326086 
Si 1.356347754 4.0725814499999995 9.501894412409392 
Si 1.3327630919999998 6.777047249999999 12.223743981834847 
Si 3.41907552 7.0455879 15.168730351320175 
Si 2.47981041 5.2865122499999995 13.68662898053272 
Si 0.864441882 7.80761781 17.00432359008108 
Si 0.679029102 6.025003109999999 20.250137280060006 
Si 2.65093686 4.81398822 19.766427849518873 
Si 3.9985434 5.97541635 17.795185587027223 
Si 3.2084132399999996 4.3364468700000005 23.861990200825794 
Si 0.7915815989999999 7.459728569999999 22.10707822377195 
Si 3.4373529 5.937542099999999 25.573209854219787 
Si 0.660613257 4.77412659 29.390530138097247 
Si 2.8364473799999996 5.69439756 29.165571392204193 
Si 1.62647505 7.521907499999999 25.967918949626885 
Si 3.94477011 4.47259869 27.482059066009132 
Si 2.5225879499999997 7.8729244199999995 28.15892913120385 
Si 3.5027735399999997 6.2480620799999995 31.37810116041457 
Si 1.6179130259999999 5.12683767 32.216883770407 
Si 3.97682883 9.49961124 1.3417496642269164 
Si 1.3582911509999998 9.50446566 4.0701926149882945 
Si 2.70278793 10.8836748 2.7055036214315438 
Si 0.000500208885 8.14465791 8.144819777381876 
Si 2.71581993 8.14591224 5.430223614952669 
Si 2.7147936599999998 10.8598914 8.144957282727777 
Si 1.3544630009999998 9.50117508 9.502238175774144 
Si 2.71529865 8.14783446 10.86457239028235 
Si 0.46980848699999994 10.570939379999999 16.41243182865281 
Si 1.64107089 8.97363972 14.954325140724977 
Si 2.78777286 10.738107359999999 13.69223232337816 
Si 3.1812578099999995 9.42265728 19.761202646374663 
Si 3.65806611 11.746099979999999 19.27769947385238 
Si 1.0611191969999998 9.383789339999998 18.64878439804043 
Si 1.572921675 10.78319808 23.086872565985242 
Si 2.67296094 9.011628 22.04162567912336 
Si 1.7455875299999999 9.893959559999999 25.256603795284118 
Si 1.617204411 9.22341429 29.88778384520957 
Si 1.015916076 11.411552249999998 28.925624563607997 
Si 3.75331374 10.95794091 25.877406055687945 
Si 0.1276029909 10.845572489999999 26.675693341312712 
Si 2.16244863 8.69325624 34.27361998171223 
Si 0.37121652 10.411606889999998 34.20648299657636 
Si 3.1796450999999997 8.55189162 32.03345163897587 
Si 1.3524055739999998 12.301507529999999 1.1851929526520166 
Si 1.356898356 14.93045289 4.067476884406761 
Si 0.00042039928799999994 13.575010859999999 8.145163540746628 
Si 2.7166507199999996 13.57448958 5.431254905046922 
Si 1.3576167449999998 12.21743484 6.787504507999036 
Si 4.06300293 14.93318961 12.229931722400366 
Si 1.355494158 14.931674639999999 9.501928788745868 
Si 2.7140769 13.576802759999998 10.863644229197522 
Si 1.361288511 12.19905972 12.238216419490865 
Si 2.6043311699999996 16.11885726 13.714576942086975 
Si 3.68926146 12.2743521 15.188599873802781 
Si 1.6539562799999998 12.66946605 16.419341472284305 
Si 1.047844476 14.559464429999998 15.122391049751739 
Si 1.5473691809999999 14.978475809999999 19.505992724383518 
Si 1.562707845 12.759175079999999 18.78051451941301 
Si 3.7614261599999996 15.771163499999998 18.69955824701415 
Si 1.068856947 16.22899395 24.84907232637181 
Si 2.1246884099999996 13.107243509999998 23.171300848368087 
Si 1.215784602 14.852863619999999 21.87108467387039 
Si 1.5203375549999998 13.954290929999999 25.32752217743225 
Si 3.3328362599999997 13.18752063 26.64829540114206 
Si 2.17598562 15.57025893 29.348040986214027 
Si 2.6484770699999998 13.21350318 28.86797544733926 
Si 2.69863398 13.76381196 34.26959795034464 
Si 2.17849428 15.485127389999999 32.8348327948834 
Si 0.544421574 14.82075603 30.968232100621954 
Si 3.6884795399999994 12.293525429999999 32.77006777696431 
Si 6.788368799999999 4.07267919 4.066342465303084 
Si 4.07354256 1.3565155409999998 4.07050200201657 
Si 5.43302451 2.70037701 2.6766240611588126 
Si 6.817641929999999 1.230662259 1.1705555085809192 
Si 5.4295873199999996 -0.00040116405599999996 5.431083023364546 
Si 5.430336659999999 2.7147122099999996 8.144888530054827 
Si 6.78781494 1.357422894 6.78740137898961 
Si 8.14640094 2.7130180499999996 10.862131670392618 
Si 5.433301439999999 0.0018749952899999999 10.864056745235224 
Si 6.79027473 1.342486593 12.247016761628489 
Si 6.934783319999999 3.64340511 15.10014956005235 
Si 5.007562289999999 0.321685146 16.544918229427847 
Si 5.34325032 2.6356242599999997 13.64475860270605 
Si 7.36707105 1.9973657699999998 21.338595221871092 
Si 5.05547118 2.34727497 21.33515758822358 
Si 4.100355899999999 1.72019142 19.276702560094602 
Si 5.87034585 2.1708705599999996 17.75403711226653 
Si 6.750576 2.9511778499999997 25.017413246090374 
Si 4.40431101 2.52920169 24.841612661356713 
Si 4.35550617 0.9443508479999999 23.132421211814748 
Si 7.9644090599999995 1.473490773 23.617127556113658 
Si 8.04235671 0.428086539 28.147103671456414 
Si 7.704453239999999 2.61692334 27.180234831757755 
Si 4.70984625 1.8318430799999998 30.673351886338548 
Si 6.373902329999999 3.53372454 30.490126012926268 
Si 4.07287467 6.78370986 4.071464539437874 
Si 6.84202806 6.896811329999999 1.0996302511654934 
Si 4.07253258 4.07246742 6.787710766017885 
Si 5.42947329 5.43136293 5.429329830204316 
Si 6.78776607 6.787440269999999 6.787298249980185 
Si 6.78620223 4.0720927499999995 9.502100670428243 
Si 4.07293983 6.78546918 9.502100670428243 
Si 5.43005973 5.43183534 10.860206595550013 
Si 6.76520442 6.78682125 12.231031765167568 
Si 5.264716229999999 8.009711549999999 13.720902187998394 
Si 7.99521345 5.281527509999999 13.549364268987647 
Si 6.1103301299999995 4.51457802 17.228354174889304 
Si 5.4433035 6.602027489999999 21.479641330428425 
Si 4.81929876 7.702987139999999 19.29994096355177 
Si 8.024242229999999 5.035467059999999 18.563290449226855 
Si 7.61805108 5.90865993 22.189547054975712 
Si 7.753258079999999 5.07690882 24.415346089065476 
Si 4.12545879 4.58983782 21.657573248023542 
Si 5.01433893 7.654361489999999 25.272657544417992 
Si 7.242941249999999 7.061372909999999 25.691395699021182 
Si 7.31831508 6.31718055 27.869892894121207 
Si 6.250000589999999 4.2376317299999995 28.219431483400022 
Si 5.633635859999999 5.289591059999999 34.213289511198425 
Si 5.66193159 5.43708072 31.8274342544806 
Si 7.56921366 7.02209772 31.322239613642534 
Si 5.4310534200000005 8.14211667 2.6862322472036033 
Si 6.78574611 9.503976960000001 4.067545637079712 
Si 4.070985029999999 12.21826563 4.0733552379440034 
Si 4.0721742 9.50288553 6.787573260671986 
Si 5.4301086000000005 8.145048869999998 8.145163540746628 
Si 5.4295547399999995 10.86101541 5.430704883663321 
Si 6.78659319 9.50164749 9.501138133006942 
Si 4.08916467 9.49452876 12.226597217762281 
Si 5.431411799999999 10.85922351 10.861650401681967 
Si 6.777421919999999 12.216718079999998 12.253410760212859 
Si 8.05213071 10.736217719999999 13.71729267266851 
Si 6.80164515 9.2401767 15.210119460436193 
Si 7.359577649999999 10.15300314 19.104098974653127 
Si 4.95431028 11.836981889999999 17.195146633854357 
Si 6.77865996 11.48153409 20.928451151386675 
Si 5.9198837399999995 9.63641466 17.380160076763342 
Si 6.2990986499999995 10.101119489999999 22.779169978196624 
Si 4.7524446 8.30982222 22.974668203730516 
Si 5.352503039999999 11.62967535 24.246627029645683 
Si 4.34040534 9.04393107 27.14218022727982 
Si 7.504412039999999 8.198887319999999 29.273513088736006 
Si 7.33427928 10.99443051 27.21055476052879 
Si 5.929217909999999 9.782812889999999 28.658211042168197 
Si 5.63368473 10.877419439999999 30.704737481540317 
Si 7.431612029999999 8.331194700000001 33.322220493427366 
Si 5.03496207 11.000034269999999 34.295723966065715 
Si 7.82553681 11.700259919999999 31.119556733785345 
Si 5.33935701 9.4517838 32.60922089859732 
Si 4.15808766 14.98593663 1.292096483822282 
Si 5.430336659999999 13.565725559999999 2.6999312172889303 
Si 6.696737549999999 12.21719049 1.1423497245030998 
Si 6.787896389999999 14.932114469999998 4.072770840223927 
Si 4.07248371 14.932309949999999 6.787573260671986 
Si 5.43012489 13.57505973 8.144751024708928 
Si 6.78709818 12.21792354 6.787710766017885 
Si 4.0713597 12.21595245 9.502513186465945 
Si 6.78504564 14.93017596 9.501172509343416 
Si 5.24741625 13.559014079999999 13.720455295624218 
Si 6.478239779999999 14.937539039999999 15.273853188261029 
Si 6.77017287 13.47181371 17.236845129998652 
Si 5.080264559999999 13.0297194 20.66708786516649 
Si 7.680148559999999 16.2147402 20.046079346743813 
Si 5.87875149 14.727951899999999 19.205268532899346 
Si 4.4387317799999995 13.357457909999999 22.92870704186331 
Si 7.72437591 15.405681060000001 23.698083828512516 
Si 5.382786149999999 15.249052709999999 23.96099404987408 
Si 6.739694279999999 12.71742381 25.799440524562417 
Si 5.27273091 14.478780059999998 26.274934010686 
Si 5.931319319999999 15.66164583 28.255973529073053 
Si 4.77782442 16.133762609999998 32.00488490336507 
Si 7.51837257 14.09456412 34.282592205532225 
Si 4.360523489999999 12.859244549999998 30.49799819397906 
Si 7.789389299999999 13.904492399999999 31.93523844566651 
Si 5.95078587 14.600075399999998 30.425292242334226 
Si 5.78096262 15.881740019999999 34.196891998699805 
Si 12.07976805 1.267093215 1.2937087340029643 
Si 9.501223949999998 1.361699019 4.073423990616954 
Si 10.85379894 2.7101672999999997 2.7054795579960116 
Si 9.532908 4.006916459999999 1.2257982812964046 
Si 8.14488597 3.5742214799999996e-05 8.145404175101953 
Si 8.1454887 2.71270854 5.43063613099037 
Si 10.85832756 9.44099982e-05 5.4296048408961175 
Si 10.86007059 2.7146633399999995 8.145129164410154 
Si 9.50034429 1.356258159 9.502513186465945 
Si 9.85918041 -0.00259449201 16.00063769401759 
Si 8.99905212 2.09564334 15.208916288659566 
Si 10.766826629999999 2.67664248 13.570643221265733 
Si 10.52837361 3.53696625 21.088576126687688 
Si 10.53837567 2.40865569 18.989350763499242 
Si 9.71027352 0.025107614099999998 18.453354925179486 
Si 9.45642645 3.5787338099999997 17.21254106011076 
Si 11.35517256 1.73628594 22.408214931293823 
Si 10.16310294 1.87517448 24.37498827004371 
Si 11.16104463 0.08228632859999999 25.753307481012836 
Si 11.390733629999998 1.51972668 29.926216589388726 
Si 9.83880162 3.66984378 27.205535815403426 
Si 11.90109933 2.8174043699999998 28.04308087728276 
Si 8.50241889 2.1708705599999996 34.19397001009942 
Si 10.24930962 0.316495152 34.05928352378998 
Si 9.15261795 0.774786609 30.2520698828362 
Si 8.292082409999999 2.57017104 31.718289386172156 
Si 11.535763499999998 2.17883637 32.095466549976955 
Si 10.117767869999998 4.07096874 32.12527083370087 
Si 10.858490459999999 8.12670633 2.704162944309015 
Si 12.21792354 4.06953522 4.070261367661245 
Si 8.15031054 5.43942648 2.673530190876054 
Si 9.50567112 6.785599499999999 4.071258281419023 
Si 9.50278779 4.07219049 6.787538884335511 
Si 8.145097739999999 5.42975022 8.145232293419578 
Si 10.85925609 5.43120003 5.429398582877266 
Si 10.857920309999999 5.43258468 10.858590907735682 
Si 8.14594482 8.148192839999998 10.860481606241814 
Si 9.50153346 6.78605562 9.50072561696924 
Si 9.49785192 4.07512269 12.210371586946032 
Si 9.51744879 6.58482525 14.703309131783797 
Si 10.81673919 5.20480161 16.10187600493676 
Si 12.072633029999999 5.361967529999999 21.465409527127733 
Si 8.27595531 4.145951609999999 20.781595441965045 
Si 9.22235544 7.138571219999999 18.259747398151724 
Si 11.50280883 6.839535689999999 17.63268864450943 
Si 11.4538248 5.945002919999999 24.858732076921314 
Si 9.11345679 7.789405589999999 22.111306513158386 
Si 11.28556539 7.10379207 22.805261617581223 
Si 9.92165256 4.19120523 24.93088800718255 
Si 9.52095114 5.729372189999999 28.20843105572799 
Si 11.051852760000001 7.041075569999999 26.914608879814658 
Si 9.58982526 5.9093604 30.59194872156551 
Si 11.56146912 7.17610338 30.593014387996238 
Si 11.41199208 4.927725 34.2797389696048 
Si 9.44039709 9.454357619999998 1.3350222151787394 
Si 8.13639888 10.87499223 2.6916258943965463 
Si 11.47016367 10.05135354 0.17899242757537354 
Si 12.20101452 12.13404633 1.2984217297337006 
Si 12.217597739999999 9.5027715 4.067373755397336 
Si 8.14599369 8.143990019999999 5.429673593569068 
Si 9.50285295 9.502250219999999 6.787091991961335 
Si 10.86026607 8.14529322 8.144991659064253 
Si 8.14491855 10.86013575 8.144922906391303 
Si 10.85976108 10.85914206 5.429501711886692 
Si 9.47258613 9.511845029999998 12.208859028141129 
Si 10.861732169999998 10.860477839999998 10.862853573458596 
Si 11.61312471 9.87981984 14.864774784207341 
Si 10.79942292 8.13393909 13.501684290296684 
Si 8.62410519 8.151662609999999 16.19482961876543 
Si 9.76355811 11.673707219999999 15.13143202624469 
Si 8.65588698 12.00028914 17.378338130930164 
Si 9.095863589999999 8.733785759999998 19.901904991567243 
Si 10.9457397 10.12594545 19.463297314481444 
Si 11.935487519999999 9.25684137 17.200578095017423 
Si 9.906600599999999 11.40751233 22.81516200248605 
Si 8.47594764 9.620026919999999 23.464840385528966 
Si 11.754538199999999 10.620281789999998 21.6087588502289 
Si 8.314660349999999 9.23351409 25.761592178103335 
Si 9.50428647 9.51507045 28.890010679019795 
Si 8.849102669999999 11.75892021 28.878700864319487 
Si 11.715458489999998 11.16399312 25.931136269598525 
Si 10.42426422 9.279403019999998 26.748571174639924 
Si 11.278430369999999 9.471999689999999 30.36018346105039 
Si 8.738444699999999 10.42208136 33.048412973403195 
Si 10.983060089999999 10.810663019999998 32.38735602298703 
Si 9.50269005 12.222061199999999 4.070845765381321 
Si 9.38012409 14.944055039999999 1.2945990811176695 
Si 10.85106222 13.56820164 2.6908180504893817 
Si 8.13437892 16.2950499 2.7156721417608782 
Si 8.144120339999999 13.575304079999999 5.43063613099037 
Si 9.502282799999998 14.932847519999997 6.787504507999036 
Si 10.860038009999998 13.57533666 8.144647895699501 
Si 9.50242941 12.21694614 9.502788197157745 
Si 8.14221441 13.57896933 10.863609852861048 
Si 9.488077919999998 14.930224829999998 12.248323062414542 
Si 10.86264441 16.290488699999997 10.863644229197522 
Si 11.80883277 15.03936783 14.967285019576089 
Si 10.67071563 13.42074456 13.66493751221693 
Si 8.1932184 16.192178549999998 13.972261960304325 
Si 8.86777101 12.646089899999998 21.125358806716044 
Si 10.15031529 12.35378214 19.11592443440056 
Si 11.427304679999999 14.2620579 18.418084803956035 
Si 8.861531939999999 14.94806238 21.685246198886 
Si 11.15032581 15.64522551 22.116153576601373 
Si 11.93341869 14.67469989 24.212078811488208 
Si 10.55728836 12.75570531 24.600978306031013 
Si 8.66240298 13.955691869999999 25.35117309692712 
Si 9.611670149999998 15.193520099999999 27.140014518081887 
Si 10.5762825 13.421526479999999 28.563297977160445 
Si 9.67831254 15.328580489999998 31.728052265731083 
Si 11.42311815 14.170475519999998 30.660048244122684 
Si 13.16582235 3.11231853 0.18440051282963624 
Si 14.932928969999999 1.358572968 4.071120776073123 
Si 13.574603609999999 0.000276501573 8.145026035400727 
Si 13.57553214 2.7152660699999998 5.4306705073268455 
Si 12.21719049 1.357794306 6.78726387364371 
Si 16.2930951 0.0016423089299999998 10.860206595550013 
Si 14.93213076 1.35539316 9.502513186465945 
Si 13.571703989999998 2.71702539 10.86261293910327 
Si 12.20845905 1.352964321 12.222678315404119 
Si 14.94182331 4.075106399999999 12.234538151488028 
Si 16.203777029999998 2.55665034 13.652802665441222 
Si 15.44583591 3.68988048 17.033543476084915 
Si 13.44614067 -0.018773573399999997 13.651874504356394 
Si 14.803227989999998 1.1410086149999998 15.102074634894954 
Si 13.419881189999998 2.50466895 16.41188180726921 
Si 12.28015134 3.92152428 14.897947948905813 
Si 14.11587144 0.165654639 19.89472033724395 
Si 12.841390709999999 1.9104911999999998 18.778589444570407 
Si 14.109567209999998 3.9381563699999997 18.941773913817702 
Si 13.54537935 2.38747869 22.99556901630738 
Si 15.042348899999999 1.013094648 21.896557539198437 
Si 13.92314445 2.6271697499999997 25.26605728781477 
Si 16.12385829 3.22527339 25.795762256559584 
Si 12.996634409999999 1.130995152 26.814951880373343 
Si 15.68930625 1.5478546229999999 32.36886155396342 
Si 13.732779509999999 2.8069787699999997 32.31351565223851 
Si 16.285650569999998 8.133010559999999 2.712440766132219 
Si 14.971536269999998 4.125540239999999 1.3042416434989348 
Si 13.586984009999998 5.44312431 2.703946373389222 
Si 12.254608619999999 6.757271189999999 1.2570360582513278 
Si 14.931479159999999 6.7884828299999995 4.074661538730058 
Si 14.93261946 4.07264661 6.78726387364371 
Si 13.57476651 5.430304079999999 8.144716648372452 
Si 12.21789096 6.78709818 6.7879514003732115 
Si 16.2934209 5.43139551 10.856975219921354 
Si 12.216473729999999 4.07228823 9.50227255211062 
Si 14.93232624 6.78626739 9.50220379943767 
Si 12.227941889999999 6.784410329999999 12.22343459480657 
Si 16.19805924 5.8405514400000005 16.509888742559717 
Si 16.18408242 8.09951832 13.619801382425127 
Si 13.6264221 5.478392159999999 13.654383976919075 
Si 14.31879597 7.40330001 14.92111759969003 
Si 12.914483939999998 5.953229369999999 19.346177136110782 
Si 15.566137559999998 4.18851738 20.808271479069724 
Si 14.879725829999998 7.740828809999999 19.404479402772548 
Si 16.07805081 5.93387685 23.586360734968444 
Si 14.064118109999999 4.71939219 22.62045443269109 
Si 13.601384369999998 5.01977979 25.08241889836479 
Si 15.59101239 6.721107389999999 25.790812064107172 
Si 15.594058619999998 4.9051633500000005 27.43554788275832 
Si 12.68761311 6.783351479999999 28.549478689897455 
Si 13.481213039999998 4.57556778 28.630056822595087 
Si 14.0098887 4.8427400700000005 31.194531523637536 
Si 12.63038634 6.33715209 32.47804079860834 
Si 16.012108889999997 6.07432923 31.123097496442277 
Si 14.974712819999999 9.505817729999999 1.3456685665850776 
Si 13.58382375 10.86503904 2.7112375943555906 
Si 16.289038889999997 10.8600543 5.430395496635044 
Si 13.57637922 8.14428324 5.429639217232593 
Si 14.932375109999999 9.50264118 6.787779518690836 
Si 13.57455474 10.86000543 8.144854153718352 
Si 12.216473729999999 9.502038449999999 9.502341304783569 
Si 13.57621632 8.1425565 10.859175305455759 
Si 14.932472849999998 9.5029344 12.223090831441821 
Si 16.2917919 10.86147153 10.86065348792419 
Si 14.79288384 12.02118921 15.181208961460635 
Si 13.50972054 10.772169749999998 13.648677505064208 
Si 16.252940249999998 11.260332179999999 19.60568410016131 
Si 14.059231109999999 11.72344059 18.932904819007128 
Si 14.052112379999999 9.59179635 18.05675513126626 
Si 15.011023229999997 8.60406849 21.697037282296957 
Si 12.87672372 8.871338519999998 22.763322487081602 
Si 14.2480485 11.96816526 23.044967811822097 
Si 13.42892214 10.20337182 24.607750444316608 
Si 15.887083139999998 10.79807085 21.88060691907399 
Si 14.86556982 9.038001509999999 26.220103754008218 
Si 13.04206722 10.497292289999999 29.209401221209948 
Si 14.185169099999998 8.595434789999999 28.4265489106625 
Si 15.733272959999999 8.30356686 30.283249220019115 
Si 14.197630949999999 11.495787839999998 30.982773290950924 
Si 15.11479053 9.7555923 32.26153863148816 
Si 13.378243949999998 8.32394565 34.183760238166315 
Si 12.21934077 14.932016729999999 4.068130034799789 
Si 14.932668329999998 12.216652919999998 4.072736463887452 
Si 14.914309499999998 14.97684681 1.150892244117162 
Si 13.57101981 16.28648136 2.6892264261105847 
Si 16.277831369999998 13.58006076 2.6835921445623154 
Si 13.57499457 13.573609919999999 5.429914227924393 
Si 12.21776064 12.21706017 6.787813895027311 
Si 14.9325543 14.932505429999999 6.7872294973072345 
Si 12.217109039999999 14.93068095 9.501206885679892 
Si 14.931739799999999 12.21715791 9.501791283399967 
Si 13.572779129999999 13.5780408 10.861169132971314 
Si 12.21715791 12.218672879999998 12.24027899967937 
Si 14.916394619999998 14.93535618 12.234091259113852 
Si 15.36383205 15.34627143 16.265060474184057 
Si 13.2745581 13.78764423 16.496825734699183 
Si 16.09754994 13.384222379999999 13.586834475745505 
Si 13.11257034 12.47470281 21.013188820797794 
Si 12.5234262 14.74091874 20.438347722261177 
Si 15.9868431 16.11313947 18.43403542408048 
Si 15.67427058 15.54844662 23.27209226691308 
Si 14.281280099999998 13.941275219999998 24.26247452076071 
Si 15.709408109999998 13.07373498 26.025293055203825 
Si 15.73667757 12.90536154 29.93419189945095 
Si 12.56086062 12.338485829999998 27.795433749316143 
Si 14.576845859999999 13.707367109999998 27.981753493011183 
Si 14.32415538 16.044965819999998 28.293615617513286 
Si 13.47513687 13.5163017 34.27262306795445 
Si 12.89403999 15.998083199999998 30.178160759414734 
Si 12.57513066 12.77368947 32.1808573697811 
Si 14.757892919999998 15.72253785 31.653111852215368 
