&CONTROL
  dt          = 30.D0,
  prefix = 'x3.00_y.66_z3.15_struc33-scf',
  pseudo_dir = './',
  outdir='./',
  wf_collect= .true.,
  verbosity= 'high',
/

&SYSTEM
ibrav= 6, celldm(1) =30.783621515, celldm(3) =2.104478273085783, nat=  432, ntyp= 1,
  ecutwfc     = 12.D0, nbnd= 1728,
  degauss     = 0.05D0,
  occupations = "smearing",
  smearing    = "methfessel-paxton",
/
&ELECTRONS
  electron_maxstep=200,
  conv_thr    = 1.D-8,
  mixing_beta = 0.3D0,
  scf_must_converge=.false.,
/
ATOMIC_SPECIES
Si  28.08  Si.pbe-hgh.UPF
K_POINTS {automatic}
1 1 1 0 0 0
ATOMIC_POSITIONS (angstrom)
Si 2.7092061899999997 0.00474346881 2.6781882941590505 
Si 2.7345534299999996 2.933829 0.03886647638496692 
Si 1.363885137 1.356619797 1.163001477220722 
Si -0.000255621051 0.000200332791 5.4301924853589405 
Si -0.00030992050799999996 2.7152497799999997 8.145323009989479 
Si 2.71546155 -0.000523154979 8.145357291940549 
Si 2.7146796299999996 2.7146470499999995 5.430295331212146 
Si 1.357188318 1.357675389 6.7872778003592495 
Si 2.7125293499999996 2.71529865 10.865492981427096 
Si 1.3411540709999998 1.3750600769999999 12.23735381733796 
Si 1.3593353400000001 4.0736403 9.501585558164143 
Si 4.07362401 1.3576330349999999 9.502853990353682 
Si 2.8109372399999994 0.1184095665 13.515384953174152 
Si 3.8146130099999995 1.7001873 14.970208110670947 
Si 2.7396196199999996 2.94549264 17.87742040713867 
Si 2.01515445 0.6087393809999999 18.625589707259085 
Si 1.87898634 3.08609163 24.635489985187498 
Si 2.4134938200000002 2.17204344 22.54477091731985 
Si 1.225276785 0.170188146 22.97785480516906 
Si 1.054567359 3.71148102 21.472260078139715 
Si 3.6632300399999997 2.06620731 25.662474393348575 
Si 2.0993248799999997 3.7740183299999996 28.67393810301581 
Si 0.1369959678 2.82791142 27.715037649676912 
Si 0.1233151371 0.607571388 28.473765790726443 
Si 2.79816588 3.01347081 30.833118227167393 
Si 2.62019763 0.726336891 31.315225305044653 
Si 0.336753396 0.34775077499999996 30.81902834527821 
Si 1.355598414 4.07235339 4.066113652340643 
Si 2.72223819 5.4358752599999995 2.7019799682006362 
Si 1.298602962 6.73690869 1.2741881291214066 
Si -0.000413182818 8.13540519 2.707300527006478 
Si -0.0010548068220000001 5.432438069999999 5.429746819995049 
Si 2.71490769 5.43048327 8.145014472429862 
Si 1.357344702 6.7877497799999995 6.787037826701769 
Si 2.7151194599999995 8.14666158 5.430089639505735 
Si 1.369407447 6.802182719999999 12.22463521349152 
Si 3.8079178199999997 6.89622489 15.192080897986717 
Si 0.7928375579999999 4.59378 15.011175042197886 
Si 2.62728378 5.42761623 13.671916341753231 
Si 2.5307655299999996 7.48380519 17.480709669373205 
Si 2.52064944 4.46451885 19.81644184152791 
Si 1.3999919219999999 6.490033739999999 19.44054024806107 
Si 1.506033306 5.40885015 24.761818974875172 
Si 0.244760508 5.54635404 22.77250591826834 
Si 3.73111047 5.996821409999999 24.327878038249242 
Si 0.643249746 7.4605593599999995 21.47476266056772 
Si 1.71603747 6.099301799999999 28.725258183765455 
Si 0.49017424499999995 6.430282019999999 26.74972647148819 
Si 3.89661687 6.795666719999999 28.218570946972026 
Si 1.89625374 4.28716962 32.59678748184091 
Si 2.44369548 6.74353872 32.43600513132933 
Si 0.9301313069999999 7.29798516 30.669833294227804 
Si 3.91642551 9.46939329 1.3355768188998904 
Si 1.354036203 9.50145201 4.0763639557101445 
Si 0.32451960599999996 10.436888969999998 0.03731830347471043 
Si 2.70767493 10.85609583 2.7406225834451257 
Si 1.4455957769999999 12.15895374 1.28614910184923 
Si 0.000409084254 8.14498371 8.145014472429862 
Si 2.71498914 10.85976108 8.145083036331998 
Si 1.3593206789999999 9.50404212 9.501962659625898 
Si 2.71383255 8.14514661 10.860384970717881 
Si -8.28154278e-05 10.857073230000001 10.862853271194817 
Si 0.0349756074 8.17811757 13.624230147816855 
Si 0.9412085069999999 9.959152139999999 15.016591590466719 
Si 2.73369006 10.922330969999999 13.692725486051852 
Si 1.370661777 9.55719639 17.35348934895775 
Si 1.5623690129999999 11.3081922 19.366731207410442 
Si 1.9120876199999999 8.973053279999998 22.764758197326845 
Si 3.9209378399999997 8.27709561 23.74378215594299 
Si 0.47201578199999994 9.780988409999999 24.367405127831304 
Si 2.36332062 10.89888966 21.527111199849426 
Si 0.8887009499999999 12.06536769 24.863156422233857 
Si 0.43981370999999997 8.78343768 26.50293070574557 
Si 2.396259 11.94824259 26.6789342425316 
Si 2.02074192 9.914680439999998 27.897520475214897 
Si 2.14578396 8.66118123 34.07279688509808 
Si 3.06950841 10.2765465 31.981666433817605 
Si 1.6002448919999999 9.57472443 30.27051712818113 
Si 4.0735588499999995 12.217972409999998 4.070810279637037 
Si 3.31043751 13.051205909999998 0.09114782304257497 
Si 1.357455474 14.931088199999998 4.069953230860323 
Si 9.379765709999999e-05 13.574587320000001 8.145323009989479 
Si 2.7161294399999996 13.572990899999999 5.4313923536463395 
Si 1.357352847 12.21692985 6.787723465723142 
Si -0.0014909064119999998 16.291629 10.865732955084578 
Si 1.358999766 14.9323914 9.503196809864365 
Si 2.7132949799999997 13.57224156 10.85969933169651 
Si 1.3814441279999998 12.212482679999999 12.219355793026962 
Si 3.97428759 12.58280325 14.966231404346994 
Si 0.16521318 13.569749189999998 16.34563426949294 
Si 2.77373088 15.73680789 16.721672990764056 
Si 2.53990422 13.43270142 16.65955409542781 
Si 0.1432153269 13.627692719999999 13.595261899163914 
Si 1.033765029 15.5286054 14.973602023826736 
Si 3.3444998999999997 15.770446739999999 20.36375319033759 
Si 3.4036651799999995 12.46329981 18.604986254666876 
Si 2.7088966799999996 14.80205511 22.482206356619713 
Si 1.4170801319999997 12.816792809999999 22.675522278695365 
Si 0.21340225799999998 16.230916169999997 25.11365463869188 
Si 3.5209043099999997 13.591366019999999 29.79746048538597 
Si 3.7505770199999997 16.10696556 26.25500363561769 
Si 1.5441812279999998 15.63528861 27.050687719919143 
Si 1.7174384099999997 13.55697783 28.201018588024922 
Si 3.31793091 12.666484979999998 32.035969044310214 
Si 6.7862511 4.06904652 4.068719080621855 
Si 4.0726629 1.358279748 4.068547670866511 
Si 5.43631509 2.71942002 2.6794944364947626 
Si 6.87543885 1.3768307999999998 1.1939889327916 
Si 4.0728258 4.07243484 6.78751777401673 
Si 8.14482081 -5.51455596e-05 8.144705934870245 
Si 8.146971090000001 2.71459818 5.4318380190102316 
Si 5.43180276 9.785940569999999e-05 5.430398177065351 
Si 5.43015747 2.71494027 8.14504875438093 
Si 6.78713076 1.358028882 6.787963439380622 
Si 5.42828412 0.000987964065 10.86017927901147 
Si 6.78634884 1.3657047299999998 12.228200536402651 
Si 7.508321639999999 3.6325070999999998 15.094445901343436 
Si 5.03119908 0.19233603 16.558319493922333 
Si 5.5316604599999994 2.77913916 13.722722193236848 
Si 5.0786681399999996 2.4398347499999997 17.558049750983894 
Si 4.35558762 1.351962486 21.3132603890837 
Si 5.63516712 2.74849767 19.862996731079026 
Si 7.98902325 2.59918353 19.736359203831736 
Si 5.75491491 0.489701835 22.940453196553253 
Si 5.52700152 2.4013577699999997 24.310222833448933 
Si 7.54318224 2.12086026 25.50988542914238 
Si 4.07036601 3.54571398 27.360288020019375 
Si 7.71308694 3.2564198699999998 27.606500992593826 
Si 5.30601138 0.21083006699999998 28.08089463148066 
Si 5.745336389999999 2.48934006 28.589947322897817 
Si 5.10971688 3.55993515 30.592698904323527 
Si 4.21775793 4.264852319999999 1.260389643816308 
Si 4.0715226 6.79003038 4.071084535245586 
Si 6.95081268 6.900443999999999 1.1534402410676985 
Si 8.15594688 5.43670605 2.680433761954042 
Si 5.42916378 5.42937555 5.429198308777952 
Si 6.787407689999999 6.78726108 6.787483492065661 
Si 5.429766509999999 8.14495113 8.145083036331998 
Si 6.788710889999999 4.073493689999999 9.502031223528034 
Si 4.07408013 6.788808629999999 9.50045425377888 
Si 4.082453189999999 4.07683314 12.249386782163027 
Si 5.430141180000001 5.43133035 10.861276301445663 
Si 6.77716128 6.782276339999999 12.252472157759199 
Si 5.58313686 6.50603052 16.745636074560984 
Si 6.6793887 4.37448402 17.195483836482726 
Si 4.75739676 4.74729696 20.765674784665475 
Si 5.70668022 6.92432514 20.296114900879306 
Si 8.12361123 6.74127441 20.027378686452806 
Si 4.66776918 7.937628299999999 18.434810649562507 
Si 5.19727563 4.501073610000001 23.113371357743105 
Si 7.4381769 5.163701939999999 23.647107053929634 
Si 6.88930164 6.25329117 25.690962694686554 
Si 5.192975069999999 5.822225189999999 29.899037906402135 
Si 7.3208726099999994 6.62035374 29.454229591287476 
Si 4.71559662 5.61596121 26.388703244785106 
Si 8.11667169 5.584798439999999 27.52089896077561 
Si 5.656474439999999 5.629335299999999 33.90214133267875 
Si 4.77666783 6.92404821 31.98845426012918 
Si 6.977365379999999 4.2836021099999995 32.364972928715254 
Si 8.17023321 10.85462973 2.696248025981972 
Si 5.4307602 8.13890754 2.6768992927988724 
Si 6.785518049999999 9.503357939999999 4.066353625998123 
Si 5.08298499 11.18751588 0.21955018513087285 
Si 4.0718809799999995 9.50249457 6.787380646212456 
Si 5.42997828 10.86254667 5.430055357554666 
Si 6.788776049999999 9.503243909999998 9.503916730836805 
Si 4.07421045 9.511845029999998 12.241536215368326 
Si 5.42650851 10.86279102 10.867789872148691 
Si 5.408475479999999 8.1945216 13.722447937628301 
Si 7.133749379999999 9.216881999999998 15.105758945196063 
Si 6.63382557 10.57882374 17.373544290332866 
Si 4.64994792 10.552482809999999 21.006094107509337 
Si 4.72071168 10.372852980000001 18.656683436878275 
Si 5.45444586 8.58005703 21.996808211439866 
Si 7.5670307999999995 8.860831469999999 22.961193776949738 
Si 6.939719189999999 8.582647139999999 25.193908686143395 
Si 4.854696929999999 9.54721062 25.55842867185547 
Si 5.55627465 10.073182139999998 29.425158496781325 
Si 7.582164209999999 8.952234659999998 28.913637504887234 
Si 4.6406952 11.9368233 25.788563409378764 
Si 4.176299879999999 9.05432409 27.765706373356252 
Si 5.13638361 9.30170403 31.614472455922176 
Si 6.7661981099999995 10.330808489999999 32.97779708601697 
Si 7.63478091 13.94806815 0.07137467930524666 
Si 4.126354739999999 14.96068713 1.2446576564709426 
Si 5.42038347 13.591496339999999 2.723526174447231 
Si 6.79558527 12.26224863 1.4367051463570573 
Si 6.78367728 14.93227737 4.072010147924437 
Si 8.149007339999999 16.3017288 2.704671101359519 
Si 4.07277693 14.93245656 6.787414928163524 
Si 5.430206339999999 13.574880539999999 8.14484306267452 
Si 6.78721221 12.21805386 6.787586337918867 
Si 8.143761959999999 13.571606249999999 10.864395958992903 
Si 4.07326563 12.219633989999998 9.502236915234446 
Si 6.786984149999999 14.9343462 9.5026140166962 
Si 4.0793906699999996 14.93553537 12.205334475039917 
Si 6.78392163 12.23825346 12.257717296272688 
Si 7.996598099999999 14.042745629999999 16.10010693593986 
Si 5.891816069999999 12.662379899999998 16.44354352174477 
Si 5.52695265 13.889570759999998 13.682098081220595 
Si 6.69657465 15.55022223 14.904695302178915 
Si 7.83889461 12.329233109999999 20.896083326530302 
Si 4.743973799999999 13.985241929999999 19.806774331326572 
Si 5.978055329999999 14.661374669999999 17.884071105645972 
Si 5.59934541 12.601634489999999 21.554159659242522 
Si 7.92332568 16.076780189999997 22.19074120863475 
Si 5.5239389999999995 13.054024079999998 23.906518577665484 
Si 4.47282675 15.14785923 24.091195448071854 
Si 7.8232725 12.610870919999998 24.33679134552707 
Si 6.284291039999999 13.05004932 27.298820481753435 
Si 5.58233865 12.45342807 29.39903565006708 
Si 7.263971639999999 15.232013369999999 27.781441788896725 
Si 4.26033999 15.80408559 30.09139393384787 
Si 7.53247971 12.64187079 32.383690873998695 
Si 5.558604119999999 13.74388929 31.433155216720525 
Si 5.97929337 15.77916189 34.24016137021483 
Si 12.09991878 1.195137027 1.3207430186725213 
Si 9.50104476 1.3570889489999998 4.078832256187082 
Si 10.853261369999998 2.6979009299999994 2.7032175466342117 
Si 10.8600543 0.00165397257 5.431460917548478 
Si 10.86033123 2.71485882 8.144603089017039 
Si 12.209306129999998 1.3488022259999999 12.259088574315433 
Si 9.5030973 1.3571378189999999 9.50305968206009 
Si 8.13871206 2.71777473 10.86209906827131 
Si 12.21764661 4.073086439999999 9.50233976108765 
Si 10.86391503 -0.00182004912 10.862133350222377 
Si 8.34460137 0.215849016 13.552443742279273 
Si 9.190166399999999 1.80892305 15.221117710541792 
Si 10.82786526 2.75359644 13.69440530165421 
Si 10.6745112 1.64682126 17.75688506718159 
Si 12.05890056 3.6626436 20.4788034181237 
Si 10.860347519999998 3.8905406999999994 18.472383667933656 
Si 8.43779646 1.182113172 17.785681906079184 
Si 11.40751233 1.80757098 21.75642317054707 
Si 9.03220227 1.88499735 21.847750288193733 
Si 8.847636569999999 3.1975803899999997 23.911009513255465 
Si 10.92045762 3.1988673 25.220477198221538 
Si 9.54163944 2.8140974999999995 29.013089444937144 
Si 10.65356226 0.0626524803 26.39624527402019 
Si 11.07946431 2.1291518700000003 27.379245938960295 
Si 8.1826299 2.8328309999999997 34.00382159954812 
Si 9.40481973 1.161498177 30.64120786508555 
Si 11.93418432 2.45255724 32.3157440469808 
Si 9.8088606 1.458461619 32.921780377970926 
Si 10.87170165 8.13656178 2.6844173246682095 
Si 12.235972859999999 6.76740357 1.1676295406149786 
Si 9.571547879999999 4.083658649999999 1.2554701838379687 
Si 9.499008510000001 6.78669093 4.068513388915443 
Si 9.5021199 4.07214162 6.787894875478485 
Si 8.14441356 5.43058101 8.14528872803841 
Si 10.860380099999999 5.429180069999999 5.430398177065351 
Si 10.85780628 5.42904975 10.861242019494595 
Si 8.14708512 8.143077779999999 10.863436064362983 
Si 12.20384898 6.791577929999999 12.23851940367429 
Si 9.50365116 6.786414 9.50401957669001 
Si 9.50431905 4.09716306 12.242324700242902 
Si 8.21543796 5.513790329999999 13.760809440874027 
Si 9.034792379999999 7.58400498 15.094137363783819 
Si 8.61609051 4.716769499999999 18.755106918396134 
Si 10.735256609999999 6.45250158 23.341003512838395 
Si 8.586605610000001 6.7853388599999995 22.364653546405595 
Si 11.274097229999999 5.47655139 25.482151330727913 
Si 10.36537587 4.86204372 29.87596615333299 
Si 10.4192469 5.99542047 27.718808664294453 
Si 8.65025064 5.83957404 31.224412416664016 
Si 12.063510629999998 4.6011593699999995 31.455575612719368 
Si 9.43376706 7.92562257 32.03254084920336 
Si 11.40762636 4.9291585200000005 34.21664395178178 
Si 9.730619729999999 9.60911262 1.216028799133582 
Si 9.50370003 12.21601761 4.072592941092602 
Si 12.218167889999998 9.50053977 4.066696445508809 
Si 8.14558644 8.1456516 5.431186661939929 
Si 9.50257602 9.502657469999999 6.78751777401673 
Si 10.85945157 8.14465791 8.145151600234136 
Si 8.145114029999998 10.859744789999999 8.145802957304438 
Si 10.85945157 10.86077106 5.428649797560855 
Si 12.217548869999998 12.217043879999999 6.78751777401673 
Si 9.49703742 9.53276139 12.226246465191744 
Si 10.85710581 10.85767596 10.861447711201007 
Si 9.50591547 12.21973173 9.502545452794063 
Si 12.21748371 9.50236425 9.501277020604526 
Si 10.87118037 8.27883864 13.634686142892768 
Si 8.18609967 10.918291049999999 13.768317188158042 
Si 10.304304659999998 8.191019249999998 17.184033664825826 
Si 11.2068684 9.226998089999999 20.65206439882424 
Si 9.27836046 8.76768525 19.294499136508975 
Si 8.339877269999999 10.984330709999998 18.99449778270794 
Si 10.02309039 12.14743671 17.741389625298595 
Si 11.46688938 10.33370811 17.206042677411844 
Si 10.7549838 10.349737469999999 22.70185081711602 
Si 8.53260426 11.032239599999999 22.71995168728023 
Si 11.818883699999999 12.140562329999998 23.783960602595354 
Si 11.19517218 8.595174149999998 24.18303679498455 
Si 11.60423037 11.432175390000001 26.052911534068485 
Si 9.687728159999999 9.3076173 29.916933084859927 
Si 10.289936879999999 11.606071140000001 29.708018875048076 
Si 10.55215701 9.32077962 26.299021660789734 
Si 8.16216966 11.95410699 26.562512736702743 
Si 8.2653831 9.615302819999998 26.741155983721047 
Si 11.11530231 8.166177 28.256932450217754 
Si 8.228453669999999 8.640704699999999 33.98445229719438 
Si 11.01829536 10.978107929999998 34.035635250139755 
Si 12.216278249999998 14.933792339999998 4.069884666958186 
Si 9.45559566 14.899338989999999 1.3127039011469421 
Si 10.85914206 13.569635159999999 2.7010235017658233 
Si 8.14638465 13.57663986 5.429609692190774 
Si 9.50223393 14.93270091 6.7881005671848955 
Si 10.86020091 13.574913119999998 8.14528872803841 
Si 12.21777693 14.933352509999999 9.5026140166962 
Si 12.22867494 12.22896816 12.25123800752073 
Si 9.525984750000001 14.920597439999998 12.247569838756393 
Si 9.52699473 12.417345719999998 15.314570309154707 
Si 10.96587414 13.613292359999999 13.836401142980218 
Si 10.91065104 14.47068393 21.14654726103726 
Si 8.66483019 14.551971029999999 20.486653984918405 
Si 11.6919846 12.935726099999998 19.537078222270157 
Si 8.31811383 15.13098279 18.17293082534972 
Si 10.99465857 14.323878449999999 23.487490289754383 
Si 8.72505432 14.772912299999998 24.001308172370074 
Si 8.35198074 16.17976557 25.870737246090123 
Si 9.06663933 15.315515909999998 29.57397644636998 
Si 10.20382794 12.562505909999999 27.519150581271116 
Si 10.76415507 14.76755289 28.042533128234933 
Si 9.575180549999999 13.388620679999999 31.15118616918156 
Si 11.77925013 14.1856578 32.54039367233312 
Si 10.94738499 15.938608409999999 34.0870581767426 
Si 16.28573202 2.7110306699999995 2.681119400975413 
Si 13.57318638 -0.00331024203 2.697063936417404 
Si 12.870191429999998 3.0427113599999998 0.14613058744438612 
Si 14.93582859 1.357488054 4.06810200550262 
Si 14.75717616 3.96583308 1.236159160801045 
Si 13.574847959999998 -0.00044431463699999996 8.145220164136273 
Si 13.57419636 2.7147936599999998 5.430329613163214 
Si 12.2175 1.357997931 6.7876891837720725 
Si 14.931967859999999 1.357274655 9.50213406938124 
Si 13.57865982 2.71539639 10.862304759977722 
Si 14.945716619999999 4.051697669999999 12.219047255467345 
Si 16.21534293 2.7349281 13.795365647551144 
Si 13.574717639999998 0.04782010949999999 13.927556850871538 
Si 14.319952559999999 1.8979479 15.335619427110808 
Si 12.607140509999999 3.67932456 14.91079748946912 
Si 14.47157988 1.283091624 17.89223021000029 
Si 15.373801529999998 2.47285458 21.406473014039136 
Si 15.81288219 0.220786515 21.39533137994185 
Si 14.11080525 2.99727855 19.497996798051986 
Si 12.46139388 0.227660895 18.500700559516293 
Si 14.51399904 2.82219363 23.621635564285686 
Si 12.36824766 1.8946410299999998 23.88649791824144 
Si 16.123011209999998 2.25142461 25.35074861228209 
Si 13.19432985 1.9292572799999999 28.459950164445814 
Si 14.523414659999998 3.9191785199999996 28.581685372690295 
Si 16.11996498 0.22151142 34.0672089270739 
Si 15.28326171 1.64419857 32.28883271539197 
Si 15.73951203 3.97619352 32.452460467842236 
Si 13.254619139999999 1.260156933 30.85025920270167 
Si 12.22251732 4.07390094 4.0707417157349 
Si 13.568722919999999 5.43142809 2.695723512130623 
Si 14.93494893 6.7875054299999995 4.071770174266957 
Si 14.93302671 4.07238597 6.787312082310319 
Si 13.575043439999998 5.42975022 8.144774498772382 
Si 12.21792354 6.78730995 6.787586337918867 
Si 13.575939389999998 8.145798209999999 10.863333218509778 
Si 16.28828955 5.43115116 10.86179053071169 
Si 14.93322219 6.787440269999999 9.501619840115211 
Si 13.9711185 7.962535709999999 16.115190994410032 
Si 12.38285979 4.84547679 16.96044677995663 
Si 13.55986116 5.34331548 13.553129381300645 
Si 15.28611246 6.400911149999999 14.79663859241079 
Si 12.82830984 7.47225558 20.33907018556822 
Si 15.55794369 6.48788346 18.517841535050575 
Si 12.353114249999999 7.09634754 17.714135474199086 
Si 14.57695989 4.5227718900000005 17.764324250563465 
Si 14.27088708 5.12263485 23.296025593036433 
Si 12.435851159999999 5.615879759999999 21.809045965437324 
Si 13.518842939999999 6.127239149999999 25.243308977633202 
Si 14.52163905 5.92014438 27.32508045627196 
Si 13.484910869999998 7.91259057 28.27736449305462 
Si 15.755085269999999 5.74859439 34.184350353875196 
Si 14.699737619999999 7.3095510599999995 31.352078402443365 
Si 14.33596563 4.887537569999999 30.79681364098578 
Si 14.030593289999999 7.733205089999999 34.07022573876794 
Si 14.93485119 12.21507279 4.066456471851329 
Si 14.906197079999998 9.44155368 1.2864576394088467 
Si 13.568527439999999 10.855444229999998 2.70583668769585 
Si 16.2901629 10.85928867 5.431495199499546 
Si 13.576102289999998 8.14438098 5.4302267673100095 
Si 14.933140739999999 9.502087320000001 6.787826311576347 
Si 13.575304079999999 10.86011946 8.14528872803841 
Si 14.929866449999999 9.50306472 12.23351423881828 
Si 12.43749645 9.58848948 15.079567534579677 
Si 13.78471203 11.03021964 13.687514629489428 
Si 15.616261889999999 11.82644226 15.0048328812502 
Si 15.48473643 8.773174979999999 17.762130205695076 
Si 14.891731559999998 8.57595195 21.020938192322028 
Si 12.46496139 10.736657549999999 19.393471129243927 
Si 14.741863559999999 10.30368564 19.431146993468282 
Si 13.459188959999999 8.43087321 24.74865470566484 
Si 14.09502024 11.87780463 23.304664644705714 
Si 14.714985059999998 9.59972958 23.178541346724455 
Si 14.43911391 9.30258369 26.693504071735738 
Si 13.82501349 11.524344209999999 26.76745024019064 
Si 12.58397613 11.10525138 30.183509536369108 
Si 15.915150809999998 10.75980564 30.468392549748902 
Si 12.84816735 10.289578500000001 32.60052421450739 
Si 15.03552339 11.28698262 32.71098066085031 
Si 14.104289249999999 9.21759876 30.094753565052585 
Si 12.30243606 12.27708882 1.3025118770942572 
Si 14.85724563 14.9718132 1.1244548514392247 
Si 16.28861535 13.582846349999999 2.6686373425913477 
Si 13.572860579999999 13.573284119999999 5.429849665848255 
Si 14.93258688 14.93234253 6.787483492065661 
Si 14.933368799999998 12.218070149999999 9.503196809864365 
Si 13.57106868 13.577324039999999 10.863950293629012 
Si 14.930550629999999 14.9380929 12.262756743079768 
Si 12.28779135 14.940340919999999 15.425849522323276 
Si 12.754157759999998 14.301968399999998 17.751639928668094 
Si 12.42443187 16.194214799999997 20.830193416576517 
Si 15.798465539999999 12.36002121 19.745272511109565 
Si 16.096670279999998 16.21047222 19.08054547989004 
Si 15.241868819999999 14.12698122 18.33762131828312 
Si 12.27073572 15.94898514 24.662367034825255 
Si 15.409460339999999 13.203826920000001 21.902052898686346 
Si 14.125987529999998 15.24002805 22.288787588690855 
Si 14.973539939999998 12.86686827 25.251570927840728 
Si 14.40534474 15.22152261 25.425586111464774 
Si 14.289848639999999 16.19949276 27.67047111328777 
Si 13.875349589999999 12.564802799999999 28.79978714538852 
Si 16.084224719999998 12.90780504 29.478192675084397 
Si 12.948839549999999 14.66896581 28.848090414444133 
Si 13.678403489999999 13.361448959999999 33.978590083561656 
Si 13.31733564 15.234880409999999 31.074463162690105 
Si 15.6004443 14.48697393 31.223281112278755 
