&CONTROL
  dt          = 30.D0,
  prefix = 'x3.00_y.66_z3.17_struc13-scf',
  pseudo_dir = './',
  outdir='./',
  wf_collect= .true.,
  verbosity= 'high',
/

&SYSTEM
ibrav= 6, celldm(1) =30.783621515, celldm(3) =2.1163055416155427, nat=  432, ntyp= 1,
  ecutwfc     = 12.D0, nbnd= 1728,
  degauss     = 0.05D0,
  occupations = "smearing",
  smearing    = "methfessel-paxton",
/
&ELECTRONS
  electron_maxstep=200,
  conv_thr    = 1.D-8,
  mixing_beta = 0.3D0,
  scf_must_converge=.false.,
/
ATOMIC_SPECIES
Si  28.08  Si.pbe-hgh.UPF
K_POINTS {automatic}
1 1 1 0 0 0
ATOMIC_POSITIONS (angstrom)
Si 0.00217155474 2.70949941 2.695846121507578 
Si 2.73626388 0.00306470286 2.6926813516419243 
Si 1.492543557 1.446022575 1.278446364563679 
Si -0.0015950369789999998 0.00027492633 5.430062492039913 
Si 0.000193908015 2.71458189 8.145179924603053 
Si 2.71450044 0.000514102626 8.145179924603053 
Si 2.7162434699999998 2.71336014 5.430165915891732 
Si 1.3576183739999999 1.357463619 6.787603971012846 
Si 2.7140606099999998 2.71549413 10.86146949415347 
Si 1.348855983 1.360843794 12.22962915524646 
Si 4.07194614 1.3574913119999998 9.501307944267795 
Si 2.7364919399999996 0.1250641944 13.677769928412621 
Si 4.05894672 1.548594189 17.156327760484512 
Si 1.74835683 3.69250317 15.124221445332406 
Si 3.59756505 2.09416095 14.905273151032109 
Si 2.0886549299999997 1.197127665 18.57444114200596 
Si 0.20810474999999998 2.33096868 17.67879058525557 
Si 2.9371032899999996 3.3640478999999996 22.134462494693754 
Si 0.785319723 2.6124924599999995 22.67088753946034 
Si 4.03413705 1.329909084 21.72621407694787 
Si 0.879642081 2.00161746 24.968655255317547 
Si 2.59517619 0.987921711 29.709363300368206 
Si 2.94243012 1.81607436 26.17337075591964 
Si 2.18841489 2.74761801 28.1916527495453 
Si 2.68121997 3.0448290599999996 34.46175824067439 
Si 1.5775887599999998 1.218803139 31.832517079738086 
Si 3.4411484699999995 2.75975406 32.30126845079794 
Si 1.355906295 4.07297241 4.067384295093316 
Si 2.7070722 5.45218155 2.694039651562477 
Si 1.453364478 6.9046631099999995 1.1552720045092733 
Si -0.000328745232 5.429522159999999 5.430407238212642 
Si 2.7152660699999998 5.4297990899999995 8.144869653047595 
Si 1.357191576 6.787684619999999 6.787121326371025 
Si 1.358405181 4.07215791 9.501687165057799 
Si 1.3517572319999998 6.78540402 12.243867172180178 
Si 2.74466952 5.445111689999999 13.676253045252611 
Si 0.7609124159999999 6.6109707 17.97696155004903 
Si 3.7704834 6.32563506 20.313651108807356 
Si 2.71077003 4.27842189 19.949013081911712 
Si 0.5121918089999999 4.59461079 19.10472970489797 
Si 2.61058653 7.6899877199999995 18.873508446848515 
Si 0.905834772 6.679372409999999 23.22934186466433 
Si 3.7837597499999998 5.07167973 23.788761479151958 
Si 3.26301732 6.96058668 22.510201348351277 
Si 0.733932918 6.03409293 25.55724039601806 
Si 2.7110795399999996 6.06447378 29.59604523339213 
Si 0.359044632 5.753139299999999 29.186797051745327 
Si 3.0273336 5.87181195 25.954732733174797 
Si 3.59078841 4.651267409999999 27.95384683959672 
Si 2.84188824 5.04739134 31.74557209497579 
Si 0.6029776079999999 4.64194953 32.70465594750834 
Si 3.04950429 7.920768149999999 34.00569352877097 
Si 1.354466259 9.50477517 4.070900706055153 
Si 2.71217097 10.85203962 2.679019060816667 
Si 1.2367547190000001 12.16392219 1.1986617578089667 
Si -3.8231000999999996e-05 8.14506516 8.145007551516688 
Si 2.7152009099999996 8.145781920000001 5.430096966657186 
Si 0.000328865778 10.86039639 5.43085540823719 
Si 2.71541268 10.86002172 8.14490412766487 
Si 4.08320253 9.49726548 12.242901882896534 
Si 1.358670708 9.505426769999998 9.502583505106893 
Si 2.7152171999999997 8.14550499 10.8651238035844 
Si -0.0020390681699999995 10.86042897 10.859952610993462 
Si 1.367863155 12.2261337 12.212633168930914 
Si 2.75344983 9.78994791 16.503792204742734 
Si 1.001287656 9.98200701 14.77385590998775 
Si 2.7397010699999997 10.90509615 13.57151915797749 
Si 1.315559223 10.84439961 18.040911965090295 
Si 0.30618032399999995 10.24580727 21.30141784291098 
Si 4.00934367 10.50530697 20.92978146870893 
Si 2.08924137 9.7164963 19.88833775551138 
Si 1.3011002189999998 11.94858468 22.503340899513965 
Si 1.64287908 10.87197858 24.529241783556945 
Si 3.80089683 9.910868579999999 24.693272012541485 
Si 3.8444562899999997 8.181522179999998 26.280655764872954 
Si 3.16715067 8.361135719999998 29.899077119221072 
Si 0.256673385 9.18340605 27.56021565957455 
Si 2.67483429 11.939185349999999 27.83366832378333 
Si 2.5912340099999995 9.483304949999999 27.8904824930491 
Si 3.7145435399999998 11.094076439999998 32.34891237186911 
Si 2.16841077 9.096759539999999 32.00454541992995 
Si 0.538169472 15.687823859999998 -0.0008348718064982354 
Si 4.051323 14.835140099999998 1.202943505274263 
Si 1.358918316 14.93359686 4.067935888969682 
Si -0.0001439496801 13.57435926 8.144490432257594 
Si 2.7162271799999997 13.57450587 5.430131441274459 
Si 1.3574896829999998 12.21743484 6.787672920247392 
Si 1.357577649 14.931283679999998 9.502031911230526 
Si 2.7120895199999997 13.57409862 10.85933206788255 
Si 2.7015824699999995 13.98255408 16.360894916146492 
Si 3.9683743199999997 12.409298459999999 14.814673856838885 
Si 0.1498732128 13.674982589999999 13.618335688234112 
Si 1.180972872 15.288458219999999 15.046998302641073 
Si 0.0838877985 15.400403099999998 21.19895928037587 
Si 2.33253252 16.203695579999998 20.60792644184898 
Si 3.1382847899999997 14.103816839999999 19.894956882027778 
Si 1.509175647 13.217885189999999 18.423856013757856 
Si 3.41282016 12.60997497 21.740865789288858 
Si 3.4973652599999996 15.202984589999998 24.470945205748443 
Si 1.177765371 14.721044939999999 24.697650288935144 
Si 1.353311298 12.713253570000001 25.967867562355778 
Si 1.88318916 13.180450769999998 29.687265070696267 
Si 3.3638524199999997 15.81698727 26.71638045258536 
Si 1.8280638 15.330600449999999 28.53774343234812 
Si 2.2255560899999995 13.932364589999999 34.30476083361352 
Si 3.1527991799999997 13.41494532 31.921358168450396 
Si 8.13894012 0.0217875492 2.687420525046077 
Si 4.074063839999999 1.3558786019999998 4.075934000176999 
Si 5.4152847 2.70327663 2.7137453427956766 
Si 6.59427345 1.295041968 1.2222010264829148 
Si 5.42991312 0.0027700330499999997 5.429752220484457 
Si 5.429294099999999 2.715543 8.145076500751234 
Si 6.787521719999999 1.3574961989999998 6.787259224840117 
Si 6.78393792 1.362247992 12.243246629069263 
Si 5.48072163 2.92912119 13.597513019401271 
Si 7.67094471 2.97067698 21.360886557706767 
Si 6.02549181 1.506383541 20.444240959037167 
Si 5.87894697 2.7000675 18.376591313476688 
Si 5.02455276 0.641143449 23.74522003753626 
Si 5.14597842 2.36105631 25.320227402266756 
Si 6.64829109 2.15800146 27.137694750277678 
Si 6.41855322 0.320443848 28.571528557275577 
Si 5.84657874 2.4901708499999997 31.586437261644004 
Si 4.8980771999999995 0.735241005 30.273126716632223 
Si 7.62881877 3.11238369 34.41490723580049 
Si 4.17243915 4.17020742 1.3922194964877603 
Si 6.788906369999999 4.07240226 4.069039076722415 
Si 4.0699261799999995 6.787391399999999 4.070555959882424 
Si 5.88560958 5.0680144799999995 0.04067453244327861 
Si 6.88410513 6.916685129999999 1.304574676994823 
Si 4.0725814499999995 4.0723696799999995 6.787569496395573 
Si 5.4291312000000005 5.42996199 5.429614322015365 
Si 6.78776607 6.78713076 6.787707394864665 
Si 6.78730995 4.072516289999999 9.502100860465072 
Si 4.07463399 6.78776607 9.502031911230526 
Si 4.05410859 4.09584357 12.20563482162451 
Si 5.426150129999999 5.430646169999999 10.859745763289823 
Si 6.7865606099999995 6.8193198 12.226526439691899 
Si 6.334529399999999 4.821237269999999 15.026244583042775 
Si 4.51913922 6.572803229999999 14.97132651772702 
Si 4.112801459999999 7.850770019999999 17.09041229225869 
Si 6.623514 4.959539369999999 17.708749027665736 
Si 7.4491400699999994 6.730539299999999 21.38912126925328 
Si 6.0072470099999995 6.569789579999999 19.566069033244148 
Si 7.51899159 4.81734396 22.791238428360096 
Si 5.919802289999999 4.48458813 24.49621510020949 
Si 6.202173149999999 7.868607569999999 26.431344316972876 
Si 6.7274442 5.58924561 26.444030976129312 
Si 5.90841558 4.19063508 28.143009064573214 
Si 6.522906959999999 6.55253847 31.49921647994352 
Si 4.58584677 6.2961990299999995 32.94170341587692 
Si 6.6919319999999995 4.37976198 30.358692716703604 
Si 8.15099472 10.85573745 2.693184681054109 
Si 4.1093154 9.445300379999999 1.200709550074978 
Si 5.428544759999999 8.146303199999998 2.70446132836408 
Si 6.7870167299999995 9.503439389999999 4.07062490911697 
Si 4.073086439999999 12.22064397 4.069004602105142 
Si 6.75042939 12.23097183 1.305177982797099 
Si 4.07223936 9.50283666 6.787431597926481 
Si 5.42991312 8.14508145 8.145076500751234 
Si 5.42988054 10.860103169999999 5.430441712829915 
Si 6.78861315 9.50239683 9.501790588909616 
Si 5.431444379999999 10.85788773 10.861193697215286 
Si 6.8079168 12.20155209 12.228560442111002 
Si 7.89936309 8.35264863 16.89525148387671 
Si 5.56635816 8.27518968 13.733136163752926 
Si 6.86287926 9.64552077 15.159971623444422 
Si 5.02891848 10.858555619999999 16.23902714408673 
Si 7.74135009 10.71333027 21.117943929784516 
Si 5.868863459999999 10.687836419999998 19.576066672253294 
Si 6.11813304 8.639091989999999 18.40013747707409 
Si 7.64110143 8.790979949999999 24.742432816772663 
Si 6.93735714 8.78599521 22.475381984905628 
Si 4.53531519 8.99871003 22.665716346869406 
Si 5.248067849999999 11.72132289 25.30760969234487 
Si 7.51195431 11.023996859999999 25.51986991089422 
Si 7.08398343 8.74878885 28.435112496726642 
Si 6.43060782 12.18814542 29.297219250870484 
Si 7.7923703699999995 10.93257738 27.871452504314448 
Si 8.02020231 8.443025549999998 34.23491525901859 
Si 5.23190817 11.05045182 34.28493792868159 
Si 7.17955686 10.621992239999999 32.96090577769794 
Si 5.56239969 8.4958866 30.239376066322034 
Si 5.734682729999999 10.66649652 31.07031776645116 
Si 5.42241972 13.568022449999999 2.7078639730889167 
Si 6.78708189 14.93165835 4.06672927736513 
Si 4.07267919 14.93229366 6.7875350217783 
Si 5.430190049999999 13.574587320000001 8.144973076899415 
Si 6.787440269999999 12.21736968 6.78729369945739 
Si 4.07287467 12.220057529999998 9.50113557118143 
Si 6.78815703 14.934183299999999 9.50347984515599 
Si 4.0723370999999995 14.94496728 12.236972248725593 
Si 5.426101259999999 16.291629 10.86298637731348 
Si 4.68428724 15.5546694 16.667339789085453 
Si 5.471338589999999 13.570889489999999 13.52328916841268 
Si 6.712897229999999 14.748379559999998 15.0932977136386 
Si 8.018361539999999 16.27359597 13.782676188774108 
Si 6.47534016 15.44485851 20.184233395564828 
Si 5.05550376 14.44318641 18.63580596075175 
Si 5.85298071 12.336156359999999 17.95500121884618 
Si 6.458365979999999 14.35834809 22.286185285311863 
Si 4.700235149999999 13.36469067 23.58270669171173 
Si 7.2536274899999995 16.04766996 23.676477650694064 
Si 8.12053242 12.74682726 22.22968138760155 
Si 7.31285793 14.70604185 25.61546802459202 
Si 5.491717379999999 14.945048729999998 27.167239497280566 
Si 4.887879659999999 12.67461369 27.515984725613396 
Si 7.757216549999999 14.026830299999999 34.4462101882843 
Si 5.1546121199999995 15.038080919999999 31.68896477341366 
Si 7.23461706 14.003828819999999 30.65731185152161 
Si 5.755371029999999 15.66063585 34.13166378028621 
Si 9.49851981 1.359263664 4.0706938583515155 
Si 10.85971221 2.70958086 2.693646640925566 
Si 9.453852629999998 4.02377661 1.2303542734679596 
Si 8.1456516 0.0005894422469999999 8.144387008405776 
Si 8.146987379999999 2.71581993 5.4310277813235555 
Si 10.86081993 0.001367428212 5.429890118953549 
Si 10.85896287 2.71487511 8.145042026133961 
Si 9.503797769999998 1.357158996 9.499997908811425 
Si 8.14806252 2.71399545 10.861297121067105 
Si 9.273310559999999 1.329630525 15.444490639797808 
Si 10.65260115 2.79596673 14.005968284850791 
Si 12.10920408 2.33754984 21.346855388476687 
Si 11.62713411 0.390186225 20.12848793943452 
Si 9.33223149 3.0698179199999998 19.77433019618984 
Si 9.65535993 0.8199962459999999 18.847514585424737 
Si 8.195189489999999 2.28986901 17.65407228467089 
Si 9.96806277 2.6007310799999996 22.301319642294672 
Si 9.57514797 0.490320855 23.43391424356182 
Si 10.07788995 3.9701987999999995 25.66700757741503 
Si 10.07196039 0.388485549 25.80976696754218 
Si 10.441596780000001 0.469081953 29.93499967041945 
Si 10.16282601 2.57518836 28.91910164862113 
Si 9.01679193 2.24239995 26.809944563864054 
Si 10.79614863 1.2595395419999997 32.25455534439314 
Si 11.88493965 3.48078204 32.760884048280474 
Si 8.53825689 2.29185639 32.36518439122193 
Si 10.872939689999999 8.13527487 2.6769678210889283 
Si 12.12997383 6.61535271 1.0563884597853648 
Si 8.159693579999999 5.43554946 2.6967596988653106 
Si 9.50239683 6.78496419 4.071728096869704 
Si 9.50272263 4.07284209 6.787810818716484 
Si 8.14493484 5.4300760200000004 8.144835178430322 
Si 10.860168329999999 5.4304995599999994 5.430200390509004 
Si 8.14179087 8.14359906 10.86088342565983 
Si 9.50233167 6.7865606099999995 9.500894248860519 
Si 9.494561339999999 4.06029879 12.245728801512914 
Si 10.86109686 5.43089052 10.8605386794871 
Si 11.653100369999999 4.69873647 15.158282367198048 
Si 8.69747535 6.02642034 17.00201937357093 
Si 8.181131220000001 5.52887487 13.602029194264022 
Si 9.98648676 6.48669429 14.975670319503406 
Si 9.48266964 7.07337864 20.21653611194955 
Si 10.163428739999999 5.17551219 18.87299132758942 
Si 11.04142716 6.6687024599999996 23.709883554831524 
Si 10.870284419999999 8.067541049999999 21.803713016577387 
Si 9.66415653 7.70275908 25.369250308028846 
Si 9.77781186 4.62464955 23.472112119500213 
Si 9.06812172 5.80192785 26.64422507863314 
Si 12.13826544 5.91809184 28.683088418770737 
Si 9.77603625 6.01066791 28.844705424546174 
Si 8.770079879999999 6.85323558 32.648634694439856 
Si 9.06276231 4.14994266 30.28419306877683 
Si 10.54523376 5.267860199999999 33.98445716453085 
Si 9.55405242 9.53092062 1.2454093388310425 
Si 8.14486968 8.14410405 5.43002801742264 
Si 9.502022160000001 9.50269005 6.787603971012846 
Si 10.859875109999999 8.14457646 8.144938602282142 
Si 8.14493484 10.859809949999999 8.145765993096692 
Si 10.85860449 10.85920722 5.430165915891732 
Si 9.49037481 9.52790697 12.243074255982899 
Si 10.85503698 10.85915835 10.866054618250768 
Si 10.91534256 8.26482924 13.619197553665934 
Si 8.20357884 11.12561388 13.88789272069105 
Si 9.229148369999999 11.079806399999999 19.22466689839045 
Si 9.61051356 8.82707859 18.53558824833938 
Si 12.04852383 8.749196099999999 18.0659750118477 
Si 11.058857459999999 10.93327785 24.18170316682867 
Si 10.19512908 10.333333439999999 22.05985942291516 
Si 10.83491883 9.585589859999999 26.163683388465948 
Si 11.516525009999999 11.07946431 29.941239576145847 
Si 9.3353103 8.300699819999998 29.030558086264467 
Si 10.10950884 10.93190949 28.002731846889713 
Si 10.168934759999999 8.352469439999998 31.222385303241996 
Si 10.84350366 11.02875354 34.38250109556395 
Si 11.444946749999998 10.11920139 32.25452086977587 
Si 12.216555179999999 14.92963839 4.070659383734243 
Si 9.50019768 12.220676549999999 4.070487010647878 
Si 9.53862579 15.080027669999998 1.1940593964030322 
Si 10.8512577 13.58250426 2.6870033821770747 
Si 8.14475565 13.57387056 5.430751984385371 
Si 9.502250219999999 14.93252172 6.787431597926481 
Si 10.85985882 13.575108599999998 8.144800703813049 
Si 9.503797769999998 12.219194159999999 9.50196296199598 
Si 8.147117699999999 13.570205309999999 10.862779529609842 
Si 9.50606208 14.944494869999998 12.247073311586556 
Si 10.85159979 16.2976563 10.859297593265277 
Si 10.83338757 13.80399939 15.812472704568927 
Si 8.45670915 13.047801299999998 15.61376101060783 
Si 11.364979139999999 14.045238 13.523392592264496 
Si 11.0744307 16.11139644 16.4054361216631 
Si 9.84572487 13.781763539999998 20.989974150467447 
Si 11.208090149999999 12.22699707 19.821146726446464 
Si 8.602960770000001 14.936431319999999 19.31681755036096 
Si 8.187354000000001 12.83523309 17.94679625993523 
Si 10.83728088 13.173299459999999 24.871574733077015 
Si 11.06788212 15.402618539999999 22.094885634064443 
Si 8.49722238 12.91494006 24.539549694121547 
Si 10.70409384 13.131336419999998 27.196611871197096 
Si 8.42243499 15.614062739999998 29.28308465778859 
Si 9.13370526 14.902857629999998 27.12828317976217 
Si 10.54472877 12.47981787 32.363564084210104 
Si 8.21294559 12.786428249999998 32.49084437118171 
Si 11.27606832 16.07373396 34.27173415026607 
Si 12.27199005 1.334154258 1.3160857517022502 
Si 14.93183754 1.356269562 4.074313693165172 
Si 13.57533666 -4.98449565e-05 8.144973076899415 
Si 13.57496199 2.71459818 5.430889882854463 
Si 12.21735339 1.357712856 6.7875350217783 
Si 16.28988597 0.00503857845 10.860711052573466 
Si 14.932538009999998 1.355834619 9.501997436613253 
Si 13.57865982 2.71534752 10.867847298348961 
Si 12.19796829 1.3685326740000001 12.25645040748479 
Si 14.922878039999999 4.06803654 12.269757609752135 
Si 16.2538362 2.5625799 13.794121761708716 
Si 15.881886629999999 0.828325323 15.609210361127806 
Si 13.29141825 0.1191479922 18.470258848607205 
Si 13.33103553 3.70449261 19.798083207490883 
Si 14.70421737 1.8120181499999999 19.333089569713774 
Si 13.68136827 0.185336217 24.704889958562458 
Si 13.72245165 1.96706637 23.092822380263573 
Si 15.45126048 1.2760347959999998 21.552668853596003 
Si 15.94634616 0.051393158099999996 25.612365309037457 
Si 16.049543309999997 3.8875433399999997 25.83386472501595 
Si 12.354401159999998 0.0193909644 28.559290068143692 
Si 14.38837056 2.82312216 29.377993279140927 
Si 14.44491315 0.5146630019999999 29.53712811247271 
Si 12.35210427 3.45007539 26.09301042305647 
Si 12.275524979999998 1.0534123979999999 26.361740064698857 
Si 16.262486189999997 3.65226687 28.19303173423622 
Si 12.358294469999999 3.6018819 28.45162583840037 
Si 13.5363384 2.7966672 34.445865442111575 
Si 13.99307742 3.7157327099999997 31.471809159211553 
Si 15.44070456 0.49867110899999995 31.70103088945918 
Si 15.51220137 2.54135403 32.903333166852164 
Si 16.00523451 5.74284402 0.11747674005771079 
Si 16.3036836 8.14622175 2.693750064777385 
Si 12.21888465 4.076262989999999 4.072003893807886 
Si 14.88366801 4.08963708 1.372127689541104 
Si 13.54816494 5.43685266 2.7063229576968175 
Si 14.934623129999999 6.78669093 4.0678324651178634 
Si 14.932538009999998 4.07276064 6.7875350217783 
Si 13.57489683 5.430434399999999 8.145248873837598 
Si 12.21764661 6.7870656 6.787224750222844 
Si 16.2906516 5.42846331 10.866778585213499 
Si 12.216050189999999 4.07149002 9.502583505106893 
Si 14.93172351 6.7893462 9.501273469650522 
Si 12.20368608 6.80386059 12.2136674074491 
Si 16.18773138 8.14038993 13.649190470693371 
Si 13.40645823 5.47169697 13.687905465890857 
Si 14.17314708 7.474796819999999 14.98528873772255 
Si 13.48585569 7.01421336 17.213590099774827 
Si 15.001118909999999 5.115043709999999 20.624267410436342 
Si 14.623044299999998 7.4728908899999995 20.590172013953428 
Si 15.237828899999998 8.01461484 18.37817714587124 
Si 12.393594899999998 4.9216977 17.71709188504578 
Si 15.921797129999998 4.675197419999999 22.719910445222432 
Si 13.26784662 6.44442174 24.585676732032713 
Si 14.14854918 4.1045424299999995 24.39303257071165 
Si 13.432212719999999 6.791301 26.914057908028266 
Si 15.80441139 6.98345784 27.362193457958917 
Si 15.2793684 5.65565994 31.182739493378143 
Si 14.230145789999998 7.668093959999999 31.888503858189303 
Si 12.44111283 7.64499474 30.278263434605886 
Si 14.10342588 7.3855602 34.30010676028168 
Si 14.935111829999999 12.21557778 4.071279926845155 
Si 12.21714162 9.50383035 4.068970127487869 
Si 14.80642083 9.29219067 1.2584579814688417 
Si 13.572779129999999 10.85914206 2.682900902721598 
Si 13.576069709999999 8.1464661 5.429717745867184 
Si 14.93276607 9.50255973 6.787672920247392 
Si 13.57621632 10.8598914 8.144180160702138 
Si 12.220253009999999 9.50226651 9.502652454341439 
Si 13.574587320000001 8.14506516 10.857539387784357 
Si 14.927765039999999 9.51208938 12.214977442905472 
Si 12.630565529999998 9.406530179999999 14.880416951978336 
Si 13.74587667 10.993241339999999 13.629160718057808 
Si 13.03991694 10.553395049999999 16.973888085876233 
Si 15.63998013 11.79348759 14.934162880306815 
Si 15.26491917 10.36340478 17.851232620854702 
Si 12.933412919999999 10.960498439999999 20.896478988423297 
Si 12.62349567 8.67527208 20.371499516591314 
Si 15.052953689999999 11.45726199 20.000656058586543 
Si 15.755345909999999 8.37134955 22.438218347485428 
Si 13.2196608 10.85112738 23.244579645498956 
Si 14.227751159999999 8.86162968 24.216798327212494 
Si 15.851701259999999 10.10087514 25.519800961659676 
Si 15.41780082 10.143929609999999 29.382164707830952 
Si 13.134838769999998 9.62823708 29.01949173411986 
Si 13.03325433 9.06680223 26.708037595205308 
Si 15.890846129999998 9.41048865 31.59019499492675 
Si 14.43590478 10.97168967 32.89478346176848 
Si 16.13501694 10.701438569999999 34.42283639777327 
Si 12.29512185 12.35884833 1.2339189488939792 
Si 15.024560219999998 14.986946609999999 1.4109530035138635 
Si 13.58994879 16.2935838 2.7177375034758806 
Si 16.291466099999997 13.54834413 2.7127283415861254 
Si 13.574733929999999 13.57435926 5.43061408591628 
Si 12.21764661 12.21746742 6.787431597926481 
Si 14.93274978 14.932114469999998 6.787328174074663 
Si 12.21776064 14.9320656 9.504272761353267 
Si 14.93183754 12.21784209 9.500515028070518 
Si 13.58074494 13.56896727 10.85567775845162 
Si 12.232063259999999 12.231444239999998 12.238282284181963 
Si 14.92598943 14.924555909999999 12.238627030354692 
Si 13.62083463 16.16611455 15.911035635352198 
Si 13.141957499999998 15.89768793 13.564382912201996 
Si 14.03684865 14.30006247 17.80982860550993 
Si 15.72322203 13.71974751 19.52600952797302 
Si 12.281650019999999 12.72244113 17.46890911529805 
Si 14.24210265 12.9363777 23.82661460891762 
Si 12.518360009999999 14.562152279999998 23.81575510447665 
Si 16.256703239999997 13.812681959999999 22.920897463923538 
Si 15.25869639 12.37582251 25.926704869331918 
Si 15.86976687 12.447726569999999 29.676129769317114 
Si 14.76056448 13.53964527 27.900618030527333 
Si 15.834873689999998 15.67855485 27.914821572843778 
Si 12.49633593 14.001971759999998 28.434664326702094 
Si 13.13311203 14.330394449999998 34.406288581482265 
Si 12.30489585 13.184555849999999 30.667171592061663 
Si 14.519830859999999 12.963581999999999 31.586471736261277 
Si 15.06794049 14.83064406 32.892783933966655 
