&CONTROL
  dt          = 30.D0,
  prefix = 'x3.00_y1.33_z3.17_struc45-scf',
  pseudo_dir = './',
  outdir='./',
  wf_collect= .true.,
  verbosity= 'high',
/

&SYSTEM
ibrav= 6, celldm(1) =30.783621515, celldm(3) =2.119710052438847, nat=  432, ntyp= 1,
  ecutwfc     = 12.D0, nbnd= 1728,
  degauss     = 0.05D0,
  occupations = "smearing",
  smearing    = "methfessel-paxton",
/
&ELECTRONS
  electron_maxstep=200,
  conv_thr    = 1.D-8,
  mixing_beta = 0.3D0,
  scf_must_converge=.false.,
/
&IONS
/
ATOMIC_SPECIES
Si  28.08  Si.pbe-hgh.UPF
K_POINTS {automatic}
1 1 1 0 0 0
ATOMIC_POSITIONS (angstrom)
Si 3.2607692999999998 2.44955988 0.20907029162613186 
Si 1.40460525 1.292113026 1.2216982866183435 
Si 4.06749897 1.360125405 4.0737203351568985 
Si 0.00022924591199999998 2.71536381 8.145714166476086 
Si 2.7151357499999995 2.7147610799999997 5.430925001981863 
Si 1.3576232609999999 1.356947226 6.787300946964724 
Si 2.7115682399999996 2.71767699 10.863093086726877 
Si 1.347632604 1.3641669539999999 12.242535122981565 
Si 1.3578366599999998 4.07350998 9.503264134068592 
Si 4.072548869999999 1.3582194749999998 9.50267712276377 
Si 0.33662307599999997 0.8304886349999999 16.0642549579861 
Si 0.0053449933500000005 2.80854261 13.738861469049315 
Si 2.36436318 2.14158114 16.417290462721336 
Si 3.96387828 2.75770152 20.379098819117782 
Si 3.28152276 1.4150992679999999 18.5812558428321 
Si 0.9025963199999999 1.2202399169999998 23.845676814705072 
Si 3.6850097699999997 3.95418573 23.979066501206656 
Si 3.22794495 1.64344923 23.7822105336308 
Si 4.004994239999999 0.22468797 25.459405421737205 
Si 1.4179614209999998 2.89152387 29.673352398593025 
Si 0.683793927 1.230281073 26.245033728049417 
Si 2.58059664 0.29983211099999996 27.309492404152028 
Si 0.36535374899999995 3.2314798799999997 27.486597167824467 
Si 3.37738941 1.96633332 28.829851683640722 
Si 0.396915624 1.226185767 31.081488928630478 
Si 1.3607541989999998 4.06805283 4.069887496637179 
Si 2.71772586 5.428447019999999 2.6927658815403768 
Si 1.427683293 6.823815839999999 1.2594293014876894 
Si 4.0726140299999996 4.072548869999999 6.786817525890165 
Si 2.7147122099999996 5.430190049999999 8.144747324326968 
Si 1.357571133 6.78770091 6.786990176273936 
Si -0.00194968494 5.42984796 10.862782316036089 
Si 1.355709186 6.79003038 12.254758770152561 
Si 3.9073193999999996 6.9707190599999995 15.028076414745204 
Si 0.305688366 6.251352659999999 16.731306980724295 
Si 1.425129021 4.19376276 15.326692518515774 
Si 2.7495728099999996 5.405364089999999 13.712963911483644 
Si 1.87874199 4.14559323 20.329133798054407 
Si 2.24686341 8.11272951 20.10385957730982 
Si 1.9546696799999999 6.087768479999999 18.832876512140167 
Si 3.77638038 6.12635949 17.326260203199656 
Si 2.16073818 5.14058643 22.57258741485341 
Si 0.36656246699999995 4.947273 24.175508107861468 
Si 2.5267418999999998 7.459272449999999 22.355496822299575 
Si 2.29348539 8.11162179 25.985333020780864 
Si 1.319584482 7.85946888 29.599975985490286 
Si 3.6587502899999995 4.90977342 26.084883232063305 
Si 1.332917847 5.00632425 26.3845352381365 
Si 0.7650777689999999 7.0464512699999995 27.427723386958505 
Si 3.7337657399999995 4.18977171 33.11745131421331 
Si 2.5876339199999996 4.6775920499999994 30.903072022041375 
Si 0.842401512 6.31338498 31.342467248738938 
Si 3.1350756599999996 7.973694359999999 34.49737677154256 
Si 0.008478114209999998 8.145847080000001 2.6863709113254934 
Si 1.3572648809999999 9.500165099999998 4.06785022210868 
Si 2.7198598499999997 10.87447095 2.692230665350686 
Si 1.300992705 12.174478109999999 1.252077848146714 
Si 2.71710684 8.14644981 5.429785509448973 
Si 0.00017819305199999997 10.862123129999999 5.429992689909498 
Si 2.71497285 10.86024978 8.145196215324773 
Si 1.3573952009999999 12.2181516 6.787680777809021 
Si 1.356683328 9.500295419999999 9.502469942303245 
Si 2.71046052 8.14873041 10.86181547388697 
Si 1.3812339869999999 12.22572645 12.238943994999124 
Si 3.21579261 8.397152909999999 17.015178741720806 
Si 0.812914983 8.79681177 16.968286897488564 
Si 0.706743279 10.13267322 14.92631627855049 
Si 2.7646247699999997 10.895028929999999 13.765242447689547 
Si 0.53253639 9.659579039999999 19.36160104740092 
Si 0.7978271849999999 12.054209039999998 19.317747849923048 
Si 1.0298293649999999 8.28284598 23.97050304217161 
Si 0.622805796 10.58146272 23.954377496327385 
Si 2.39987538 11.71783683 22.961568729489798 
Si 0.837915246 11.13366114 26.280703297336533 
Si 3.35342682 9.031925339999999 29.14165827673141 
Si 2.85685875 10.10080998 27.023272597936224 
Si 0.488735838 10.588206779999998 34.180563317322516 
Si 1.101640572 11.67082389 30.555285088972784 
Si 3.27099942 10.741055849999999 30.825448409497866 
Si 2.8434195 10.077775919999999 33.20343120533134 
Si 2.7198435599999997 16.28286498 2.712302998967919 
Si 4.07067552 12.22000866 4.069611256023146 
Si 3.95180739 14.83981533 1.3070255592857183 
Si 2.1934810799999997 13.94935506 0.027408041243208597 
Si 1.3601840490000001 14.931479159999999 4.070267327481476 
Si 2.7146470499999995 16.290488699999997 8.144540143866442 
Si 0.00039389708699999996 13.574913119999998 8.144643734096706 
Si 2.71438641 13.575727619999999 5.429647389141956 
Si 4.09071222 14.895641159999998 12.227410949363211 
Si 1.358621838 14.932472849999998 9.502297291919474 
Si 2.71704168 13.57255107 10.85684314283436 
Si 2.69151525 16.19397045 13.554298208797963 
Si 1.3949892629999998 14.65655283 17.125640457257585 
Si 1.0722599279999998 15.175682549999998 14.875660655952036 
Si 1.91197359 12.41113923 17.264762136500373 
Si 2.6777176199999997 12.228560909999999 20.678094753732648 
Si 0.1410588567 15.735227759999999 20.570326384182696 
Si 3.75127749 14.310243719999999 20.31418227481983 
Si 2.1495958199999996 15.7986936 19.33629050114007 
Si 0.26437041 15.393398399999999 22.90131374555367 
Si 1.70276112 13.78485864 24.021089604616556 
Si 3.8891886299999996 14.427841229999999 24.40596184011919 
Si 0.988091127 13.45575177 26.281773729715916 
Si 0.9406090349999999 14.00024502 30.03332844875586 
Si 2.25201105 14.386301729999998 28.07730319085906 
Si 0.618936921 15.69800511 34.356321408001534 
Si 1.506412863 15.577768619999999 31.91594276347317 
Si 3.92952267 15.911110889999998 32.20019435531398 
Si 5.44871178 2.7043354799999997 2.71663997660825 
Si 6.6068982 1.2647849219999998 1.2154517957335036 
Si 8.14284972 2.71797021 5.4307868816748455 
Si 5.42900088 -0.00016906576500000001 5.430441580907303 
Si 5.430255209999999 2.7151357499999995 8.144816384480476 
Si 6.787896389999999 1.3577600969999999 6.7879224883463 
Si 4.07336337 4.07693088 12.233557303025465 
Si 6.779002049999999 1.3641001649999998 12.2395655363807 
Si 5.6916445499999995 0.0582447321 16.51970667037438 
Si 6.70124988 3.87286605 15.347099793877524 
Si 7.29194157 1.9242562499999998 16.692702354913067 
Si 4.07725668 1.161011106 14.959499682311304 
Si 5.34134439 2.7089455499999997 13.669870375694366 
Si 7.616813039999999 2.85386139 18.916059467041105 
Si 7.42117014 3.52790901 25.11800655286814 
Si 5.898022559999999 3.50865423 23.351516886275306 
Si 5.0313294 1.599966333 22.23819815156546 
Si 6.67982853 0.44652356099999996 29.85663804600447 
Si 6.13598688 0.35876770199999997 26.366096177149743 
Si 6.562703429999999 2.56218894 27.051380080414166 
Si 4.67943282 3.7621917899999997 27.912663784894896 
Si 7.94585475 2.1292821899999996 28.85081144023054 
Si 4.71613419 1.352206836 30.71367455104443 
Si 5.60926602 2.94673068 32.370565754019346 
Si 7.664396129999999 2.8953194399999997 34.43353065962399 
Si 4.64165631 0.414997524 34.46923475898787 
Si 4.32338229 4.27470777 1.3874461080463172 
Si 6.78908556 4.069649249999999 4.076413681143729 
Si 4.06772703 6.789509099999999 4.071061519246824 
Si 6.71595975 6.701070689999999 1.3254784323031783 
Si 8.11517301 5.43089052 2.7348407800654044 
Si 8.14475565 5.42989683 8.144954504787494 
Si 5.4307602 5.42789316 5.429163968067397 
Si 6.78773349 6.787391399999999 6.787646247732266 
Si 6.78610449 4.07000763 9.503229603991839 
Si 4.07118051 6.78665835 9.502539002456754 
Si 5.430222629999999 5.431248899999999 10.858569646672073 
Si 6.789851189999999 6.76671939 12.2395655363807 
Si 7.99796646 5.227412129999999 13.707128328512178 
Si 7.487274959999999 5.86910781 16.8354842222918 
Si 5.86322712 4.12374834 19.93172714468999 
Si 6.38564742 7.918617869999999 19.85275685915307 
Si 5.854365359999999 5.98362651 18.507879429729368 
Si 6.51696111 7.36632171 22.1576740125746 
Si 4.58280054 8.101440539999999 23.313948162766703 
Si 6.79653009 5.0420970899999995 21.868657270141703 
Si 4.37813298 7.107310709999999 25.515206025772034 
Si 8.01528273 5.7790404 25.672766766001583 
Si 4.71732336 5.312820599999999 29.80860670923934 
Si 5.30159679 7.547824889999999 29.095042673113202 
Si 6.31537236 7.4552814 26.852866669154103 
Si 4.983664859999999 6.32457621 34.13035658572186 
Si 6.414594749999999 4.87028646 31.354311065065637 
Si 8.119050029999999 10.8510948 2.7041677128846233 
Si 4.26149658 9.607467329999999 1.400760905642748 
Si 5.452377029999999 8.137783529999998 2.7299098851049006 
Si 6.79105665 9.500914439999999 4.073064263698568 
Si 6.74086716 11.93819166 1.048906329532507 
Si 4.072304519999999 9.50251086 6.787887958269547 
Si 5.43005973 8.14477194 8.144954504787494 
Si 5.42906604 10.85738274 5.430199870370024 
Si 6.78719592 9.50143572 9.503643964912888 
Si 4.0379651999999995 9.51388128 12.222127847619815 
Si 5.42681802 10.862172 10.860468800893557 
Si 6.80039082 12.218998679999999 12.218605779790883 
Si 7.907752439999999 8.193299849999999 16.063460766220754 
Si 8.110090529999999 10.80634617 13.548186385212464 
Si 5.3784693 8.15664735 13.539933696868204 
Si 6.45707907 9.79473717 14.888713024965135 
Si 4.7932836299999995 11.702279879999999 15.250760879733225 
Si 6.68105028 11.65360536 20.213975992079057 
Si 8.038919519999999 9.70271496 19.58911972313453 
Si 4.437656639999999 11.15975772 19.493540470678827 
Si 4.30982901 8.86099437 19.209841360066083 
Si 8.135812439999999 11.94241077 23.918915107500794 
Si 4.4731362599999995 10.53576927 23.486598546537845 
Si 6.17970924 11.950441739999999 22.49696654676165 
Si 4.74776937 10.77853914 25.796488031011982 
Si 6.79131729 9.759404159999999 26.451350936655935 
Si 7.90029162 11.15518023 28.10251014688965 
Si 5.51968731 10.345697549999999 34.100315418945684 
Si 6.9065853299999995 8.53596 30.64696244275526 
Si 6.64149816 8.37672525 33.0948341139393 
Si 7.07521941 10.944697139999999 30.266233816463135 
Si 5.44110435 13.551080849999998 2.6706182903102142 
Si 6.78858057 14.936252129999998 4.068057402569205 
Si 8.12603844 16.273074689999998 2.6770305255634743 
Si 4.071082769999999 14.933303639999998 6.787957018423055 
Si 5.4302877899999995 13.57455474 8.145368865708543 
Si 6.78784752 12.217109039999999 6.787646247732266 
Si 4.07170179 12.218672879999998 9.502124641535701 
Si 6.787554299999999 14.93283123 9.503229603991839 
Si 5.42953845 16.290325799999998 10.864957710871606 
Si 5.5249489800000005 13.51273419 13.714034343863025 
Si 6.9160172399999995 14.81596677 15.123310366433365 
Si 8.089988669999999 16.211677679999998 13.624635975146326 
Si 4.273274249999999 12.47465394 17.504159158637442 
Si 7.450817939999999 13.921466579999999 19.601170719921758 
Si 5.38076619 14.461431209999999 18.53232672407136 
Si 6.502104629999999 15.985018619999998 22.515716378439194 
Si 7.468215659999999 15.72103917 24.675538149339452 
Si 5.056367129999999 14.1367878 22.361919416575862 
Si 7.293603149999999 13.515161399999998 25.45847310966484 
Si 5.01246558 13.05263943 25.994828791888274 
Si 7.97630076 13.59110538 27.68559400015909 
Si 6.20166816 15.14403108 28.21210861050757 
Si 4.4765245799999995 13.554289979999998 28.26690784231653 
Si 7.73193447 15.637634369999999 31.662837300864673 
Si 5.6212228799999995 14.234234579999999 31.71622079952671 
Si 5.05144755 12.27474306 30.28360244507051 
Si 9.503292779999999 1.3570189019999999 4.06874800410429 
Si 10.85857191 2.71531494 2.696723028336411 
Si 9.353359619999999 4.03263837 1.3606991105924917 
Si 8.14527693 0.000303428943 8.145230745401527 
Si 10.85994027 2.71461447 8.145576046169069 
Si 9.487442609999999 4.049221589999999 12.248405236029782 
Si 12.193765469999999 1.3492892969999999 12.236975780624132 
Si 9.50198958 1.356078969 9.502918833301049 
Si 8.14715028 2.7169113599999997 10.861124872351887 
Si 9.20095038 1.056712752 15.42890154570829 
Si 10.639341089999999 2.47114413 13.722770453281845 
Si 8.988773129999998 1.418150385 20.23662772242983 
Si 10.92102777 0.866142558 18.879906476679427 
Si 11.55120642 2.9551688999999994 17.953913408361274 
Si 9.8181459 2.72653875 22.094863802958656 
Si 9.71709903 0.025820464499999998 24.38106565477939 
Si 9.42866829 2.39463 24.394808625327574 
Si 12.12358815 2.60969058 21.665585888750083 
Si 10.89537102 3.3635754899999997 26.032984526701696 
Si 11.51957124 1.520710596 27.312876351673943 
Si 9.90446661 0.865042983 28.790107565296605 
Si 8.22029238 3.8240774999999996 30.418787695563317 
Si 9.62955657 3.0380198399999996 32.076611210610594 
Si 8.784463950000001 1.1547899549999998 33.27601342666873 
Si 11.08327617 2.03840028 30.536535257295235 
Si 8.49986136 7.6991426999999995 0.045760638917774196 
Si 12.128605469999998 6.81369975 1.3156891555433543 
Si 9.50110992 6.7889389499999995 4.07054356809551 
Si 10.24667064 5.86796751 0.10457640925478723 
Si 9.50288553 4.07186469 6.787784368039284 
Si 10.86026607 5.43015747 5.43033799067704 
Si 9.5000022 6.7873262400000005 9.502746182917278 
Si 10.86013575 5.43090681 10.868030887702732 
Si 12.22950573 6.79534092 12.227341889209704 
Si 9.38432691 6.81080013 14.783396290864736 
Si 10.816283069999999 5.49761436 16.15683009376419 
Si 12.066556859999999 4.07942325 14.79258129128136 
Si 9.37039896 4.6822672800000005 17.90481163921676 
Si 11.28836727 7.73491554 19.989565023253324 
Si 10.26946035 5.61444624 19.870608908835006 
Si 12.211879949999998 4.15820169 19.863910073944684 
Si 9.593164709999998 6.19026516 23.806657827972796 
Si 11.956159529999999 6.1628653799999995 24.485035715886372 
Si 9.14157333 4.93627725 21.842207231347963 
Si 11.30159475 7.0263656999999995 26.558808535515094 
Si 9.03565575 7.735892939999999 29.81993257441473 
Si 11.64814821 4.38435576 30.158361856682923 
Si 9.59241537 5.39024697 29.348458906412485 
Si 9.82231614 5.25104892 27.055523689624675 
Si 10.80121482 7.57662561 31.6467462850972 
Si 11.048399279999998 5.19528825 32.406062672922694 
Si 12.2205951 9.50138685 4.071406820014365 
Si 9.41993685 9.40846869 1.417380231584558 
Si 12.10045635 12.13722288 1.318928076742901 
Si 10.86191136 8.155164959999999 2.7344298721520293 
Si 10.441824839999999 10.978173089999999 0.07083603535592761 
Si 9.505329029999999 12.21785838 4.072373662163484 
Si 8.14395744 8.14599369 5.431408423056421 
Si 9.50296698 9.502168769999999 6.787784368039284 
Si 10.860347519999998 8.1448371 8.145299805555036 
Si 8.14508145 10.85998914 8.144989034864247 
Si 10.85998914 10.858343849999999 5.429612859065202 
Si 8.15001732 8.14436469 10.860227090356275 
Si 12.22264764 12.227159969999999 12.233212002257922 
Si 9.4734495 9.50910831 12.188771793475231 
Si 10.85580261 10.86341004 10.860227090356275 
Si 9.502185059999999 12.21852627 9.501192329463338 
Si 11.595955049999999 9.9430902 15.001073894723396 
Si 10.84943322 8.222784749999999 13.521563696034953 
Si 9.877131989999999 11.84928084 14.714232547126016 
Si 11.04240456 11.22571593 21.51745185947444 
Si 9.78954066 9.201227309999998 21.173946655923373 
Si 10.35690507 11.72446686 19.180767035439022 
Si 11.69353215 8.672844869999999 17.777879077068214 
Si 9.51552657 9.88239366 17.68412991868048 
Si 8.45674173 9.737885069999999 24.78786448902096 
Si 8.62156395 8.18824995 22.99758359954446 
Si 9.74225079 9.6796809 28.502333905626863 
Si 11.73280734 10.381226039999998 29.62041779092879 
Si 12.07391994 10.560595229999999 25.9635790724257 
Si 10.267831349999998 9.14427747 26.293203185121563 
Si 8.794221659999998 12.138672689999998 31.689839820886476 
Si 11.05649541 11.24438427 31.828961500129267 
Si 11.601363329999998 9.31910175 33.15301729327017 
Si 9.36551196 14.68993104 1.266521779253008 
Si 10.85863707 13.5752715 2.709689072157624 
Si 8.14355019 13.57318638 5.4288531973766085 
Si 9.502869239999999 14.932033019999999 6.787300946964724 
Si 10.86002172 13.574945699999999 8.144747324326968 
Si 10.85943528 16.28846874 5.4311667125191425 
Si 8.14633578 13.571671409999999 10.860227090356275 
Si 9.49633695 14.93905401 12.223578110843492 
Si 10.86187878 16.2906516 10.86050333097031 
Si 10.92786957 13.66685388 13.626845900058598 
Si 10.56370662 15.795631079999998 16.871671742730232 
Si 8.32194198 13.02763428 16.18321107240442 
Si 8.30750904 15.59150109 21.08092262914748 
Si 9.397098269999999 13.69901034 18.137578886617014 
Si 10.237206149999999 15.007911839999998 22.408742200654594 
Si 10.23213996 12.77142516 23.208804079050076 
Si 11.64254445 12.72959244 25.18837884929326 
Si 11.585268809999999 16.1160228 25.75515552913717 
Si 11.66399838 14.203870019999998 27.1149499517187 
Si 9.856525139999999 14.745007529999999 28.537071162841617 
Si 8.690584679999999 12.72871278 34.178042621719456 
Si 11.276263799999999 15.222597749999998 32.34076629778045 
Si 9.54525582 14.25028023 30.8477548390811 
Si 10.51591176 16.24701069 34.400278195709674 
Si 16.28581347 2.72318301 2.6703938448113114 
Si 12.22199604 1.412281098 1.1995576014035318 
Si 14.93200044 1.3578790139999999 4.066883379959561 
Si 13.574717639999998 0.00023174968499999998 8.145437925862051 
Si 13.574945699999999 2.7157547699999998 5.429060377837134 
Si 12.2179887 1.3577324039999998 6.786817525890165 
Si 14.932309949999999 1.355611446 9.503056953608066 
Si 13.574310389999999 2.7166507199999996 10.865199421408885 
Si 13.44623841 3.2075172899999997 16.520224621525692 
Si 14.536316339999999 1.6927753499999998 14.978594814756393 
Si 14.80019805 0.640433205 17.55844043929509 
Si 15.87527289 3.44232135 20.73413706830476 
Si 12.76111359 0.7322338709999999 20.410590249117636 
Si 15.051797099999998 1.294167195 19.886389153911686 
Si 15.79558221 3.01065264 23.089191893173428 
Si 13.53029481 2.6022297599999997 23.583420881756705 
Si 13.50157554 0.453197574 24.542770004219445 
Si 14.891796719999999 0.18023093099999998 26.41730428097626 
Si 14.53568103 0.53452377 30.2202397542265 
Si 14.327706599999999 3.58726977 27.319816897101543 
Si 13.75480359 1.404815391 28.06677151744902 
Si 13.66924851 2.70956457 34.105046039461016 
Si 12.62852928 0.774734481 31.766393001050602 
Si 14.930143379999999 6.78851541 4.066745259652545 
Si 12.218770619999999 4.07502495 4.068886124411306 
Si 14.97811743 4.13860482 1.1456734166285578 
Si 13.5746199 5.42556369 2.6810636385283684 
Si 14.932244789999999 4.07235339 6.786817525890165 
Si 13.572844289999999 8.1448371 5.430096280139761 
Si 16.290325799999998 5.42991312 5.4287496071463455 
Si 13.57540182 5.430401819999999 8.145472455938807 
Si 12.21784209 6.787928969999999 6.787300946964724 
Si 13.575923099999999 8.14539096 10.85560006007121 
Si 12.21686469 4.07173437 9.502608062610262 
Si 14.93327106 6.788368799999999 9.502090111458948 
Si 14.94731304 4.07140857 12.217742527872028 
Si 12.73363236 6.9179394599999995 16.568497668828105 
Si 13.63536531 5.44522572 13.602295015486341 
Si 14.744355929999998 6.90542874 15.129594840402635 
Si 13.539400919999999 7.373912849999999 20.841214836319622 
Si 14.328977219999999 5.21424981 19.89326063918578 
Si 14.43911391 5.2891675199999995 17.42884906123647 
Si 13.43644812 7.515701009999999 23.24965315985033 
Si 15.41398896 6.959658149999999 24.385934395601737 
Si 12.975734339999999 4.10452614 25.28178270691345 
Si 13.639258619999998 5.04546912 29.017384530492937 
Si 14.94270297 7.92119169 26.624450211424882 
Si 13.14588339 7.14225276 28.068498021286732 
Si 16.23055779 5.69418579 34.33163240312226 
Si 13.342585139999999 4.67821107 32.68275217795433 
Si 15.082226819999999 5.210551979999999 30.917850894892183 
Si 14.79136887 7.01370837 32.771321824828924 
Si 15.09652944 9.524355749999998 1.1448274297480794 
Si 13.58827092 10.85169753 2.6834082307399805 
Si 14.932016729999999 9.50242941 6.786921116120428 
Si 13.57512489 10.8600543 8.144816384480476 
Si 16.2901629 8.14464162 8.144919974710739 
Si 12.218933519999998 9.50132169 9.502400882149736 
Si 14.902254899999999 9.50106105 12.216844745876417 
Si 16.2909774 10.858278689999999 10.866580624479054 
Si 15.179412959999999 11.854330739999998 14.85470089936222 
Si 13.470787439999999 10.77800157 13.653537649389616 
Si 16.17313554 8.198463779999999 13.659235112054064 
Si 13.51307628 11.13582771 21.474979865066736 
Si 14.55824268 9.41767254 20.113631589031268 
Si 13.55438772 10.08341226 18.02428570478639 
Si 14.69112021 11.24980884 23.562357534936623 
Si 13.643477729999999 9.44378541 24.628922545721245 
Si 15.346320299999999 10.11491712 27.489601284502086 
Si 12.560534819999999 8.256684239999998 30.13146292689138 
Si 16.26022188 9.784490759999999 29.598871023034153 
Si 13.26960594 11.1754287 27.951579181396912 
Si 14.525646389999999 9.308953079999998 31.152517296513924 
Si 15.65918604 11.27391804 32.19684493786882 
Si 13.44203559 8.32567239 34.3918873870584 
Si 13.66854804 13.37672898 0.06644657199893006 
Si 12.218933519999998 14.93139771 4.068022872492451 
Si 14.92911711 12.22165395 4.070509038018756 
Si 15.03894429 14.94830673 1.2304516610755405 
Si 13.58483373 16.2917919 2.678415181641319 
Si 16.28203419 13.563917369999999 2.701367323659855 
Si 16.290488699999997 16.28899002 5.429750979372218 
Si 13.575434399999999 13.574114909999999 5.431960904284489 
Si 12.217043879999999 12.217516289999999 6.787266416887971 
Si 14.932179629999998 14.93312445 6.787300946964724 
Si 16.28915292 16.293257999999998 10.86385274841547 
Si 12.21582213 14.93032257 9.50267712276377 
Si 14.93162577 12.21950367 9.502953363377804 
Si 13.57256736 13.57219269 10.860641451277326 
Si 14.915140289999998 14.94252378 12.230518656271093 
Si 12.2595282 14.87408949 15.292162441761544 
Si 13.74292818 13.24020249 16.344984481997983 
Si 13.47298659 16.26740577 13.684752838775438 
Si 16.22635497 13.55570721 13.579850465596092 
Si 12.482782649999999 12.25276785 18.2076749424281 
Si 15.29836254 14.63583195 17.41113513186155 
Si 12.503894489999999 14.96508543 21.47187215815886 
Si 13.362589259999998 13.133975399999999 20.197539675544043 
Si 15.466605659999999 13.8368889 19.543056600744393 
Si 14.18173191 15.00949197 23.160116670826614 
Si 13.907212829999999 13.21109226 24.604716961916534 
Si 15.043733549999999 14.119797329999999 26.465335617741395 
Si 14.86988667 14.441166449999999 30.0720021347206 
Si 13.66594164 13.490547209999999 28.22453943813909 
Si 14.60458773 13.362784739999999 32.29421975431575 
Si 12.27550869 13.172142869999998 32.618249994577425 
