&CONTROL
  dt          = 30.D0,
  prefix = 'x3.00_y1.33_z3.16_struc25-scf',
  pseudo_dir = './',
  outdir='./',
  wf_collect= .true.,
  verbosity= 'high',
/

&SYSTEM
ibrav= 6, celldm(1) =30.783621515, celldm(3) =2.110832797198731, nat=  432, ntyp= 1,
  ecutwfc     = 12.D0, nbnd= 1728,
  degauss     = 0.05D0,
  occupations = "smearing",
  smearing    = "methfessel-paxton",
/
&ELECTRONS
  electron_maxstep=200,
  conv_thr    = 1.D-8,
  mixing_beta = 0.3D0,
  scf_must_converge=.false.,
/
ATOMIC_SPECIES
Si  28.08  Si.pbe-hgh.UPF
K_POINTS {automatic}
1 1 1 0 0 0
ATOMIC_POSITIONS (angstrom)
Si 0.020135580299999997 2.7135719099999998 2.7035538466465043 
Si 2.7449138699999995 -0.010810988819999999 2.6905630174910704 
Si 1.9975938299999998 1.90656531 1.5282001543694164 
Si 3.79951218 3.84041637 1.3868621338281402 
Si -0.001336498389 0.001615720392 5.429637050790732 
Si 0.000195950781 2.71482624 8.144816623581896 
Si 2.7151520399999995 -3.98634219e-05 8.14505732184576 
Si 2.71334385 2.7151683299999996 5.428811799600339 
Si 1.358012592 1.3577014529999998 6.787759811913443 
Si 2.7146633399999995 2.71494027 10.863469128465962 
Si 1.3262389469999998 1.365895323 12.218737895888562 
Si 2.61467532 0.016106949269999997 13.587279453289982 
Si 1.75057227 3.75293907 14.767147957287843 
Si 3.39982074 1.8643742099999998 14.968371705878626 
Si 2.59962336 1.4952232619999999 17.19703131646696 
Si 2.66256792 3.4016289299999998 21.369638876958103 
Si 0.181032399 0.30239452799999994 20.704761501231623 
Si 0.31373725499999994 2.62342305 20.0367550480749 
Si 0.538974198 2.58703119 17.7284243121474 
Si 3.2588144999999997 1.6758663299999998 24.70114354710763 
Si 0.48403291499999995 0.401172201 23.02175737465825 
Si 1.5883808849999999 2.5094093399999995 23.32094531664191 
Si 2.82670596 2.50139466 28.02429254895443 
Si 3.10089924 0.5158749779999999 26.777338000270888 
Si 1.218490371 3.8920068 26.854051975511155 
Si 0.797107167 3.5253189 32.926078307090165 
Si 3.06585945 0.992904822 31.724271875614356 
Si 1.7656405199999998 2.14878132 30.10787987736496 
Si 1.52471142 1.375237638 33.598279787131375 
Si 1.3490058509999998 4.08124773 4.079113477712889 
Si 0.271971324 5.33104911 0.05578216650527705 
Si 2.71324611 5.429359259999999 2.7239272354093265 
Si 1.527539364 6.88412142 1.3130915545002757 
Si 0.00546174378 8.15684283 2.6954182453278817 
Si 2.71528236 5.42968506 8.145091707312027 
Si 1.3575092309999999 6.78753801 6.789169616030364 
Si 1.3555804949999999 4.07359143 9.501942206182882 
Si 0.0001372960296 5.4297990899999995 10.855560471224697 
Si 1.32087465 6.7884828299999995 12.202989352338566 
Si 3.5053636499999996 7.300868489999999 14.626924025853599 
Si 0.9320225759999999 4.72509369 16.832820457773597 
Si 2.68819209 5.44217949 13.469715544125272 
Si 1.442008719 7.34542164 20.56089271037314 
Si 2.8991312999999996 5.53846968 20.152118287398565 
Si 3.05919684 4.85990973 17.949557245706405 
Si 2.26245294 7.8260418 22.736254848248606 
Si 2.86816401 5.87120922 23.96825171910628 
Si 1.046743272 4.428778589999999 24.535577527035073 
Si 2.63265948 7.74653031 26.990149650993438 
Si 0.523814724 5.810463809999999 30.002041412197084 
Si 1.03117329 6.122873429999999 27.691406850029733 
Si 0.6300890549999999 7.83273699 31.18765228906143 
Si 2.11955706 4.40294265 31.08312047161167 
Si 3.2340862799999996 7.823989259999999 34.231384992027735 
Si 1.363240053 9.49405635 4.075846858417584 
Si 2.71911051 10.84208643 2.684411457576018 
Si 0.9712814759999999 11.61465597 1.2275233216964203 
Si 0.00030627643499999996 8.14472307 8.14457592531803 
Si 2.71370223 8.14506516 5.431872106098046 
Si 2.71528236 10.859809949999999 8.144919779980695 
Si 4.07707749 9.50544306 12.188891311169357 
Si 1.3582504260000001 9.503357939999999 9.501839049784081 
Si 2.7174489299999998 8.146628999999999 10.861371615023714 
Si 0.00432147636 10.85479263 10.857486057335613 
Si 0.633882996 10.5831243 16.1048801369146 
Si 2.7015987599999995 11.78687385 16.595526355069396 
Si 1.65400515 8.98041636 14.702950291768538 
Si 2.64215655 10.74090924 13.49378537051173 
Si 3.71387565 8.45175699 17.192526820386064 
Si 2.7072839699999998 11.18007135 18.840072051072784 
Si 1.99695852 8.865050579999998 18.7241242588226 
Si 0.9251156159999999 9.26490492 24.033137093950913 
Si 0.6565358699999999 11.303370359999999 22.959554066182395 
Si 3.36903264 11.81380122 25.485510418109737 
Si 2.84962599 11.785147109999999 29.12026051526236 
Si 2.13617286 9.78787908 25.94486586196214 
Si 1.082783268 10.63517085 27.899782775603917 
Si 1.5531293249999998 12.15704781 33.18775170537722 
Si 3.13038414 10.943084429999999 31.480203836055683 
Si 2.84698701 8.554791239999998 31.69879224511098 
Si 4.06666818 14.91111666 1.0408824493492053 
Si 1.355176503 14.93514441 4.0653592912063425 
Si -6.31115325e-05 13.575108599999998 8.144988550913228 
Si 2.7157547699999998 13.574685059999998 5.428296017606344 
Si 1.356535089 12.217809509999999 6.787381571784513 
Si 4.06362195 14.930778689999999 12.239541102979716 
Si 1.355756427 14.930648369999998 9.502664300974475 
Si 2.71682991 13.57721001 10.858895861452535 
Si 1.362845835 12.212482679999999 12.200926224362584 
Si 0.0488149398 15.28723647 16.750364109666847 
Si 3.05300664 14.02093332 16.165123473813274 
Si 1.339671681 14.79936726 14.81291501288838 
Si 3.87944721 15.87918249 20.90564139515974 
Si 1.251000324 12.758670089999999 19.860770231723635 
Si 1.8517820399999998 15.11070174 19.879922936434003 
Si 2.25072414 15.544944269999998 17.68324180947339 
Si 2.29881222 12.832105409999999 22.160057590023087 
Si 3.70817415 16.168297409999997 23.25227754050798 
Si 1.8797682599999999 14.78646558 23.499509042963158 
Si 1.7320342499999999 13.59716526 25.49132156190875 
Si 1.9034539199999998 13.927363559999998 29.48137668199175 
Si 1.615422285 15.06145707 27.357420816184508 
Si 0.18626474699999998 15.67275561 33.49859632042518 
Si 2.3859474300000003 14.370337529999999 33.442479239478466 
Si 3.31134975 14.913299519999999 31.216536080725177 
Si 8.155474469999998 -0.0040335669 2.7040283660809803 
Si 4.08222513 1.347148791 4.075399847356121 
Si 5.45174172 2.7093853799999996 2.684583384907349 
Si 7.04731464 1.414449297 1.1592750482509344 
Si 5.42940813 0.00168743223 5.432766128220972 
Si 5.430238919999999 2.71494027 8.14571064570482 
Si 6.78760317 1.356276078 6.788172437508639 
Si 4.07171808 1.3561425 9.502973770170872 
Si 5.4336761099999995 -0.0001204164945 10.867182758822729 
Si 6.7826673 1.3649505029999998 12.260275539138334 
Si 6.286457609999999 2.23731747 17.13964197326839 
Si 5.351085809999999 2.83954248 13.834201486548766 
Si 6.51096639 1.96560027 21.44150450145481 
Si 7.80484851 3.9082316399999995 21.12749642351034 
Si 4.29994098 1.91630673 20.45780508250657 
Si 7.32634605 0.022904391599999997 20.463169215244122 
Si 4.247519759999999 2.77379604 18.22952371204717 
Si 7.4220498 0.349373259 18.10494516776412 
Si 5.13063324 3.1543956 24.696570280094203 
Si 6.59639115 1.575236484 23.77758430865927 
Si 5.12651187 3.1853954699999996 28.26468134362261 
Si 6.50989125 1.19679372 27.986124681398767 
Si 5.76641565 3.83880366 30.46514487187252 
Si 5.35688505 1.7008063199999999 31.728845142627783 
Si 6.54879177 0.2647125 30.231942639654015 
Si 6.790095539999999 4.070952449999999 4.06831644130525 
Si 4.07530188 6.78814074 4.0767064950742435 
Si 6.555112289999999 6.652151819999999 1.2549285383107152 
Si 5.43535398 8.13340152 2.723518048360757 
Si 4.07241855 4.0728258 6.787794197379709 
Si 5.430190049999999 5.43193308 5.42984336358833 
Si 6.78711447 6.78776607 6.787656655514643 
Si 6.78822219 4.07390094 9.501598351520217 
Si 4.072304519999999 6.787652039999999 9.501907820716614 
Si 4.08929499 4.0788693899999995 12.219975772674152 
Si 5.43102084 5.42670399 10.861921782483973 
Si 6.7969373399999995 6.796855889999999 12.24848132420897 
Si 4.24235583 6.27896421 16.593910238154873 
Si 6.53605299 6.09982308 16.944057441145294 
Si 6.922109699999999 4.24155762 15.025657892678394 
Si 4.917820679999999 6.892657379999999 20.4889583149439 
Si 6.4816118099999995 7.64317026 18.77580561462095 
Si 7.63873938 4.08727503 17.327971172009285 
Si 6.220124729999999 5.477447339999999 21.808569353848277 
Si 4.38305256 4.43421945 22.883080789205994 
Si 7.421267879999999 6.797751839999999 23.334321263019532 
Si 5.69658042 7.936471709999999 24.354469276210114 
Si 4.36560597 6.560944109999999 25.7842857344982 
Si 5.624236529999999 4.67257473 26.489841116817793 
Si 7.83236232 5.57461719 26.811792237469792 
Si 4.65475347 8.074252529999999 27.937675559429454 
Si 4.699322909999999 5.804583119999999 34.16522735493124 
Si 8.07681006 4.351173029999999 30.266328105920383 
Si 4.42174131 5.3932280399999994 31.662549963666226 
Si 4.55733927 7.510765139999999 30.277193913260554 
Si 8.15062005 10.850606099999998 2.717675957642101 
Si 4.21982676 9.47763603 1.2737855280111912 
Si 6.789574259999999 9.50174523 4.07285532285241 
Si 4.07259774 12.22039962 4.06793820117632 
Si 4.07269548 9.50117508 6.7879661247110405 
Si 5.42996199 8.14521177 8.144954165446961 
Si 5.42908233 10.856470499999999 5.428983726931671 
Si 6.787863809999999 9.50314617 9.502973770170872 
Si 5.43004344 10.85992398 10.857761141065744 
Si 8.05533984 10.86788979 13.717118973911786 
Si 5.42101878 8.266946939999999 13.635625418860496 
Si 6.253079399999999 9.994371119999998 15.073694389052509 
Si 4.387630049999999 11.51056287 14.893480160350478 
Si 5.71259349 9.621851399999999 17.602298421882363 
Si 4.951182599999999 11.114699579999998 19.459801309591526 
Si 4.49271684 8.42940711 22.328168134599355 
Si 7.376942789999999 10.411509149999999 22.801965474283634 
Si 4.30916112 12.1924134 23.30110490260622 
Si 5.23891287 10.591627679999998 21.806643767737363 
Si 7.0058240099999995 9.754175069999999 25.130996260903487 
Si 7.4765235599999995 9.60345999 28.91559822004494 
Si 5.87788812 10.019148209999999 27.264442515400248 
Si 4.60467801 11.97751572 27.49444689925598 
Si 6.4614936599999995 8.859381659999999 30.92584134890931 
Si 7.67022795 8.401209119999999 34.28265372223088 
Si 6.04236825 10.32952158 34.37071490133905 
Si 5.46076638 10.80196416 32.11090205831339 
Si 5.42067669 13.57261623 2.6738207339659765 
Si 6.90694371 12.23838378 1.3227641861610047 
Si 6.784263719999999 14.93452539 4.068969765164311 
Si 4.07293983 14.933303639999998 6.786453164195321 
Si 5.430206339999999 13.574880539999999 8.144713467183095 
Si 6.78776607 12.21732081 6.787381571784513 
Si 8.14442985 13.5772263 10.85930848704773 
Si 4.0728258 12.216604049999999 9.502148518980478 
Si 6.7882059 14.93066466 9.502457988176877 
Si 6.783807599999999 12.22176798 12.230188256155264 
Si 5.2751255399999994 13.414342589999999 13.65629108408658 
Si 6.52640931 14.95834137 14.927418615555382 
Si 6.93592362 14.471482139999999 17.216080864778526 
Si 5.88350817 14.54244138 21.02471826484017 
Si 6.18692571 13.07432142 19.17553665996747 
Si 6.12148878 13.758273359999999 23.32582805285174 
Si 5.67602244 15.782045219999999 24.36750136792507 
Si 5.30648379 15.904431989999999 26.68986137408925 
Si 5.869743119999999 13.93813125 27.862990326698903 
Si 6.647297399999999 12.71706543 31.344003004174603 
Si 7.50385818 14.35305384 32.90840417742925 
Si 5.46449679 14.413668929999998 30.139927131925216 
Si 5.99564853 16.20516168 33.92693607370531 
Si 9.5027715 1.3573316699999998 4.072477082723481 
Si 10.855900349999999 2.71699281 2.7032822014630002 
Si 8.145048869999998 -0.00015733501019999998 8.145194863710826 
Si 8.145309509999999 2.7142072199999996 5.430703000244989 
Si 10.86031494 0.000206322624 5.431150011306452 
Si 10.860380099999999 2.71487511 8.145022936379494 
Si 12.21712533 1.3585501619999998 12.220801023864546 
Si 9.50296698 1.35702216 9.503145697502204 
Si 8.14185603 2.7150705900000003 10.865360329110612 
Si 10.02556647 0.751842144 15.0133822812213 
Si 10.88623233 2.65769721 13.72636866433744 
Si 9.663667829999998 0.751397427 17.454440916936985 
Si 11.29346604 1.66179177 21.408081828243898 
Si 10.473753239999999 2.1599562599999995 19.212294723406217 
Si 8.67338244 1.250148357 24.745294485793643 
Si 10.338155279999999 2.27393739 23.510787475898525 
Si 11.99909997 2.8046981699999995 25.05032795704259 
Si 10.606256099999998 0.773379153 28.14598271407111 
Si 11.99421297 2.2690015199999998 29.403149746235762 
Si 12.14927748 0.816016599 26.35879810487667 
Si 8.668381409999999 1.72978623 27.123737187438273 
Si 8.86596282 3.88570257 28.068684185904313 
Si 8.69591151 2.63140515 34.14438976237382 
Si 11.64316347 2.45547315 31.871991838694672 
Si 9.15704883 3.6161682299999995 32.13459364457092 
Si 9.99360549 0.910083204 32.749302625014764 
Si 10.87131069 8.14591224 2.6839988319808215 
Si 12.21608277 4.06971441 4.068522754102848 
Si 9.729365399999999 4.211926109999999 1.2448088955885233 
Si 8.1464661 5.43038553 2.680395235116106 
Si 9.50120766 6.78693528 4.066906637188329 
Si 11.59921305 5.08824666 0.07508100944727572 
Si 9.502445699999999 4.07215791 6.78731280085198 
Si 8.14506516 5.43005973 8.144919779980695 
Si 10.85992398 5.429294099999999 5.4292588106618025 
Si 12.21427458 6.78009348 12.227059178725025 
Si 9.50272263 6.78760317 9.502492373643141 
Si 9.51443514 4.06588626 12.238956550053187 
Si 10.863801 5.427290429999999 10.862678262741834 
Si 11.885184 6.0393546 16.22914921200125 
Si 8.358692219999998 5.56573914 13.670045270593128 
Si 9.84399813 6.88311144 15.260682554609014 
Si 8.54363259 7.86523554 19.926412086826133 
Si 10.31855841 6.18995565 19.736741854900846 
Si 9.160714079999998 4.15305405 19.181519731097815 
Si 9.37943991 4.2608124 22.878988918720292 
Si 12.05740188 7.072238339999999 23.0734387304566 
Si 11.19044808 5.316665039999999 21.77239584333606 
Si 10.96501077 6.67367091 25.19344026764321 
Si 8.893036799999999 5.678270459999999 24.707573629299443 
Si 11.13090813 4.2766136999999995 28.454661044744288 
Si 11.21726142 5.9696334 30.05678307449314 
Si 11.94198723 4.81926618 26.307529374673514 
Si 8.58126249 7.56918108 28.147908300182024 
Si 8.9625951 6.6062465999999995 30.278672488310008 
Si 11.09907747 4.844890349999999 32.169701205628876 
Si 9.455709689999999 9.49558761 1.2795794790770738 
Si 8.145602729999998 8.14770414 5.431012469441387 
Si 9.50233167 9.50270634 6.787931739244774 
Si 10.860233489999999 8.14465791 8.144851009048162 
Si 8.14441356 10.86039639 8.144713467183095 
Si 10.86007059 10.86297021 5.4307373857112555 
Si 8.142947459999998 8.14469049 10.861371615023714 
Si 9.50057235 9.50394438 12.25236688189707 
Si 10.86031494 10.85853933 10.865601027374476 
Si 10.12465854 9.866494620000001 16.474936524873243 
Si 10.97706537 8.19080748 13.68005144127664 
Si 9.56055213 11.94695568 15.245518563985547 
Si 11.278104569999998 10.24214202 20.203043162939057 
Si 8.32560723 11.994897149999998 19.012755862662484 
Si 9.33565239 9.82392885 18.86231944774713 
Si 10.91965941 8.975545649999999 22.24749983073846 
Si 9.18254268 11.91007512 22.832327840996832 
Si 10.7966862 10.612234529999999 23.871250318768855 
Si 8.57186316 8.47298286 22.171507950289783 
Si 9.34433496 10.05006663 25.693267405291127 
Si 8.287961039999999 11.751557129999998 29.677133141446177 
Si 10.468996559999999 8.30640132 26.858006304131784 
Si 10.415972609999999 11.172871169999999 34.26999987064487 
Si 8.59691718 8.35466859 32.01634202608088 
Si 10.484879309999998 11.80866987 30.57761973202981 
Si 10.81988316 9.953369189999998 32.16450900022266 
Si 11.240833049999999 15.96402081 0.08481966120323627 
Si 12.186337229999998 12.23613576 1.1599833888560218 
Si 8.7641829 13.118532479999999 0.1304426417001151 
Si 9.503862929999999 12.21518682 4.075159149092257 
Si 9.602156789999999 14.90131008 1.4149447441278822 
Si 10.892927519999999 13.54194216 2.7307768202895875 
Si 8.14723173 13.57421265 5.430874927576322 
Si 9.502657469999999 14.93274978 6.78720964445318 
Si 10.859467859999999 13.57562988 8.144747852649362 
Si 9.50127282 12.218575139999999 9.50252675910941 
Si 9.499073669999998 14.912159219999998 12.229981943357666 
Si 10.86158556 16.2911403 10.862231251680372 
Si 11.80516752 15.300561689999999 14.85833821382625 
Si 8.95164822 13.279151879999999 17.142255268704634 
Si 10.797354089999999 13.46376645 13.689713757297492 
Si 8.17205769 16.23976164 13.681323703528497 
Si 9.25315983 13.06003509 20.866923360143808 
Si 11.074186349999998 14.582303009999999 20.219135561151717 
Si 10.47411162 14.92445817 17.956021713364485 
Si 9.15944346 15.322862699999998 21.53307299812214 
Si 9.32763771 15.407652149999999 23.969386439493068 
Si 8.249532929999999 13.37553981 24.325963724675297 
Si 11.40368418 15.27435108 25.10022126859509 
Si 9.68810283 15.1347132 29.233801324873905 
Si 11.449866329999999 13.18457214 26.222494116596785 
Si 9.198816390000001 12.40410195 26.27224988628422 
Si 8.23022928 13.500076859999998 28.112972666455395 
Si 11.49490818 13.967502119999999 30.183974914212435 
Si 8.59644477 15.811106579999999 31.344931411763795 
Si 12.238888769999999 1.417663314 1.2939250956034023 
Si 14.93514441 1.34982198 4.069623089023372 
Si 13.57435926 0.000388368261 8.144679081716829 
Si 13.57800822 2.71772586 5.429121268796737 
Si 12.21728823 1.3572681389999999 6.787656655514643 
Si 16.2911403 0.00207633969 10.858242537593474 
Si 14.93178867 1.356603507 9.50221728991301 
Si 13.573121219999999 2.7137836799999997 10.860958989428516 
Si 16.23528189 2.74727592 13.66265239534586 
Si 15.2045973 1.0658775059999999 16.886427399682862 
Si 13.571036099999999 0.0372680991 13.620942824764755 
Si 14.37784722 1.9358873099999998 14.888803736938252 
Si 12.58601238 3.80633769 15.061212464797817 
Si 14.29747236 3.51601731 19.789970556681183 
Si 12.75026445 2.2200663599999997 18.48679577065213 
Si 13.74779889 0.0850883715 18.42318265805935 
Si 13.83855048 3.0184718399999997 23.566938942311502 
Si 14.681720879999999 0.820903599 23.964572474215775 
Si 12.7586538 3.49933635 21.55875894142312 
Si 14.566583159999999 0.997493715 26.292571696847645 
Si 15.898600169999998 0.910493712 29.778432725066896 
Si 14.37986718 2.6829792899999996 29.244357663017677 
Si 15.25025817 3.1246989299999997 27.117513418044062 
Si 13.1870808 3.2766520499999996 34.31824267981658 
Si 15.00636429 4.16282805 1.3837743189574203 
Si 13.58212959 5.45700339 2.7087460520527253 
Si 12.50299854 7.03610712 1.1950153018881968 
Si 14.930289989999999 6.78284649 4.073955657772935 
Si 16.2921177 5.43103713 5.433109982883636 
Si 14.93281494 4.073151599999999 6.788275593907438 
Si 13.574782799999998 5.42992941 8.144782238115628 
Si 12.21769548 6.78766833 6.787415957250779 
Si 12.218558849999999 4.07417787 9.501804664317817 
Si 14.93377605 6.786609479999999 9.502492373643141 
Si 14.945570009999999 4.0856786099999995 12.223483090233323 
Si 16.12815885 8.002641689999999 13.599004897286813 
Si 14.299068779999999 7.13295117 15.30493664969383 
Si 13.571801729999999 5.4133787700000005 13.635144022332765 
Si 15.34799817 7.35317568 20.7491531381815 
Si 14.337708659999999 5.839655489999999 19.172613895334827 
Si 12.28929003 6.96434967 18.592565464887475 
Si 15.61246632 6.53712813 17.287327550882438 
Si 14.437761839999999 7.04319327 23.019453548418404 
Si 15.067077119999999 4.97418408 24.082308310711817 
Si 14.24736432 5.09269383 26.265304022098412 
Si 13.38539526 6.79123584 30.018580821471204 
Si 15.35444901 7.06974597 26.77269596232493 
Si 14.66108145 4.79549907 30.339053367073753 
Si 14.84616843 4.15608399 32.62242025449187 
Si 15.563677769999998 6.89438412 32.97830983034877 
Si 12.213965069999999 9.502152480000001 4.067388033716058 
Si 15.24932964 9.8859123 1.344286049497124 
Si 13.5700587 10.877223959999998 2.696246935064901 
Si 16.2909774 10.860282360000001 5.4294651234594005 
Si 13.57750323 8.1456516 5.429293196128069 
Si 14.932505429999999 9.502543439999998 6.7879661247110405 
Si 13.574750219999999 10.8597285 8.144851009048162 
Si 14.944250519999999 9.50290182 12.210657311315966 
Si 12.220741709999999 12.216555179999999 12.237924986065195 
Si 12.21679953 9.50093073 9.503008155637136 
Si 13.574277809999998 8.14574934 10.86054636383332 
Si 12.87832014 9.090145799999998 14.848194501277671 
Si 13.705786980000001 10.898107739999999 13.595531965193912 
Si 15.313072409999998 11.95896141 15.00808691941628 
Si 12.39530535 10.38994119 16.785196586994676 
Si 15.824496959999998 11.42002305 20.8720467946175 
Si 15.011088389999998 9.4910427 19.69186882142324 
Si 12.845300309999999 9.302290469999999 18.76696854979049 
Si 15.74083152 9.09262188 17.522214670947992 
Si 15.14263014 8.46373014 24.823934047144828 
Si 12.63568059 11.805965729999999 24.68487922156364 
Si 14.356881989999998 8.25798744 28.500771955007487 
Si 16.07972868 9.510102 29.57273886586149 
Si 12.3064434 10.99731384 29.31893973934943 
Si 13.84529454 10.217446379999998 25.916119612163453 
Si 15.519401549999998 11.680174349999998 26.808835087370884 
Si 12.466851029999999 9.34262451 27.651141469031817 
Si 14.361052229999999 10.736152559999999 30.81340087421829 
Si 13.05619065 8.877952259999999 31.91253230342272 
Si 14.08263984 8.45061669 34.05467808088487 
Si 12.21865659 14.930094509999998 4.071961300729485 
Si 14.925940559999999 12.22593822 4.07361180311027 
Si 14.96459673 14.849459009999999 1.0586666125021704 
Si 13.59703494 16.2960273 2.6777853782264884 
Si 16.28726328 13.54616127 2.6674800539864583 
Si 13.57602084 13.57505973 5.431459480502849 
Si 12.21738597 12.21862401 6.788413135772504 
Si 14.93193528 14.93177238 6.78720964445318 
Si 12.21696243 14.932863809999999 9.502114133514214 
Si 14.932603169999998 12.216457440000001 9.503317624833535 
Si 13.57194834 13.578887879999998 10.862231251680372 
Si 14.93359686 14.928954209999999 12.229569317762468 
Si 12.603230909999999 14.786188649999998 17.06646970105356 
Si 15.11202123 13.227936119999999 16.94835562442859 
Si 16.26424551 13.47218838 13.535357399227767 
Si 12.55312287 15.968370239999999 21.40904462129936 
Si 14.218254089999999 13.05376344 21.2391804179435 
Si 14.54245767 15.29388279 20.352276086535092 
Si 12.23142795 12.47673906 20.10504458407991 
Si 13.05702144 12.5582868 17.792725134065506 
Si 16.05197052 12.57719949 24.721190273940923 
Si 14.11098444 13.28988699 23.571237125594802 
Si 13.129153559999999 15.39572787 23.572303075049057 
Si 12.58990569 13.11983568 28.302230272785483 
Si 15.935887979999999 13.41983232 30.072050221515408 
Si 15.71939388 15.85075644 27.72551723256597 
Si 14.826767039999998 13.63025025 28.009025401932167 
Si 15.58778697 12.28134051 32.13538451029505 
Si 12.944522699999998 14.163112439999999 34.214776811821075 
Si 15.335063909999999 15.508047419999999 31.38027967108562 
Si 13.38741522 14.03647398 31.849434972823936 
