&CONTROL
  dt          = 30.D0,
  prefix = 'x3.00_y.66_z3.17_struc36-scf',
  pseudo_dir = './',
  outdir='./',
  wf_collect= .true.,
  verbosity= 'high',
/

&SYSTEM
ibrav= 6, celldm(1) =30.783621515, celldm(3) =2.1196850800590985, nat=  432, ntyp= 1,
  ecutwfc     = 12.D0, nbnd= 1728,
  degauss     = 0.05D0,
  occupations = "smearing",
  smearing    = "methfessel-paxton",
/
&ELECTRONS
  electron_maxstep=200,
  conv_thr    = 1.D-8,
  mixing_beta = 0.3D0,
  scf_must_converge=.false.,
/
ATOMIC_SPECIES
Si  28.08  Si.pbe-hgh.UPF
K_POINTS {automatic}
1 1 1 0 0 0
ATOMIC_POSITIONS (angstrom)
Si 0.011719498410000001 2.72673423 2.6941602333385686 
Si 2.71658556 -0.0130028409 2.6959937588131346 
Si 4.04013177 4.00621599 1.2281098653257145 
Si 1.358167347 1.3245415289999998 1.3043651884524874 
Si 0.00090122796 -0.0007026984719999999 5.430550253031078 
Si -0.000222264018 2.7152171999999997 8.145272904827351 
Si 2.7146959199999996 -0.0001420204554 8.145065726807626 
Si 2.71386513 2.71591767 5.431378965109978 
Si 1.357668873 1.357279542 6.787359104209948 
Si 2.71054197 2.7200879099999997 10.867143198304136 
Si 1.3421265839999998 1.346331033 12.235277781227971 
Si 0.888797061 2.81601972 15.607721586311134 
Si 4.01139621 1.333020474 15.076206376706708 
Si 2.36040471 2.9739024 17.689722565867328 
Si 1.366395426 0.655903818 21.127461976833814 
Si 2.97256662 1.5785971109999999 19.569379679492133 
Si 1.124032806 1.460017314 23.413913132188608 
Si 2.74939362 3.090213 23.815700371775247 
Si 1.8052415099999999 0.11971895669999999 25.269641184535175 
Si 2.05213275 0.809039592 29.09963764618095 
Si 2.21188878 3.43565874 26.148662992558293 
Si 2.9058102 1.385379792 26.921540595142318 
Si 3.17275443 2.13309405 34.48792358318813 
Si 3.1234608899999996 2.02246866 30.893799296999244 
Si 1.72747305 1.339639101 32.66054438987393 
Si 4.07194614 6.78892266 4.066421111821926 
Si 1.3578513209999998 4.0736403 4.07391405020198 
Si 2.70589932 5.405364089999999 2.6942741812494173 
Si 1.30697928 6.70498029 1.2727878052794057 
Si 0.00387892593 8.15193954 2.6958763579352905 
Si 3.26251233 7.4318238 0.056420444815003246 
Si 0.00024588940499999996 5.4276325199999995 5.43023948600149 
Si 2.7150705900000003 5.43038553 8.144893078457855 
Si 1.3573479599999998 6.78781494 6.787255515200085 
Si 2.71443528 8.1453258 5.430274015671444 
Si 4.071995009999999 6.78584385 9.502599701055532 
Si 4.0798467899999995 4.0896045 12.25485610409198 
Si 1.3572485909999998 4.07256516 9.502254404355991 
Si 0.00367802136 5.42600352 10.861342213751836 
Si 1.367721432 6.797963609999999 12.233033352680948 
Si 2.31265872 6.9084261 15.640593832107497 
Si 0.666011763 5.238033209999999 16.05636558802557 
Si 3.95379477 4.5079642799999995 16.897680996458746 
Si 3.2155319700000002 6.09205275 13.572646428222646 
Si -0.003988231829999999 8.061888419999999 13.743015819776486 
Si 0.7407111869999999 6.3927498599999995 19.92845371734547 
Si 3.0973643099999997 6.8920220699999994 19.76347095430448 
Si 0.555721947 4.56926355 18.341677264271876 
Si 3.78788112 6.78553434 17.45398850909026 
Si 2.3998428 5.12266743 22.710785462911993 
Si 2.9511126899999995 6.529162319999999 24.495485984162848 
Si 0.1490090283 5.82761718 22.17699129509059 
Si 0.950951556 7.4566497599999995 25.316532476332927 
Si 3.7618659899999995 6.1858017 30.056972745660108 
Si 3.58630866 5.257353149999999 26.32424636427521 
Si 3.7703530799999996 6.988621769999999 27.822799510615916 
Si 2.71295289 8.11817037 30.86541590829692 
Si 2.44859877 4.3525902599999995 30.814933530823932 
Si 0.270285309 4.62816819 31.84557511961578 
Si 1.7612910899999998 8.07206967 32.95825920421872 
Si 1.356504138 9.504367919999998 4.0711862062756 
Si 2.7164389499999997 10.84852098 2.6850167767347064 
Si 0.001038999006 8.14552128 8.14468590043813 
Si -0.000416134566 10.85850675 5.431344435440024 
Si 2.71402803 10.85951673 8.144340603738588 
Si 1.356621426 9.501158789999998 9.500735098878007 
Si 2.7057364199999996 8.150896979999999 10.855679347879354 
Si 0.0017831034 10.862172 10.85889060718509 
Si 1.3389598079999998 9.181500119999999 15.366428252671446 
Si 2.56663611 10.755586529999999 13.61166495527085 
Si 0.18916762499999998 9.88759017 17.742276723537564 
Si 3.3505597799999998 12.15424593 17.27840513737334 
Si 3.4122500099999997 11.05212969 20.8399334151255 
Si 1.6367703299999998 11.294883269999998 19.217384223979398 
Si 0.567862884 9.727834139999999 21.894573124535494 
Si 2.2164499799999997 11.16824481 22.8609895272126 
Si 3.4947751499999997 10.410678359999999 24.674315144855452 
Si 2.4074176499999997 10.6067448 26.77085311546235 
Si 0.833476221 8.553471749999998 29.507985523058878 
Si 0.0587634057 10.869942329999999 29.32867294698691 
Si 0.326205621 11.60354619 27.09411988557322 
Si 1.9053109799999999 8.398048860000001 27.313659527141787 
Si 3.8716443 11.35644318 28.51719117339413 
Si 3.7089560699999997 10.31745069 30.70896197373461 
Si 2.91968928 12.070955159999999 32.38851964997504 
Si 1.405216125 10.350372779999999 33.03405182976811 
Si 1.399402224 12.30777918 1.2907639514575426 
Si 1.355824845 14.93610552 4.072325685384088 
Si 8.47286883e-05 13.57489683 8.144893078457855 
Si 2.71274112 13.57377282 5.430101367321675 
Si 1.3573414439999998 12.217662899999999 6.7874972228897645 
Si 4.07898342 14.934688289999999 12.248917000859864 
Si 1.3553980469999998 14.93208189 9.501356632937183 
Si 2.71762812 13.576200029999999 10.86462253239748 
Si 1.331051013 12.20726988 12.227059719778879 
Si 2.64974769 16.25728968 13.67951575673078 
Si 3.40446339 12.59067132 14.853317357152587 
Si 1.69240068 14.4803439 15.056110108793384 
Si 0.536584455 14.55720012 17.470528220998304 
Si 2.95730289 14.561419229999998 17.343044679527534 
Si 1.90720062 14.63180832 21.04462529861378 
Si 0.629652483 13.39300269 19.48861478146934 
Si 1.74469158 13.496623379999999 23.113608592597252 
Si 3.2876152199999997 14.79423591 24.38916913037398 
Si 0.463443984 13.891330079999998 27.624599205079026 
Si 2.28314124 14.67025272 29.01776779871963 
Si 2.6997579899999997 13.67314182 34.31130432137259 
Si 1.64934621 13.74978627 31.14621118436417 
Si 1.2403645829999999 15.309162809999998 33.10428517845488 
Si 8.14936572 -0.0053820531 2.6784423275754334 
Si 4.0716855 1.3580940419999998 4.0692870744281215 
Si 5.433301439999999 2.7272880899999996 2.706521855182159 
Si 6.8221216799999995 1.491175197 1.2925560413281636 
Si 8.143761959999999 2.7155267100000002 5.430722901380849 
Si 5.4298316699999996 -0.0001087614882 5.429721540952178 
Si 5.4309231 2.71536381 8.144064366378956 
Si 6.78779865 1.357712856 6.787946108599169 
Si 4.0742593199999995 1.355606559 9.502565171385578 
Si 6.76106676 1.36132272 12.196673610219216 
Si 7.26630111 3.46641426 14.982147555751569 
Si 6.25394277 3.9952202399999996 17.118394646805754 
Si 8.06153004 -0.01600078734 13.556244834994418 
Si 5.4418374 2.66435982 13.64301789558923 
Si 6.357514589999999 0.35474570099999997 18.082428502256022 
Si 4.66087851 2.82600549 20.63993756675099 
Si 6.39200052 2.52126846 18.95323224883005 
Si 4.85370324 2.07503649 23.05207672073894 
Si 7.14940407 2.89486332 23.46884983708568 
Si 4.941115379999999 1.8162046799999998 25.741454594788856 
Si 6.8768235 2.2599279899999996 29.391447886963576 
Si 6.8518998 0.60048198 26.258674521032255 
Si 7.077206789999999 4.0099138199999995 27.814408800817056 
Si 7.438942529999999 0.225018657 28.46101140037871 
Si 7.86311784 2.93140179 34.28029667775375 
Si 5.162594219999999 0.492699195 34.4419991221491 
Si 5.47576947 2.1370850999999997 31.29334210803886 
Si 6.525317879999999 0.189886014 32.489173637891426 
Si 6.78581127 4.07166921 4.072118507364363 
Si 6.70310694 6.69357729 1.2576258272025327 
Si 5.44830453 8.13928221 2.708572917577436 
Si 4.0728583800000004 4.07246742 6.787324574539993 
Si 5.4315095399999995 5.429245229999999 5.430308545341399 
Si 6.787521719999999 6.78753801 6.787877049259261 
Si 6.785257409999999 4.07394981 9.499353912079842 
Si 5.43595671 5.42315277 10.853987394051599 
Si 6.7817061899999995 6.765790859999999 12.204201078269223 
Si 8.10934119 5.36939577 13.592155691746749 
Si 6.01995321 7.68290157 17.22174194897856 
Si 5.154823889999999 7.82428248 13.464464972256254 
Si 4.10209893 5.11444098 21.045108713993137 
Si 7.95771387 5.45825772 20.418982208714304 
Si 7.3119619799999995 5.85340425 18.1121240184166 
Si 6.14434365 5.89202784 22.03390034280054 
Si 6.82112799 5.08560768 24.191555829226303 
Si 5.5701863099999995 4.116808799999999 26.005330332578563 
Si 7.732129949999999 7.465397489999999 27.13348370932097 
Si 7.46292141 6.02215236 28.94767256871268 
Si 5.0371938 5.82160617 34.29586955890308 
Si 8.04685275 7.89090858 34.163275626279095 
Si 6.23081097 7.66532466 32.525464321013246 
Si 5.988041099999999 6.0212727 30.792385656343864 
Si 6.596228249999999 4.11930117 32.21145150245009 
Si 8.135942759999999 10.828435409999999 2.697271356601439 
Si 4.0788693899999995 9.35805114 1.2436551227390784 
Si 6.789851189999999 9.504547109999999 4.07574412270955 
Si 6.741763109999999 12.042121859999998 1.1986146212508688 
Si 4.07241855 9.502804079999999 6.787393633879902 
Si 5.42996199 8.14495113 8.144858548787901 
Si 5.43032037 10.858490459999999 5.43023948600149 
Si 6.78634884 9.500425739999999 9.5031521757748 
Si 4.07155518 9.50850558 12.225195117601354 
Si 5.434588349999999 10.860575579999999 10.863344934609177 
Si 7.010580689999999 8.722399049999998 14.954972705497642 
Si 5.636779829999999 11.42349282 17.453781331070537 
Si 4.27262265 8.86830858 20.519739785640553 
Si 7.91145027 9.523231739999998 19.807461753826082 
Si 5.8182993 9.41908977 18.764631191540413 
Si 7.60886352 9.37707786 22.205478272802775 
Si 5.62742937 8.15796684 22.359307952448567 
Si 7.2684025199999995 11.25191025 23.707864212508394 
Si 4.51568574 8.28685332 24.47753055578668 
Si 5.47003539 11.513022659999999 25.28445441294551 
Si 5.521951619999999 8.219282399999999 26.707767408456096 
Si 5.7400584299999995 10.47435597 27.40858158984578 
Si 7.707255119999999 10.88605314 28.657657870767665 
Si 5.186736 10.853098469999999 34.27238938333425 
Si 5.76626904 9.96558669 32.06003889970109 
Si 7.72261659 11.01402738 31.090756534417785 
Si 4.073151599999999 12.216408569999999 4.067077175551055 
Si 4.1350373099999995 14.983118459999998 1.2132621072454246 
Si 5.44214691 13.570759169999999 2.6767434678136888 
Si 6.78711447 14.931528029999999 4.0674224722505965 
Si 4.07222307 14.932603169999998 6.787428163549856 
Si 5.42966877 13.575711329999999 8.145203845487442 
Si 6.78776607 12.2170113 6.787255515200085 
Si 8.14486968 13.574408129999998 10.864208176358032 
Si 4.0711968 12.216718079999998 9.502116285676175 
Si 6.78584385 14.93318961 9.502530641715625 
Si 6.7872285 12.203963009999999 12.258688897456892 
Si 5.4288054 16.2908145 10.857613009396784 
Si 7.075871009999999 14.7173634 15.10410635002967 
Si 5.41608291 13.51622025 13.749956283437271 
Si 5.34764862 15.96496563 16.12397468179582 
Si 5.170869539999999 12.740457869999998 20.58824665082961 
Si 4.1890060799999995 14.857636589999998 20.806439635269964 
Si 6.559282529999999 13.12381044 18.714183343737382 
Si 7.9503996599999995 15.086413349999999 18.68977086707979 
Si 4.21550991 16.001113139999998 18.803408010898938 
Si 6.9469682399999995 12.99756294 22.163524723808468 
Si 4.65675714 15.99215364 22.826356268248574 
Si 6.8088942 15.13345887 23.132358203382367 
Si 6.88167792 14.7400065 25.405342787455034 
Si 4.8270528 13.731720659999999 25.873219815333936 
Si 6.414969419999999 14.449897889999999 29.243626369889807 
Si 4.3441357499999995 13.71575646 28.22828142488765 
Si 6.28802145 14.34212325 31.572963375327667 
Si 9.502657469999999 1.3566083939999998 4.067008116211147 
Si 10.86383358 2.7100044 2.6715847351225372 
Si 9.48283254 4.01968782 1.115584576879089 
Si 8.14469049 4.51964421e-05 8.14468590043813 
Si 10.86111315 -0.00168109542 5.430757431050803 
Si 10.859907689999998 2.7152660699999998 8.144547781758313 
Si 12.21442119 1.3259326949999999 12.224228286842637 
Si 9.501777809999998 1.355591898 9.50208175600622 
Si 8.14452759 2.7166507199999996 10.860582561012844 
Si 9.51456546 4.07671911 12.215285102324511 
Si 10.02880818 0.9873613349999999 16.93569816307828 
Si 9.012654269999999 1.7614214099999999 14.927659736563898 
Si 10.76951448 2.62503576 13.558558322881348 
Si 11.940944669999999 2.0479950899999997 20.23970416231229 
Si 8.47537749 3.19448529 19.78398157825725 
Si 10.48020408 2.8115073899999996 18.45742071795823 
Si 11.1376359 2.8790946 22.28506916204712 
Si 8.72078634 0.0460376577 22.453125065714026 
Si 11.99512521 1.214772993 23.70541260594165 
Si 9.97378056 0.401699997 24.46019666146969 
Si 8.81676702 2.36597589 21.920470377001116 
Si 8.429944679999998 1.9986689699999998 25.221437765279163 
Si 10.35064971 3.9882155399999997 30.15990569179347 
Si 9.072096479999999 3.8640042899999996 26.532391214758906 
Si 10.71012114 2.93247693 27.994550088967923 
Si 9.825118019999998 0.585542421 28.17907664520297 
Si 8.44856415 2.95902963 31.01009522540486 
Si 8.714824199999999 1.233631926 32.69158656316272 
Si 10.85796918 8.137474019999999 2.680811062934289 
Si 12.2194548 4.07469915 4.071462443635234 
Si 12.128247089999999 6.6660146099999995 1.2237798447134622 
Si 8.15008248 5.414861159999999 2.6812012482047716 
Si 9.502608599999999 6.787489139999999 4.066731878851514 
Si 9.502347959999998 4.072548869999999 6.787946108599169 
Si 8.144609039999999 5.42906604 8.143995307039047 
Si 10.85896287 5.42818638 5.430204956331537 
Si 10.859044319999999 5.430271499999999 10.862136396160782 
Si 8.14879557 8.149284269999999 10.862343574180507 
Si 9.502347959999998 6.78628368 9.502012696666311 
Si 8.91706455 7.143669989999999 14.964295716385266 
Si 10.77959799 8.11473318 13.734314342948036 
Si 11.241191429999999 4.64939406 17.077200750550436 
Si 9.40993479 6.36912936 17.179235925264987 
Si 9.96397398 6.7694724 20.668769841162717 
Si 10.30246389 7.533571139999999 24.539649432034217 
Si 8.658591119999999 6.02019756 25.45592875393788 
Si 9.55041975 6.185443319999999 30.05324354130506 
Si 11.60379054 7.244586539999999 29.40367139012735 
Si 12.17721483 7.31222262 27.133552768660874 
Si 9.46929555 7.188353459999999 32.39200714664041 
Si 11.87775576 4.25488284 32.03683496149189 
Si 10.74452562 5.46299811 34.04901694840077 
Si 9.360983339999999 9.326888369999999 1.1966706008324492 
Si 10.42102251 11.18494206 0.08904545817449434 
Si 12.2170113 9.507120930000001 4.068320243669405 
Si 8.14258908 8.1453258 5.430999138740483 
Si 9.50192442 9.5027715 6.787669871239536 
Si 10.8598914 8.1454887 8.145065726807626 
Si 8.14555386 10.859744789999999 8.145169315817489 
Si 10.85920722 10.858262400000001 5.429997778311812 
Si 9.504123569999999 9.4929975 12.232515407631636 
Si 10.862742149999999 10.85879997 10.859477611574311 
Si 11.78801415 9.89461116 14.860188761473466 
Si 8.150001029999999 10.71852678 13.732277092420741 
Si 10.003982220000001 11.5559631 14.968197569090085 
Si 9.762564419999999 11.96287101 17.353541699193602 
Si 11.49603219 11.18059263 19.653804722530058 
Si 8.37351612 11.729744819999999 19.264758931156507 
Si 9.7205688 8.18306973 18.82357333815217 
Si 11.903445089999998 9.10658241 18.690806757178414 
Si 9.30302352 11.657140290000001 24.867163351549454 
Si 9.734056919999999 8.377490879999998 22.40592300688669 
Si 11.07503343 10.34351469 21.870816711607027 
Si 10.492861409999998 9.68297148 25.733961656408802 
Si 9.21662136 9.29787588 27.71555035573829 
Si 10.77247926 9.43935453 29.482847923332244 
Si 9.6366753 9.45996138 31.513399694656737 
Si 11.30356584 10.70767764 32.5129991101598 
Si 12.18581595 12.24595863 1.2599669388254249 
Si 9.50246199 12.21852627 4.065385221723301 
Si 9.55779912 14.90370471 1.1919987364876512 
Si 10.867661729999998 13.58888994 2.7004308214022448 
Si 8.14465791 13.57582536 5.429997778311812 
Si 9.5030973 14.93265204 6.787738930579444 
Si 10.86062445 13.574750219999999 8.144824019117946 
Si 12.2181516 12.213069119999998 12.21504339463483 
Si 9.503357939999999 12.21658776 9.50190910765645 
Si 9.50164749 14.93126739 12.238212803174074 
Si 10.865250810000001 16.28754021 10.859443081904356 
Si 9.00577989 14.17663314 16.768643619840038 
Si 11.32438446 15.22851102 16.76094350344026 
Si 10.79543187 13.41885492 13.641982005490604 
Si 9.09257301 13.01142573 21.161749939098296 
Si 9.433538999999998 15.22930923 20.52560982953276 
Si 11.661131339999999 15.964949339999999 20.429306580030598 
Si 10.49981724 12.327620399999999 22.988300420333598 
Si 8.76649608 13.58313957 26.233295213615946 
Si 9.81775494 13.80224007 30.180588964096014 
Si 10.304206919999999 15.36295239 26.370447062673882 
Si 8.27437518 13.13469216 28.473511140902115 
Si 8.646976350000001 12.93750171 34.40463801925869 
Si 12.11997177 14.776756739999998 32.67777469518106 
Si 10.32136029 16.0992441 30.323196501006702 
Si 11.618370089999999 12.70621629 31.228357269185125 
Si 8.283627899999999 13.21277013 31.95941944145466 
Si 10.66108824 16.28493381 34.076260857994605 
Si 15.839679239999999 0.267908598 0.14957700549424022 
Si 13.54907718 -0.0041670308699999995 2.70126298644814 
Si 12.207155849999998 1.2933298889999998 1.145646107541183 
Si 14.934932639999998 1.355720589 4.06628299314211 
Si 14.86995183 4.01761899 1.255861361067875 
Si 13.57492941 -0.00018647325899999998 8.144754959778039 
Si 13.57243704 2.71435383 5.429825129962041 
Si 12.21764661 1.357014015 6.787877049259261 
Si 16.2921177 -0.001570725783 10.859201374214678 
Si 14.932114469999998 1.356323319 9.50308311643489 
Si 13.579018199999998 2.71461447 10.863724760978673 
Si 14.92313868 4.08654198 12.228199198887367 
Si 16.080184799999998 2.57155569 13.538980000017336 
Si 15.334575209999999 1.88327061 16.918605976450966 
Si 14.092364969999998 1.90882962 14.920304916863664 
Si 12.27788703 3.7687240799999997 14.972893604203852 
Si 14.291037809999999 2.5501994999999997 20.53873110411534 
Si 15.4566036 0.511302375 20.411938156043654 
Si 14.707019249999998 3.6241992 18.49402216810964 
Si 14.77768527 4.03267095 22.401468679462603 
Si 15.457581 2.6523377999999997 24.24652706379333 
Si 13.532477669999999 1.78194681 25.342498788138457 
Si 15.975212039999999 1.409705649 29.56599536858187 
Si 16.22464452 3.70392246 26.26875718465887 
Si 12.927923189999998 3.3168394799999996 27.06283600459475 
Si 15.00778152 3.24834003 28.32582774250816 
Si 14.110137359999998 2.11326912 34.41430632684585 
Si 12.64947822 0.1075684086 30.810755440759483 
Si 15.8754195 2.31296823 31.786943740033614 
Si 13.36501647 2.20488408 32.06508023151439 
Si 13.55254695 5.41699515 2.698169128020247 
Si 14.93441136 6.78797784 4.067387942580643 
Si 14.04580815 7.429445459999999 0.06480839224026845 
Si 14.932407689999998 4.07243484 6.787531752559719 
Si 13.575287789999999 5.429277809999999 8.144996667467717 
Si 12.21740226 6.787342529999999 6.787359104209948 
Si 12.21595245 4.07253258 9.501287573597274 
Si 14.933352509999999 6.78875976 9.50291046808512 
Si 12.21404652 6.78366099 12.259206842506206 
Si 13.52902419 5.340904559999999 13.710143573980123 
Si 15.12546048 6.48001539 15.132144442032452 
Si 14.212275659999998 7.407193319999999 17.13945774547779 
Si 12.24954243 6.05815326 20.445949880948504 
Si 13.38917454 8.12152611 20.27361229820728 
Si 15.49340271 8.04229155 19.104334084549468 
Si 13.122637559999998 5.46597918 18.285497491256454 
Si 16.07190948 7.98576525 23.364224937124565 
Si 12.35262555 6.354435779999999 24.15229559448842 
Si 12.53341197 4.813825319999999 22.41431371668555 
Si 13.32495936 5.5346904 26.144588491503704 
Si 15.083236799999998 5.1179922 29.880008187145023 
Si 15.694242119999998 5.95772541 26.282948879010032 
Si 15.81755742 6.83891667 28.472233543113813 
Si 15.858461609999999 5.70096243 34.36389300871278 
Si 13.084470089999998 6.03388116 30.905677503463476 
Si 13.70969658 7.745113079999999 32.36742202163305 
Si 16.14558915 10.965499470000001 0.07324709828036628 
Si 14.83022052 9.38023812 1.2702913101417195 
Si 13.55986116 10.85314734 2.687129992535901 
Si 13.573723949999998 8.14381083 5.429583422272361 
Si 14.93276607 9.50270634 6.787428163549856 
Si 13.57455474 10.86062445 8.144651370768177 
Si 13.573854269999998 8.147264309999999 10.867074138964227 
Si 14.93791371 9.494903429999999 12.253405857953906 
Si 12.215349719999999 9.503439389999999 9.50166739996677 
Si 13.544336790000001 10.883642219999999 13.653238677895661 
Si 13.07881746 9.47085939 16.74036382014758 
Si 14.44115016 11.368400040000001 17.267839058367368 
Si 14.991752159999999 11.13287922 22.12547302751898 
Si 13.74802695 8.25754761 23.948466952749 
Si 13.242385350000001 9.57522942 22.08921687406711 
Si 12.95463879 9.366440489999999 25.948390906824148 
Si 14.16987279 10.108433699999999 29.70079920008292 
Si 12.25048725 11.35404855 29.32856935797705 
Si 14.41262637 11.309169599999999 26.178220390039055 
Si 13.97074383 8.23954716 28.337636889632485 
Si 13.51266903 10.02305781 32.01594451116962 
Si 14.74787457 11.942671409999999 32.84873109112412 
Si 12.215724389999998 14.93540505 4.076745483138221 
Si 14.93674083 12.21510537 4.069908608487297 
Si 14.77097379 14.80132206 1.3368334371103865 
Si 16.2909774 13.577812739999999 2.7058588855190386 
Si 13.57349589 13.57639551 5.430274015671444 
Si 12.21764661 12.217728059999999 6.787428163549856 
Si 14.932668329999998 14.93229366 6.787600811899627 
Si 12.216718079999998 14.93162577 9.501563810956908 
Si 14.93169093 12.21539859 9.502565171385578 
Si 13.5697329 13.57703082 10.860686150022707 
Si 14.9389074 14.942442329999999 12.235554018587605 
Si 12.66814656 14.388631199999999 14.928212211283165 
Si 14.35867389 12.55463784 15.105763774187471 
Si 13.546438199999999 16.23549366 13.680275409469772 
Si 16.12762128 13.43398833 13.664633468980535 
Si 14.95086426 13.038760349999999 20.737345765691686 
Si 13.27459068 12.6537462 19.16558971904815 
Si 12.789425609999999 14.935062959999998 18.642327100562767 
Si 15.05415915 16.090170569999998 18.164678176086834 
Si 14.81919219 15.099689699999999 21.954551161245874 
Si 12.628024289999999 15.547599539999998 22.55036061630495 
Si 15.897199229999998 14.15250765 23.863765672351438 
Si 12.342851549999999 13.584035519999999 23.837523123186276 
Si 14.38320663 12.3489603 24.05032947911378 
Si 16.131253949999998 15.31403352 25.881990351502292 
Si 14.81106348 13.913989469999999 28.97160162999091 
Si 14.24151621 16.18097103 28.981649763947573 
Si 12.3942465 14.377798349999999 26.133159170748872 
Si 14.00578362 16.11786357 26.56564328692476 
Si 13.20260517 12.73420251 27.6579893959247 
Si 13.539954779999999 13.52697165 34.1915208963016 
Si 15.847286669999999 12.767613299999999 30.767904120346365 
