&CONTROL
  dt          = 30.D0,
  prefix = 'x3.00_y1.33_z3.15_struc29-scf',
  pseudo_dir = './',
  outdir='./',
  wf_collect= .true.,
  verbosity= 'high',
/

&SYSTEM
ibrav= 6, celldm(1) =30.783621515, celldm(3) =2.101198140089011, nat=  432, ntyp= 1,
  ecutwfc     = 12.D0, nbnd= 1728,
  degauss     = 0.05D0,
  occupations = "smearing",
  smearing    = "methfessel-paxton",
/
&ELECTRONS
  electron_maxstep=200,
  conv_thr    = 1.D-8,
  mixing_beta = 0.3D0,
  scf_must_converge=.false.,
/
ATOMIC_SPECIES
Si  28.08  Si.pbe-hgh.UPF
K_POINTS {automatic}
1 1 1 0 0 0
ATOMIC_POSITIONS (angstrom)
Si 0.0240464835 2.70829395 2.70706158516796 
Si 2.71171485 -0.00538641882 2.6740550255478728 
Si 1.321827615 1.363129281 1.1283225489374566 
Si -0.000431579115 0.00030699808199999995 5.430457018983337 
Si 0.00063581499 2.7147122099999996 8.144744244238199 
Si 2.7147122099999996 1.261668645e-05 8.144983843862114 
Si 2.71397916 2.71593396 5.430251647877125 
Si 1.3572828000000001 1.357927884 6.787686202905024 
Si -0.00313906671 0.0009666616319999999 10.860640209825059 
Si 2.7150705900000003 2.71726974 10.856977758430938 
Si 1.3623326999999998 1.3721067 12.237756162531635 
Si 3.23672526 0.8696921489999999 16.630815267001243 
Si 1.292124429 2.1191986800000002 17.073184629782535 
Si 1.109324565 4.05314748 15.444420614930486 
Si 2.8682128799999997 0.7141861799999999 20.216081353702467 
Si 1.400576733 2.40875343 19.51672428001418 
Si 0.653983227 3.4421747399999996 24.694643295391796 
Si 0.680980644 1.275888186 23.6511869332448 
Si 2.86391232 0.991046133 22.635558355989573 
Si 1.68767658 1.690902 27.508843563818942 
Si 1.7893913399999999 1.5124906619999998 29.89566656021829 
Si 2.02277817 3.86630118 26.66045552405593 
Si 2.72261286 2.81193093 33.84758852854388 
Si 0.763048035 3.6130894199999997 30.36028445950592 
Si 3.76665525 1.3769969579999999 31.2699415459556 
Si 4.03651539 4.1439805199999995 1.2158380229980583 
Si 1.359582948 4.06969812 4.073296292097055 
Si 2.70317889 5.431525829999999 2.7015850223356312 
Si 1.3125683789999998 6.75699426 1.2910449220930025 
Si 2.8606868999999997 8.10414468 0.015117675184946718 
Si 0.001060324245 5.4300760200000004 5.430354333430231 
Si 2.71482624 5.429766509999999 8.145360357556836 
Si 1.3577519519999999 6.7874728499999994 6.78713854662179 
Si 4.050720269999999 4.06456677 12.237140049213 
Si 1.3556977829999999 4.07018682 9.501802285571376 
Si 1.359744219 6.76826694 12.258806700918397 
Si 1.0700738099999998 7.93254582 16.812363324892914 
Si 2.73890286 5.27489748 13.909066224887333 
Si 0.0203880753 5.64135732 17.086396837615528 
Si 1.74030957 7.77467943 19.71959670443423 
Si 2.7074468699999996 4.360637519999999 19.78634231395323 
Si 0.810407952 5.690569409999999 19.493209288352872 
Si 0.8891049419999999 5.34333177 23.322285106645804 
Si 3.0288648599999997 6.24829014 23.03486824350169 
Si 1.399941423 5.16335985 28.64485383783228 
Si 3.21181785 6.7521887099999995 29.19897931091077 
Si 1.4987256119999999 4.42330515 32.52236300867361 
Si 3.41752797 5.74771473 31.483664410487197 
Si 1.357688421 9.50101218 4.06970229773834 
Si 2.72526813 10.86948621 2.7142838024030924 
Si -0.00026109612 8.145244349999999 8.144812701273604 
Si 2.7162108899999997 8.146238039999998 5.429772448629296 
Si -0.000735060186 10.86088509 5.430251647877125 
Si 2.7152009099999996 10.8600543 8.14491538682671 
Si 1.3569781769999998 9.50086557 9.502007656677588 
Si 2.7151194599999995 8.149186529999998 10.86084558093127 
Si 1.080110079 9.176303609999998 14.832003976205408 
Si 2.6391917699999996 10.70642331 13.77793677357078 
Si 4.04158158 10.61379837 18.062662619513397 
Si 2.9463560099999997 11.32386318 20.10045742090494 
Si 0.665356905 11.099940839999999 19.425607965891327 
Si 0.00558023724 8.93871396 18.743912807337296 
Si 3.2255177399999995 8.38074888 17.979110807802694 
Si 2.4822376200000003 8.158439249999999 21.834029156960668 
Si 1.4019271739999999 10.03413501 22.966000465885166 
Si 2.43467082 11.814403949999999 24.185254494949888 
Si 3.78696888 10.027602719999999 21.916109142410185 
Si 0.9152650529999999 8.97124509 24.999208645904634 
Si 2.11714614 10.784778209999999 29.53565101102813 
Si 3.0797385299999998 8.86514832 25.998202163556666 
Si 2.24792226 8.77439673 28.277136872159154 
Si 1.546419474 9.2572812 32.61084372693341 
Si 0.243915057 10.86977943 34.07486588608549 
Si 3.43940544 10.02007674 31.309167427242148 
Si 0.00734147946 13.57194834 2.6846316375178065 
Si 1.523569491 12.26612565 1.2566349932471315 
Si 1.3550852789999999 14.935242149999999 4.069531155149829 
Si -4.48730856e-05 13.575369239999999 8.144983843862114 
Si 2.71544526 13.57318638 5.430114733806317 
Si 1.357621632 12.217597739999999 6.7875835173519175 
Si 1.3573886849999999 14.932228499999999 9.502418398890013 
Si 2.71593396 13.575809069999998 10.860195239094931 
Si 1.3665681 12.202024499999998 12.248161631913058 
Si 2.67792939 16.20273447 13.565138079017135 
Si 0.017066381399999997 13.568625179999998 13.65656244979931 
Si 1.18389204 15.12117621 14.989865899847263 
Si 3.06911745 14.83315272 16.914022022468004 
Si 3.1645605599999995 13.55355693 20.782049893905867 
Si 2.21807898 14.971438529999999 19.200042034234816 
Si 2.29190526 13.79373669 22.930094750815712 
Si 3.39861528 15.560729279999999 24.166018068001335 
Si 0.660613257 12.33040599 25.752407177938245 
Si 2.3256092699999997 15.93844551 26.30629305139282 
Si 1.4507841419999998 13.96746954 27.2376510180656 
Si 2.83828815 12.792129749999999 28.61733410959983 
Si 0.11900512889999999 12.673782899999999 32.33971963821547 
Si 2.98312254 13.351267709999998 33.90584546567277 
Si 0.725170527 15.787095119999998 30.581469140896562 
Si 2.0010636 14.1677388 31.902005353841655 
Si 3.8923488899999996 13.95583848 30.344231284703653 
Si 8.16236514 -0.00377339931 2.7095602669602092 
Si 4.0745362499999995 1.3578431759999998 4.067237844463793 
Si 5.421279419999999 2.7161457299999996 2.680151124550608 
Si 6.84536751 1.297413792 1.267779798610919 
Si 5.4293429699999995 -0.000978432786 5.4301831908417215 
Si 5.43015747 2.7150705900000003 8.1447784727559 
Si 6.78727737 1.3577014529999998 6.7875835173519175 
Si 8.147687849999999 2.71549413 10.857901928408895 
Si 4.07051262 1.35705474 9.501562685947462 
Si 6.80697198 1.352926854 12.222284872530308 
Si 7.57309068 3.6387461699999997 16.869969920185465 
Si 4.555417049999999 0.659293767 14.712991420155381 
Si 5.38806411 2.6296784099999995 13.568492473751936 
Si 6.366946499999999 0.0303261156 18.0426731651754 
Si 5.8226976 3.24760698 18.36620111449518 
Si 7.19346852 3.30506181 20.28991226638579 
Si 4.49258652 1.3215832650000001 18.504278954905246 
Si 4.50943038 2.6776850399999996 22.802080094610048 
Si 6.434745479999999 1.67068611 21.8027785202987 
Si 5.36393862 3.28044762 24.91990117038899 
Si 7.31153844 0.30670486199999997 25.30288405495722 
Si 5.78847231 1.616388282 26.5046815399939 
Si 7.03706823 2.7333805499999997 28.124306540619504 
Si 8.064967229999999 2.59556715 33.9129992258725 
Si 4.62499164 3.57979266 31.513785506065002 
Si 6.7862511 4.07287467 4.069565383667531 
Si 4.073461109999999 6.785664659999999 4.071071438446422 
Si 5.58764919 5.561813249999999 0.1499835457223737 
Si 6.994616489999999 6.9193404 1.4018939766710912 
Si 8.16526476 5.412596849999999 2.7134623179782427 
Si 4.07232081 4.07267919 6.787378146245705 
Si 5.43009231 5.4296199 5.430251647877125 
Si 6.787375109999999 6.7877171999999995 6.787412374763408 
Si 6.78730995 4.06935603 9.50173382853597 
Si 4.07023569 6.786462869999999 9.50234994185461 
Si 5.43015747 5.43209598 10.862830834957988 
Si 6.790535369999999 6.79794732 12.22498892542877 
Si 5.30909019 8.012920679999999 13.609703609065203 
Si 6.399966329999999 4.325353379999999 14.90549260371171 
Si 4.69767762 6.15701727 15.111137538065625 
Si 8.075995559999999 5.369803019999999 13.581293939372502 
Si 5.142818159999999 7.036498079999999 17.678002537577758 
Si 6.5452568399999995 5.36981931 21.24262882810465 
Si 7.08448842 6.99225444 19.588124967940658 
Si 4.176136979999999 4.854631769999999 17.929102943439997 
Si 7.555236839999999 4.219843050000001 24.72709193017334 
Si 4.199594579999999 4.742149319999999 21.637797064974816 
Si 7.597884059999999 6.08736123 23.320505223725295 
Si 6.25185765 7.8129120599999995 24.27441978356373 
Si 4.127185529999999 6.94398717 24.99513545229809 
Si 5.02792479 5.66027001 28.12362197026546 
Si 5.952235679999999 4.12249401 29.656443449998665 
Si 4.11899166 4.854257099999999 26.136143089895928 
Si 7.176201119999999 6.4778814 27.626452750643185 
Si 6.60857607 4.140070919999999 32.76572776953518 
Si 7.956035999999999 5.01991011 31.044444071334492 
Si 4.65473718 7.210980269999999 33.03229946539875 
Si 8.18461728 10.83443013 2.7059765411568044 
Si 4.15784331 9.57768921 1.351430873022959 
Si 5.44123467 8.14864896 2.7107993393010235 
Si 6.7858275599999995 9.49938318 4.071824465835867 
Si 4.072923540000001 12.217744349999998 4.077540628292109 
Si 6.7732190999999995 12.12342525 1.4288865857309279 
Si 4.0730701499999995 9.50270634 6.7875492888342155 
Si 5.4297828 8.1453258 8.145120757932922 
Si 5.4302877899999995 10.86248151 5.43083353267806 
Si 6.787652039999999 9.50151717 9.50238417037231 
Si 4.05003609 9.49262283 12.230431259743396 
Si 5.432389199999999 10.859598179999999 10.864439575289985 
Si 8.02030005 10.83351789 13.660601414888152 
Si 6.794151749999999 8.960966099999998 16.94951699532503 
Si 6.162800219999999 9.857518829999998 14.825603243395125 
Si 4.475107349999999 11.619168299999998 15.145092227626058 
Si 7.16895207 9.21038229 20.540088502270073 
Si 6.25850397 10.59332184 18.834515693694627 
Si 6.04556109 9.58332555 22.65657466585863 
Si 6.36209208 11.34455148 24.194735794353356 
Si 4.26335364 10.89771678 25.34190456513756 
Si 7.34942898 8.42878809 26.35055052478157 
Si 6.28997625 9.61111629 28.122697800287508 
Si 6.40762263 11.89331271 28.467960858348082 
Si 5.74867584 10.644700499999999 34.06083219382765 
Si 7.64549973 9.20104812 30.14283068654479 
Si 6.55757208 8.79879915 32.490462030175294 
Si 5.0907227399999995 8.72772588 29.994107777129386 
Si 4.304388149999999 11.77299477 32.63504328894876 
Si 7.5447460799999995 13.89069477 0.15622408906981147 
Si 4.115831399999999 14.841623519999999 1.229341173231517 
Si 5.42237085 13.560138089999999 2.715779588626672 
Si 6.78830364 14.931902699999998 4.070523782163189 
Si 5.995746269999999 15.740065889999999 0.05297821512887893 
Si 4.0723696799999995 14.93257059 6.787857345493533 
Si 5.43009231 13.57486425 8.144470416096583 
Si 6.78693528 12.217548869999998 6.78813117363515 
Si 8.14469049 13.57634664 10.861256323143694 
Si 4.0711968 12.21805386 9.5021787992661 
Si 6.787391399999999 14.930550629999999 9.502897598137842 
Si 4.0658373899999996 14.9051871 12.216637167109472 
Si 6.784247429999999 12.223396979999999 12.22663189427847 
Si 5.431444379999999 16.28977194 10.863275805688117 
Si 5.2778459699999996 13.388620679999999 13.632157516677747 
Si 6.19024887 15.10436493 14.882182983156612 
Si 8.0311329 16.15914243 13.651530857697109 
Si 5.66862678 14.26591863 17.199830145280117 
Si 5.41629468 14.03469837 20.990672709299858 
Si 6.4316178 16.09360776 20.37900909796423 
Si 6.47196813 12.897672659999998 19.245155220566115 
Si 5.691611969999999 15.02623809 24.593087283369815 
Si 6.3315972 13.42628316 23.045821369166347 
Si 4.51641879 16.19916696 27.52017320317832 
Si 4.92173028 16.05219858 29.863354839507554 
Si 5.60789766 14.245230329999998 26.767419641874834 
Si 4.50622125 12.25359864 27.182988075295427 
Si 7.88406678 13.5057132 27.226047550564605 
Si 7.20162981 16.15744827 30.595365919083598 
Si 5.57989515 12.33767133 30.675084136811673 
Si 7.430732369999999 12.587445899999999 32.288445318697796 
Si 12.16255383 1.308451896 1.275008861549592 
Si 9.505948049999999 1.353457908 4.07353589172097 
Si 10.85057352 2.7052314299999995 2.7024373124264125 
Si 9.43422318 3.9363970499999996 1.2635970737477284 
Si 8.14527693 -0.000220503069 8.144607330167391 
Si 8.14659642 2.71533123 5.430080505288615 
Si 10.85853933 -0.000398710782 5.431107360819676 
Si 10.86000543 2.7150705900000003 8.14491538682671 
Si 9.49979043 1.358082639 9.502007656677588 
Si 10.86308424 -0.0014845353929999999 10.866287915245897 
Si 9.61579152 0.750051873 15.097206531360891 
Si 10.73076057 2.5503624 13.715230129140624 
Si 8.44515954 1.362062286 17.087081407969567 
Si 9.47630025 2.92247487 19.80133440470673 
Si 9.9623124 0.801220392 18.82174845659176 
Si 8.19144279 1.0990358009999999 23.316158201977135 
Si 9.33488676 3.0069059399999998 23.823424834321518 
Si 10.27058436 3.7738391399999998 21.811609477865826 
Si 10.98791451 3.16548909 25.465161457382646 
Si 10.24026867 2.4544143 29.447409892392244 
Si 12.13981299 1.043345178 29.35670432048181 
Si 8.442650879999999 0.995745798 28.877197015993797 
Si 10.411997849999999 3.9224691 27.590375892985225 
Si 8.80582014 1.484916579 31.813353492993347 
Si 12.21981318 4.07129454 4.067990871853238 
Si 12.16959111 6.76629585 1.343281062958101 
Si 9.50438421 6.78659319 4.073775491344883 
Si 11.000734739999999 5.12471997 0.007962408930439379 
Si 9.50264118 4.07274435 6.787480831798812 
Si 8.14493484 5.42965248 8.144573101649689 
Si 10.859549309999998 5.4312651899999995 5.430662390089549 
Si 12.211814789999998 6.79234356 12.181655622017976 
Si 9.50189184 6.78726108 9.501665371500566 
Si 9.498079979999998 4.05119268 12.231218515650543 
Si 10.86300279 5.43072762 10.862283178674756 
Si 10.84886307 8.09226927 13.482133923589663 
Si 11.515319550000001 4.54060944 15.02118499354464 
Si 9.0157005 7.954358129999999 16.511015455044067 
Si 9.80190477 6.44222259 14.82402873158083 
Si 10.438632 7.58340225 20.167476858565557 
Si 9.20070603 6.60800592 18.434178950651447 
Si 10.270600649999999 4.50480402 18.17044822175715 
Si 9.98601435 6.72420249 23.938021911587978 
Si 9.69784425 6.06304026 21.775703762796375 
Si 11.6315487 5.27251914 24.71562537674315 
Si 11.855357009999999 5.7170732399999995 28.19238706232888 
Si 8.17979544 6.9392142 29.660961614335335 
Si 10.444691879999999 7.26182136 29.22721783801496 
Si 8.18891784 4.472175149999999 26.982374733043713 
Si 9.590281379999999 6.24644937 32.72687840194336 
Si 11.23705377 7.2867776399999995 31.4402968785587 
Si 8.278431389999998 7.95764871 33.90457901051779 
Si 9.55727784 9.49293234 1.0423439353216775 
Si 10.839968729999999 8.150701499999998 2.6927164133990305 
Si 9.5076585 12.21666921 4.074049319486501 
Si 8.144397269999999 8.144185499999999 5.430662390089549 
Si 9.50288553 9.502103609999999 6.787412374763408 
Si 10.86042897 8.14514661 8.144710015720497 
Si 8.14485339 10.86020091 8.144812701273604 
Si 10.85850675 10.86062445 5.430046276770913 
Si 8.14416921 8.14527693 10.861050952037482 
Si 9.48239271 9.51050925 12.227590292774126 
Si 10.862123129999999 10.861357499999999 10.85817575655051 
Si 10.37270637 9.9020394 16.10068398483189 
Si 9.421777619999999 11.976293969999999 15.137561953731607 
Si 9.52803729 9.74357028 20.490559837155207 
Si 10.727274509999999 10.484748989999998 18.402209515117733 
Si 10.50990075 10.57769973 22.556011280850008 
Si 10.51517871 8.98020459 24.323811534607785 
Si 8.34877161 11.75336532 25.59533251020354 
Si 9.37934217 9.69126309 26.299173519710795 
Si 10.65836781 9.44855838 28.43181554365472 
Si 11.44097199 10.29373245 33.91587442135947 
Si 11.285907479999999 11.16228267 31.60308770874965 
Si 9.45963558 10.77987492 29.99147218126633 
Si 9.43948485 14.82062571 1.3218505880248472 
Si 10.85616099 13.544695169999999 2.7029575858954837 
Si 8.14465791 13.573903139999999 5.430491247501039 
Si 9.50257602 14.93268462 6.78796003104664 
Si 10.85984253 13.57512489 8.145052300897518 
Si 12.20477751 12.20156838 12.223585556202988 
Si 9.50096331 12.21564294 9.501836514089078 
Si 9.49361652 14.9221287 12.235907822575724 
Si 10.718982899999999 13.37878152 13.641159616833388 
Si 11.903575409999998 14.115692249999999 17.31771316024598 
Si 8.71000236 15.71074389 20.137184620399243 
Si 8.62987185 13.40139204 20.006808196472136 
Si 10.536714089999998 12.73858452 18.85012389776676 
Si 12.083270399999998 15.980050169999998 18.742030238863688 
Si 8.5454082 13.67218071 22.36730946275861 
Si 11.81191158 15.39181827 22.6826910248653 
Si 9.7766064 12.42035937 23.841394806115094 
Si 11.538744569999999 13.871896109999998 24.50186828369385 
Si 9.530350469999998 15.804557999999998 22.29097986828304 
Si 11.086794809999999 15.063916859999999 26.54424970645747 
Si 9.17120484 12.96384264 29.158760802610857 
Si 8.82196353 15.77290653 26.954375805563433 
Si 11.32032825 13.64852763 28.414358999626675 
Si 12.21901497 13.363420049999998 31.953485044465538 
Si 11.777344199999998 15.14948823 30.219947536927513 
Si 8.480785769999999 14.2363197 31.024249245890285 
Si 10.12257342 15.75523188 31.9462285987127 
Si 11.15677665 15.83357049 34.20791213439336 
Si 15.59918997 0.5548504320000001 0.009646007030650113 
Si 13.91855067 2.39573772 0.1887120866467122 
Si 14.93107191 1.3568950979999999 4.06987344032685 
Si 13.57520634 -7.8231096e-05 8.145154986450624 
Si 13.574847959999998 2.71384884 5.430046276770913 
Si 12.217614029999998 1.3570400790000001 6.78744660328111 
Si 14.93289639 1.3569781769999998 9.502007656677588 
Si 13.57540182 2.71437012 10.865774487480365 
Si 12.231444239999998 1.350037008 12.255965733949127 
Si 14.91795846 4.07329821 12.260928869015924 
Si 16.25691501 2.6562474 13.794126862443848 
Si 15.686064539999999 0.5851596059999999 15.104326063042917 
Si 15.63900273 0.649073421 17.479956334153698 
Si 15.638090489999998 2.9047513499999997 20.671491781728243 
Si 13.498692209999998 3.0453014699999996 19.733835767798286 
Si 13.460817959999998 1.4442274169999998 18.021246113093916 
Si 15.25548726 1.031425785 22.07845500187101 
Si 12.47004387 2.9551363200000003 21.877567831477677 
Si 13.08531717 1.0524382559999998 23.11886502594252 
Si 12.95768502 1.9469156399999998 25.317841917193018 
Si 14.76385506 3.5194056299999996 25.575137684759326 
Si 14.87821086 3.2614208999999996 29.580319226629303 
Si 12.71098926 0.408996288 27.0907422200884 
Si 15.00735798 0.0356219946 27.154201891908002 
Si 15.6167343 2.27225952 27.52202154313423 
Si 13.71055995 1.80222786 30.98290119650621 
Si 12.59427141 3.3321846600000002 32.633160720475146 
Si 15.021448829999999 4.094279729999999 1.3413539974114754 
Si 13.582650869999998 5.43066246 2.700773806466093 
Si 14.93123481 6.788531699999999 4.0708660673402095 
Si 14.93257059 4.0726140299999996 6.787172775139493 
Si 13.57476651 5.430304079999999 8.145018072379816 
Si 12.217744349999998 6.787521719999999 6.78778888845813 
Si 13.573691369999999 8.14687335 10.857901928408895 
Si 16.2960273 5.42807235 10.863070434581903 
Si 12.21694614 4.07271177 9.502452627407713 
Si 14.93219592 6.78779865 9.502760684067033 
Si 13.95881955 7.33651101 15.101313953485137 
Si 15.931962089999999 7.86792339 13.584716791142707 
Si 13.877255519999999 5.44219578 16.677468736629134 
Si 13.353417989999999 5.48394705 13.68996948307651 
Si 12.694585229999998 6.87304422 20.107063524821438 
Si 12.5848395 4.97576421 18.724505237800233 
Si 13.38643782 4.4837573399999995 23.399607328134735 
Si 13.86366966 6.2817009299999995 22.043678827885724 
Si 16.033872329999998 7.013398859999999 24.523192650222224 
Si 15.8531022 5.158440269999999 21.39929275362693 
Si 14.844702329999999 5.8216550400000004 26.171330006093637 
Si 13.845522599999999 5.39503623 29.518126009964682 
Si 12.699146429999999 6.67344285 26.234823906430936 
Si 15.65100846 6.3463233599999995 28.281415436871914 
Si 14.66614764 6.97050729 33.07053271967194 
Si 16.26292602 5.4635031000000005 34.08821500798929 
Si 16.02738891 8.11331595 31.56564171038361 
Si 13.110778439999999 5.702037569999999 31.747258225310688 
Si 12.214828439999998 12.164785559999999 1.2407118868121378 
Si 16.28687232 8.1479322 2.696450744680324 
Si 13.27317345 8.515304279999999 0.06188995199778467 
Si 12.217532579999999 9.50182668 4.069770754773744 
Si 14.98025142 9.59451678 1.2958026860535874 
Si 13.58823834 10.87334694 2.705439153428882 
Si 13.57554843 8.14449501 5.430320104912529 
Si 14.932244789999999 9.502185059999999 6.787686202905024 
Si 13.574685059999998 10.85945157 8.144744244238199 
Si 14.927895359999999 9.501468299999999 12.226768808349279 
Si 16.2911403 10.85893029 10.863241577170413 
Si 12.21406281 9.49969269 9.501323086323548 
Si 12.33807858 9.17026002 14.911653736898078 
Si 13.50445887 10.795464449999999 13.629966891544816 
Si 13.110713279999999 10.6302024 18.51218574249442 
Si 14.09664924 8.71125669 19.554649477628057 
Si 16.14809781 11.25088398 21.621059319818514 
Si 12.6887697 11.41083549 22.14061399001793 
Si 14.26823181 8.153975789999999 23.39289853866513 
Si 14.29954119 9.79100676 21.680753854690888 
Si 12.71243907 8.77156227 25.142420763970016 
Si 12.638515049999999 10.27131741 29.567551989526443 
Si 13.59949473 10.84914 26.013502310969482 
Si 15.87437694 10.27885968 26.440811125961876 
Si 13.11082731 12.06771345 28.120712546260787 
Si 16.118840969999997 8.68296096 28.286823542668834 
Si 14.8545252 9.50703948 30.135711154862765 
Si 16.2645876 11.3454963 30.431411319290778 
Si 12.218803199999998 14.935062959999998 4.073227835061651 
Si 14.93032257 12.216213089999998 4.071413723623443 
Si 14.797005209999998 14.899404149999999 1.2828335006962805 
Si 13.562728199999999 16.28978823 2.711350418436026 
Si 13.57538553 13.57551585 5.42932747789917 
Si 12.217597739999999 12.21735339 6.787309689210301 
Si 14.932098179999999 14.93312445 6.787720431422726 
Si 12.21637599 14.93089272 9.501768057053674 
Si 14.930420309999999 12.21609906 9.502076113712992 
Si 13.575874229999998 13.576004549999999 10.86399460455986 
Si 14.93905401 14.92768359 12.231800400451478 
Si 12.575000339999999 14.28738885 14.85541628231361 
Si 14.367063239999998 12.61927656 14.84839943618469 
Si 13.642923869999999 16.15516767 13.792038922864025 
Si 13.86611316 12.48149574 17.182989714570713 
Si 16.10242065 12.748423679999998 17.94703868671587 
Si 15.231866759999999 15.182165969999998 20.949119288809573 
Si 12.91479345 14.75950563 20.649996272611357 
Si 12.604420079999999 12.49988715 20.014817669614413 
Si 16.20084483 14.91717654 18.796419353492244 
Si 16.27058232 13.54666626 22.35728050707191 
Si 13.392009 12.467795849999998 24.26706065225779 
Si 15.439645709999999 13.689513269999999 24.50806364539792 
Si 16.270272809999998 15.8571747 25.21919532917571 
Si 14.90280876 13.007613869999998 29.370874926810462 
Si 16.09194618 14.828819579999998 28.601041335173655 
Si 12.853885140000001 14.078518469999999 34.184499828285155 
Si 14.485947659999999 13.86451674 31.52220572141971 
Si 15.13689606 16.23697605 31.949001108646566 
