&CONTROL
  dt          = 30.D0,
  prefix = 'x3.00_y1.33_z3.16_struc11-scf',
  pseudo_dir = './',
  outdir='./',
  wf_collect= .true.,
  verbosity= 'high',
/

&SYSTEM
ibrav= 6, celldm(1) =30.783621515, celldm(3) =2.109682705316459, nat=  432, ntyp= 1,
  ecutwfc     = 12.D0, nbnd= 1728,
  degauss     = 0.05D0,
  occupations = "smearing",
  smearing    = "methfessel-paxton",
/
&ELECTRONS
  electron_maxstep=200,
  conv_thr    = 1.D-8,
  mixing_beta = 0.3D0,
  scf_must_converge=.false.,
/
ATOMIC_SPECIES
Si  28.08  Si.pbe-hgh.UPF
K_POINTS {automatic}
1 1 1 0 0 0
ATOMIC_POSITIONS (angstrom)
Si 0.000278296731 2.72126079 2.695530510419588 
Si 2.70710478 0.01347731973 2.7033077017058997 
Si 3.3652044899999995 2.2381319699999995 0.28179757372600645 
Si 1.40408397 1.442114604 1.2552517329685806 
Si 4.06311696 4.063296149999999 1.4887255585217698 
Si 0.0001316186388 8.9943606e-05 5.429531139822372 
Si 0.00025361900999999997 2.7150868799999994 8.144743477240064 
Si 2.7152497799999997 -0.000387188865 8.145121511284028 
Si 2.7152334899999997 2.7164389499999997 5.429668606747451 
Si 1.357662357 1.356880437 6.787154491896852 
Si 2.7161945999999997 2.7151846199999996 10.863220654128368 
Si 1.366426377 1.349082414 12.225483514924244 
Si 0.732046536 0.6866234999999999 16.364612629035484 
Si 2.3151347999999996 2.63790486 16.020979683070703 
Si 2.8396727999999998 1.0759154039999999 21.187605328680597 
Si 2.5230277799999996 0.170098551 19.004561824972736 
Si 3.43919367 3.61781352 17.861489976214404 
Si 3.7880277299999996 3.29235561 21.601861907404416 
Si 0.8554726079999999 1.561455144 22.30387112704864 
Si 0.65790423 3.78993366 22.971032481185485 
Si 0.37986651 0.30737112299999997 24.198130987898004 
Si 3.5288538299999996 3.76064424 25.527058119362362 
Si 2.3164054199999997 0.05395117679999999 25.660744704001125 
Si 1.65512916 0.49489508699999996 30.03872260043612 
Si 3.66810075 1.095434082 29.000847316094045 
Si 2.69454519 2.0337250499999997 27.009845106720746 
Si 0.717289425 3.05704656 27.941905225483705 
Si 0.547361919 1.096548318 33.38566419205169 
Si 2.5293971699999998 0.614253546 32.201661566351255 
Si 3.44051316 3.01425273 32.44236615216357 
Si 1.356235353 4.076148959999999 4.076719130125636 
Si 2.6890554599999996 5.42145861 2.72915492029377 
Si 1.336356666 6.69090573 1.2817484827774461 
Si -0.000564730317 5.42971764 5.430940175804426 
Si 2.7146796299999996 5.4298316699999996 8.144331076464828 
Si 1.357522263 6.787652039999999 6.787704359597166 
Si 4.081459499999999 4.06683108 12.247718790055679 
Si 1.356041502 4.07279322 9.502263729120736 
Si -0.00045002265299999995 5.432438069999999 10.855934907099211 
Si 1.336622193 6.794640449999999 12.214245593799083 
Si 3.49267374 7.10006166 14.671948013813623 
Si 3.2928931799999996 8.08923933 16.779694009309775 
Si 0.876864636 4.3192935 14.822783597355919 
Si 2.51325378 5.317723889999999 13.560424824360783 
Si 2.03432778 4.93083639 21.471508895698804 
Si 1.7283852899999999 4.6626378299999995 19.11481029888563 
Si 1.61720604 7.035569549999999 18.49383783157514 
Si 1.510135128 6.941836889999999 24.684626435750534 
Si 2.4248316599999997 7.0838694 22.525605277200132 
Si 1.36893015 4.63660641 25.021145468342507 
Si 3.29051484 7.51102578 26.109127446875664 
Si 0.8033266889999999 6.984353789999999 28.93018931660374 
Si 3.8906710199999996 7.24826808 29.863692838080024 
Si 1.8546816599999998 4.799099159999999 29.07556058987417 
Si 0.43155142199999996 7.75956231 31.15299512839053 
Si 1.79387109 4.41869508 31.5167669788793 
Si 2.5722398699999998 6.70845006 31.80809375985174 
Si 3.1158045899999998 7.324195769999999 34.17833284878514 
Si 3.9745971 9.246269159999999 1.1656164244711966 
Si 1.35819504 9.50117508 4.071323553316309 
Si 2.71262709 10.84874904 2.6718071558241796 
Si 1.29468033 12.187412369999999 1.1616951804333344 
Si 1.76979447e-05 8.145032579999999 8.144640377046255 
Si 2.71437012 8.14587966 5.430493408297921 
Si -0.0016178038829999998 10.857724829999999 5.430218474447765 
Si 2.71539639 10.860038009999998 8.14501841109022 
Si 4.07647476 9.50936895 12.214348693992893 
Si 1.35772263 9.5021199 9.501576394495343 
Si 2.71458189 8.14622175 10.861845984877581 
Si 0.00313136154 10.8610317 10.8628426200844 
Si 1.3380785189999997 12.21841224 12.239573874744783 
Si 3.81676329 12.17397312 15.112082741183455 
Si 1.6760455199999997 8.81968293 14.70775814779655 
Si 2.6224782299999996 10.752181919999998 13.607404146006335 
Si 0.1300256397 12.12797016 20.704615287417568 
Si 2.25015399 8.863698509999999 19.923700052778326 
Si 1.356217434 10.845148949999999 19.028515436667654 
Si 0.0848845836 10.09020519 17.19707796057913 
Si 1.218184119 9.09710163 22.062754140461088 
Si 1.52453223 10.724945039999998 23.847418495291684 
Si 3.5298800999999997 11.20396878 24.960866221695618 
Si 0.6703514190000001 11.220666029999999 29.812177107906887 
Si 0.30670160399999996 10.28930157 25.90653556604134 
Si 1.7974874699999999 10.534172850000001 27.84248227192074 
Si 2.58776424 8.313210539999998 28.19206066239516 
Si 0.185606631 10.71895032 33.96869578804055 
Si 3.86923338 9.9909828 30.927721204918264 
Si 1.4424029369999998 9.90651915 31.7787445713475 
Si 2.16772659 14.124668039999998 0.08602611437945011 
Si 1.360482156 14.92934517 4.069914517334255 
Si 3.3301972800000004e-05 13.574799089999999 8.14501841109022 
Si 2.71399545 13.572828 5.430527775029191 
Si 1.356676812 12.218004989999999 6.787154491896852 
Si -0.00258836697 16.29 10.860849349670763 
Si 4.07919519 14.92012503 12.2249680139552 
Si 1.357014015 14.93213076 9.502332462583274 
Si 2.7169113599999997 13.57435926 10.861639784489967 
Si 2.75169051 16.26812253 13.58527197106871 
Si 2.42287686 13.567533749999999 16.470530894808405 
Si 1.346691042 15.05986065 15.029362019017517 
Si 0.15165240659999998 12.6470673 17.22656461600845 
Si 3.24198693 12.37608315 19.73375512905122 
Si 3.5818614899999996 14.35533444 18.435723688998234 
Si 1.2221018639999999 12.8190897 22.73534543813853 
Si 3.43894932 13.341900959999998 21.92703991867742 
Si 1.563841629 14.41933785 26.9434142151766 
Si 1.1866417919999999 14.673559589999998 29.267636250939994 
Si 2.93065245 12.47598972 26.850864607867553 
Si 2.1610476899999997 12.959428049999998 30.452807345503594 
Si 3.6699740999999997 14.860992329999998 32.70723055005842 
Si 0.026080778699999998 15.149716289999999 33.80150164041392 
Si 8.1332712 0.040467618000000004 2.7181335095756074 
Si 4.07401497 1.35462753 4.068333647695853 
Si 5.46495291 2.71182888 2.715037067088216 
Si 7.343027009999999 1.94836545 1.3418799524798743 
Si 5.429701349999999 0.0005697639269999999 5.429909173866338 
Si 5.4307439099999995 2.71459818 8.145190244746567 
Si 6.78770091 1.357418007 6.78742942574701 
Si 4.0716366299999995 1.356570927 9.502057528733118 
Si 5.4307602 -0.00336065958 10.860024548120293 
Si 6.775076159999999 1.360706958 12.207372247545162 
Si 7.4230434899999995 3.6155329199999997 15.014618691302855 
Si 7.79725737 0.41488512299999997 16.23769629045683 
Si 5.48096598 0.39630474899999996 16.680511622865694 
Si 4.08577635 1.370489103 14.986644172049397 
Si 5.560444889999999 2.6985362399999997 13.700503621015695 
Si 4.40092269 1.557915327 18.547312465430643 
Si 6.35463126 1.93474701 19.967483268415805 
Si 4.95360981 3.2280264 23.68671965987501 
Si 5.942803769999999 1.309777902 24.571834823723687 
Si 7.590651299999999 0.28534704299999997 23.216410942450462 
Si 6.517954799999999 0.9181011419999999 26.836980448434634 
Si 5.85685773 4.01129847 29.534734486367363 
Si 7.26151185 2.77203672 28.04349328311666 
Si 4.81534029 2.3128542 30.70894259365596 
Si 7.39487808 1.011512889 31.277196495198883 
Si 6.35073795 1.622668077 33.51148079522972 
Si 5.66735616 4.05241443 32.938999785740634 
Si 6.7821948899999995 4.07812005 4.076925330513254 
Si 4.07696346 6.7894602299999995 4.071942154479161 
Si 4.98332277 5.703210449999999 0.1303873784368818 
Si 6.783302609999999 6.80793309 1.2653314952499557 
Si 4.07276064 4.073184179999999 6.787910559984784 
Si 5.429359259999999 5.42802348 5.431661877161088 
Si 6.78634884 6.78763575 6.7885978946101755 
Si 6.7870656 4.071538889999999 9.502504296239621 
Si 4.07196243 6.787456559999999 9.502435562777082 
Si 5.431558409999999 5.4305973 10.860608782551877 
Si 6.78594159 6.77246976 12.233078562534827 
Si 7.383198149999999 7.770704669999999 16.92386244698577 
Si 5.32150317 8.04069513 13.559531289347776 
Si 5.6130127199999995 4.125475079999999 20.394593004634455 
Si 5.23347201 7.20889515 18.1269729752721 
Si 5.55304923 4.85209053 18.18041324239634 
Si 7.7846163299999995 4.16854584 17.510468183026656 
Si 4.76347293 7.71937488 22.223246775490143 
Si 6.8818734 4.66768773 23.457424828844204 
Si 6.27450075 6.00379353 21.659769849593697 
Si 7.82874594 7.732439459999999 25.147030804983068 
Si 6.936363449999999 5.62246092 25.608816573052753 
Si 4.66957737 5.6173458599999995 26.400522961310646 
Si 4.1397777 5.27227479 28.632504690346423 
Si 7.442119079999999 7.5812845499999995 31.68822260118336 
Si 7.080415919999999 5.063567309999999 31.363113323372893 
Si 5.42909862 8.13859803 2.7043936904140193 
Si 6.78489903 9.50534532 4.07379795796772 
Si 6.68877174 12.06945648 1.3405396499603595 
Si 4.07272806 9.50249457 6.787773093059705 
Si 5.42966877 8.14576563 8.144571643583715 
Si 5.42984796 10.85909319 5.43231484505521 
Si 6.7855832099999995 9.50101218 9.501954428539308 
Si 5.43299193 10.859875109999999 10.859234113301094 
Si 8.095364369999999 10.671546419999999 13.748617044793143 
Si 6.67683117 9.17457687 15.04482704808884 
Si 4.7203533 10.10771694 16.065931367571345 
Si 5.21141535 10.980290789999998 19.660038490477916 
Si 6.33519729 11.120824619999999 17.527754648855268 
Si 7.171721369999999 11.206265669999999 20.96783008221147 
Si 4.6115360999999995 8.67561417 20.01841476415736 
Si 6.8980982399999995 11.009417309999998 23.302259037161935 
Si 6.12279198 8.85179052 23.903608100917484 
Si 4.71737223 9.313465410000001 25.76810637248737 
Si 8.0958042 8.87371686 27.18621517159636 
Si 5.945947739999999 9.55949328 27.883928549831882 
Si 5.979342239999999 11.86741161 28.4888173869082 
Si 5.69539125 8.669130749999999 30.159590394311326 
Si 7.519822379999999 8.52546924 34.13977337630064 
Si 5.77416969 10.309224239999999 34.35095693995236 
Si 4.411592639999999 12.175911629999998 30.273722308857682 
Si 7.55940708 13.98753882 0.15107615066118407 
Si 4.07238597 12.2202693 4.071495386972656 
Si 4.07945583 15.018467759999998 1.330044050230622 
Si 5.41287378 13.560252119999998 2.6994070777067996 
Si 6.783595829999999 14.936121809999998 4.067027711907608 
Si 4.07227194 14.932440269999999 6.786879558046696 
Si 5.4297828 13.57489683 8.145396445134185 
Si 6.78685383 12.21764661 6.787566892672088 
Si 4.072516289999999 12.21596874 9.502951063746126 
Si 6.78669093 14.933499119999999 9.502091895464387 
Si 6.779474459999999 12.20914323 12.260709414475588 
Si 7.4061018899999995 13.16080503 16.6310922633 
Si 5.312820599999999 13.525977959999999 13.75583405835976 
Si 7.06194306 14.765337449999999 14.84457210498085 
Si 6.38822124 16.2116451 21.269501249296063 
Si 7.5878168399999995 14.9498217 19.66594956825629 
Si 5.929185329999999 14.714496359999998 17.91956975206004 
Si 4.16742183 15.63194916 22.042065368236788 
Si 4.97281572 12.37976469 23.55664158201955 
Si 4.34646522 15.89656392 24.391134550708106 
Si 7.995718439999999 14.738654429999999 24.607301290393924 
Si 5.722856189999999 14.05222641 24.99468308526491 
Si 6.8264548199999995 15.31049859 29.97425061257434 
Si 5.0213110499999996 13.57707969 27.195322355382803 
Si 5.24647143 15.76267641 28.249693670734292 
Si 7.91193897 13.55533254 32.21094058379405 
Si 5.538762899999999 13.90494852 31.457209433589075 
Si 5.727221909999999 15.62525397 34.123930313185355 
Si 9.508130909999998 1.352465847 4.077440831482298 
Si 10.86207426 2.6992855799999997 2.7064041441932916 
Si 9.195623549999999 3.767877 1.3844225291185184 
Si 8.145179189999999 0.00025550539199999995 8.145052777821489 
Si 8.145032579999999 2.71399545 5.428053370377779 
Si 10.85664969 0.001233760617 5.4320055444737845 
Si 10.859972849999998 2.7152334899999997 8.144709110508794 
Si 9.501908129999999 1.358168976 9.502126262195658 
Si 8.146107719999998 2.7161294399999996 10.859887081195215 
Si 10.86033123 -0.0037142340299999997 10.862602052965514 
Si 9.511747289999999 4.07051262 12.219984837921107 
Si 8.24379885 0.17262187199999998 13.554994880820187 
Si 9.13302108 2.01233628 14.98117986177753 
Si 10.943850059999999 2.7406621799999997 13.646479119459876 
Si 8.93117169 0.0550688337 18.265642735944958 
Si 9.8135847 2.6823602699999998 21.06983054061966 
Si 12.015471419999999 2.9624993999999996 20.16299560260859 
Si 8.52600681 2.27691846 19.061370031761395 
Si 10.176281549999999 3.66397938 24.882406974207107 
Si 9.75174786 0.7951572539999999 22.475532949740316 
Si 10.981479959999998 1.5032786669999998 24.33405141006929 
Si 10.97931339 1.9249730099999998 28.399188951757072 
Si 12.095683379999999 0.422743419 29.812795709069736 
Si 8.909066159999998 2.09166858 29.566592446254287 
Si 10.618017479999999 0.5841675449999999 26.436058161443416 
Si 10.485009629999999 0.201986226 34.34105932134671 
Si 12.0870171 6.63858225 1.283841416711765 
Si 8.14236102 5.431688729999999 2.698417315846235 
Si 9.50672997 6.78809187 4.070120717721872 
Si 9.50334165 4.072304519999999 6.788116760372402 
Si 8.14495113 5.42996199 8.144812210702604 
Si 10.859614469999999 5.428104929999999 5.429977907328877 
Si 8.14602627 8.14723173 10.85864987886951 
Si 12.23336646 6.79317435 12.203695007299313 
Si 9.50151717 6.78726108 9.503019797208665 
Si 10.859549309999998 5.425303049999999 10.86198345180266 
Si 10.776828689999999 8.00179461 13.553654578300671 
Si 11.659355729999998 4.65281496 14.751094595927523 
Si 8.21747421 5.4133299 13.671120065780183 
Si 9.924177509999998 6.425134379999999 15.108886635175383 
Si 11.6450694 7.5792483 20.99910380766681 
Si 8.148257999999998 7.0662762 20.678634038577744 
Si 11.286673109999999 6.89741406 18.756846425981426 
Si 8.9076978 6.34445001 18.49627786949528 
Si 9.884429909999998 6.45455412 22.152794976387455 
Si 9.20653785 4.2743331 22.7763105818119 
Si 9.971239319999999 7.600229819999999 24.178404484149247 
Si 11.92056588 6.98849145 25.426810364248926 
Si 12.133411019999999 4.635857069999999 25.856566338775337 
Si 8.5030542 4.20107697 26.633632499512377 
Si 11.69110494 4.1862042 28.150820584871635 
Si 9.643289039999999 7.6079349899999995 28.446030806477545 
Si 9.621427859999999 5.24518452 28.45142638328687 
Si 9.58068657 8.061921 30.76234849404893 
Si 11.43106767 6.76215819 31.40184462951374 
Si 11.01065535 4.5595221299999995 32.03553278739399 
Si 9.16102359 4.19366502 30.566114458499484 
Si 10.949909939999998 4.70062611 34.363603897059576 
Si 9.26293383 9.35591715 1.2818034695474776 
Si 10.845947159999998 8.13801159 2.689550699178677 
Si 8.15088069 10.85720355 2.7166213733997444 
Si 11.92893894 11.958554159999998 1.2971791451174988 
Si 8.14280085 8.14416921 5.429462406359833 
Si 9.50226651 9.50236425 6.78739505901574 
Si 10.859418989999998 8.1454887 8.144674743777525 
Si 8.14475565 10.8595656 8.145602645521803 
Si 10.85969592 10.860233489999999 5.4293936728972945 
Si 9.48824082 9.486937619999999 12.228713987663586 
Si 10.86161814 10.86174846 10.866107459555014 
Si 11.787867539999999 9.69541704 14.846805942513374 
Si 10.05057162 10.79530155 17.14281289190442 
Si 10.01698164 11.54330577 14.889558156212763 
Si 10.610556659999999 9.7228494 21.095055721371548 
Si 11.9997027 11.68918272 20.9315044472595 
Si 8.40834414 9.38207889 20.184818476964786 
Si 11.776920659999998 9.19886526 17.217972933191046 
Si 8.163912689999998 9.72516258 17.858637537519026 
Si 10.43280018 9.798825959999999 23.49426596476522 
Si 8.945295119999999 11.278853909999999 24.60032484394619 
Si 9.232292339999999 10.918910069999999 26.99001550277818 
Si 11.73070593 8.16554169 27.48709590386175 
Si 11.531300039999998 10.531094040000001 27.504451103152903 
Si 10.424997269999999 10.724765849999999 34.206341734769865 
Si 10.39161906 10.19630196 31.829229299582547 
Si 9.41803092 12.14385291 30.830463355425284 
Si 12.21820047 14.93340138 4.067096445370147 
Si 9.50070267 12.22036704 4.0720108879417 
Si 9.43422318 14.96233242 1.3832609336016057 
Si 10.85089932 13.56694731 2.7034314219384705 
Si 8.145667889999999 13.57367508 5.430459041566651 
Si 9.503243909999998 14.93268462 6.787669992865896 
Si 10.86033123 13.575238919999999 8.145637012253074 
Si 9.50264118 12.21676695 9.50257302970216 
Si 8.145114029999998 13.57470135 10.867619595730876 
Si 9.51682977 14.931951569999999 12.249024725843922 
Si 10.90400472 13.51876149 13.842403854427895 
Si 9.5742846 12.90962952 17.843103774985167 
Si 10.927169099999999 15.37358976 21.297510135280792 
Si 8.635117229999999 12.855367529999999 20.053606296977435 
Si 11.06077968 15.68875239 18.95665460158291 
Si 11.78016237 13.93181073 17.56136531203694 
Si 10.306585259999999 13.182666209999999 21.655061607409767 
Si 9.81356841 13.31779176 23.953577328183496 
Si 12.010046849999998 13.59022572 24.912443497336746 
Si 11.06957628 14.775192899999999 28.903555099869795 
Si 12.05065782 15.061163849999998 26.750651219485384 
Si 8.47467702 15.89460912 26.59868153381119 
Si 8.69014485 14.613237719999999 28.566658033233857 
Si 8.29879389 12.29249916 28.69945108285961 
Si 11.55733146 13.095628739999999 30.452085644146933 
Si 9.02861847 15.77525229 32.1658857990996 
Si 11.37260286 16.14497013 32.173824514022876 
Si 12.27373308 1.3870104209999998 1.1980070686927995 
Si 14.934932639999998 1.354459743 4.068161814039505 
Si 12.216278249999998 4.075318169999999 4.073454290655024 
Si 14.83776279 4.0583276999999995 1.3179057207461977 
Si 13.575157469999999 -0.00012892785659999998 8.145190244746567 
Si 13.57325154 2.71536381 5.428706338271901 
Si 12.21725565 1.356455268 6.787944926716054 
Si 14.93268462 1.3572762839999999 9.50095779333249 
Si 13.578154829999999 2.7178398899999996 10.860024548120293 
Si 12.217581449999999 1.3501771019999997 12.237443137406068 
Si 14.923008359999999 4.06362195 12.219194403101906 
Si 16.23735072 2.64264525 13.58252263256714 
Si 13.421607929999999 0.0018573206399999998 13.85147667148307 
Si 14.935747139999998 1.431812808 15.200645807665229 
Si 14.1076287 2.30674545 17.304405262334107 
Si 15.549538049999999 1.75480767 20.60605150213634 
Si 15.9306426 3.42837711 18.889020874444327 
Si 12.73708584 1.0120309109999999 18.927374146541204 
Si 13.70590101 2.70278793 21.774004864333865 
Si 13.12947936 1.090392327 23.40051352186174 
Si 14.69094102 1.2930855389999998 25.14441893340658 
Si 14.213790629999998 3.7170522 25.153629217386833 
Si 16.01864118 1.8153250199999997 29.696739257572283 
Si 14.379443639999998 0.1132655103 29.183678326448348 
Si 13.04814339 3.2730193799999996 34.33810378245753 
Si 16.06296627 2.88450288 31.869610208824334 
Si 13.94582013 4.036645709999999 32.15468224470571 
Si 15.71585895 5.9171958899999995 0.19011057137182694 
Si 16.311177 8.145863369999999 2.7071430289155876 
Si 13.55924214 5.428381859999999 2.7196765758096126 
Si 14.931088199999998 6.787554299999999 4.068505481352201 
Si 13.934123909999999 7.663565339999999 0.2709641490278888 
Si 14.9320656 4.073249339999999 6.787566892672088 
Si 13.574799089999999 5.4297828 8.144743477240064 
Si 12.21785838 6.78682125 6.788013660178593 
Si 14.932538009999998 6.78602304 9.502401196045813 
Si 13.570840619999998 8.149577489999999 10.860780616208224 
Si 12.21575697 4.07192985 9.501576394495343 
Si 16.05925215 7.890045209999999 13.6740412379381 
Si 13.111413749999999 4.276515959999999 16.52403989539518 
Si 13.56562782 5.4828882 13.582488265835872 
Si 15.291471869999999 6.043769189999999 15.042558843825045 
Si 12.497753159999998 4.848197219999999 18.6875630957419 
Si 15.44272452 6.19552683 21.455425265464626 
Si 14.70993516 5.3978544 19.359192124943796 
Si 13.852396979999998 7.830456389999999 21.900165134824586 
Si 14.702686109999998 4.44767499 22.917386013673628 
Si 13.70941965 8.05001301 24.244766642230857 
Si 15.80560056 8.07808068 25.449251839767975 
Si 12.704473259999999 5.39156646 29.9144868668965 
Si 15.860139479999999 4.5348264899999995 26.554417183935936 
Si 15.38992863 6.72757452 27.352172116897282 
Si 13.528828709999999 7.253252819999999 28.718112217939005 
Si 13.17255012 7.92658368 32.39576486456199 
Si 14.961436469999999 6.24092706 32.34548633671456 
Si 12.22279425 9.50143572 4.069605216752828 
Si 15.076443869999999 9.514598040000001 1.2380992973919207 
Si 13.574457 10.84775535 2.691114385451444 
Si 14.93258688 12.22142589 4.072113988135509 
Si 13.573414439999999 8.14283343 5.430768342148078 
Si 14.932440269999999 9.502738919999999 6.78742942574701 
Si 13.5746199 10.86064074 8.14494967762768 
Si 12.217092749999999 9.500979599999999 9.500511025825984 
Si 14.92931259 9.502804079999999 12.2553825711288 
Si 12.22096977 12.22160508 12.247272022549174 
Si 13.673174399999999 10.98854982 13.780990505649111 
Si 13.570514819999998 10.32748533 18.20639449123616 
Si 15.266238659999999 9.759208679999999 21.348613464678696 
Si 15.222174209999999 8.890104599999999 19.018686551524546 
Si 13.785168149999999 11.413604789999999 22.440444517114052 
Si 12.70626516 10.16359164 24.096130529489812 
Si 12.77753391 11.594407499999999 25.87959204872597 
Si 12.730683869999998 11.36579364 29.399020264583694 
Si 14.90971572 12.13259652 28.91627079043955 
Si 14.99768172 11.939478569999999 26.572906485358985 
Si 14.41906092 8.654616359999999 30.411532901248798 
Si 12.913148159999999 10.230787889999998 31.68148672185452 
Si 14.57194257 11.713764329999998 32.9022961167447 
Si 13.42651122 13.20053634 0.078960658097732 
Si 14.7949038 14.760303839999999 1.235648949452398 
Si 13.58131509 16.290488699999997 2.6825398859996774 
Si 16.27724493 13.56168564 2.6935544233715856 
Si 13.57646067 13.574815379999999 5.430390308104112 
Si 12.217662899999999 12.21789096 6.78742942574701 
Si 14.932668329999998 14.93229366 6.787566892672088 
Si 12.22036704 14.93408556 9.502298095852003 
Si 14.93053434 12.21639228 9.502882330283587 
Si 13.572795419999999 13.57602084 10.858065644437925 
Si 14.903183429999999 14.96580219 12.228026653038196 
Si 12.671844389999999 14.36727501 15.239308380343534 
Si 14.68465308 12.769307459999998 15.255873144815483 
Si 16.21630404 13.706699219999999 13.66283768354421 
Si 13.242466799999999 12.535220159999998 19.061644965611553 
Si 14.46553629 16.013184029999998 20.027899981987773 
Si 15.29391537 13.77410724 19.31461847448712 
Si 13.79803725 13.69659942 23.244454195166462 
Si 16.003670669999998 14.34593511 23.825492520741676 
Si 13.16683233 15.516844019999999 21.949928161702974 
Si 15.703869509999999 14.11666965 26.114454290222454 
Si 15.238790009999999 14.284701 29.86293676999209 
Si 14.257089449999999 15.909090929999998 26.839008085579536 
Si 15.01301061 13.956995069999998 32.14557506091926 
Si 12.587869439999999 14.148695789999998 32.348991743304055 
