&CONTROL
  dt          = 30.D0,
  prefix = 'x3.00_y1.33_z3.16_struc21-scf',
  pseudo_dir = './',
  outdir='./',
  wf_collect= .true.,
  verbosity= 'high',
/

&SYSTEM
ibrav= 6, celldm(1) =30.783621515, celldm(3) =2.111877778490249, nat=  432, ntyp= 1,
  ecutwfc     = 12.D0, nbnd= 1728,
  degauss     = 0.05D0,
  occupations = "smearing",
  smearing    = "methfessel-paxton",
/
&ELECTRONS
  electron_maxstep=200,
  conv_thr    = 1.D-8,
  mixing_beta = 0.3D0,
  scf_must_converge=.false.,
/
ATOMIC_SPECIES
Si  28.08  Si.pbe-hgh.UPF
K_POINTS {automatic}
1 1 1 0 0 0
ATOMIC_POSITIONS (angstrom)
Si 0.017907597 2.72139111 2.7038326616270747 
Si 2.71485882 0.0199040994 2.6951253916582374 
Si 1.428970203 1.465782345 1.190955685350485 
Si 4.07295612 1.35674523 4.073357906441203 
Si -0.0009592561979999999 0.0001542169413 5.430776915372147 
Si 0.000555479226 2.71495656 8.144720468519733 
Si 2.7147936599999998 0.00027498334499999994 8.14527090834392 
Si 2.71705797 2.71753038 5.430501695460054 
Si 1.357431039 1.3577405489999999 6.7874046670558235 
Si 0.00370444374 -0.00282111849 10.865682129425688 
Si 2.7182634299999995 2.71401174 10.86000571873877 
Si 1.366038675 1.356715908 12.254785830736319 
Si 1.35725022 4.0728258 9.502586709807828 
Si 1.238269689 1.0862074259999999 17.075331396020598 
Si 0.0819064458 2.92732929 13.564454184919153 
Si 2.7752621399999997 0.0077725780199999995 13.81648681941818 
Si 3.30545277 2.24336106 17.405870510444107 
Si 1.2157976339999998 1.02973977 22.158092732551335 
Si 0.394687152 0.916490061 24.353349958870936 
Si 3.10153455 2.49919551 21.617320007777895 
Si 2.8556532900000002 3.23418402 26.796270703585087 
Si 3.93568029 0.189540666 28.99520899622893 
Si 1.6184896919999998 3.326418 29.9940508621919 
Si 0.582862716 1.564462278 28.90758585671637 
Si 2.3435119799999997 0.9623806199999999 27.4350905220416 
Si 2.9960568 2.7720692999999996 34.17797836831641 
Si 3.6501491699999997 2.11131432 30.396594386116703 
Si 4.07388465 6.7826835899999995 4.072153819325797 
Si 1.356329835 4.07026827 4.07263545417196 
Si 0.25606250999999997 5.50426068 0.10113299694741859 
Si 2.7390820499999995 5.4206441100000005 2.7203596173482505 
Si 1.586023722 6.92124633 1.3807198147385047 
Si 0.027149565599999998 8.13178881 2.7288742333786233 
Si 0.001393829415 5.42991312 5.430639305416101 
Si 2.71487511 5.42992941 8.144720468519733 
Si 1.357202979 6.78778236 6.787507874522858 
Si 2.7151846199999996 8.14602627 5.429504023278717 
Si 4.05348957 4.07189727 12.237137353873365 
Si 1.355041296 6.800977259999999 12.23572685182389 
Si 0.94446162 4.61249721 15.25798551149349 
Si 2.68170867 5.463519389999999 13.645712863964567 
Si 2.98670634 8.03088855 15.702809694413558 
Si 1.3576102289999998 5.03874135 19.751638626189486 
Si 0.6006530250000001 7.26993378 19.445559681453226 
Si 2.49434109 4.5899844299999994 17.659795281838775 
Si 3.98586978 4.11886134 24.85524787106126 
Si 2.3379896700000002 5.5493351099999995 23.85134883921358 
Si 0.0760713678 4.9162731299999995 24.225372699747762 
Si 2.48790654 7.92646965 24.52326385209926 
Si 2.75753862 4.87522233 21.625679812607718 
Si 2.94317946 6.5946807 28.219467271506222 
Si 3.94550316 7.796898989999999 26.448839967056877 
Si 1.5318920520000001 4.726087379999999 28.04518426217343 
Si 2.2319091899999997 4.75575147 33.156774884495896 
Si 0.48986147699999993 4.227336449999999 31.7838059505317 
Si 1.353298266 9.5032602 4.072876271595041 
Si 2.73082302 10.85446683 2.7092132109084903 
Si 1.4019304320000001 12.159295829999998 1.2854421214208613 
Si 0.0007582001309999999 8.145244349999999 8.144170028695546 
Si 2.7146633399999995 10.858913999999999 8.144514053585663 
Si 1.3566637799999999 9.503243909999998 9.499524888285794 
Si 2.71070487 8.147117699999999 10.860349743628888 
Si 0.0083031759 10.851567209999999 10.856909494727727 
Si 1.341817074 12.227225129999999 12.238272636010748 
Si 0.32738501699999994 11.01119292 16.53607238076367 
Si 0.01562673636 8.1806751 13.658854614767002 
Si 1.376353503 9.63923283 14.896071327091393 
Si 2.78875026 10.98851724 13.627169922387314 
Si 4.01331843 8.162853839999999 17.747452823840348 
Si 1.74223179 11.067426 18.402648227066386 
Si 3.96457875 8.581409099999998 21.185603173171256 
Si 3.08198655 12.176970479999998 20.054036504601502 
Si 2.45399076 8.87464539 19.33148102789074 
Si 1.7551497600000001 11.312818559999998 22.07810694559935 
Si 3.2598244800000002 9.72131814 23.124355441420317 
Si 0.350647137 8.528710949999999 25.30230821576708 
Si 1.325509155 8.24063859 29.028028970746004 
Si 1.104691689 9.76249926 27.191452094861408 
Si 3.1839619499999996 10.953216809999999 27.528527682197122 
Si 0.9988213499999999 8.801454419999999 33.01152757588889 
Si 2.969667 8.24524866 34.19562684517936 
Si 0.0989334054 10.66514445 34.34173421601165 
Si 2.06527878 9.33358356 30.97342091937431 
Si 1.9275631199999999 11.751606 31.3243607097817 
Si 4.0637034 14.934965219999999 1.3174570776950623 
Si 0.0075239926199999994 13.55225373 2.70061602890449 
Si 1.356595362 14.934671999999999 4.0675438857982416 
Si 0.0001529495793 13.57520634 8.144858078475778 
Si 2.71596654 13.57409862 5.429882450657845 
Si 1.3573561049999998 12.217092749999999 6.787645484478905 
Si 1.358395407 14.93172351 9.501933062516606 
Si 2.7082613700000002 13.586055479999999 10.861519428255283 
Si 0.074235159 13.49841528 16.058118600925425 
Si 3.6448060499999997 14.10461505 16.597033591292238 
Si 1.70171856 15.307191719999999 15.765043797035554 
Si 1.2284289 14.93358057 19.747579132486116 
Si 3.36227229 14.38597593 18.99093078916485 
Si 0.30524690699999996 13.072024529999998 18.74220079361094 
Si 1.129362894 13.284185489999999 23.3946213950955 
Si 1.89856692 15.021025289999999 21.99736430388911 
Si 2.27647863 16.162823969999998 25.37035633903204 
Si 2.10264804 13.76891073 25.53259847721077 
Si 2.5443513899999997 12.56688792 29.133644612011633 
Si 4.03545654 12.33337077 25.839606289150346 
Si 0.902707092 13.32776124 27.604557182912774 
Si 3.6144740699999995 12.52096641 32.95177045247573 
Si 2.31886521 13.877809379999999 34.34741062669857 
Si 0.189069885 16.09113168 30.455973082150738 
Si 0.47659327199999996 15.11050626 32.79317497813223 
Si 4.15339614 4.03066728 1.3658338577431826 
Si 6.788906369999999 4.07132712 4.069952060029054 
Si 8.17684695 0.00285003324 2.711779636588756 
Si 7.962568289999999 3.2892930899999997 0.10354977180048393 
Si 5.44973805 2.68319106 2.7183161095009614 
Si 6.9530118299999994 1.393708869 1.2724207793299684 
Si 8.14550499 2.7158688 5.430708110394123 
Si 5.42957103 0.0016721196299999998 5.430604902927088 
Si 5.430141180000001 2.71454931 8.145236505854907 
Si 6.7873262400000005 1.357354476 6.787611081989893 
Si 4.07082213 1.356274449 9.502552307318815 
Si 6.7860719099999995 1.365895323 12.268684436297008 
Si 4.28397678 1.3012386839999999 15.278867822323534 
Si 5.33095137 2.82229137 13.808918271835628 
Si 6.3850609799999996 2.94651891 19.69311999238074 
Si 4.321965059999999 1.72312362 19.670035922253955 
Si 4.692806909999999 2.38527954 23.340884707259367 
Si 4.29777441 0.17998495199999998 24.128254473267997 
Si 6.636676319999999 3.1516262999999998 22.063245070346337 
Si 7.589445839999999 3.4942375799999996 25.70674387658752 
Si 5.50575936 1.2108536189999999 27.57404217515948 
Si 8.122177709999999 3.76163793 28.063589593794635 
Si 4.497033689999999 3.23884296 28.46953896413159 
Si 7.50232692 1.553114664 28.60752734755714 
Si 7.676027189999999 0.5407432919999999 30.714714202007027 
Si 4.70189673 2.23072002 32.503506020654505 
Si 5.85529389 0.218390256 32.20389474385242 
Si 6.04155375 4.8412088099999995 0.21501383619808784 
Si 6.853251869999999 6.785273699999999 1.3177701403450677 
Si 5.4351422099999995 8.1477693 2.691870916197739 
Si 4.07280951 4.0725 6.787611081989893 
Si 5.43221001 5.43186792 5.430329683014995 
Si 6.787863809999999 6.787342529999999 6.787886301901986 
Si 6.78727737 4.0723696799999995 9.503343564566082 
Si 4.07256516 6.78678867 9.502414697362768 
Si 5.43082536 5.43087423 10.85976490131569 
Si 6.7797351 6.791740829999999 12.206312723718966 
Si 5.3989132500000006 8.139086729999999 13.545567218451781 
Si 6.20091882 4.59568593 15.329817908549723 
Si 4.42763829 6.4127214 14.88162228170652 
Si 7.91154801 5.49098433 13.790478537725408 
Si 6.240731579999999 4.81980375 18.014072113680292 
Si 4.56613587 6.273963179999999 21.12880466381309 
Si 4.41973764 6.07548582 18.7263756486656 
Si 6.1241603399999995 5.1994422 24.758989706806787 
Si 6.48719928 5.49466587 22.39350896485776 
Si 6.064897319999999 7.42002984 25.526440431677695 
Si 7.56292572 7.29997254 27.31506023788011 
Si 4.771243259999999 5.46234651 29.293891405827694 
Si 7.11459234 5.6965315499999996 28.928880997414552 
Si 4.1259312 5.72148783 31.707466827414947 
Si 7.34908689 7.938475379999999 32.21910064399555 
Si 4.7894717700000005 7.89805989 32.332663260222866 
Si 5.904457109999999 4.2586946999999995 32.35213506900344 
Si 4.15179972 9.593164709999998 1.2805982509680274 
Si 6.78763575 9.49998591 4.069986462518066 
Si 4.07458512 12.21790725 4.074217968666494 
Si 4.07245113 9.502413119999998 6.787817496923964 
Si 5.430238919999999 8.14442985 8.144582858563687 
Si 5.42846331 10.860608159999998 5.42998565812488 
Si 8.145537569999998 8.14276827 10.862517100436618 
Si 6.78704931 9.5027715 9.50134822020341 
Si 4.05764352 9.51767685 12.222894723422561 
Si 5.4348652799999995 10.854189899999998 10.861622635722316 
Si 5.9791956299999995 11.04940926 16.261437310984018 
Si 6.935288309999999 9.57775437 14.664164148664156 
Si 4.1357703599999995 12.15883971 15.251277026136227 
Si 5.952137939999999 9.59463081 20.423519236586152 
Si 5.42478177 11.87962911 20.400813593838492 
Si 6.19855677 9.24265278 17.939349907547086 
Si 4.998032639999999 11.034129239999999 24.081535893190235 
Si 6.854832 9.359729009999999 24.240303379978798 
Si 7.67571768 9.09069966 21.99309839525167 
Si 4.75666371 9.3452472 28.12355313214187 
Si 7.121906549999999 9.3323781 28.42326761641098 
Si 5.83680474 11.119798349999998 31.404174484288628 
Si 5.22465912 11.16642033 34.088635104353266 
Si 7.73929755 9.819758610000001 30.718498475798306 
Si 4.36629015 9.34879842 30.478437907475318 
Si 7.738564499999999 14.10409377 0.03441865818144161 
Si 5.431379219999999 13.56206031 2.699962381613269 
Si 6.829044929999999 12.273407279999999 1.2152059998547664 
Si 6.78439404 14.93452539 4.0685071554905665 
Si 6.0628122 15.819398189999998 0.05915163960655562 
Si 4.07279322 14.93232624 6.787473472033847 
Si 5.430369239999999 13.57562988 8.144754871008743 
Si 6.78711447 12.21746742 6.787714289456928 
Si 8.142084089999999 13.579881569999998 10.857563142018947 
Si 4.07300499 12.21741855 9.504410041725443 
Si 6.788433959999999 14.93149545 9.502483502340793 
Si 4.06002186 14.93490006 12.239029490769004 
Si 6.80153112 12.217874669999999 12.22048654919175 
Si 5.4315095399999995 16.2919548 10.863239552705863 
Si 7.33162401 13.0355838 16.685688805475145 
Si 5.30550639 13.436415539999999 13.569683363248918 
Si 6.26845716 14.771788289999998 15.24150671925693 
Si 8.04328524 16.109181 13.706364452092028 
Si 4.89244086 15.75301644 20.169766477636546 
Si 7.1865615599999995 15.38463438 19.712247776271195 
Si 7.13493855 13.0800555 19.152966512409517 
Si 5.45312637 12.81676023 22.558159277267304 
Si 7.787499659999999 13.05664677 22.794435571799013 
Si 4.2586946999999995 14.93460684 22.321160530466347 
Si 7.9566550199999995 15.871053779999999 25.269006606403845 
Si 4.33515996 14.12484723 28.988534913360677 
Si 5.73116409 15.887115719999999 25.848998168650514 
Si 5.56129197 13.75004691 26.941621219659122 
Si 7.85676474 12.932451809999998 26.99890136386345 
Si 8.07247692 14.513559209999999 30.46305999488713 
Si 5.907389309999999 13.489569809999999 30.613089249466743 
Si 9.50080041 1.353949866 4.072566649193936 
Si 10.870284419999999 2.7202671 2.684405576082221 
Si 8.14477194 -0.000259390557 8.144789273497755 
Si 10.861797329999998 0.001234900917 5.43043289048203 
Si 10.860477839999998 2.71445157 8.144617261052698 
Si 9.50291811 1.3570172729999999 9.502621112296838 
Si 8.14599369 2.71414206 10.865922946848768 
Si 10.860282360000001 0.0006963600329999999 10.858595216689297 
Si 9.394377839999999 4.04703873 17.12621267726876 
Si 9.58831029 0.208461501 15.599361409955657 
Si 9.54683595 2.4865707599999998 15.286161149993994 
Si 10.952190539999998 2.8380600899999995 13.473838028862582 
Si 10.067089679999999 2.22542577 20.683774065958954 
Si 11.93146389 0.800879931 20.071753786442482 
Si 8.5895541 2.43147798 18.79518062668881 
Si 8.843107949999998 0.17849278799999999 17.973408371668576 
Si 8.835761159999999 2.49772941 22.66198598910433 
Si 9.07871022 0.3122793 23.39087152379323 
Si 9.54714546 3.87602631 24.427384115223912 
Si 11.425512779999998 3.07628505 25.648500462690873 
Si 10.22873535 3.6505075499999995 29.248686535266444 
Si 11.01998952 0.9364974389999999 26.61576084374119 
Si 8.921088179999998 0.20877101099999998 27.30842055750087 
Si 9.418014629999998 2.13351759 30.962240110445535 
Si 8.29622007 4.006883879999999 32.04261587536602 
Si 11.25713934 1.233452736 32.21218574370422 
Si 12.12476103 6.763526549999999 1.265447394807316 
Si 9.63384084 4.304567339999999 1.3663395743316535 
Si 8.14252392 5.44092516 2.73428918514905 
Si 9.500832990000001 6.78895524 4.073254698974169 
Si 9.502347959999998 4.073037569999999 6.7877830944349515 
Si 8.14478823 5.43035295 8.145683738212057 
Si 10.859174639999999 5.43085794 5.4297792431908105 
Si 10.85803434 5.433545789999999 10.860934585942084 
Si 12.19717008 6.79266936 12.252033631615392 
Si 9.50493807 6.78858057 9.502208282428699 
Si 9.474997049999999 4.1104068300000005 12.228295914197382 
Si 8.53014447 7.616079989999999 14.935427774520672 
Si 10.62992547 8.106816239999999 13.75332384959287 
Si 11.75997906 4.156523819999999 17.097796221345178 
Si 11.435482259999999 4.125409919999999 20.534054433780444 
Si 9.83011905 5.947886249999999 20.206955568258095 
Si 11.59220835 7.113777839999999 19.12141942998587 
Si 8.27908299 5.92682328 18.41905821432492 
Si 8.38672731 7.99759179 17.357775830805885 
Si 8.48663388 6.796008809999999 22.039816975329437 
Si 12.03159852 6.63815871 23.165707233212267 
Si 9.783480779999998 6.2120286 23.916679165846617 
Si 9.487947599999998 7.3305814499999995 25.968546817965844 
Si 11.492562419999999 6.65914023 27.023223923594657 
Si 11.73495762 4.34881098 27.557253760521817 
Si 8.41445289 6.18630669 30.854319502416125 
Si 11.44506078 4.9172994 30.86464024911961 
Si 10.655826569999999 7.07917788 30.615256606274475 
Si 8.52734259 7.723952369999999 34.30623084735168 
Si 10.37617614 5.972076899999999 34.236049769768 
Si 9.51050925 9.609829379999999 1.2130352027981341 
Si 10.852756379999999 8.163782369999998 2.695180435640656 
Si 8.139151889999999 10.868345909999999 2.692187419096646 
Si 8.1467919 8.144136629999998 5.430398487993019 
Si 9.5021199 9.502445699999999 6.78774869194594 
Si 10.85995656 8.14529322 8.145374115810954 
Si 8.14539096 10.85925609 8.14509889589886 
Si 10.860363809999999 10.86020091 5.43084572035017 
Si 9.51924069 9.51345774 12.215945420642216 
Si 10.86600015 10.852121069999999 10.859833706293713 
Si 11.66956956 11.994734249999999 16.680390822167357 
Si 8.390864969999999 11.04344712 13.568135251243397 
Si 11.96495613 8.493850349999999 15.659944193105096 
Si 10.67768775 8.71218522 17.606368216403748 
Si 9.237830939999998 12.059698769999999 19.657444611275707 
Si 11.021928029999998 10.807079219999999 18.643740870059723 
Si 11.209556249999999 11.155945860000001 22.252940394756333 
Si 11.16213606 10.22691087 24.364049132953546 
Si 8.90564526 11.14648137 21.771787183440008 
Si 9.047189069999998 9.57954627 25.301516958519812 
Si 8.59066182 10.712466899999999 27.2895335910335 
Si 12.09719835 11.81039661 27.74371525096472 
Si 10.523111939999998 10.33271442 28.590498115496395 
Si 11.605028579999999 8.214884099999999 28.74654780565304 
Si 11.056902659999999 11.059916309999998 34.268284901971874 
Si 12.007342709999998 9.03001941 31.319922788699206 
Si 10.04705298 10.52063586 30.89976519040046 
Si 12.216408569999999 14.937050339999999 4.07263545417196 
Si 9.50303214 12.21956883 4.069780047583996 
Si 9.55843443 14.954887889999998 1.2863056238950528 
Si 10.838795849999999 13.58442648 2.7276323035253043 
Si 8.14635207 13.57562988 5.429710438212787 
Si 9.50270634 14.932782360000001 6.7874046670558235 
Si 10.860298649999999 13.575857939999999 8.144410846118628 
Si 9.50040945 12.21738597 9.503928406879279 
Si 9.48231126 14.938027739999999 12.21278039165315 
Si 11.841494219999998 15.281290619999998 14.948775940257175 
Si 9.5480577 12.388365809999998 15.338108908401521 
Si 10.781797139999998 13.622235569999999 13.609659055480403 
Si 10.2605823 14.02098219 20.512793695571272 
Si 11.16754434 15.283082519999999 18.776396867688472 
Si 8.494615979999999 15.059013569999998 21.666997201910657 
Si 11.727855179999999 13.435242659999998 22.241828390805587 
Si 11.152883339999999 16.12846836 24.524261524280597 
Si 11.015705249999998 13.797678869999999 24.48576513907661 
Si 8.64909405 13.635446759999999 24.902688903408265 
Si 9.13122918 14.37025608 28.36399212784398 
Si 11.425203269999999 13.915732499999999 28.45994066969735 
Si 10.60666335 12.42492057 32.249271626858736 
Si 9.17032518 14.231644469999999 32.556623463688425 
Si 12.19700718 13.747945499999998 30.68502485399001 
Si 11.31948117 15.956006129999999 34.199273509014596 
Si 14.221968209999998 2.2240737 0.05675860247090829 
Si 12.2969952 1.350382356 1.2240130370417375 
Si 14.930208539999999 1.3552123409999999 4.069264010248822 
Si 13.57356105 0.000335080413 8.144720468519733 
Si 13.575711329999999 2.7151031699999995 5.430536097949066 
Si 12.217972409999998 1.357062885 6.78798950936902 
Si 14.93169093 1.35881406 9.503549979500152 
Si 13.572518489999998 2.7151520399999995 10.860590561051968 
Si 12.22877268 1.3374204029999999 12.225543715076455 
Si 14.92116759 4.1023432799999995 12.209340142751989 
Si 15.859878839999999 2.7928553399999996 16.656721909727374 
Si 13.654115099999999 0.0975515247 13.752154164966477 
Si 14.536495529999998 2.1022407899999997 14.811097179232727 
Si 12.642554969999999 3.7036618199999998 14.864455439689726 
Si 13.736102669999998 0.230972652 21.49267979008885 
Si 15.65563482 1.5023273309999998 20.75006766228432 
Si 15.724443779999998 3.8960304299999997 20.421351879778424 
Si 12.62872476 2.7614482199999997 18.895773504558747 
Si 16.09932555 0.271841004 18.75169588057814 
Si 14.528985839999999 4.05482535 18.423874562786544 
Si 13.166620559999998 0.665457903 23.702145244370243 
Si 13.32940653 2.94202287 24.23848004806118 
Si 15.590979809999999 2.8621367099999997 25.161258010819495 
Si 15.1378083 2.10445623 27.40564199144767 
Si 13.94055846 3.92826834 28.25796365671021 
Si 15.92492481 0.354090843 34.411089633859056 
Si 13.486979700000001 2.3427300599999996 32.19691103858307 
Si 14.51344518 0.358334388 31.554203738868242 
Si 12.22106751 4.067450099999999 4.070915329721379 
Si 15.02923545 4.134564899999999 1.3252251597138827 
Si 13.557336209999999 5.43185163 2.693532556417 
Si 14.93454168 6.78688641 4.069986462518066 
Si 14.93263575 4.07207646 6.78774869194594 
Si 13.574847959999998 5.43009231 8.144858078475778 
Si 12.21746742 6.787440269999999 6.787267057099777 
Si 13.568250509999999 8.14920282 10.865062884623477 
Si 16.28884341 5.42906604 10.857735154464004 
Si 12.21785838 4.072304519999999 9.501520232648469 
Si 14.93576343 6.78730995 9.50306834465399 
Si 13.635316439999999 5.502289589999999 13.673854099976062 
Si 15.100406459999999 6.77097108 15.157392633623553 
Si 15.145334279999998 7.45896294 17.522529350682465 
Si 15.30619803 7.60666437 21.20992573290246 
Si 12.84476274 7.805076569999999 21.049816549042443 
Si 13.18942656 6.035966279999999 17.749000935845867 
Si 15.161412509999998 5.34575898 22.19287364894207 
Si 12.93613335 4.558691339999999 22.46451570217771 
Si 13.15008621 6.8593606199999995 25.375447907405754 
Si 15.451846919999998 6.5057861699999995 25.665632902218654 
Si 15.48680526 7.275081419999999 29.365895815328987 
Si 15.586092809999998 5.55526467 27.772922964135574 
Si 13.660956899999999 4.20153309 30.589351532048735 
Si 15.23172015 5.855440499999999 31.277710934681963 
Si 15.5181798 7.174132289999999 33.2291233188873 
Si 14.92998048 12.21777693 4.074940420935737 
Si 13.70779065 8.15798313 0.07934899688037947 
Si 12.2155452 9.50107734 4.0729794790620755 
Si 15.01206579 9.509645879999999 1.4331354469965878 
Si 13.583611979999999 10.867987529999999 2.7139194714052777 
Si 14.933140739999999 9.50249457 6.787439069544836 
Si 13.574913119999998 10.85969592 8.144686066030722 
Si 16.2913032 10.86197652 5.430364085504007 
Si 13.576933079999998 8.14772043 5.430260878036973 
Si 12.21813531 9.50495436 9.502724319763875 
Si 14.938760789999998 9.501484589999999 12.230807295895229 
Si 13.22168076 10.43465724 15.73841627054057 
Si 14.002297559999999 11.215762739999999 13.595657242452681 
Si 12.34003338 10.06498827 20.540074869357476 
Si 14.534084609999999 10.728838349999998 20.049564181029996 
Si 14.74142373 9.84460086 17.501303014962303 
Si 15.988162589999998 9.925562159999998 21.777842021506054 
Si 12.99316464 8.819210519999999 24.23184036768194 
Si 15.119335439999999 9.839469509999999 23.966321957490365 
Si 14.57805132 11.838724919999999 25.089150393851167 
Si 12.230646029999999 11.998073699999999 25.45006690607193 
Si 13.73708007 8.932083930000001 29.585693317624138 
Si 15.793936919999998 11.50088661 27.136167295019757 
Si 14.108703839999999 11.12901849 28.72425499277352 
Si 12.93336405 10.02722805 33.27591070394308 
Si 14.532292709999998 11.864984399999999 33.415791224264275 
Si 12.303136529999998 12.39921495 1.4168321074539876 
Si 14.920662599999998 14.945309369999999 1.3551140421671664 
Si 13.56916275 16.294887 2.71552606764212 
Si 13.574733929999999 13.57483167 5.43019207305895 
Si 12.21732081 12.217874669999999 6.7877830944349515 
Si 14.93178867 14.93281494 6.787301459588789 
Si 12.21741855 14.93074611 9.500419353000096 
Si 14.93431362 12.21885207 9.504719664126547 
Si 13.56595362 13.58175492 10.858801631623365 
Si 12.22442325 12.21852627 12.244086656653709 
Si 14.92849809 14.92186806 12.256609162653934 
Si 12.52997478 14.25634011 17.00284535167314 
Si 15.757235549999999 13.068440729999999 13.66201964375607 
Si 14.85346635 14.66420913 17.63980743572303 
Si 14.483438999999999 13.05198783 19.732132414919906 
Si 14.85571437 15.78114927 24.875545339578107 
Si 15.159278519999999 13.69308078 23.773977641426473 
Si 13.962273029999999 14.140762559999999 21.76707404244542 
Si 15.66060327 14.65759539 28.766914079147913 
Si 14.40775566 13.05404037 30.057213832017215 
Si 14.519635379999999 16.09194618 27.236106525598473 
Si 12.37626234 16.0780671 28.170478127153693 
Si 13.23357246 14.02168266 34.34476163504468 
Si 12.405030479999999 16.102111139999998 30.647113311099222 
Si 15.966219959999998 12.84647319 31.8513724389505 
