&CONTROL
  dt          = 30.D0,
  prefix = 'aSiHcSi_merged-18',
  pseudo_dir = './',
  outdir = '/scratch/ztzhao/aSiHcSi_merged/aSiHcSi_merged-18',
  wf_collect=.true.,
  verbosity ="high",
/

&SYSTEM
  ibrav= 0, nat=  406, ntyp= 2,
  ecutwfc     = 42.D0,
  nbnd=1540,
  degauss     = 0.05D0,
  occupations = "smearing",
  smearing    = "methfessel-paxton",
/
&ELECTRONS
  electron_maxstep=200,
  conv_thr    = 1.D-8,
  mixing_beta = 0.3D0,
  scf_must_converge=.false.,
/
&IONS
/
ATOMIC_SPECIES
Si  28.08  Si.pbe-hgh.UPF
H  1.00784  H.pbe-hgh.UPF

K_POINTS {automatic}
1 1 1 0 0 0

CELL_PARAMETERS angstrom
16.29000014898320 0.00000000000000 0.00000000000000
0.00000000000000 16.29000014898320 0.00000000000000
0.00000000000000 0.00000000000000 28.99806745046100

ATOMIC_POSITIONS angstrom
Si 4.7490726134 7.5753876393 13.6717768570 
Si 1.3045634849 11.4848410650 15.9498360378 
Si 8.2359960153 11.7080140671 17.1240547831 
Si 1.0927983700 4.7216402532 27.7024047987 
Si 12.7540764266 5.0297818960 13.8832597629 
Si 1.6419831450 3.7565717744 19.6622266290 
Si 7.6380226899 0.2725398475 15.8692794065 
Si 6.5403210298 13.3579141522 16.8268825879 
Si 1.5917920256 2.4857074127 27.1061175377 
Si 7.6731113502 7.6291283498 15.8016559132 
Si 6.3821125484 9.3951435559 27.5594443262 
Si 13.8393976866 14.0681092887 26.9601702642 
Si 15.5136350319 7.9248570125 13.7995133441 
Si 6.0184220050 10.7994393088 19.9043894903 
Si 0.2815009766 5.5426399707 16.0768185752 
Si 8.6132072588 1.8093303165 23.2425310229 
Si 9.5430730473 15.9279060257 14.6054566328 
Si 13.8556225267 8.1569569346 19.9909197235 
Si 0.7443682988 13.5161226336 19.1486128583 
Si 9.9834732013 7.6673935601 19.3089141752 
Si 3.0773927981 14.7451379849 12.3742583289 
Si 7.6707655902 16.2556934087 24.3858378283 
Si 3.4099368612 1.1778175098 17.9927788878 
Si 4.0947033074 13.0623320995 13.7582200961 
Si 13.5661492241 1.5160907659 25.6434550155 
Si 6.3477895181 6.9381228335 12.0937310244 
Si 15.0401010176 15.9493273759 25.9855742153 
Si 2.4063425320 0.2895498656 24.0688019568 
Si 11.5671544358 10.8408973591 18.7264879904 
Si 1.7840971063 15.1846910589 15.7482994691 
Si 9.4261108462 8.9321980417 25.8829500546 
Si 8.9479178918 9.6178278580 12.2276730980 
Si 5.5609662209 3.7359486342 23.1670780514 
Si 10.6467694274 11.5198645654 22.8292505656 
Si 9.7120329288 13.9670624177 13.3290486978 
Si 13.1524972503 9.7172783089 21.6238588978 
Si 8.6224273989 9.2864566749 20.3711713820 
Si 6.1771354765 15.2663854096 27.7590380244 
Si 10.2984566442 5.2488172380 27.2316501717 
Si 7.1747187956 5.6918889521 26.1049882571 
Si 13.5894113443 13.5022435535 20.7208300793 
Si 14.6459318839 8.1392334144 23.9776320328 
Si 3.0064009775 13.7895991561 19.5848887831 
Si 5.6075556213 12.2773658623 21.6015013878 
Si 12.0184688899 11.6454115965 20.8984722405 
Si 5.2604645881 1.5803173495 22.2835069362 
Si 15.9592642760 4.9748357255 20.1344601574 
Si 15.1581057786 2.7210001749 15.3949290191 
Si 2.3445871414 10.5150810662 21.2798548236 
Si 12.0052251198 8.5333048080 18.5938508299 
Si 4.6471623725 3.0851142582 13.6331804292 
Si 6.0800633656 13.9382291175 14.5595236939 
Si 9.0989261932 4.0358638269 14.7949010074 
Si 10.3257098144 5.8542839635 20.7295005015 
Si 8.2808912557 4.6663845727 20.6019090047 
Si 13.3610907022 13.7891919061 18.3569946150 
Si 15.7461584940 13.4029071326 13.2864215387 
Si 6.3637374282 8.5225534079 20.3330389233 
Si 4.0782178273 14.9364803266 24.4782256712 
Si 4.4096867503 3.8645744753 25.1722364195 
Si 1.4321842331 2.2431167305 21.3448684909 
Si 0.0944660367 5.6161078714 25.7953758909 
Si 1.6104457047 8.5649888583 23.8454588413 
Si 7.4352121880 5.0661737563 22.7489839149 
Si 9.9150389107 13.7180046055 22.7944238866 
Si 3.4954593620 0.4774729364 15.7568249009 
Si 11.6877493069 15.0551692677 23.6804598375 
Si 5.2312240378 7.4435852481 22.1091705547 
Si 6.0087294550 15.7671563042 19.5824239474 
Si 0.1153571474 15.6957246535 24.0598705521 
Si 4.9166478450 11.0156239007 12.8013418663 
Si 0.1810617227 15.2319483493 17.5063943025 
Si 6.9396540935 12.5176759445 25.1400485646 
Si 8.5750560784 14.1184453891 24.6440076228 
Si 9.4511974464 15.1440312185 19.0222392804 
Si 12.5208199145 7.7789149011 16.4330018377 
Si 3.3573527407 9.2714698748 12.9193060047 
Si 6.6300137706 14.3403477712 21.2977176332 
Si 1.7523153160 9.4640665466 14.7556376241 
Si 13.9557571576 10.8708709594 15.8399623603 
Si 8.7306092898 10.0900586723 22.5810851043 
Si 10.0191157216 1.0954715590 19.6508593865 
Si 5.4832955001 8.1345744744 25.6946656026 
Si 15.5596705723 12.4497792239 15.3619872145 
Si 14.9227967265 0.4488921311 22.5624973431 
Si 1.6832294254 7.7897314612 18.7527022434 
Si 16.1908429181 10.6004732469 21.4116510402 
Si 5.6286837515 7.2390480062 18.5027679000 
Si 2.6218103640 2.2715753608 14.4595673554 
Si 7.3806243975 5.6075230413 14.5670921895 
Si 11.4685021949 12.4133547835 12.9937150458 
Si 14.8802472461 11.9799430396 26.9980997365 
Si 2.5278659331 9.9524570410 19.0640254956 
Si 7.9498621627 10.7885738787 26.4642743128 
Si 15.3134635101 5.6869693720 18.0363629832 
Si 5.1004153366 10.0009197915 16.1868662412 
Si 12.2581436621 8.2818686557 23.3185639557 
Si 4.0019154666 6.2123218768 25.7927950629 
Si 11.7449272074 9.1590200038 25.4913311537 
Si 13.9430998275 5.9565525845 23.2879999927 
Si 14.5178761928 9.3718977257 12.2350386071 
Si 7.1418129953 5.4194712796 18.6272856017 
Si 0.8928239572 11.3497969638 18.2126712333 
Si 0.0678525747 4.6726236427 12.5999502879 
Si 1.1048627441 2.5105333730 12.6498849600 
Si 8.2387001553 11.4622468348 19.4722602891 
Si 15.3440235503 7.6897923103 26.2063944989 
Si 1.3652812025 2.2982746710 17.9387844862 
Si 16.1293481675 0.7535640039 20.6440431967 
Si 2.9229635967 13.1373149701 15.7977411741 
Si 13.7112605454 11.4659283749 18.0949970756 
Si 8.7193691897 1.6873345054 27.2786270410 
Si 11.8511542984 6.6799100411 12.3340670074 
Si 8.4867154076 2.3054911411 20.9294131785 
Si 3.6969666638 4.4118533203 12.0209458751 
Si 14.3662814514 10.5519290465 23.5314097708 
Si 14.6426250139 14.3336688711 16.4379025111 
Si 11.7352020773 11.2729733231 15.0855486375 
Si 12.2849732924 5.4626560700 16.2023512092 
Si 6.8081286323 7.0645495246 23.9142422573 
Si 3.5422768224 9.0197242125 22.6652954922 
Si 4.3638792699 5.2525965180 21.8322100124 
Si 15.6037676027 8.0574576137 18.1596047698 
Si 13.9929960980 2.3099220211 17.3746560820 
Si 13.9722589278 6.0283426151 20.9873223192 
Si 1.0411330055 6.7584767118 20.9439122122 
Si 7.3967189176 10.0350799218 15.6956389786 
Si 1.1697849107 3.5563676725 23.2091542473 
Si 2.7362150350 13.1586385803 23.7417037560 
Si 16.2085990182 8.3582361764 22.2404158079 
Si 13.0607845494 15.5007333518 21.8789838952 
Si 12.2785061623 11.2721588231 24.5524317258 
Si 3.6753824136 15.9664155860 19.7801617693 
Si 7.2517867863 10.7745970585 13.4691673597 
Si 8.8056736105 7.0361886344 27.1512095326 
Si 3.0898383583 6.1069418659 27.9202382814 
Si 5.1948810475 13.7949911462 26.2476587489 
Si 15.9569348059 0.6690254191 12.6336170442 
Si 1.9805707981 6.4846418093 24.6825170563 
Si 12.2500801120 2.9177507967 22.1533926075 
Si 12.1801634314 13.4927627734 25.3959565098 
Si 10.9702073803 9.0764134130 15.2885641077 
Si 2.2017727101 5.5238087305 22.5908284550 
Si 9.3601852156 3.5147304321 25.9598529295 
Si 6.3703674583 1.6516268251 20.2643714996 
Si 0.9611556208 15.2353040893 13.5529717747 
Si 3.7886304946 12.3350976228 27.4270101521 
Si 14.0556963085 1.2969511679 13.8874354846 
Si 10.0911338123 13.9729431078 26.3980137287 
Si 12.2888014424 4.5807643319 20.3261083852 
Si 11.4334298246 15.7933017544 15.9254776612 
Si 12.3881704433 5.3933909893 26.2682763749 
Si 5.6352974915 1.1098556292 12.8382564062 
Si 0.8395018997 12.0863167405 11.9875401014 
Si 3.8059956348 4.4912670711 19.7097544615 
Si 5.0079858758 2.7447347051 18.7192384736 
Si 3.2174379294 11.4374697446 25.3338136513 
Si 11.1610610221 14.2710989805 17.6619979324 
Si 13.4087063726 13.8283693565 12.8914388619 
Si 1.1147817252 3.3189409204 15.9030041589 
Si 13.3739760923 15.4290084811 14.6896380226 
Si 4.4865266810 10.7973378987 18.2175139105 
Si 2.9930920474 5.9640459845 13.6663832165 
Si 13.3366719920 4.4641930908 18.0829628776 
Si 13.0874349897 7.6258540597 26.8027977522 
Si 10.1618487029 4.8173114241 16.7626518685 
Si 3.1348639187 0.7994024353 21.8314270646 
Si 0.3999243907 13.4472648030 23.4706588195 
Si 3.4963064420 6.3206015078 18.3547907618 
Si 10.5588522966 6.7064953213 22.9172307022 
Si 0.6030623215 9.1317342535 27.4410742148 
Si 4.3032478894 13.0206134091 17.6993474433 
Si 15.8834669053 12.9912099588 21.2182339303 
Si 4.8009888439 9.9767617212 24.3597105695 
Si 5.3262436087 7.7122888005 16.0747017163 
Si 11.4644622749 0.6936265773 25.0935356644 
Si 15.9079833555 11.7033551270 24.8933330067 
Si 12.0967586306 1.0258757914 20.7279926020 
Si 10.0577718920 3.5708494827 12.6365168510 
Si 7.6156728097 13.0701838795 13.0304555973 
Si 7.4423309181 15.2736670397 17.8001157277 
Si 14.9972257372 4.9059453149 14.4362819073 
Si 5.4437107998 4.5081272212 15.3127774940 
Si 14.6804666843 8.6126208188 15.9907813091 
Si 15.4403300312 4.3113765994 24.0322933899 
Si 3.6719778036 5.9846365447 15.9790660898 
Si 1.0626227737 6.8146446323 12.6772591357 
Si 9.0496000728 12.3849776033 27.7775967876 
Si 8.2413717154 2.4359414623 16.3473125484 
Si 15.7373130239 1.0266919204 18.3730885424 
Si 1.2997334999 10.1773079131 25.4612311597 
Si 0.4439481161 0.4393022080 27.3168174958 
Si 6.4688242192 3.6660156635 17.2111939758 
Si 5.2356386279 2.5016553229 26.8603299180 
Si 10.3101365743 16.2597007487 27.0332453942 
Si 14.1214101691 2.4186414821 23.5431249901 
Si 15.3733292606 10.2468173437 19.2096537903 
Si 1.7015719656 7.4834794584 16.1919988991 
Si 6.8001791122 0.7704648790 26.3998696050 
Si 11.8669067285 1.7058888156 16.5446443974 
Si 5.8545771835 15.7188075838 23.0910451185 
Si 10.2318957036 8.0065350732 13.3989050423 
Si 6.4386714289 4.2066318985 27.8611692180 
Si 8.8600170510 6.5912924403 17.5577498799 
Si 10.6194348071 2.6849666946 24.0834749790 
Si 2.4447869324 2.5399205332 24.9127617119 
Si 13.4873707834 3.4069557912 27.0922274634 
Si 6.6194741405 11.1044532716 23.3283653025 
Si 8.7961439604 13.6102299645 20.7014883683 
Si 11.8332190082 5.0748563264 24.0198822170 
Si 3.3435388206 12.5740230550 21.5761570769 
Si 8.8755414212 8.1175514242 23.7901885248 
Si 10.5476447765 12.1030139907 16.9737577995 
Si 10.0905473723 2.5846854536 17.7632591839 
Si 12.4584780839 2.8972091065 12.8376764449 
Si 5.6120190813 16.1943941381 14.7945240326 
H 1.1987583050 14.2472504203 28.1035350657 
H 7.2182293860 3.3777804009 10.9081740348 
H 14.5356485829 6.7233554715 13.6702689575 
H 15.3219506001 3.5722667127 20.4311973816 
H 7.2389502662 1.3787171946 12.4172044668 
H 8.7311468599 4.6592495526 23.4471123888 
H 14.9202391965 3.8608603553 27.2710585454 
H 9.9040920306 0.7855624512 13.6748796502 
H 9.2975012950 6.9805257038 14.0347456673 
H 1.7345592159 11.3266162936 12.9437803737 
H 8.0039123832 4.3077113494 25.4323780825 
H 0.5275402518 15.6910005535 20.5567300156 
H 14.6546307440 6.5675904901 -0.1216033959 
H 11.2376077328 10.3014377142 27.9201222891 
H 7.6241761897 2.7223359549 23.9392385915 
H 13.6313743847 11.1106271816 26.9243576509 
H 0.3852617615 9.5188498171 14.0169408539 
H 12.5371424947 0.3002149287 11.6089123347 
H 7.3243424470 5.8665992037 12.9148113043 
H 9.7152257689 9.1520641737 16.1341767526 
H 13.7189168455 10.3653759648 13.0558869024 
H 4.1587718780 10.6009945270 15.1564779105 
H 1.6875625654 15.9181483156 27.1600829412 
H 11.7388999074 2.4767479127 15.2180408077 
H 12.9455165084 16.1792281480 12.1610645370 
H 9.9264256208 15.1042184581 11.9489436736 
H 14.7457732949 1.5406854081 0.1424846142 
H 13.1234033100 1.3512522544 19.6501344349 
Si 15.7686875642 0.4140380468 0.3982768572 
Si 15.9946298663 2.7203974449 2.8015670921 
Si 2.3267333013 16.2112054183 2.8439129700 
Si 3.0824589882 2.0810312290 28.9081154452 
Si 1.2309261683 1.4503215193 1.5006093933 
Si 0.9638727928 4.1294824578 4.1533352048 
Si 3.6815563237 1.3416541863 4.1509573633 
Si 3.6875999137 3.8852301955 1.4026133241 
Si 15.8751915852 16.2159132283 5.4301781108 
Si 2.3212761512 2.7430568351 5.4743131694 
Si 15.8629089251 2.6489495042 8.0366114074 
Si 2.2721943808 0.0327508824 8.1470940444 
Si 0.9484559367 1.3203647851 6.7236079113 
Si 0.8085785924 4.0822414573 9.3828466888 
Si 3.5709309327 1.3459694073 9.6124533869 
Si 3.6372312333 4.0818342073 6.9018590320 
Si 15.4167095310 15.9397488558 10.5904712078 
Si 2.3228725712 2.9674027171 10.7617917903 
Si 15.8367797648 5.4549508999 0.3119641094 
Si 15.8326421048 8.2149982051 2.7413091080 
Si 2.3219440412 5.3653070291 2.7058328723 
Si 2.1878447600 8.0554213637 28.8776384763 
Si 0.9535270137 6.8546854527 1.4892827481 
Si 3.6841464337 6.7571409318 4.0450854190 
Si 15.8658085451 5.4651158600 5.4799097965 
Si 2.2964664810 8.1338577144 5.3726459450 
Si 15.8596835050 8.0895489140 8.1972896992 
Si 2.2427420605 5.5082354904 8.1881843060 
Si 0.9411140336 6.8288332225 6.7791392105 
Si 3.5757039027 6.9162127833 9.5511804704 
Si 15.2043042191 4.7889505338 10.6158155187 
Si 2.2354278504 8.1617624846 11.0854392211 
Si 0.9298706755 9.5311976372 4.0692988053 
Si 3.6158913331 9.4633334965 1.1932501769 
Si 15.8856497653 10.7955297087 28.7863815581 
Si 2.2944465210 10.8083499388 2.6326562490 
Si 0.9483891477 12.1108331908 1.2145521573 
Si 3.6462721833 12.1869726515 4.0119406279 
Si 15.8341244948 10.8490586492 5.4367316740 
Si 0.9516862437 9.4216799662 9.5428000289 
Si 3.6458975133 9.5086685670 6.7163583945 
Si 2.2808280809 10.7870751987 8.1289992503 
Si 0.9678964229 12.1632055412 6.7365120513 
Si 3.6301450832 12.2612550521 9.3566614339 
Si 15.7778425443 10.7026604179 10.7849322481 
Si 15.8951468354 13.4997348935 2.6038959657 
Si 2.2726667908 13.4928768034 28.8701569749 
Si 0.8867771091 14.8460056658 4.0510880190 
Si 3.5473104324 14.8627192059 1.3646403548 
Si 2.2990077210 13.5421214739 5.3870579845 
Si 15.8765599452 13.5025367735 8.0349585176 
Si 0.8621173069 14.9133648164 9.3786419690 
Si 3.6037064130 14.9743219970 6.7309154243 
Si 2.1571055297 13.4836403733 10.6836709966 
Si 4.6861932129 0.2168655140 0.1579881410 
Si 5.0658642463 2.6969887147 2.8454295690 
Si 7.7590411010 16.2892996790 2.7049136335 
Si 7.7701508811 2.7409228451 0.1419003032 
Si 6.3411431980 1.3567533874 1.4155899593 
Si 6.3738535183 4.0906796774 4.1844501312 
Si 5.0629646263 16.2707616588 5.4440681851 
Si 7.7007880604 2.7121709948 5.5455324231 
Si 4.9856197056 2.6536084443 8.2411927733 
Si 7.6390000899 16.2302321384 8.3143838955 
Si 6.3571888481 1.3154924460 6.8859970891 
Si 6.3562766081 4.1126385976 9.4411038063 
Si 4.6208703123 16.1560311878 11.1226727397 
Si 8.3865156167 2.3580752616 11.5054182320 
Si 4.9401380252 5.3857998493 0.1711871914 
Si 4.9846423056 8.1838517248 2.6742916743 
Si 7.7136245805 5.4273882196 2.7747467796 
Si 7.7364631608 8.0732263338 28.9677934680 
Si 6.3643075782 6.7922947521 1.3927075843 
Si 4.9919565157 5.4427171098 5.5157804059 
Si 7.6898574703 8.1603452546 5.4324979562 
Si 4.9542614553 8.2111211851 8.1463980908 
Si 7.7661598310 5.4530123899 8.1831096442 
Si 6.3586223682 6.8206230624 6.8495175202 
Si 5.1092282267 5.5906628911 10.6755225396 
Si 7.7269823807 8.2782685657 10.7930517070 
Si 6.3659691582 9.5376158972 4.0308183698 
Si 4.9910605656 10.8407670391 28.8249199897 
Si 7.7371147608 10.8645341494 2.6301624152 
Si 6.3488972381 12.2105768617 1.2487843759 
Si 5.0237220159 10.8931556796 5.4120543186 
Si 6.3691457083 9.5903792077 9.4132366635 
Si 7.8083509314 10.8863464596 8.1007261346 
Si 6.3723711283 12.2575409321 6.8004527901 
Si 5.4242605396 11.4007683743 10.5788719808 
Si 5.0013395557 13.5296433337 2.6527258115 
Si 7.6326958598 13.7865040561 0.0126059819 
Si 6.3690642582 14.9056596463 4.0162033438 
Si 7.7237243806 13.5841333842 5.4194778239 
Si 4.9627322554 13.6703726450 8.0795575453 
Si 6.1479763762 14.9487141167 9.6799318898 
Si 7.1222975751 13.0861969497 10.7311118349 
Si 9.0044279024 1.3007190449 4.2033278731 
Si 9.1187348334 3.9681788763 1.5793333468 
Si 11.0543289411 15.8620618451 0.1865660265 
Si 10.4261539554 2.5898168037 2.9036344899 
Si 11.8400119383 1.3649228225 1.4678502765 
Si 11.7831598378 4.0725000372 4.1463176725 
Si 10.3735698349 16.2398595285 5.5110247228 
Si 9.1305613735 1.2500978694 9.5826433735 
Si 9.0984212032 4.0739335573 6.8518663637 
Si 10.4317414254 2.6809593545 8.2004214905 
Si 11.7396981174 1.4007575648 6.7301034784 
Si 11.7593112775 4.1479878979 9.4597205656 
Si 10.4796014458 16.0708670670 10.7054485452 
Si 9.0721780130 6.8043656422 4.0969629617 
Si 10.9288470700 4.8090686840 0.3985784371 
Si 10.4316273954 8.1299806944 2.6889472976 
Si 11.8314922682 6.6788349011 1.4708022797 
Si 10.4204850353 5.4531101299 5.4776189491 
Si 9.0959777032 6.7473832217 9.6383196630 
Si 10.4207293853 8.1791439148 8.2705098195 
Si 11.7428257974 6.8957688331 6.7839818878 
Si 10.4575610756 5.3311957688 11.0256742041 
Si 9.1251368035 9.4906518268 1.2730470589 
Si 11.8177923781 9.5308555472 3.9830875508 
Si 9.0641959129 12.1881455315 4.0754173976 
Si 10.4513220056 11.0128220207 0.0182303891 
Si 11.8795803486 12.3470381929 1.2958250409 
Si 10.4462395255 10.8185148989 5.3937275400 
Si 9.1075436033 9.4720323566 6.7787912337 
Si 11.7360491573 9.5900859877 9.6875293835 
Si 9.0536562828 12.2403712719 9.6175280487 
Si 11.7699486476 12.1760094814 6.7759204250 
Si 10.4702184058 11.0575869411 11.1335470150 
Si 9.1775743139 14.9516951867 1.3731280891 
Si 10.4429163655 13.5371367338 2.7476132878 
Si 11.7609076976 14.9498544167 4.1037195114 
Si 9.0220211025 14.9002513663 6.8959724243 
Si 10.4292490554 13.5155199036 8.1760341157 
Si 11.9022234489 14.8895977062 9.3718854193 
Si 13.2112878608 0.0517440452 2.8508290091 
Si 12.7012316662 3.2129744694 0.2977927539 
Si 14.5910182934 1.3866716017 4.1497104464 
Si 14.4981490026 4.0544018471 1.5734641379 
Si 13.1741466605 2.7410531651 5.4537535396 
Si 13.0962152998 0.0554964467 8.0149208530 
Si 14.4320767620 1.3795691616 9.3934889796 
Si 14.4845631425 4.1105046076 6.8169816885 
Si 13.4667802232 3.1234446286 10.6801332323 
Si 13.2027519007 5.4622814000 2.9125948928 
Si 13.3442957120 7.7946510413 0.1116280607 
Si 14.5310873829 6.8777846729 4.1766206530 
Si 13.1345619601 8.2450369654 5.4617280082 
Si 13.0762111796 5.5098319104 8.0867200680 
Si 14.4307246920 6.7494357617 9.5390012820 
Si 13.0960849798 8.0962278140 10.9244999467 
Si 14.5181042528 9.4985198969 1.2260817889 
Si 13.1856962706 10.8831047495 2.6014340298 
Si 14.5145204527 12.2054292216 4.0213360018 
Si 14.4944348826 9.5329080872 6.8904337934 
Si 13.0919961897 10.8878288496 8.2389889202 
Si 14.5410405730 12.2429288020 9.5017387654 
Si 12.7964304270 14.2162179700 0.0922503921 
Si 14.5323254229 15.0168063173 1.4395684613 
Si 13.1268730801 13.5441251439 5.4017600047 
Si 14.4759131524 14.9013753763 6.7652491362 
Si 13.7523927958 14.1829537897 10.6257908539 

