&CONTROL
  dt          = 30.D0,
  prefix = 'aSiHcSi_merged-14',
  pseudo_dir = './',
  outdir = '/scratch/ztzhao/aSiHcSi_merged/aSiHcSi_merged-14',
  wf_collect=.true.,
  verbosity ="high",
/

&SYSTEM
  ibrav= 0, nat=  406, ntyp= 2,
  ecutwfc     = 42.D0,
  nbnd=1540,
  degauss     = 0.05D0,
  occupations = "smearing",
  smearing    = "methfessel-paxton",
/
&ELECTRONS
  electron_maxstep=200,
  conv_thr    = 1.D-8,
  mixing_beta = 0.3D0,
  scf_must_converge=.false.,
/
&IONS
/
ATOMIC_SPECIES
Si  28.08  Si.pbe-hgh.UPF
H  1.00784  H.pbe-hgh.UPF

K_POINTS {automatic}
1 1 1 0 0 0

CELL_PARAMETERS angstrom
16.29000014898320 0.00000000000000 0.00000000000000
0.00000000000000 16.29000014898320 0.00000000000000
0.00000000000000 0.00000000000000 29.22647315706580

ATOMIC_POSITIONS angstrom
Si 3.9396062160 3.9764379064 1.3483165767 
Si 1.2491888874 1.2604143265 1.3317685476 
Si 2.5968866638 16.1999327382 2.7055209240 
Si 2.5873407237 2.6220710040 5.4202540323 
Si 1.2450642594 1.2199467082 6.7492402197 
Si 3.9513350161 1.2675607496 4.0741995846 
Si 1.2358652963 3.9804452464 4.0409398581 
Si 3.8957046656 1.2835461267 9.5438463565 
Si 2.4295394922 2.5871289537 10.8215693100 
Si 1.1721453317 3.9862444865 9.4266481991 
Si 1.1126509932 1.2519728485 12.2230956037 
Si 3.6096685530 4.0482768070 12.1675360783 
Si 1.7750887362 2.7315235150 16.5757357981 
H 2.5853370536 3.4681573217 17.4837146397 
Si 3.2445933597 1.5691945374 15.0653993447 
H 3.7943645747 3.4083567312 18.0318863702 
Si 0.2002415688 1.4709479175 17.8771906478 
Si 1.0168364703 0.9265817245 20.1100931970 
Si 0.2847931856 2.9462094269 21.0993800869 
H 2.9404101869 3.6086422830 20.6572712274 
Si 3.4680758717 2.9557064970 23.5660067419 
Si 1.1631190426 3.4949869520 23.1641135095 
Si 2.9377712069 0.7111252955 24.5207479405 
Si 0.8073991964 1.7123722357 24.6751513982 
Si 2.6061719638 2.6150825939 29.2009292195 
Si 4.0351633569 1.2660995366 27.9297822225 
Si 2.5788699236 5.3506948989 2.6784689004 
Si 1.2366097493 6.7256034915 1.3147879667 
Si 1.2022068980 6.7374137416 6.7481588402 
Si 3.9312005760 6.7047685813 4.0385725138 
Si 2.5721421535 8.0685185238 5.3794538758 
Si 3.9211007759 3.9918156665 6.7984576005 
Si 2.5346099932 5.3740221791 8.1119829836 
Si 3.7928007347 6.8122988723 9.4831721982 
Si 2.4854956427 8.0911290440 10.9692214524 
Si 1.0818254259 6.7044102013 12.2654155369 
Si 2.3263260513 5.2952600284 13.6832502027 
H 0.2075460049 7.5113190687 13.0424013258 
Si 3.5187703522 5.9884158248 17.4528514840 
Si 1.9939774682 7.6732905402 17.9997957027 
H 2.9474148870 4.7244095532 17.7724721944 
Si 0.7752134141 4.1491444879 15.0043160158 
Si 1.4550472483 6.6613883109 20.1162015299 
Si 0.7725939821 4.5321386814 19.4267198016 
Si 3.2188714494 6.9727390838 21.6661398543 
H 3.8562014153 5.7680609928 22.0474868761 
H 1.7189371057 3.9824326264 18.5207283602 
Si 1.2344757593 6.7761350720 25.0701179565 
Si 2.5802708636 5.3880641593 26.4587846020 
Si 3.9003473157 6.7181752514 27.8641687903 
Si 1.2760673877 3.9959207465 27.8451131298 
Si 2.5898005137 10.7829538286 2.6720829160 
Si 1.2076021460 12.1159482508 1.3219133809 
Si 3.9391989660 9.4395012263 1.2932626693 
Si 1.2082651491 12.1288499309 6.7408229954 
Si 3.9268674359 9.4343535863 6.7152790579 
Si 1.2309489743 9.4205559562 4.0138469175 
Si 3.9351264660 12.1387705410 4.0471650969 
Si 1.2756487347 9.4802750967 9.5204359515 
Si 3.8543606453 12.2144050117 9.4507015865 
Si 2.6026370338 10.7769591086 8.0728487360 
Si 0.3610417893 11.2098658625 10.8393974586 
Si 3.3313213205 9.0278040526 12.9980355395 
Si 1.4635880954 9.5185891771 14.4628663741 
Si 2.3378756614 11.3469787938 15.7666008887 
Si 3.8355945651 11.1166056117 17.7148375894 
Si 0.5074432786 8.1538292546 16.2194066374 
Si 1.1977385510 10.6867776677 20.1318376930 
Si 2.9262378868 9.5207231671 19.0784863739 
Si 3.6465328234 11.7900179278 21.7717058754 
H 2.8985774665 10.5994632669 21.5553715211 
Si 0.7681679890 9.4859277268 22.1572030563 
Si 3.8580421853 9.3185316852 24.8701796536 
Si 1.2278685352 12.1878034415 24.8797074838 
Si 2.3236056213 8.1762442948 23.4831496905 
Si 1.2501255624 9.4783202967 27.7301361844 
Si 2.5547281434 8.1135277942 29.1631686162 
Si 2.6037284638 10.8096205589 26.2610090582 
Si 3.8689076154 12.1403832510 27.7746773295 
Si 2.5612115634 13.4715369032 -0.0029365007 
Si 3.9414144060 14.8311654756 1.3500321707 
Si 16.2197902483 16.1791466980 29.1792724029 
Si 2.5762961036 13.4988389435 5.4051731721 
Si 1.2215089192 14.8305464556 4.0268819245 
Si 3.8956720856 14.8849713461 6.7788758635 
Si 2.5302931431 16.1566990778 8.2153570191 
Si 2.0091923284 13.0023197389 10.7338314376 
Si 1.0607266177 14.7981130653 9.5327987496 
Si 2.7484162451 13.8206478964 12.7586999508 
Si 2.2756804408 16.1451657577 13.7160130791 
Si 3.7719495345 12.3214140227 14.2018155159 
Si 1.4284130981 15.0112351373 15.6762034073 
Si 0.5134396277 12.8509041875 15.7562254908 
Si 3.4710406517 14.9160363764 16.9334093766 
Si 1.1328668834 13.0932505197 19.5515752949 
Si 3.0927868483 14.3345159511 19.1417909148 
Si 0.2902405617 13.6438525248 21.6336107897 
Si 3.1636483489 16.2300203684 20.5321526958 
Si 3.4009773611 15.4656772714 22.7913882973 
Si 2.2470589106 13.3356457220 22.9647305096 
Si 1.2998768519 14.8479115958 27.7756125766 
Si 3.1456316088 15.8407056549 26.6145032510 
Si 16.2354449385 13.4987412035 26.3986072938 
Si 6.6880876212 1.2802245957 1.4147921899 
Si 5.2977686885 2.6365691041 2.7256258149 
Si 8.0230531334 2.5854022136 0.0087064787 
Si 6.6674481910 1.2865565188 6.8683673243 
Si 6.6407651707 3.9903332765 4.0889881800 
Si 7.9927048631 2.6143332539 5.4398649958 
Si 5.2727146682 2.6545695543 8.2088395156 
Si 6.5075618395 4.1373993978 9.5880367839 
Si 8.0702941338 16.2461148886 8.2556310991 
Si 5.4699214100 0.2176001930 10.9347926670 
Si 7.5517997191 3.5889313828 11.6764144233 
Si 6.4746560392 1.7362370859 12.5783433850 
Si 4.7472318434 2.8009840756 13.7605542242 
Si 7.8305216216 1.3809407796 14.5156493847 
Si 4.6236884823 0.6742577672 16.6804250249 
Si 4.9546361253 2.5825351736 18.0229722959 
Si 6.7260270315 3.9560102462 17.0944472437 
Si 4.9728809255 1.3980061838 20.0737939173 
Si 4.1513925080 3.2306979895 21.3152175911 
Si 7.1273637652 0.4225528299 20.1273660426 
H 8.0525706136 1.4015916128 20.5852571976 
H 7.0372149044 3.3872286010 22.8956391271 
Si 6.5580445500 1.0193565333 24.9267621056 
Si 7.8570906119 2.6200999140 23.7615903003 
Si 5.3753579592 2.4913763328 26.4609765875 
Si 6.6457173308 3.8951019356 27.8876084217 
Si 5.2762658883 8.0694307638 2.6711213651 
Si 6.6217873206 6.6888858312 1.3241082890 
Si 7.9780438630 5.3396176988 2.7019874434 
Si 6.5963260503 6.7281610215 6.7879652966 
Si 5.2668339782 5.3511835989 5.4255147975 
Si 7.9746392529 8.0547860537 5.4098201814 
Si 5.2157159577 8.1072398541 8.1300157175 
Si 7.9337513526 5.3348610188 8.1347211797 
Si 7.7387600508 7.9813344430 10.7834579890 
Si 4.9955240257 5.4162947295 10.8660227756 
Si 6.2916867575 6.7925228121 12.2243523421 
Si 5.0081976458 7.7302566707 14.0048875398 
Si 7.5280163188 5.2437347580 13.4442068787 
Si 5.8612072136 4.4746675609 14.9632820475 
Si 7.2793494666 6.1380720561 17.9932781991 
Si 4.0538642771 5.9648279046 15.1643017299 
Si 8.1928275149 7.5491933190 16.3572971377 
Si 5.6680078118 4.8948029548 20.8238621244 
Si 5.1991327375 6.4397954389 19.0553097807 
Si 7.9747044129 4.2245997686 20.5197898977 
Si 7.7629018310 7.6140926796 21.8641199835 
Si 5.9963490548 6.0027347349 25.1380110536 
Si 6.5870081702 5.7920724530 22.8352280071 
H 7.6139460696 4.8089709440 23.0556832941 
H 7.8384222717 6.8151984923 24.7680331299 
Si 4.3236103895 4.2754734391 25.3090736010 
Si 5.2752233282 5.3209004887 29.1892094038 
Si 7.9297277225 8.0510230636 29.1494906268 
Si 7.8844252321 5.2865122983 26.4606843228 
Si 5.1708207173 7.9503508627 26.3028905942 
Si 7.9797380230 10.7678041285 2.6588667049 
Si 6.6188062505 12.1079498607 1.2806046837 
Si 5.3040729185 10.8004655788 5.4062545516 
Si 6.6351451207 9.4218591562 4.0393324021 
Si 6.6326201707 12.1664961213 6.8047705187 
Si 6.5584029300 9.5067300569 9.4516660602 
Si 8.0257084034 10.7641877484 8.1130351366 
Si 5.6632348418 11.3565898939 10.6875951570 
Si 4.8999343048 10.8069978688 12.8339581192 
Si 6.9700512337 10.3324701645 13.7969411833 
Si 6.4625036991 8.8349467408 15.4984479975 
Si 5.9560313045 10.5149670362 17.0201243224 
Si 7.8996400922 11.1098615516 20.9422877936 
Si 6.3330959379 9.4101303561 21.5075570110 
Si 4.5886975620 8.3729949166 20.3081317791 
Si 5.5292495906 10.2285073835 23.5390307072 
Si 6.9888661839 11.7129988071 24.5514065109 
H 4.7646621436 11.5071094952 22.6063847223 
Si 6.5540046299 9.3297880753 27.7018157319 
Si 5.2719816182 10.7690910385 29.0925574571 
Si 7.9864169230 10.6678161076 26.4131913039 
Si 5.3043661385 13.4746808732 2.6901565670 
Si 8.0223037934 16.1738035779 2.7249068436 
Si 5.3567873590 16.2172815883 0.0869110555 
Si 6.6363017107 14.8441486058 4.0751056052 
Si 5.3096278086 16.2257035184 5.4612587741 
Si 7.9947248231 13.4889834934 5.4220953001 
Si 5.2639506481 13.5902910043 8.1420277980 
Si 7.4620092382 13.0213464591 10.7826688742 
Si 6.6279775206 14.9220473865 9.5878029721 
Si 6.2440710871 14.8398643357 14.1717414750 
Si 4.5242217414 15.4887927817 12.7751252287 
Si 7.9830123130 13.8038529062 12.9489058381 
Si 5.0395070261 13.5610667440 15.7205691935 
Si 7.9097073123 15.8807138952 18.0051441472 
Si 7.0150605042 12.5124305644 16.5115252366 
Si 6.7155688514 -0.0144527651 15.9959702501 
Si 6.8022805222 13.0296054892 20.0889624569 
Si 4.4972292111 12.5438539747 19.6536049127 
Si 7.1259791152 14.8876917762 21.6065470756 
Si 5.3913873193 13.4389569029 24.5948078235 
Si 5.7275803424 15.4728611615 23.4427002516 
H 4.2370127488 12.8530218875 23.9908427557 
Si 6.6554261709 14.8977101262 27.8601939899 
Si 7.9785814330 13.4604434131 29.1515949328 
Si 4.7769610937 14.0546211685 26.7229334664 
Si 8.0079034332 16.1439114276 26.3840232837 
Si 10.7103330080 2.6099023739 2.7106414021 
Si 9.3438952155 3.9701988363 1.3657384774 
Si 12.1237837409 1.1815919028 6.7126194488 
Si 9.3594032956 1.2551884945 4.0803955969 
Si 9.3411096254 3.9790443064 6.7867085583 
Si 12.0706620504 3.9812108764 4.0527181268 
Si 9.6284815181 1.2240566752 9.5810224303 
Si 10.7819438486 2.5719629635 8.0142496573 
Si 9.7100292588 3.0675047681 11.1781322825 
Si 10.9981447306 2.1598096698 12.8962689600 
Si 9.9243405008 0.5381939119 14.1027962248 
Si 11.9599063394 3.4876075819 14.5065307250 
Si 11.1812443323 0.4185699248 16.0679842799 
Si 9.6280416881 1.1852750718 17.6998736351 
Si 8.6118226088 2.8676427562 16.2080375393 
Si 9.5827717776 3.2452938297 19.0174614980 
Si 10.6989300078 2.6375139241 21.0065568081 
Si 11.0263753008 0.6846963993 19.5962917989 
H 8.3874441467 3.7914812447 21.8134997320 
Si 10.8985639597 0.1247629934 23.8815649726 
Si 9.5739100176 1.5461034621 22.6722027398 
Si 9.2814067749 3.9894373265 25.0911610171 
Si 12.1758954514 1.4039634368 25.2829743605 
Si 9.3235490053 1.2395826743 27.8062711469 
Si 10.6620331575 2.6868889146 26.5206862722 
Si 12.0321524900 3.9934935365 27.9175947832 
Si 12.0591938903 6.7060066213 1.3270280137 
Si 10.6989137178 5.3421915189 5.4114568639 
Si 9.3387312854 6.7021296013 4.0488017794 
Si 12.0580698803 6.7316959516 6.7436579633 
Si 9.2646606547 6.7127995514 9.4779114331 
Si 12.1825580614 3.9564989462 9.2626876847 
Si 10.6840735277 8.0621980037 8.1433429893 
Si 10.6583841975 5.1678070673 10.5612783400 
Si 11.9821584796 6.4255742688 11.9821233326 
Si 10.9042817497 7.7466444108 13.5870658795 
Si 10.3162290343 4.4881719710 15.8047706627 
Si 11.1881024223 4.6945499829 18.0202834603 
Si 9.3016552451 6.3174575378 14.6799606168 
Si 10.8829744295 6.3754662283 19.6431126089 
Si 8.5783140785 6.4690034092 19.9636685665 
Si 11.2471862529 4.9335079951 21.6079499463 
Si 10.4798457958 5.6050469613 23.7858190465 
Si 8.8647737311 7.3891114876 23.9494872962 
H 10.6252829172 8.0154131233 22.4482110495 
Si 12.0765427404 6.6471508508 25.1952657145 
Si 10.6576022775 5.3521935789 29.2320261870 
Si 9.2777903949 6.6594823809 27.8270511694 
Si 10.7868471387 7.9953275531 26.6124573979 
Si 9.3168701052 9.4060578560 1.2806572914 
Si 12.0656936003 12.1237674509 1.2883321632 
Si 10.6799358677 8.0597545037 2.6639228847 
Si 9.3517632855 9.4039890260 6.7521336405 
Si 10.6998585379 10.7424243082 5.3717965398 
Si 9.3349682954 12.1204605808 4.0358544518 
Si 12.0643904003 9.4079963660 4.0045821255 
Si 12.0710693004 12.0661660104 6.7385433305 
Si 9.3515352255 12.0765916104 9.5864877808 
Si 11.2440748628 11.1166219017 10.7703937555 
Si 10.6380054073 10.0291666517 12.8023350752 
Si 8.4626062074 9.5175303270 12.3018024960 
Si 10.5396463864 11.6393191364 14.5044556454 
Si 11.6519438866 11.4169769244 16.5499872752 
H 9.1468187937 8.4114881869 16.9666106501 
Si 9.7537841992 10.5047857861 19.5988052756 
Si 11.9034451989 9.9248129108 20.4840751475 
H 9.3408652754 9.4223804362 18.7718129911 
Si 10.6419475873 10.7617605384 23.8421384603 
Si 8.7363759499 11.8716471186 22.9990423891 
Si 11.6212535263 9.0286674226 22.5951909830 
Si 9.4753718067 9.2889164650 25.2132399955 
Si 12.0743761704 12.1474042411 25.0738589450 
Si 10.6809458477 10.7830841486 29.1614150278 
Si 12.1062557007 9.4375464263 27.8719722586 
Si 9.3091649351 12.1081616307 27.7559139337 
Si 9.3332741354 14.8143379055 1.3126632021 
Si 10.6992232279 13.4594823031 2.6600796035 
Si 10.6891722978 16.1842617580 29.1860237182 
Si 9.3322152853 14.8486446458 6.7999189241 
Si 10.7105121980 16.1504762977 5.3982172715 
Si 12.0604970903 14.8099396054 4.0146652587 
Si 10.6414100173 13.3892886925 8.0773496129 
Si 10.8793743395 15.9062566155 10.8158116948 
Si 12.1343885310 14.5654267032 9.4195753926 
Si 10.0438439419 14.9128598264 12.8245179684 
Si 11.6493863565 13.6778008851 14.0575244179 
Si 8.2425934654 12.1229692409 14.5598398121 
H 8.8200739707 14.5559133431 15.6504548844 
H 9.2789144049 15.0620110678 15.9348869212 
H 10.9464891401 13.7411526957 17.0510459310 
Si 11.8914231788 14.4952982526 16.2930865762 
Si 8.2146398251 13.5348072638 18.2141426568 
Si 11.0824454814 13.8322952465 21.3649902749 
H 10.5169544162 15.8328538748 20.2780285117 
H 11.2385362628 12.4738232641 21.8331399219 
Si 10.3485972646 12.3804815632 18.3053000266 
Si 9.0833203731 14.1506670094 22.7068653370 
Si 9.4839892167 14.9122408064 24.9926678026 
Si 10.6980992178 13.4856766233 26.4237712872 
Si 12.0498108502 14.8241770656 27.8321950286 
Si 14.8054761454 3.9903169865 1.3312746202 
Si 16.1676622479 2.6199044340 2.6785624251 
Si 12.0517819402 1.2461866404 1.3350623712 
Si 13.4486331630 2.6021809138 5.3765020020 
Si 14.8029023254 1.2467014044 4.0160389030 
Si 14.8180683155 3.9907079465 6.6960772650 
Si 14.8576855959 1.1739079097 9.3061182238 
Si 13.5676479041 2.6177215739 10.5646978374 
Si 16.1723211879 2.6147730839 8.0302657646 
Si 16.0122719364 16.1958928181 10.9116453002 
Si 12.5957539152 0.8915468212 11.7768073586 
Si 16.0185761665 2.5941499437 13.5729202665 
Si 14.8127903555 3.8934729356 12.0575276333 
Si 14.8007683354 0.8158325295 14.5867866203 
Si 13.0507661994 1.8291226667 15.7775315897 
Si 14.1335462193 2.1536520497 17.8683350264 
Si 13.8301449665 0.3087378568 21.2437588643 
Si 13.2569487312 0.3123591239 19.0051863793 
Si 14.3223310310 2.5319384332 21.8724787548 
Si 13.2994330516 2.9788057172 23.9639251739 
Si 15.8914815853 0.0080120574 23.7994970359 
H 12.2715829122 3.9102353458 23.6165393140 
Si 14.7846086552 4.0847664074 25.3440284629 
Si 13.4228135128 2.6203116840 0.0082708289 
Si 14.8194529655 1.2644640206 27.9093529178 
Si 16.1381284776 2.6539179543 26.5821495452 
Si 13.4234162428 5.3404484888 2.6794421420 
Si 16.1571226178 8.0708479938 2.6642209948 
Si 14.7937799253 6.7078311013 4.0124148203 
Si 16.1669943579 5.3663007191 5.3670033982 
Si 13.4304372328 8.0604549737 5.3670618511 
Si 13.5071468435 5.4105769395 8.0330422796 
Si 16.1397900576 5.3455798389 10.8082420382 
Si 14.8181334755 6.7466990417 9.4823246305 
Si 13.3760612123 7.9790701330 10.8833540742 
Si 13.2359997911 4.9989286357 13.3101158199 
H 12.8726024677 5.6324304515 16.2893163611 
Si 13.7093871954 6.1425843862 15.2555175526 
Si 15.8836135153 5.9385684243 15.9832275078 
Si 13.5240232837 4.6379422324 21.1352994224 
Si 15.8847538153 7.7355509207 21.0456033763 
Si 14.6276707938 7.6002624695 19.0765866532 
Si 13.4300951428 4.2077884885 18.7376472440 
Si 12.3132364426 8.1597425246 19.0097457091 
Si 15.2759639297 5.5175207905 18.2193157425 
Si 14.6611467441 6.3479687081 22.4323118481 
Si 13.3876596924 7.9175102224 23.7246480382 
Si 16.1640784478 5.3001958985 23.9190333112 
Si 16.1806127980 5.3494242789 29.1994386694 
Si 14.8279889256 6.7495986617 27.8753040765 
Si 13.3989975325 5.3861745193 26.6313669260 
Si 14.8199253755 9.4402179863 1.3043307346 
Si 13.4254036228 10.7675434885 2.6484620804 
Si 13.4457824130 8.0745784038 -0.0007801130 
Si 14.8342931557 9.3876990259 6.7073294572 
Si 16.1629218578 10.7708829385 5.3630870508 
Si 14.7864657152 12.1095625708 4.0094629465 
Si 13.4933166334 10.7070098479 8.0643438323 
Si 14.8419983257 12.0186480799 9.5043613913 
Si 16.1840174080 8.1201904043 8.1517602135 
Si 12.1396990710 9.3773711658 9.4488895452 
Si 13.9351340174 9.3009059051 12.8165099147 
H 13.0892268897 10.4439589255 12.6108139966 
Si 16.0431414867 10.4036248851 12.9977432748 
Si 15.1040229781 12.1838286814 14.2387577780 
Si 15.0242508474 9.2369839445 17.4282135671 
Si 12.6764219959 9.3106473252 16.8263235789 
H 14.1474252994 11.5663562258 15.1083914868 
Si 12.9188171982 8.2546317755 14.7419791928 
Si 15.3897984508 10.9858946505 18.9064301265 
Si 13.5918548443 11.5808869059 20.3352831726 
Si 14.7046736245 9.3863795358 25.0505654459 
Si 15.9441797358 10.8271323090 23.6775641899 
Si 16.1706596079 10.7856253886 29.1397874377 
Si 13.4202396927 10.7801845286 26.4480877129 
Si 14.8314098256 12.1468340911 27.7645357433 
Si 16.1332251875 8.1003166041 26.4350234794 
Si 14.8108355555 14.8322731957 1.2922894277 
Si 16.1475278077 13.4771243733 2.6709255477 
Si 13.4349984329 16.1723863479 2.6646769277 
Si 14.7812366252 14.7818719352 6.6836852404 
Si 13.4049433826 13.4344608629 5.3604566682 
Si 16.1534084977 16.1766054579 5.3818212201 
Si 13.0226170791 12.8115149672 10.7808860593 
Si 16.0780346670 13.4510603730 8.0826980575 
Si 13.4332065329 16.0573300769 8.0835163987 
Si 13.6944981352 13.5884991043 12.9206730651 
Si 14.3422862812 15.8252953147 12.6294312601 
Si 13.8563881567 14.6295115638 17.7433918537 
Si 15.7438616040 13.0755595796 17.8333801645 
Si 15.7074860337 15.9821680162 16.4920019525 
H 12.7640784867 12.3141161026 16.4660488443 
Si 16.0046156364 15.8664764351 21.5317565307 
Si 12.2989826925 13.3480098321 19.3205984776 
Si 13.4434529429 13.5721113641 23.7954345562 
Si 14.7742807951 14.8663681660 25.2023677475 
Si 14.7374491048 12.3237109127 22.3037153662 
Si 12.4169874536 15.2856727698 22.5532802205 
Si 13.4485028430 13.4710807832 29.1564173009 
Si 13.4512232730 16.2222500384 26.5706635413 

