&CONTROL
  dt          = 30.D0,
  prefix = 'aSiHcSi_merged-1',
  pseudo_dir = './',
  outdir='/scratch/ztzhao/aSiHcSi_merged/aSiHcSi_merged-1/',
  wf_collect=.true.,
  verbosity ="high",
/

&SYSTEM
  ibrav= 0, nat=  406, ntyp= 2,
  ecutwfc     = 42.D0,
  nbnd=1540,
  degauss     = 0.05D0,
  occupations = "smearing",
  smearing    = "methfessel-paxton",
/
&ELECTRONS
  electron_maxstep=200,
  conv_thr    = 1.D-8,
  mixing_beta = 0.3D0,
  scf_must_converge=.false.,
/
&IONS
/
ATOMIC_SPECIES
Si  28.08  Si.pbe-hgh.UPF
H  1.00784  H.pbe-hgh.UPF

K_POINTS {automatic}
1 1 1 0 0 0

CELL_PARAMETERS angstrom
16.29000014898320 0.00000000000000 0.00000000000000
0.00000000000000 16.29000014898320 0.00000000000000
0.00000000000000 0.00000000000000 29.24973228775786

ATOMIC_POSITIONS angstrom
Si 0.1472340712 16.2618998987 0.1406584526 
Si 0.0079311450 2.8016682556 2.6865849857 
Si 2.7633867553 0.1015534899 2.7793826863 
Si 2.7393752951 2.8385162360 29.2303397153 
Si 1.4420250222 1.4565752503 1.3937468185 
Si 4.0624491072 4.2006534684 1.3578573970 
Si 1.3382186252 4.1770981282 4.0483091973 
Si 4.0548416771 1.4714349885 4.1477582871 
Si 16.2888109790 0.0593985533 5.4328452751 
Si 2.6618674743 2.8212977058 5.4476748894 
Si 1.3318313162 1.4272597661 6.7916123388 
Si 4.0191665768 4.1559862880 6.8091329285 
Si 16.2515557486 2.7840424755 8.1263653723 
Si 2.6874101946 0.0581699615 8.1379190166 
Si 1.3069141320 4.1397125779 9.4872676665 
Si 4.0288754168 1.4166126220 9.5004592957 
Si 10.0331902818 8.9401801418 23.2538881656 
Si 2.6476300142 2.7690882553 10.8386930474 
Si 9.5588417674 1.7758543662 28.0915891378 
Si 8.0763377239 5.5564213108 18.8014939167 
Si 12.1972842216 15.2623291996 22.2303230339 
Si 8.0675737038 5.4100882395 13.6014180111 
Si 2.7177258849 10.9168413398 13.5891038738 
H 9.1502722737 2.9601862471 18.2507799572 
H 15.9225466156 5.3891230093 22.9519139294 
H 7.8694710120 11.0075440607 22.0762354442 
H 1.4384591412 6.4670160291 21.8326436737 
Si 6.7260270315 1.4087966799 12.2014088249 
Si 2.9357838268 12.1140423208 23.4620292605 
Si 13.5937444843 8.0376001035 16.3601065119 
Si 8.7058647796 2.3574073716 19.5540602787 
Si 6.6173075705 4.0782504073 14.9254363929 
Si 1.3350567362 9.5655206675 14.9187382042 
H 11.6002394261 15.6932811535 28.3777977683 
H 13.6109630145 13.7783101860 20.0293684284 
Si 2.7095483048 13.6813846851 16.2585806911 
Si 1.2660050546 1.4195904340 12.1841514829 
Si 16.2877847090 5.5528700908 29.1763447094 
Si 16.2497312686 8.3164197461 2.6082074030 
Si 2.6691002344 5.5645663109 2.6783277862 
Si 2.7698538853 8.2577594555 29.1602281070 
Si 1.3396814673 6.9435636935 1.2732115968 
Si 4.0298528169 6.8723763929 4.0819171397 
Si 16.2547485887 5.5290704006 5.3927731419 
Si 2.6589189843 8.2438966654 5.4016650605 
Si 1.3192326301 6.8699003128 6.7699967867 
Si 16.2543902087 8.1970792050 8.1560538506 
Si 2.6617208643 5.5140347304 8.1479224250 
Si 4.0248192068 6.8578620027 9.5077132293 
Si 16.2341906085 5.4787017201 10.8507146873 
Si 14.7832077152 1.3054724669 14.7585666702 
Si 2.6667056044 8.2077002851 10.8665680422 
Si 6.8832906930 3.8775087355 20.2077917954 
Si 9.4699961066 6.8128201523 20.2339703058 
Si 9.3810038358 4.1490304579 12.1118753944 
Si 6.6470856908 6.8172347423 17.4755158029 
Si 2.2183396403 3.4433313615 22.5756746230 
Si 11.1168336717 0.3024613198 16.0604430046 
Si 12.8983243780 2.0730328390 15.8997449754 
Si 0.5170494917 0.2841529886 21.5713850649 
Si 13.1026987198 14.2229783201 27.3858223475 
Si 9.4609551565 6.8637426928 28.1161881627 
Si 8.8593654510 4.8084822440 23.3906599137 
Si 4.0810522873 12.2976143325 14.9401490082 
Si 9.5175954870 9.4450724064 17.6388170583 
Si 4.0896045374 9.5777381676 1.3450109146 
Si 14.8886854662 11.3864005941 29.0934802179 
Si 2.7293080750 10.9677638803 2.6557645427 
Si 1.4899534606 12.4689851340 1.3231993892 
Si 1.3310412512 9.6217537480 4.0092608047 
Si 4.0704637872 12.2892901424 4.0680235168 
Si 4.0261712768 9.5681107775 6.7887458651 
Si 16.2674547888 10.9086311798 5.4309147928 
Si 1.3339017752 12.2754436423 6.7807606881 
Si 1.3156146210 9.5619042875 9.5122469378 
Si 2.6723256544 10.9183400199 8.1531581271 
Si 4.0260572468 12.2715340422 9.5151719111 
Si 16.2564264587 10.8862650096 10.9083074102 
Si 12.0746205204 4.5003243112 18.4346730241 
Si 5.4784899501 11.0012724106 16.3425566725 
Si 0.2651409294 14.0010922280 18.8561909161 
Si 7.3330087271 7.2408724862 25.3342753745 
Si 2.7126434048 5.6354766815 19.1853381535 
Si 11.8725919386 0.9797881230 25.9479055082 
Si 1.4457912702 15.2184113592 27.7786462521 
Si 6.8068743023 15.3887396007 20.2331220635 
Si 14.8168465655 12.3207950027 15.0017489444 
Si 10.8510786092 10.7855928086 16.2369943887 
Si 16.2894462890 8.1771239548 19.0171814426 
Si 10.6404489073 2.0082963784 20.7447876304 
Si 1.3017371699 4.1323820778 14.8749221052 
Si 0.0092331721 13.6042841144 2.7560501749 
Si 2.6754207545 14.0863215088 0.1658840067 
Si 4.2418834588 15.1285394284 1.4591024204 
Si 1.3684333175 14.9939677371 4.0848128632 
Si 2.7115356848 13.6328893547 5.4376129815 
Si 4.0568290571 14.9957433471 6.7957073013 
Si 16.2622419887 13.6146771345 8.1462551903 
Si 1.3359038162 14.9778895070 9.4856004317 
Si 5.3075752685 0.0227779814 16.1180942269 
Si 8.1303553644 10.9182259899 26.3578405062 
Si 4.2715312591 6.9157892432 20.3925916040 
Si 16.2204255583 13.6157848545 13.6089644421 
Si 13.5906493843 2.7347978050 17.9709770181 
Si 0.8624691709 0.2081813149 23.8785161986 
Si 4.0063952166 14.9908726371 12.2167649344 
Si 1.2832643097 6.8541967527 12.2008823297 
Si 9.5226453871 1.4366672411 14.8087884605 
Si 9.4782877167 14.9782315970 12.2215033910 
Si 0.7282330537 11.7511174075 28.4693494303 
Si 8.1185451142 10.9260777699 13.5848041632 
Si 11.0016796606 13.5540620440 26.5126885889 
Si 13.9319737574 16.2632356787 26.5636416226 
Si 4.1438991079 12.2988849525 20.2369245287 
Si 15.5321567621 4.7151568331 20.2410779907 
Si 6.4323997788 1.6548196651 17.2689834432 
Si 5.5521044608 0.1086591880 0.0163570938 
Si 5.3671640891 2.8329287659 2.7641845254 
Si 8.1459286045 0.0806268670 2.7495801341 
Si 8.0307094334 2.8827435864 0.1673260185 
Si 6.7509018617 1.4657286014 1.4661691557 
Si 6.7316307916 4.1548134080 4.1344204091 
Si 5.4158711895 0.0800573686 5.4594040320 
Si 8.1228293843 2.7807356054 5.4420296911 
Si 6.7668334819 1.4316939041 6.8082554365 
Si 5.3761724592 2.7805889954 8.1399957476 
Si 8.1018315741 0.0476321233 8.1526023822 
Si 6.7231762815 4.1437199179 9.4841086954 
Si 8.3740537666 8.1734098348 21.7659835338 
Si 8.0570340737 2.7475854551 10.8052898531 
Si 13.3778205323 7.9517029327 21.6550977987 
Si 14.7034844545 1.1207520103 21.0746661112 
Si 0.8651684239 1.7480147560 17.4644886538 
Si 9.8632041302 1.5553154572 22.8696344325 
Si 15.1438683185 8.6217269289 22.9571203818 
Si 1.3933847107 10.4220977453 23.7163556828 
Si 8.0714507238 8.1976982250 16.2505662644 
Si 12.7594521267 6.7786600220 18.2115560662 
H 3.6265124132 16.1865423580 18.8076363605 
Si 16.0822211971 0.0713054032 16.2278977219 
Si 3.9658819863 1.1320898504 19.9046183202 
Si 6.8353818025 4.2434147188 27.9187524697 
H 0.6400487669 10.7093393179 25.0180565188 
Si 5.4108701595 5.5585715908 29.2371256531 
Si 5.3995486094 8.2362240753 2.7537277461 
Si 8.0556331337 5.5583272408 2.8192295966 
Si 8.1094878742 8.2837420058 0.0808465525 
Si 6.7435550717 6.8947099831 1.3874522762 
Si 5.3703569291 5.5162013004 5.4631187480 
Si 8.1187405943 8.2253586452 5.4653417277 
Si 6.7528729518 6.8587579527 6.8031952328 
Si 5.3844640692 8.2099483051 8.1500576555 
Si 8.1103675342 5.4938025502 8.1510813961 
Si 5.3812875192 5.4971908703 10.8584951161 
Si 8.1063439041 8.1857739449 10.8866918580 
Si 15.7286630338 6.5249921397 23.9364306685 
Si 10.8294291990 13.5817224642 13.5588011512 
Si 4.1883219383 1.4827532806 27.9667512804 
Si 5.5062155304 2.8355025859 26.6086862103 
Si 15.0280301274 6.9348974134 27.7323731756 
Si 14.4176926919 3.6576751835 25.6652945948 
Si 4.0024367466 14.9007400663 25.3161112908 
Si 5.4131344695 8.1958900350 18.8321768859 
Si 10.1810383231 15.5405949821 25.5480324181 
Si 16.2836144689 10.9776193304 16.2285412160 
Si 3.2023859693 10.8948824196 26.4715342156 
Si 4.0869003974 6.8433639026 27.7792312467 
Si 9.5033743169 12.2520512021 14.9540426310 
Si 4.0288591268 9.6572659483 17.6321188696 
H 6.5850859502 8.9334360817 19.4825739330 
Si 5.5975046912 10.9108629098 0.1528965406 
Si 8.1666657747 10.9346626000 2.8094455612 
Si 6.9059175032 12.3374922528 1.4287616731 
Si 6.7615392318 9.5827717776 4.1134776008 
Si 5.3958181993 10.9338969700 5.4565375583 
Si 6.7524819918 12.2774147323 6.8235822962 
Si 6.7493380217 9.5433011073 9.5212851051 
Si 8.1026949441 10.9163526398 8.1835778487 
Si 14.4965851626 6.8214864324 19.8771528216 
Si 12.1960950515 12.2078401416 12.2366840020 
Si 13.7047608353 10.7699381185 27.2354202240 
Si 13.5139397736 2.7467546651 23.7080780085 
Si 6.7436039417 6.8262594024 12.2458976677 
Si 7.2767430666 6.5784233402 23.0974605973 
Si 3.9990321366 4.1371713378 12.1806707647 
Si 2.6873776146 8.2382766153 16.3043857718 
Si 14.6811671543 9.3628730656 25.1666744085 
Si 15.7404569940 3.6584082335 18.0555087444 
Si 14.0339165783 3.3758907609 21.5006592122 
Si 16.2317145285 10.4831037959 21.9270910592 
Si 12.8143820072 2.8708681763 27.1783247466 
Si 14.9315444566 14.9085592663 12.1248037760 
H 6.0766913356 0.4875108345 24.7238042119 
Si 8.3005532859 5.5399684107 26.6056149884 
Si 5.0994542266 11.1772044122 23.7102424887 
Si 0.5982616585 13.3315732219 26.6642899514 
Si 5.4840285502 13.6429402848 2.7654685887 
Si 8.2387978953 13.6427122248 29.2317144527 
Si 6.7992994522 15.0207159174 4.1244170007 
Si 8.1195550943 13.6405945248 5.4855825424 
Si 5.3880478693 13.6322866247 8.1672272483 
Si 6.7488819017 14.9844543770 9.5162249014 
Si 8.1188057543 13.6296802247 10.8626778278 
Si 2.7024295747 8.4780979975 23.8105398207 
Si 13.7566770658 0.4249279119 23.1295768033 
Si 11.2684284131 2.6615090943 24.3843318190 
Si 10.2773448040 4.6781133728 25.3797002088 
Si 2.6580230343 13.6174953045 10.8735587282 
Si 5.7257721524 13.8006111962 26.4892303036 
Si 0.7965011863 14.2806612106 21.1061095734 
Si 14.8045313254 15.1238316183 17.7774022899 
Si 8.5030379878 11.0932131715 19.0184099314 
Si 11.6368756364 7.2017113259 23.0573007148 
Si 3.3223455304 8.7148405697 21.5399123530 
Si 12.3049611225 9.5634681275 20.3438323002 
Si 8.7263738898 14.6246734338 21.3659349453 
Si 9.3919995859 4.1446810279 1.5611518113 
Si 10.8085617089 0.2443385992 0.1086460831 
Si 10.8746176595 2.7797582054 2.7700637216 
Si 12.2921408924 1.4421341652 1.4327718114 
Si 9.5087011470 1.4170557100 4.1113423704 
Si 12.2199924818 4.1403153079 4.1156420810 
Si 9.4725536366 4.1362102278 6.7985737751 
Si 10.8422657192 0.0459524614 5.4675647074 
Si 12.2017151016 1.4102660379 6.7999192628 
Si 9.4602383965 1.4028834098 9.4858636793 
Si 10.8243141390 2.7626374153 8.1388257583 
Si 12.1770846214 4.1171020577 9.4902803889 
Si 10.8089363789 0.0152490040 10.8122805391 
H 1.9069074174 15.3968520208 23.8857701322 
Si 0.0369760197 5.3449771089 16.4292528790 
Si 5.3472739989 0.3519633722 21.5682845933 
Si 1.3121155290 12.3701699931 17.5847928027 
Si 5.3724746291 0.0476832739 10.8569448803 
Si 13.4578207231 13.6507269048 16.4507221825 
Si 16.2372694185 8.1338251344 13.6510840566 
Si 13.5576132640 5.4154313595 13.5909466070 
Si 0.1246789370 8.4240477770 26.5345088892 
Si 5.2465692180 5.4380092997 16.2354441528 
Si 5.0708164064 10.4634254757 21.4615523202 
Si 8.2242509252 13.7418694557 16.2801962432 
Si 8.4147950570 0.3047826448 26.6757850962 
Si 8.0959183040 0.0639866319 13.5553789325 
H 7.6588087300 13.1295120601 23.9655926516 
Si 10.6870708877 5.3474857689 0.0835735051 
Si 10.8672057094 8.1228293843 2.6916334895 
Si 12.1860929915 6.6713252110 1.3241353807 
Si 9.4808126667 6.8723112329 4.1156713307 
Si 10.8350166691 5.4919780702 5.4494006236 
Si 12.1957692515 6.8403828326 6.8004165082 
Si 9.4696540166 6.8548483527 9.5053147513 
Si 10.8360918091 8.2019010450 8.1540063693 
Si 10.8261223290 5.4855598102 10.8406235297 
Si 10.7915875287 8.0479605436 26.6213220946 
Si 2.6412606242 11.0423720810 18.9480350755 
Si 6.7628913019 12.2609944121 12.1999170886 
Si 10.7594310684 3.7802574346 27.5495623488 
Si 6.9783591338 1.5425457261 25.3277526842 
Si 13.3688284523 13.3195349118 21.4596803373 
H 10.0610787620 5.8731477837 16.0243195852 
Si 7.0155654942 15.1398772685 27.9090415586 
Si 3.8080807548 3.7363233042 25.2528148701 
Si 5.3927230993 10.9096085798 10.8565353841 
Si 9.4436714664 15.4553819914 17.4302664671 
Si 9.4035329060 6.7605618318 14.9822686227 
Si 6.0801448156 2.4941293428 22.1316929366 
Si 10.1849479231 14.6998029144 19.4977837938 
Si 9.4890391168 9.5683225475 1.4500496282 
Si 10.7762912186 10.9024572697 0.0350008147 
Si 12.0988111707 12.2595120221 1.4451210483 
Si 12.1350238410 9.4874426968 4.1394806128 
Si 9.4990411769 12.3038045325 4.1455353074 
Si 9.4630076965 9.5722810175 6.8325619640 
Si 10.8292988790 10.9041351397 5.4763396270 
Si 12.2146004917 12.2502430120 6.8057107098 
Si 12.1917782015 9.5384955572 9.5264915575 
Si 9.4800307467 12.2550322721 9.5312007644 
Si 10.8202742190 10.8718157794 10.8875401003 
Si 5.4005422994 13.6263407746 13.5330906365 
H 3.4361637614 12.9956245489 28.4971366760 
H 14.5190164928 11.4435296247 19.8635809458 
Si 14.9022876163 9.5221566871 12.2819040882 
Si 6.7935816621 12.3557533430 24.9385557464 
Si 11.8466745483 12.3112816426 24.7139763019 
Si 7.8603649019 0.4284758739 18.6061057050 
Si 10.5165960362 12.4178508236 19.3422629672 
Si 12.2123850517 14.9145376964 14.8899272179 
Si 1.8738875871 2.0691395289 25.0104515884 
H 12.2640080622 13.5252776137 23.9354361776 
Si 13.5147216936 16.2097718982 13.4174956945 
Si 11.8963101788 6.4547170790 25.2650412582 
Si 12.1748691813 12.0615233603 17.6768709600 
Si 9.5141257170 12.2429613820 27.8020752876 
Si 16.1950783181 2.7637777153 13.5541504438 
Si 9.5126596170 15.0386512075 1.3732135065 
Si 10.8132532289 13.6800977751 2.7715057334 
Si 12.2118311917 14.9874843171 4.1206145355 
Si 9.4852761267 14.9824669970 6.8274140111 
Si 10.8371343691 13.5938422243 8.1538893704 
Si 12.1957366715 14.9481765467 9.4936441081 
H 10.7726096785 4.1938279584 17.7201605638 
Si 14.8721836960 4.1010889875 12.1800272706 
Si 2.6003075638 13.0075162490 25.5424749689 
Si 13.9993817780 11.5878101560 25.1405251478 
H 9.2095352942 11.9844879496 23.2280606519 
Si 9.0236663925 8.9356841017 25.3624136170 
Si 12.1675223913 1.3656737915 12.1391361449 
Si 0.1381045036 2.7694140553 26.5222532514 
Si 7.9221040025 2.6445349142 23.4820360774 
Si 4.0408322770 9.5566100374 12.2134012151 
Si 4.1483299879 14.9542690068 17.6164995125 
Si 11.7285557573 0.0079503020 20.1753245925 
Si 10.8118034189 8.0894837540 13.6128839062 
Si 4.4475121307 3.9611415962 22.9991814968 
Si 13.5861696343 0.0520256993 2.7885817271 
Si 13.7793527460 2.5854999536 0.0171173821 
Si 14.9631633468 4.1630887281 1.2940052314 
Si 14.9543178768 1.4451266382 4.0810688974 
Si 13.5695049641 2.7676058653 5.4500148680 
Si 14.9135277164 4.1606452281 6.7719272690 
Si 13.5449722239 0.0280924311 8.1367782770 
Si 14.8964395062 1.4057439339 9.4636923822 
Si 13.5332597138 2.7420957251 10.8199439690 
Si 2.5974731038 2.7766793954 16.2542809804 
Si 4.5466204916 14.9785573970 22.9982455054 
Si 5.3932769593 8.2125709951 13.5819084397 
Si 10.7490054683 2.7753761954 13.3607804636 
Si 10.4920307160 11.2305867427 23.1790088509 
Si 3.8254947650 4.2128872585 17.6713135108 
Si 12.1144332808 3.9855440165 14.7967083211 
Si 14.2018827699 5.9656261146 25.6747130086 
Si 1.3175238090 12.2626071221 12.2602007868 
Si 10.0454403619 15.5434131522 23.1629214981 
H 13.9716724878 13.3994373625 26.4452387063 
Si 7.3811293875 10.1275582526 20.9589834200 
H 1.5382630851 0.9488729607 18.5794299492 
Si 4.6205770923 12.1715134413 27.7578204427 
Si 3.9818624764 6.8705844928 14.8942269285 
Si 14.9348513266 6.6761959211 15.0281907024 
Si 13.5871959043 5.4393613697 2.7146296290 
Si 13.4918342434 8.0309863634 29.2039272070 
Si 14.9329291066 6.8954756131 3.9929979535 
Si 13.5672895241 8.1702007047 5.4322310308 
Si 13.5426753339 5.4813081201 8.1512861442 
Si 14.8842382961 6.8474526926 9.5105504534 
Si 13.5374136638 8.1854644349 10.9010534766 
Si 2.6434109042 5.5016869103 13.5292881713 
H 13.3936381225 8.5681165384 25.3663915806 
Si 12.2150240317 9.3932539159 14.9623203053 
Si 2.7039445447 5.5028109203 26.3719681269 
Si 1.2671518706 15.0197059374 14.9529018915 
Si 1.6164355378 9.7460627391 27.7552757160 
Si 6.8406434726 9.6413343282 27.9013488790 
Si 1.4262400120 9.5797907076 20.3311379164 
Si 13.5313863638 10.8645504394 13.6464918486 
Si 10.9650271603 8.1510436645 19.0037850652 
Si 13.6747057851 10.6867613777 18.8525054498 
H 8.4662225874 13.2041854208 21.7155277456 
Si 1.3872775897 4.2264568287 27.8574450309 
H 5.8180550032 14.1463827394 23.0944478749 
Si 11.8846139587 3.9683580663 20.7130224212 
Si 4.3710142900 9.4636755866 25.0770239791 
Si 2.5876013637 0.0476203945 13.5315696504 
Si 14.6700247942 9.5505501573 1.3305322971 
Si 13.4303720728 10.8740149295 2.8103172032 
Si 14.8983291463 12.2341322019 4.0684622628 
Si 14.9122408064 9.5422585473 6.7826619207 
Si 13.5570594040 10.8791788595 8.1563170982 
Si 14.9223894765 12.2264759018 9.5023605283 
Si 2.8402103960 0.3344043811 26.4557101104 
Si 15.0677288578 9.4656629666 17.5079245063 
Si 1.3980746018 7.0184976942 25.0882851260 
Si 6.9552924936 12.3280766327 17.6875178625 
Si 5.6419763916 5.5643545409 21.7483166955 
H 11.2747489331 4.6637618827 15.8438779867 
Si 9.4731400766 9.5155592370 12.2667527268 
H 9.0140390024 2.3790404918 15.9067941609 
Si 13.6918754452 0.5548227441 19.0361060194 
Si 5.2210102077 2.8230570258 18.8552256749 
Si 5.3236534987 2.7475528751 13.5291419226 
Si 1.3763013876 6.8453512826 17.6816971658 
Si 11.6567168566 11.6491908765 21.2376456195 
Si 2.0143888384 1.8830425672 20.8430374812 
Si 15.5929673326 12.8147729672 22.2649839666 
Si 5.5900112911 8.1794208448 26.5489582570 
Si 12.1932117215 6.7875706521 12.2394627266 
H 9.0177205425 4.9817263956 17.7504047870 
Si 13.7278600556 13.4102050526 0.2385464842 
Si 14.9573803968 14.9822226470 1.4537848190 
Si 13.5685927241 13.6063692344 5.4421466900 
Si 14.9216401365 14.9808705770 6.7811409347 
Si 13.5339438938 13.5550394440 10.8374060591 
Si 3.9273887159 1.4076009939 14.8666151812 
H 1.3513467364 2.8269503359 19.8863957370 
Si 3.0020189675 13.6621299049 21.7536986462 
Si 1.3961703008 5.1375728270 21.1051150825 
Si 16.2484117786 0.0441424795 10.8105840546 
Si 6.7725675619 14.9600030868 14.8784320731 
Si 15.5323685321 13.2662829013 24.6353237718 
Si 5.5914448111 13.7033273153 19.0114777448 
Si 6.7392708016 9.5985893678 14.9323393297 
Si 12.0457383502 9.4132417461 28.0029916987 
Si 15.1251348183 15.5828675325 24.6584895597 
H 6.9179558133 2.8069462157 16.1770031877 
Si 15.2503560495 1.3026591839 27.9726012269 
Si 10.5295140063 5.4965066903 21.8782732561 

