&CONTROL
  dt          = 30.D0,
  prefix = 'aSiHcSi_merged-12',
  pseudo_dir = './',
  outdir = '/scratch/ztzhao/aSiHcSi_merged/aSiHcSi_merged-12',
  wf_collect=.true.,
  verbosity ="high",
/

&SYSTEM
  ibrav= 0, nat=  406, ntyp= 2,
  ecutwfc     = 42.D0,
  nbnd=1540,
  degauss     = 0.05D0,
  occupations = "smearing",
  smearing    = "methfessel-paxton",
/
&ELECTRONS
  electron_maxstep=200,
  conv_thr    = 1.D-8,
  mixing_beta = 0.3D0,
  scf_must_converge=.false.,
/
&IONS
/
ATOMIC_SPECIES
Si  28.08  Si.pbe-hgh.UPF
H  1.00784  H.pbe-hgh.UPF

K_POINTS {automatic}
1 1 1 0 0 0

CELL_PARAMETERS angstrom
16.29000014898320 0.00000000000000 0.00000000000000
0.00000000000000 16.29000014898320 0.00000000000000
0.00000000000000 0.00000000000000 29.10509337494521

ATOMIC_POSITIONS angstrom
Si 15.6998460236 0.4593454242 0.0826840777 
Si 0.1396991317 2.5755630536 2.7999565508 
Si 2.6293852140 16.2302647184 2.7068755517 
Si 2.5984342138 2.7149240048 28.9226044395 
Si 1.3288991162 1.2856817458 1.2151201853 
Si 4.0300645869 3.8777367955 1.3351554114 
Si 1.4251469530 3.9704106063 4.1450891883 
Si 4.0309931169 1.2200167552 4.1112399647 
Si 16.2746875488 16.1604457778 5.4389270092 
Si 2.7427636151 2.5984830838 5.4934117440 
Si 1.3466112333 1.2367254083 6.7929541632 
Si 4.1048356875 3.9616465862 6.8213025241 
Si 0.0218070974 2.5888882737 8.1733796368 
Si 2.7170579948 16.1972611781 8.1506194538 
Si 1.3760488926 3.9457638361 9.5364584749 
Si 4.0680691572 1.2587706655 9.5097399991 
Si 0.0378014340 16.1983363181 10.8966559086 
Si 2.7407762351 2.6125087739 10.9034956056 
Si 1.3762704366 1.2863252008 12.2738216119 
H 3.2265929095 6.8405294426 23.0384859221 
H 11.7350717573 11.1609307021 22.9756771306 
Si 4.2233780186 6.6605249409 14.9827781777 
Si 6.1954128567 1.8586727270 24.2289424513 
Si 0.3462390662 10.0809851422 20.4832042492 
Si 10.8440739092 8.0596893437 13.6144022127 
Si 0.0431869081 5.4080031195 16.6096073719 
H 7.4924552485 14.9342648866 23.5339419266 
Si 1.3731264666 9.4515884064 14.8572188049 
H 13.5781060842 14.7422220748 25.1667958751 
Si 9.5998925678 11.9684260095 27.2402136220 
Si 9.8849512804 6.4040714686 20.7258243076 
Si 7.9976896031 15.9480404659 20.8990578233 
Si 2.8276019359 15.8363073548 18.8915631129 
Si 16.0119135564 5.6113349013 0.2902406479 
Si 16.2698982888 8.0195344933 2.9290783871 
Si 2.7586463652 5.2930445884 2.7308872537 
Si 2.2835973809 8.3656969965 0.1769938938 
Si 1.3238573611 6.7253754315 1.5670968111 
Si 4.0878940874 6.6676762510 4.0987829847 
Si 0.0145238220 5.2805338683 5.4824391238 
Si 2.7339507250 7.9914505331 5.4912870721 
Si 1.3615002935 6.6451797608 6.8300049470 
Si 0.0085315781 8.0150547433 8.1652011056 
Si 2.7271577949 5.2949505184 8.1735542674 
Si 4.0871121674 6.6499201508 9.5155319127 
Si 0.0370191882 5.3115988986 10.9017493000 
Si 2.7318981850 7.9974615431 10.8752345599 
Si 1.1222555773 15.3465810804 22.5672453552 
H 4.6707177127 10.6178709671 22.8612359034 
Si 7.9473372127 13.9821469579 18.0734189381 
Si 5.0256279460 16.0787188471 23.6202967386 
Si 12.4314366837 1.3321098752 17.8667727752 
Si 14.9800560770 3.7812348346 17.6096001701 
Si 1.6241390789 7.8572698019 26.9875523065 
Si 11.3878178241 10.0089018915 19.8995598118 
Si 8.0458917136 7.8779581020 16.3276081222 
Si 3.7290253841 1.7153695957 27.0211104791 
Si 8.6328041290 13.9881742579 15.8697558983 
Si 3.2785091400 9.0845095431 25.9359561777 
Si 13.0756573196 11.6031390461 25.8229993103 
Si 5.2924744384 16.1497921177 27.3992438522 
Si 12.2693348922 14.7854231552 14.7617249936 
Si 2.7475202951 5.3329225088 13.7050645786 
Si 4.0727606772 9.4520119464 1.3558025647 
Si 0.5715476872 10.1862348332 0.3092881853 
Si 2.7927413355 10.7401274182 2.8658533927 
Si 1.3299807722 12.0082061898 1.5688431167 
Si 1.3902130477 9.3885949759 4.1830131249 
Si 4.0575946871 12.0481655602 4.3093001251 
Si 4.0962671475 9.3449051955 6.8411521978 
Si 16.2806171089 10.7725282285 5.4485025849 
Si 1.3433809263 12.1040402607 6.8306743642 
Si 1.3716294155 9.3563244856 9.5194611003 
Si 2.7192897249 10.7264112381 8.1589726156 
Si 4.0969676175 12.0835637305 9.4929463603 
Si 16.2565079087 10.6883903778 10.8456055749 
Si 1.4968930007 1.0356058085 17.5884407672 
H 8.1166228942 9.6372129581 21.8545780388 
Si 4.1077678876 9.3378516254 12.2147673774 
Si 1.7098798656 14.3925735116 20.4402160263 
Si 9.5337062972 1.2156852441 14.7783148968 
Si 1.4089221129 4.0438947970 15.1691671957 
Si 1.3450864893 12.1138794208 12.0638283632 
Si 2.6737754645 5.7593132627 26.8790194133 
Si 12.8278701273 8.3485924964 23.2595973164 
Si 1.7825169763 5.8806411838 20.4123333468 
Si 13.3812251424 10.9114982198 18.9097537963 
Si 8.2372503453 4.6777712828 23.2754886974 
Si 8.7780783503 6.9405500435 22.7371899954 
Si 14.9895205671 6.6554261709 15.0723636551 
Si 15.8292537848 9.4802588067 23.9300331423 
Si 16.2355426785 13.4928605134 2.7238816578 
Si 2.6865956946 13.3758820223 0.2937547969 
Si 4.0373625069 14.7363902548 1.6175534009 
Si 1.3362768572 14.8166510855 4.0754989100 
Si 2.6771312045 13.4905799134 5.5003678613 
Si 4.0795047373 14.8222548456 6.8261630747 
Si 0.0047350306 13.4640923731 8.1754460985 
Si 1.3668987995 14.8488727058 9.5036861397 
Si 2.7513321552 13.4879735134 10.8085256859 
Si 5.4055759094 13.5805984542 20.7112135507 
Si 9.6024175178 4.3389555697 25.1965994907 
Si 9.6096014079 3.9728703963 17.6166144976 
Si 6.7481325617 7.9680255129 23.4414750449 
Si 8.0484492436 5.5724180910 26.4690450680 
Si 15.9231493456 8.8737169412 26.2141717653 
Si 15.0057616972 1.1918822959 14.8827730769 
Si 8.1598076846 5.2793772783 13.5299392317 
Si 15.0924244980 11.8435631583 20.2386923598 
Si 7.5400872090 15.6987708836 26.7505786362 
Si 9.4610691865 6.6581303109 14.8840537010 
Si 5.7125935422 15.7978303745 21.3992579581 
Si 4.8121637840 13.8654942668 24.5746236453 
Si 5.8296697733 15.7079747337 0.4999556520 
Si 5.3649486491 2.5888882737 2.7754151361 
Si 8.2315651353 16.2430523686 2.8783860459 
Si 8.0699357538 2.5364996332 0.0176850697 
Si 6.8157197723 1.2550809805 1.5361406337 
Si 6.7789858220 3.9424080961 4.0992486662 
Si 5.4243094096 16.1720768379 5.4608431445 
Si 8.1487141945 2.6136490739 5.4739695416 
Si 6.7926368421 1.2344105993 6.8037230477 
Si 5.4516603199 2.5945734837 8.1624070166 
Si 8.1606058946 16.1636711978 8.1407819323 
Si 6.8018406922 3.9681625863 9.4909963190 
Si 5.4337250297 16.1675482179 10.8176937903 
Si 8.1856762049 2.6227877640 10.8094570489 
Si 11.5031510252 3.2347379096 18.7545072282 
Si 3.9469855861 4.0016874066 21.9338021030 
Si 4.0718973072 3.9780831964 12.2865405377 
Si 2.6579252943 10.7627216484 13.4035649163 
Si 15.0688202878 14.9008866763 17.6505801416 
Si 4.1003070675 14.8225317756 12.1996327289 
Si 13.7851682761 8.0510719336 26.9243651487 
H 3.1766803491 11.6331289364 19.6834835985 
Si 13.5951128443 7.6268966198 21.0298270079 
Si 12.1683694713 14.6108920936 27.8306977564 
Si 10.5360300064 8.0266206434 23.9255218528 
H 15.3363020903 8.2033671450 23.2579383261 
Si 4.4144108504 0.8294916946 19.9898729165 
Si 12.2846149124 6.6019786804 17.7358289601 
H 4.0170325867 7.8861682621 18.7301171600 
H 4.7967045739 10.3655225748 19.0827835764 
Si 13.2325137310 6.6469716608 24.9786314464 
Si 5.5421186907 5.2120181277 0.1681593338 
Si 5.3999395694 8.0432690236 2.7224991658 
Si 8.1900907949 5.2780414983 2.7780520575 
Si 8.1128273242 8.0607970637 0.1552564638 
Si 6.8191080924 6.6464178008 1.4878465523 
Si 5.4530612599 5.3209982287 5.4551385462 
Si 8.1878590649 8.0109659533 5.3929409616 
Si 6.8325799225 6.6762122111 6.7823308041 
Si 5.4649366700 7.9936171031 8.1693922390 
Si 8.1695328147 5.3329550888 8.1650264750 
Si 5.4222405796 5.2786930983 10.8623118985 
Si 8.1908727149 8.0309863634 10.8458675207 
Si 9.5440667373 3.9343445460 12.2017574007 
H 7.8349199217 13.0514829594 24.8563318441 
Si 12.5271078546 14.0880156688 21.1443264452 
Si 12.1359523710 9.7705466094 27.0848215285 
Si 6.9647895637 12.2846637824 21.8356306231 
Si 6.1225965560 3.6724827936 22.6917278396 
Si 11.5019781452 13.9178829073 19.0044908752 
Si 0.9408843446 4.1783524582 21.8080098894 
Si 6.8457748226 6.6188225405 12.1309738136 
Si 8.3835019667 15.5232787120 24.6078616619 
Si 2.0464312687 14.6709044542 27.5535590573 
Si 13.5297084937 10.7056577779 13.6249091514 
Si 6.9855918939 10.1093460325 20.9721407128 
H 1.5992349266 5.1811974474 24.4012154990 
Si 5.5117052604 10.8291522690 0.0690981111 
Si 8.2207974452 10.7405672482 2.7299500697 
Si 6.7240396515 12.1307395709 1.5860791530 
Si 6.8165668523 9.3763286058 4.0556783414 
Si 5.4960179903 10.6779647777 5.5135233635 
Si 6.8375972425 12.0891512006 6.8099515377 
Si 6.8208022524 9.3709529057 9.4937613029 
Si 8.1885921149 10.7185594580 8.1395595183 
Si 5.4457959198 10.7089483579 10.8447033170 
Si 3.2481934497 8.5634250183 15.9559651849 
Si 5.7079834722 2.3866805018 18.8708402864 
Si 6.8228710824 12.0637550903 12.1737000907 
Si 10.6256575872 14.8615300359 24.6894723438 
H 3.2149129794 8.9090662415 24.4388774898 
H 0.8706141710 6.5849230502 23.0723351457 
Si 13.6571451649 5.3124948486 21.1568125303 
Si 13.3022675117 4.7766027137 18.8731977990 
Si 9.5403526173 14.8145333855 12.1518712706 
Si 8.3892523367 5.1522989871 19.2606739071 
Si 6.1549810763 6.5649840900 25.2605724860 
Si 6.7568151318 1.3105956720 12.1059725384 
Si 6.9222726633 6.4815141293 17.9150872302 
Si 9.4896581368 12.7832843969 19.3038949707 
Si 10.9397613701 2.5995093538 13.5324713749 
Si 5.3678319791 13.4007405626 2.9879870961 
Si 7.5403804290 14.0335419083 0.5442477831 
Si 6.8258358624 14.8284939156 4.1531512991 
Si 8.1944728049 13.4427524729 5.4531593998 
Si 5.4538431799 13.4411560529 8.1417715054 
Si 6.8086499123 14.8019249254 9.4912291598 
Si 5.5195570405 7.9355921226 13.4997863550 
Si 8.1329454744 10.7327317582 13.5958913733 
Si 2.0261339285 10.4839834559 18.9361230109 
Si 13.3589567122 15.8228355247 26.2555301030 
Si 8.1756904348 13.4385333629 10.8285790952 
Si 12.2256288218 3.9721862163 14.9459602346 
Si 5.7777698328 13.2539676612 18.4446835092 
Si 9.8694432003 2.0879056091 25.8671808421 
Si 14.7042500845 9.4345001963 17.6814024355 
Si 7.6185561397 9.7550711092 18.7591058330 
Si 11.9711627295 1.2906290188 21.9561839198 
Si 4.2393747988 14.2003515099 26.7813427199 
H 6.6215103906 12.5976761352 27.1008584350 
H 11.4137352144 4.4693244409 28.0566988065 
H 0.0255065564 6.5778369002 25.0995340043 
Si 0.0242357735 7.9830448930 13.6314869025 
Si 0.8538680508 13.6965506753 24.2207057099 
Si 9.4591958365 3.9542020562 1.3083001418 
Si 10.7869448787 16.1144916874 29.0284887692 
Si 10.8599566593 2.6184872039 2.6718417508 
Si 12.1660400013 1.1741017607 1.3431855067 
Si 9.5849383477 1.3101802770 4.1650843874 
Si 12.1906216115 3.9039311157 4.1218633238 
Si 9.5132949270 3.9702314163 6.8170822856 
Si 10.9038419197 16.1616186578 5.4616871922 
Si 12.2660117322 1.2275590252 6.8085544932 
Si 9.5292754172 1.2402342743 9.4710302250 
Si 10.9015287397 2.6080290239 8.1447402250 
Si 12.2497868920 3.9687327363 9.5221678740 
Si 10.8957457896 16.1774851180 10.8129787652 
Si 3.2702663999 12.6848276360 20.9506902590 
Si 10.9102601798 5.3287848487 10.8985477397 
Si 13.6738749951 3.4682387717 27.5237263366 
Si 5.4950731703 8.3718383266 21.4577300907 
Si 1.1454329895 4.3733763400 27.9556750274 
Si 10.2681246639 8.5587172083 26.2159180709 
Si 9.1008972832 0.9406970096 27.7576148670 
Si 6.6415308007 12.4456904338 24.1145303292 
Si 13.9181272573 12.4605306240 22.1296211712 
Si 5.4611736799 2.6086480439 13.5852098041 
Si 14.9541549768 14.7989601453 12.1830428256 
Si 11.6020476161 7.7108064105 19.7217567963 
Si 7.8139872715 13.4603456731 27.4618198030 
Si 13.6157196945 16.2035491182 13.4895413621 
Si 8.4886050476 10.1103723025 26.3096073665 
H 9.1451083436 8.6228835189 17.0368992478 
Si 0.0164186912 1.8504625669 25.4574393375 
Si 5.2427084879 8.0923996640 26.8029095941 
Si 10.7431573583 5.4020572694 29.0437107330 
Si 10.9659394003 8.0051667132 2.6073012062 
Si 12.3209253227 6.5639252400 1.2683242960 
Si 9.5872678177 6.6805616411 4.0338495214 
Si 10.8714248194 5.3096603886 5.4491137918 
Si 12.2385956619 6.6524125208 6.8056730890 
Si 9.5507456373 6.6655096810 9.5181804762 
Si 10.8817363895 8.0095975933 8.1398214642 
Si 12.1259340209 9.4126064361 15.0555118061 
Si 10.3809654949 15.6083288027 15.8607333194 
Si 10.7917667187 15.9829662262 18.0897468955 
Si 6.7952106621 9.2971103350 14.8995085056 
Si 5.4644153900 13.4158902627 13.5015326606 
Si 11.7874766878 4.7355682033 24.3033350699 
Si 2.9837415873 1.9202489276 21.4089208491 
Si 10.8713922394 10.9800465404 16.3603222472 
Si 0.7552793409 6.8028506722 18.5265270318 
Si 2.3056051711 2.0007541083 25.0374237350 
Si 4.0462405570 12.1683043113 27.9674043800 
Si 2.8547247861 12.5439354247 24.5048878416 
Si 8.5036732978 16.1791141180 18.6563939584 
Si 11.6668166567 0.7207494276 25.2227358646 
Si 12.2514973420 6.6850902611 12.2937294957 
Si 2.5034960929 8.3490811964 18.1034553945 
Si 12.6307937055 2.4021397120 23.9143746021 
Si 9.6010654478 9.4403157263 1.3017951534 
Si 10.8963485197 10.7732124085 28.8997569412 
Si 12.2764047523 12.0415192401 1.2424120314 
Si 12.2663701122 9.3510465255 4.0251470985 
Si 9.5555674774 12.0954554306 4.0819020306 
Si 9.5344719272 9.3632151556 6.7661483722 
Si 10.9032554797 10.7044360279 5.4007411267 
Si 12.2303040519 12.0615070703 6.7813412309 
Si 12.2410065820 9.3444164955 9.5053451300 
Si 9.5372086472 12.0823094005 9.4840110966 
Si 10.8685577794 10.7010639979 10.8314022893 
Si 9.5074631070 9.3931887559 12.2325505895 
H 4.0302437769 8.7286381998 21.6154214866 
Si 4.1789551882 14.6321505438 17.4156729330 
Si 15.2751820097 5.5225544005 24.8513257680 
Si 12.2836700923 12.0234047600 12.1283252501 
Si 2.7266039349 13.3317035419 16.1551895491 
Si 0.6858464733 2.0786365990 20.8732707106 
Si 12.3773375932 12.4020169434 17.4630851301 
Si 1.9892370782 7.2807666966 22.3118190558 
Si 10.8534569493 5.4022038794 16.2684956776 
Si 1.4219492260 14.7332299947 14.8068960985 
H 8.1711781047 14.4367682820 21.0056115702 
Si 10.6191904571 10.7272420281 22.0634652940 
Si 16.0231699465 2.0141607784 18.7658000044 
H 14.7256714347 13.4258271628 22.9449712570 
Si 9.5152985970 14.8801495061 1.4654880196 
Si 10.9072791098 13.3979875525 2.6638320291 
Si 12.2051034216 14.7539508749 4.0960762110 
Si 9.5305786172 14.8114382855 6.8020640574 
Si 10.8897510696 13.4389243229 8.1319630890 
Si 12.2441016820 14.7967284153 9.4827886827 
Si 9.7222956289 10.6569669675 18.3924980768 
Si 10.6286549472 14.3485579312 22.4516399243 
Si 5.3076078485 7.0134152141 19.5540532483 
Si 6.8366035525 3.9561894362 14.9385675409 
Si 15.6576223432 0.5561748141 22.1404191609 
Si 10.9424003501 13.3943385925 13.4166331032 
Si 1.2381263483 12.1296644309 17.5208005302 
Si 13.7623459859 13.6338830447 16.1530939823 
Si 0.1313975847 16.0948948172 16.1641830229 
Si 0.0272137484 13.4635059331 19.0389513058 
Si 15.1645891987 4.4229468105 22.7749101965 
Si 4.1308996878 6.7861534221 28.3627679684 
Si 13.5128646336 16.1176193674 2.7387892866 
Si 14.0363274984 2.1847333700 0.3190500336 
Si 14.9919640671 3.9244402259 1.5864284141 
Si 14.9440714667 1.2077943680 4.0385063363 
Si 13.6093991745 2.5668316135 5.4305738474 
Si 14.9436153467 3.9240981359 6.8167912346 
Si 13.6144327845 16.1566827878 8.1555673197 
Si 14.9652484669 1.2300937493 9.5192573647 
Si 13.6403664648 2.6282286240 10.8602454368 
Si 16.2081917682 10.6811576177 16.2840669025 
Si 14.2707731805 0.4178873738 18.9143232959 
Si 4.0921294874 1.2859179508 14.9610075679 
Si 9.2726264648 12.6136566254 21.6223193937 
Si 4.9492767153 10.2490327837 15.9628048819 
Si 7.0020285040 1.1513315985 17.4209409549 
Si 11.4835378650 5.0927753266 21.9677677470 
Si 3.9077755557 5.1292486369 19.8491206849 
Si 10.9843796805 3.0763013681 20.9592180514 
Si 2.5328832532 11.2302446527 26.4523096393 
Si 5.7288183824 10.9190567799 18.0439354785 
Si 1.4017186748 6.6491708108 12.2756261277 
Si 13.5312560438 5.2602039481 2.8111591013 
Si 14.2135789900 7.3031817368 0.0186197506 
Si 14.9011961863 6.6151247105 4.1693628361 
Si 13.5737403641 8.0278749734 5.4625021348 
Si 13.6067439044 5.3115826086 8.1636876407 
Si 14.9574618468 6.6609159009 9.5407078185 
Si 13.5947055943 8.0152013533 10.8985477397 
Si 14.9813104070 3.9644321763 12.2754223920 
H 10.0072077315 9.5512669174 23.0029777081 
Si 6.8883405930 10.1348561727 24.5783782023 
Si 2.8325378059 0.5309644099 23.2887606200 
Si 1.4346423941 9.5799047376 22.4848779410 
Si 13.6654041950 16.1653490678 21.0960702004 
Si 15.7214465638 3.8377611351 26.4402019204 
Si 2.7678013453 16.1968539281 13.5694348435 
Si 2.7986708956 2.6220547140 16.4490636769 
Si 12.2627700222 1.2586403455 12.1493391275 
Si 8.1301110144 16.2520281586 13.3797278448 
Si 6.8457422426 9.4144309161 27.8771494855 
Si 5.4884757202 16.1401973076 16.1669480068 
Si 14.9625280368 12.0828795505 14.8715967210 
Si 0.0650971212 14.2783480306 26.3567867228 
Si 3.2256969595 11.1341499418 22.7070662238 
Si 15.0122125373 9.1662364738 1.3275909977 
Si 13.6148563245 10.6411330873 2.5913603466 
Si 14.9021084263 12.0520262902 4.0139998477 
Si 14.9515485767 9.3782019558 6.7991535480 
Si 13.5780572142 10.7164743380 8.1466320560 
Si 14.9404876666 12.0705968904 9.4837200457 
Si 5.5444155807 5.2728124082 16.4146032463 
Si 4.0497591970 12.0306375200 14.7607354204 
H 13.3553729121 4.8679896145 27.9527354130 
H 7.9688237229 2.1909561500 20.7185189291 
H 1.9809617581 16.1412398676 27.9680737972 
Si 9.5557140874 12.1327432410 14.8244464698 
Si 14.9365129066 9.3558520756 12.2891308910 
Si 6.8147097923 14.8788300161 14.7228114837 
Si 8.3015958459 2.6101630139 16.1916873362 
Si 15.4653840514 8.2563585155 19.5707886770 
Si 8.9580502719 2.8089987557 21.9749567050 
Si 13.7315090156 10.6216013771 23.7061858692 
Si 15.5353658921 0.1215514199 26.8417648937 
Si 4.2650152590 3.8838129655 17.8274226889 
Si 14.8901352762 12.5507935148 27.1375017475 
Si 4.3146671795 4.9872812856 25.3137765966 
Si 13.7179068655 13.3938498925 29.0607372126 
Si 14.9139349664 14.8753602460 1.3167493504 
Si 13.5855343242 13.4041777526 5.4232393638 
Si 14.9372133766 14.7816764552 6.7835823231 
Si 13.6087149945 13.4409605729 10.8249991688 
Si 13.5877008943 2.5127976830 16.1795796173 
Si 0.0828160802 2.6825720645 13.6889112518 
Si 0.2627348964 10.8888225396 27.2264760180 
Si 8.5534881182 1.4652561914 23.9976151691 
H 16.2748178688 12.5611050849 23.7609325498 
Si 0.0253130312 13.4058556226 13.4854957542 
Si 2.5460455733 4.1258497877 23.8691743921 
Si 9.8239778098 0.3036309418 22.2011323857 
Si 7.0015398040 3.5549341525 20.4566604040 
Si 5.3889275293 3.0760570181 26.1491800918 
Si 6.8519813127 3.9956926865 27.7361353081 
Si 13.5217752637 7.9987973232 16.3211176864 
Si 14.9381907766 2.1989871201 23.6121182074 
H 12.3633444831 3.0453829479 26.9100163377 
Si 9.4483955664 6.9072044132 27.7603216406 
Si 13.6365057347 5.3260969987 13.6459521339 
Si 11.3000635933 13.1607725704 26.1671670395 
H 5.6369264916 10.0358129718 25.4168377323 

