&CONTROL
  dt          = 30.D0,
  prefix = 'aSiHcSi_merged-4',
  pseudo_dir = './',
  outdir='/scratch/ztzhao/aSiHcSi_merged/aSiHcSi_merged-4/',
  wf_collect=.true.,
  verbosity ="high",
/

&SYSTEM
  ibrav= 0, nat=  406, ntyp= 2,
  ecutwfc     = 42.D0,
  nbnd=1540,
  degauss     = 0.05D0,
  occupations = "smearing",
  smearing    = "methfessel-paxton",
/
&ELECTRONS
  electron_maxstep=200,
  conv_thr    = 1.D-8,
  mixing_beta = 0.3D0,
  scf_must_converge=.false.,
/
&IONS
/
ATOMIC_SPECIES
Si  28.08  Si.pbe-hgh.UPF
H  1.00784  H.pbe-hgh.UPF

K_POINTS {automatic}
1 1 1 0 0 0

CELL_PARAMETERS angstrom
16.29000014898320 0.00000000000000 0.00000000000000
0.00000000000000 16.29000014898320 0.00000000000000
0.00000000000000 0.00000000000000 29.06537292656838

ATOMIC_POSITIONS angstrom
Si 16.2159620983 0.0486859234 0.0692741192 
Si 16.1966747381 2.7510878052 2.7746037519 
Si 2.6276747640 0.0569630354 2.7685930327 
Si 2.6631380944 2.7873656355 0.1040182847 
Si 1.2766212477 1.4169742600 1.4171258551 
Si 3.9696286863 4.1449579579 1.4956895581 
Si 1.2400371653 4.0753344973 4.1810248301 
Si 3.9912129365 1.4021210378 4.1152498912 
Si 16.2159132283 0.0275485080 5.4713820612 
Si 2.6334414241 2.7278256849 5.4858566169 
Si 1.2768737427 1.3757719626 6.8300719840 
Si 3.9950736665 4.0932860774 6.8132431331 
Si 16.2060251982 2.7393264251 8.1662071774 
Si 2.6338649641 0.0203308976 8.1712645523 
Si 1.2705418196 4.0970001975 9.5075450726 
Si 3.9931514465 1.3824915876 9.5133872126 
Si 16.1927162681 0.0225212510 10.8550738923 
Si 2.6243516040 2.7392449751 10.8533299699 
Si 3.4500754216 3.6513546634 25.1945337563 
Si 13.4757885932 10.9370898100 18.9613482707 
Si 1.2892134178 9.4932582268 14.9204185381 
Si 16.0839968071 0.0058521988 16.1678171480 
Si 10.6451892974 5.2190716977 21.6113545819 
H 7.9514260027 0.2643231714 23.0972345767 
Si 6.5421780898 4.1242533677 20.2790269524 
H 4.8129131240 12.7930746870 14.4682485315 
Si 12.1150197208 9.5288518771 14.8964396055 
Si 2.6237000040 16.2614600687 18.7159783925 
Si 0.4147320008 10.5639184866 23.8157887262 
Si 13.3610744122 13.6821340251 21.6762284943 
H 12.3908582933 4.0362873669 23.7688190835 
Si 7.9141381924 5.6326096415 26.4701548433 
H 1.2028584980 6.8755692329 21.5506370179 
Si 8.1394614744 10.8807264095 19.0310761004 
Si 16.2692792688 5.4754763001 0.1887830850 
Si 16.2640501787 8.2018684650 2.7980391621 
Si 2.6128182839 5.4312163697 2.8906792252 
Si 3.1888326892 7.6717918602 0.2771511196 
Si 1.3619401235 6.8230828524 1.4989942910 
Si 4.0145890867 6.8311789825 4.1514072151 
Si 16.1899143881 5.4669892100 5.4899838999 
Si 2.6445186242 8.1827440048 5.4841417599 
Si 1.2759484707 6.8202158124 6.8148707940 
Si 16.1915108081 8.1731003247 8.1446988015 
Si 2.6252801340 5.4417397098 8.1456288934 
Si 3.9953180165 6.7908286521 9.4711261604 
Si 16.1905334081 5.4469687998 10.8483888565 
Si 2.5994604838 8.1192292943 10.7886595151 
Si 9.4142354361 12.2498194720 14.9163493859 
H 4.6303185123 7.1829778257 26.6768096448 
Si 1.2501255624 6.7411441517 17.6563420917 
Si 9.5879682877 9.6338735081 22.9689400206 
Si 3.8672623254 4.0228155368 22.9340615731 
Si 14.5166055728 7.0293794143 20.2547864313 
Si 14.8658957560 14.9352748666 17.6367810957 
Si 2.7160480148 0.1338658455 26.5028533879 
Si 7.9959954431 8.1566800046 16.2012423269 
Si 10.7009499679 13.7497212358 26.4378341486 
Si 5.2909268884 9.8032243497 21.8118475244 
Si 13.5678270941 2.7459075851 23.8399420511 
H 4.4457528107 11.7376781573 15.8071740007 
Si 7.3044034868 6.3649754682 22.8997353677 
Si 1.2492377574 4.0890506774 14.8849006524 
Si 8.0159018233 10.8324265591 26.4247256654 
Si 10.9465705901 16.0827424771 23.8080282716 
Si 4.0400340669 9.5154126270 1.4659905601 
Si 16.2135023083 10.9181608299 0.1096383652 
Si 2.6299064941 10.8851409996 2.7517031445 
Si 1.3088347230 12.2867489024 1.4017124878 
Si 1.2977835869 9.5580109774 4.1504480578 
Si 3.9977452266 12.2449813420 4.0967352486 
Si 3.9989181066 9.5407272873 6.8199862996 
Si 16.2005354682 10.9061225197 5.4672257129 
Si 1.2771767367 12.2584694621 6.8046979134 
Si 1.2584497525 9.5281351171 9.4829848325 
Si 2.6266810740 10.8924552096 8.1516744910 
Si 3.9917830865 12.2448836020 9.4918207059 
Si 16.1767683579 10.8657233194 10.8328098166 
Si 9.4129159461 6.7946079321 27.8414882034 
Si 16.1802055480 13.5826835742 13.5170260717 
Si 12.1206071909 4.1120032876 14.9195465769 
Si 14.8206095555 14.9585695668 12.1931564657 
Si 14.9223080265 9.6743541585 25.0665589193 
Si 4.2627020790 12.8611180176 22.4221331597 
Si 3.9585840662 6.8254286124 14.9062927669 
Si 1.1841738678 14.9936093571 14.8547889261 
Si 8.0457288136 13.5870818743 16.2818987368 
Si 16.1352125676 8.1882174449 26.4273124836 
Si 4.0068350466 9.4534943365 17.7336269183 
Si 13.4542206330 2.7522769752 16.2929435785 
Si 14.2877962307 14.5776930733 25.2758877351 
Si 2.7179865249 5.4105117795 18.9460308192 
Si 13.8055144863 2.9833506273 21.5123869871 
Si 12.0869031805 15.0516506277 20.3115220393 
Si 13.5026996735 11.0727040613 26.3204391074 
Si 16.2147077683 13.6184401245 2.7521100598 
Si 2.6145613139 13.6802443851 0.0208460052 
Si 3.9739455363 14.9855620971 1.4197126733 
Si 1.2778413687 14.9732305669 4.1091752282 
Si 2.6373347341 13.6057176344 5.4458626638 
Si 3.9845829064 14.9631307668 6.8067906203 
Si 16.2044450682 13.6035184844 8.1567609312 
Si 1.2666908636 14.9579994168 9.5114979634 
Si 2.6258991540 13.5849478842 10.8392332640 
Si 14.9141793164 14.7429551248 23.0504974570 
Si 6.6926651112 6.8097087623 12.2044338304 
Si 10.8003026788 13.5896068243 19.0000052167 
Si 5.3435435889 2.7405155951 13.5087424405 
Si 1.8608718770 14.3863181516 19.9383807817 
Si 6.7174910714 4.0641432672 14.8598172356 
Si 8.9107115315 9.0778795130 25.1181790216 
Si 12.1301368409 6.8088942623 17.5513870301 
Si 16.1814924580 2.7323054350 13.5420804232 
Si 16.1892790781 5.4175816395 16.2677439001 
Si 10.7679996085 8.1675943047 13.5471087327 
Si 10.7534200583 16.2670801188 16.3098014948 
H 3.7757776845 6.0654186555 27.0203332875 
Si 4.0280283368 12.3428353729 27.7862930602 
Si 14.7472068149 12.2766653923 20.4159248588 
Si 5.3917294093 0.0305419584 0.1250087157 
Si 5.3639060891 2.7706846753 2.7871803387 
Si 8.0690723838 0.0160355829 2.8107436366 
Si 8.1403411344 2.6913849546 0.1933716354 
Si 6.7226875815 1.3813040466 1.4796222200 
Si 6.7188105614 4.1185518677 4.1313230424 
Si 5.3396014088 0.0374894805 5.4653945944 
Si 8.0707502538 2.7496542851 5.4681558048 
Si 6.7053061513 1.3912116247 6.8074881893 
Si 5.3500107189 2.7401246351 8.1644632551 
Si 8.0595427337 0.0294404286 8.1483901038 
Si 6.7074564313 4.1009423775 9.5069928306 
Si 0.0456056473 5.4353377397 23.6094245784 
Si 8.0648206938 2.7398965751 10.8458311037 
Si 13.3966680625 5.4261827596 18.9505940827 
Si 5.3046593585 8.1637661547 13.5316459543 
Si 6.6927628512 1.3459742943 17.6384959527 
Si 10.7812270886 2.7424378151 13.5708551424 
Si 4.0390566669 15.1093986782 25.1114358551 
Si 12.1223828009 12.2422283320 12.1973709448 
Si 13.5336506738 0.0235152668 18.9969824179 
Si 2.6204745840 8.1381094044 16.3330247277 
Si 14.8249915656 12.2379440619 14.8728385226 
H 9.5504361273 6.4438190689 24.4115126097 
Si 14.8469993558 9.5161619670 12.2147811031 
H 11.9383383792 14.9385817366 23.7303365298 
Si 14.8624911459 6.7966767622 14.9029211836 
Si 14.9680177669 1.3089731880 20.3628224225 
Si 5.4052989794 8.3507101964 26.1122438411 
Si 4.9541148453 5.9099306041 0.3089067835 
Si 5.4041749694 8.2364195553 2.8687871863 
Si 8.0714833038 5.4692209400 2.7782718019 
Si 8.0236069934 8.2043934150 0.0441325716 
Si 6.7182892814 6.8859459630 1.4914983313 
Si 5.3622770890 5.4627538100 5.4879493238 
Si 8.0838962839 8.1832327048 5.4855368978 
Si 6.7192666815 6.8241417024 6.8223405948 
Si 5.3539854790 8.1772379848 8.1570515850 
Si 8.0686488438 5.4620044700 8.1687358649 
Si 11.7513128875 8.9753828321 22.2428870049 
Si 8.0348470935 2.7272555349 16.2700109992 
Si 8.0551444337 8.1694676547 10.8607997707 
Si 13.4848295433 8.1603941246 16.2170248244 
Si 1.7690125662 15.2907226698 22.0357090267 
Si 3.2753325900 0.8043024674 22.1354323212 
Si 3.8505813652 9.7347900590 25.0170315239 
Si 6.8952638431 9.3358316654 20.2526355937 
Si 12.0719000904 3.9775130464 20.2532459666 
Si 6.7491262517 12.2226151718 17.7083109785 
Si 6.7020155713 15.0337642075 27.7364750110 
Si 1.2443654184 12.2236577318 12.1638876351 
Si 5.3989132994 8.0531570537 18.9853853341 
Si 1.1964695599 1.3050065729 17.4511114935 
Si 7.2496365063 7.3840941675 25.0185719886 
Si 4.0063463466 4.1051451975 17.4961628215 
Si 9.9552263410 11.7694273676 20.2386260840 
Si 5.3167302486 10.9156358798 0.0793691045 
Si 8.0621002637 10.9209464199 2.7452041272 
Si 6.7126040714 12.2833117123 1.3818346793 
Si 6.7547300118 9.5909819377 4.1757058669 
Si 5.3459545089 10.9161734498 5.4816130725 
Si 6.7123271414 12.2594794421 6.8210326530 
Si 6.7113823214 9.5296826672 9.5043478816 
Si 8.0656189038 10.8894415596 8.1577200886 
Si 5.3393244788 10.8799281995 10.8401633559 
Si 14.7624379650 1.4167624900 14.8747568373 
Si 3.5374549824 12.6955627461 20.1838959868 
H 3.5863249828 11.6033182361 14.1150461197 
Si 6.3098012377 15.1319114584 20.2022362371 
Si 6.7444510217 12.2361521619 12.1568828803 
Si 5.1738832373 11.1280574818 23.6899356614 
H 5.0594296963 8.4050536369 22.3636826948 
Si 12.3548411030 6.9680964337 25.1063494149 
Si 2.6082570839 10.8856459896 19.0011968970 
Si 9.4123457961 9.5269459471 12.2058870990 
Si 8.0556657137 5.4268506496 18.9801245016 
Si 11.8435794483 9.8171848798 27.3814996114 
Si 10.7326014382 5.4650832800 16.2389691809 
Si 5.3418331389 13.6136345745 2.7487268504 
Si 8.0533851137 13.6409691948 29.0614491012 
Si 6.6886740612 14.9558165568 4.1278642630 
Si 8.0638595837 13.6027202744 5.4583898395 
Si 5.3474531889 13.6126897545 8.1556855124 
Si 6.7044102013 14.9662584469 9.5005112524 
Si 5.0847117765 16.1815576180 23.2921760329 
Si 2.5991509738 13.8897826570 23.7224016830 
Si 12.0878480006 1.4076449769 25.0744356354 
Si 8.0618559137 5.4441180498 13.5308611893 
Si 9.4440624264 14.9565658968 12.1850181613 
Si 8.0850365839 13.6121684745 10.8241774008 
Si 9.2647421047 1.4484921522 20.3634618607 
Si 16.2474506686 2.6407719242 18.9119371368 
H 7.0491717645 3.8497668652 28.7145248100 
Si 3.9800542864 14.9406342766 12.2043175689 
Si 2.6163206339 0.0207941852 13.5428651883 
Si 3.4144654812 1.7709510762 20.0215368136 
Si 14.8115686055 9.5120405970 17.5939968668 
Si 14.9469873767 6.7669800919 27.8463130553 
Si 5.3426802189 5.4563844199 10.8461508228 
Si 2.4476539724 13.6478924448 16.2698656724 
Si 4.0747154773 1.4245882060 27.8927304558 
Si 2.0850874391 8.7951828504 23.7723650590 
Si 9.4615253065 4.1172975377 1.4600786632 
Si 10.7572970784 0.0965793384 0.1909786833 
Si 10.8065417488 2.7640709353 2.8111505518 
Si 12.1794140914 1.4451005742 1.4481211688 
Si 9.4359174263 1.3895565607 4.1292012702 
Si 12.1511346511 4.1126548876 4.1627717759 
Si 9.4231949362 4.1112702376 6.8143766826 
Si 10.7873032587 0.0276319128 5.4679232818 
Si 12.1379071710 1.3839283657 6.8184458348 
Si 9.4157992761 1.3860265177 9.4926636017 
Si 10.7772849086 2.7466895051 8.1552785972 
Si 12.1280354309 4.1016591375 9.5078066610 
Si 10.7780342486 0.0284547207 10.8304264560 
Si 12.1496848411 12.2865045524 17.5706864377 
H 12.8273325573 8.8594143210 28.2600586389 
Si 13.6083403245 5.4855272302 26.4254232344 
Si 2.2505938406 7.9811715430 21.5529041170 
Si 5.2400206379 13.5909263143 18.8527600375 
Si 2.5537670334 5.4660769700 26.3460747663 
Si 8.1377347344 0.0686230917 13.5246121341 
Si 1.3193873851 1.8016740165 23.0989784991 
Si 9.3731520557 14.9159875064 17.6857271837 
Si 5.3459870889 0.0166812860 10.8589395869 
Si 2.6169070739 5.4532567399 13.5517591924 
Si 7.1633809555 2.0899418591 25.4222900186 
Si 16.1515188577 10.8463545092 16.2067938131 
Si 12.1313423009 4.1371876278 27.6940686319 
H 2.1902231000 8.7548976801 28.3174046197 
Si 10.8036909988 5.4399315198 0.0670535247 
Si 10.7529150683 8.2068857851 2.7496249704 
Si 12.1106865808 6.7959925822 1.4597356918 
Si 9.4252800562 6.8396172026 4.1150754989 
Si 10.7759817086 5.4804936201 5.4735619642 
Si 12.1413443610 6.8300875525 6.8136209829 
Si 9.4237162162 6.8172347423 9.5178051493 
Si 10.7862932786 8.1761954248 8.1733572592 
Si 10.7769265286 5.4529472299 10.8621658433 
Si 13.4903029834 8.1666169047 10.8625727585 
Si 5.3587258690 5.4818294001 21.7889440105 
Si 16.0832637571 0.2723932375 22.1727522600 
H 12.4883702342 10.9879960605 22.8768899845 
H 11.4787160250 7.5048356486 21.8796861048 
H 14.9494471667 9.4573713565 21.7764749655 
Si 5.2408025579 2.9123099366 26.5077945013 
Si 12.1342582110 1.3373748032 17.6297763408 
Si 10.7679670285 10.8851572896 10.8536206236 
Si 8.8152358406 3.7839715546 25.2600180415 
Si 1.2640681736 6.7959925822 12.1883897445 
H 13.5152266836 8.1778081348 20.3573581324 
Si 5.2636248481 2.7350584450 18.9074901347 
Si 6.7520095818 12.2129063317 25.0280763656 
Si 1.5435605931 4.0037236566 22.3383667550 
Si 1.2613233085 1.3808756196 12.1965861797 
Si 9.4010731160 9.5610083374 1.3771289954 
Si 10.7471321183 10.9462773701 0.0352690861 
Si 12.1445046211 12.2653112622 1.3911908228 
Si 12.1298599109 9.5398964972 4.1031005653 
Si 9.4271534062 12.2550485621 4.1044085071 
Si 9.4388822063 9.5376484772 6.8254215243 
Si 10.7766170186 10.8927972996 5.4568203094 
Si 12.1395361710 12.2514321820 6.7927520452 
Si 12.1398293910 9.5337225872 9.5169622535 
Si 9.4350051863 12.2461542220 9.4885072534 
Si 14.8848573161 1.3927950127 27.7630988926 
Si 8.2950472659 8.1120291142 21.6456517220 
Si 5.4792718701 13.6727021150 13.4839496773 
Si 1.7925679064 1.9267160576 25.3352973574 
H 4.4586707808 2.6527287843 22.5614434922 
Si 9.2697594248 14.9991479572 25.0096198538 
Si 13.4694354932 10.8765724595 13.5390576244 
Si 3.9806733064 6.8097250523 20.3964219936 
H 3.1159349385 12.7690795168 15.2869910215 
H 5.2289923078 16.2040541082 20.3328850884 
Si 5.3987666894 13.6434615648 26.3604039952 
Si 13.5076192535 13.6179514245 16.2321969490 
Si 10.7666149585 10.8891809196 16.2591114844 
Si 1.2638954996 12.4136154235 24.9674750630 
Si 12.1137816808 14.9591397168 14.9121058415 
Si 8.0655374538 0.1597524477 26.4497509515 
Si 2.6061068038 2.7218472549 16.2130138029 
H 3.9261832559 10.0362202218 21.1669740953 
Si 9.3413865554 9.5162271270 17.5351394866 
H 11.8956097088 1.5716559564 21.7067471359 
H 16.0077270264 13.6897903252 22.9971043670 
Si 1.1577645196 9.7238105989 27.6050413946 
Si 9.3908918659 14.9540409468 1.4256856074 
Si 10.7808361286 13.6076561445 2.7529674883 
Si 12.1356591510 14.9711454469 4.1007172047 
Si 9.4191224361 14.9622999768 6.8035934293 
Si 10.7835565586 13.6045936244 8.1404261917 
Si 12.1355939910 14.9590093968 9.4919660327 
Si 9.4460335164 1.3896705907 14.9465483084 
Si 14.8596566859 12.2572640021 27.8259091635 
Si 13.4450819430 0.0242478281 13.5358313680 
Si 13.5740010041 8.3862061067 23.6727870914 
H 14.7222179546 4.2197616386 21.5746740813 
Si 9.4251986062 4.0852713974 12.2021086005 
Si 16.1237769875 13.6287516946 26.4054843886 
Si 13.4131861227 0.0888834536 26.4797173510 
Si 5.3601105190 5.4371296397 16.1627597731 
Si 2.6079638639 11.1181042917 26.4082165336 
Si 10.9456257701 0.3918266316 21.5659254041 
H 3.9314286360 6.6426873908 23.7252210241 
Si 10.6926746478 2.8046167457 26.3639790360 
Si 14.8449956858 4.0793744173 17.6587835830 
Si 9.4026206660 12.2574920621 27.7138912162 
Si 13.5096555036 0.0407825041 2.7707206180 
Si 13.4906450734 2.7706195153 0.0049664584 
Si 14.8303835556 4.0998509475 1.4226744348 
Si 14.8603571559 1.3857609907 4.1287362242 
Si 13.5045078635 2.7379580650 5.4839964330 
Si 14.8445232758 4.1029460475 6.8337051556 
Si 13.4973076834 0.0266730833 8.1569353235 
Si 14.8442952158 1.3848552667 9.5087367529 
Si 13.4805289833 2.7395544851 10.8514988514 
Si 12.1337695110 6.8085684623 12.2103631665 
Si 3.9663706863 9.4558563865 12.1100004337 
Si 1.7726615262 3.5664674726 20.0633328199 
Si 6.8979028231 1.3339490162 23.2557861860 
Si 3.9780506164 4.1081099776 12.1910346935 
H 10.1115126025 6.0425800753 24.7762539745 
Si 10.6637436075 8.1069792141 26.3270950778 
Si 6.1019734158 4.7627236336 27.6596261650 
Si 6.1649505564 14.2973258808 22.3610377458 
Si 15.9142875855 10.6315382772 21.6221959660 
Si 15.0162524573 4.1246931977 25.0863524383 
Si 1.1898493039 12.1596869012 17.5942003244 
Si 8.0089948632 16.2716738988 19.0512765346 
Si 13.4919482734 5.4527843299 2.7940949910 
Si 13.6772470251 8.0033585232 0.2589933998 
Si 14.8707990460 6.8238647724 4.1074022405 
Si 13.4921600434 8.1770587948 5.4437699569 
Si 13.4820765333 5.4623139800 8.1656840007 
Si 14.8441486058 6.8176257024 9.5054233004 
Si 10.7730983785 13.5953734843 13.5571944171 
Si 14.8327618957 4.0959576375 12.1983010367 
Si 13.4882993134 5.4506829199 13.5616995499 
H 4.3417085797 6.7943961621 24.3673332428 
Si 16.1825513080 13.5107469336 18.9965173720 
Si 9.4768867767 1.4165784130 27.8263451441 
Si 9.3921624859 6.8180492424 14.8808896309 
Si 7.8266771816 2.7835211955 21.6602716046 
Si 1.2405991703 15.0255377574 27.7070317882 
Si 1.2455822814 6.9418532435 25.0190661000 
Si 5.4031486994 10.8000583288 16.4324283031 
Si 16.2820994989 2.8132993157 26.5241583062 
Si 14.8919923362 9.5568055174 1.4710944395 
Si 13.4851716333 10.9100321198 2.7665671763 
Si 14.8561869159 12.2626071221 4.1025773886 
Si 14.8397503057 9.5347977272 6.7981000738 
Si 13.4809525233 10.8871446696 8.1475181427 
Si 14.8363782757 12.2421957520 9.4920532289 
Si 6.8085521723 15.0017543572 14.8597881702 
Si 6.5951694603 9.5334619472 27.7657438415 
Si 1.1650559237 9.5530099474 20.2374925344 
Si 10.7803800086 8.2211395352 18.8401166003 
Si 16.2171675583 8.1532428146 13.5511488196 
Si 3.9823023064 1.3992002408 14.8529578076 
Si 8.8202857407 4.4644374408 22.9535644383 
Si 6.7076519113 6.7366155316 17.5603972957 
Si 11.6535403066 10.0107100816 20.1406176465 
Si 10.6884229578 2.6514907442 18.9260338426 
Si 9.6654598184 12.0102098598 22.5500498660 
Si 11.9588474894 12.4021798434 23.0574731465 
Si 5.4087850395 0.0686058243 16.1400306515 
Si 8.0662867938 10.8925855296 13.5573978747 
Si 13.4704780532 13.6487721048 0.0396233696 
Si 14.8509578258 14.9762116370 1.4044620721 
Si 13.4953691734 13.6147422945 5.4490889202 
Si 14.8506808958 14.9611759668 6.8075463200 
Si 13.4770266333 13.5958458943 10.8432152201 
Si 8.0692678638 13.5051594635 23.5827716314 
Si 12.1103444908 1.3891118437 12.1901917976 
Si 6.7155851414 1.3763355966 12.1903371245 
Si 4.0410766270 14.9618438568 17.3925738324 
Si 2.5725005335 10.7714205085 13.4280569652 
Si 12.3438942229 5.5759367310 23.1858548987 
Si 6.6450494408 9.5496867873 14.8779830937 
Si 12.0457220602 15.0632002378 27.8649439593 
Si 1.3047312719 4.1909446283 27.8710767530 
Si 16.1481956977 8.1331409544 18.9407699867 
Si 9.5544434674 6.7902910821 20.2221460175 
Si 12.5522107448 12.9256427082 25.2395850844 
Si 9.4006658660 4.0882035974 17.5996646145 
Si 14.5047790327 6.4834852193 22.5251117760 

