&CONTROL
  dt          = 30.D0,
  prefix = 'aSiHcSi_merged-3',
  pseudo_dir = './',
  outdir='/scratch/ztzhao/aSiHcSi_merged/aSiHcSi_merged-3/',
  wf_collect=.true.,
  verbosity ="high",
/

&SYSTEM
  ibrav= 0, nat=  406, ntyp= 2,
  ecutwfc     = 42.D0,
  nbnd=1540,
  degauss     = 0.05D0,
  occupations = "smearing",
  smearing    = "methfessel-paxton",
/
&ELECTRONS
  electron_maxstep=200,
  conv_thr    = 1.D-8,
  mixing_beta = 0.3D0,
  scf_must_converge=.false.,
/
&IONS
/
ATOMIC_SPECIES
Si  28.08  Si.pbe-hgh.UPF
H  1.00784  H.pbe-hgh.UPF

K_POINTS {automatic}
1 1 1 0 0 0

CELL_PARAMETERS angstrom
16.29000014898320 0.00000000000000 0.00000000000000
0.00000000000000 16.29000014898320 0.00000000000000
0.00000000000000 0.00000000000000 29.09013915778810

ATOMIC_POSITIONS angstrom
Si 16.1658866378 0.0509174906 0.0540372607 
Si 16.2266157584 2.7298619350 2.8185406740 
Si 2.6550582543 16.2195947683 2.8692709677 
Si 2.6128997339 2.4919790628 0.2539275338 
Si 1.2241104322 1.2209941552 1.5857442117 
Si 3.9393129960 4.0712131272 1.3837219223 
Si 1.2883924018 4.0953386175 4.1517155705 
Si 4.0058087766 1.3732942536 4.1342323968 
Si 16.2310140584 0.0296293926 5.5110395930 
Si 2.6566220943 2.7422097551 5.4880002028 
Si 1.2952130248 1.4010996548 6.8467424226 
Si 4.0154198767 4.1144142076 6.8226557874 
Si 16.2200183083 2.7688113253 8.1834924972 
Si 2.6673246244 0.0512919977 8.1785471735 
Si 1.2894642838 4.1412112579 9.5270496643 
Si 4.0227177968 1.4238013990 9.5172462874 
Si 16.2314050184 0.1081085860 10.8853846221 
Si 3.1064704484 15.6329267030 21.2510448181 
Si 1.7101242156 3.7488177343 20.2069124533 
Si 12.2260197818 13.9556268376 20.3277819815 
Si 10.7692213585 13.7113582854 13.5772988294 
Si 5.5068508404 5.1785584674 16.2280213996 
Si 14.8376163157 7.0294119943 14.9790944551 
H 8.3121680560 5.6533631017 17.7337560925 
Si 14.8650812560 4.1930460383 12.2691734517 
Si 8.4567092273 0.9031387853 22.7014500664 
Si 2.6597009043 13.6209813646 10.8285424902 
Si 9.1405797236 9.8388505800 24.7716498195 
Si 1.3773618666 14.9785899770 27.9648743949 
Si 8.0563336037 8.2218888752 16.2933869423 
Si 3.6559973134 12.1457100811 22.4877248140 
Si 13.5258803437 5.5870302211 13.6236103309 
Si 3.6620083235 6.7157154614 22.3513793317 
Si 6.7442229617 15.0149818373 14.8739336021 
Si 15.8426930349 5.8923374039 0.3284014900 
Si 16.2642945287 8.1910356149 2.9261770979 
Si 2.6345817241 5.4276977296 2.7777184817 
Si 2.4387107623 8.2668492756 0.0733982028 
Si 1.2801268557 6.8647363828 1.5309820247 
Si 3.9999443766 6.8014823122 4.1062476830 
Si 16.2117592783 5.4518883799 5.4910546674 
Si 2.6715274444 8.1530799146 5.4998107993 
Si 1.2833131797 6.8164528223 6.8320519023 
Si 16.2193504183 8.1899278949 8.1674638305 
Si 2.6597660643 5.4787343001 8.1774999285 
Si 4.0126831567 6.8436734126 9.5305695712 
Si 16.2406414485 5.5083332304 10.8944316554 
Si 2.6542437543 8.2170507452 10.8751158030 
Si 4.1954406684 6.6880387512 14.9866578913 
Si 4.0088875867 12.3379320828 14.9466007697 
Si 13.4939519434 8.3823779567 16.4007586459 
Si 13.6943352352 0.1732099426 13.8018747037 
Si 13.7298311456 0.2304008751 26.6994533415 
Si 13.6054407044 3.0150998376 16.3329495315 
Si 16.2804379189 2.9346598168 13.6549985911 
H 3.8226928850 12.1361641410 18.4783182043 
Si 10.7065537279 2.6106517139 26.3607859414 
Si 4.9863364656 5.4002164994 23.7913703102 
Si 13.9604649677 7.5220378888 27.1189622383 
Si 9.3067051451 3.9413981160 24.9643429013 
Si 14.9015056963 7.8371516517 19.7295432697 
Si 6.7118710214 12.2880032324 12.2166366604 
H 10.9624370503 6.1649994264 20.5381327778 
Si 10.4901247859 5.1736225973 23.3268007878 
Si 4.0163809867 14.9935930671 12.1534528782 
Si 9.0483294528 6.7956504922 22.4220392798 
Si 2.1751059799 2.6012198038 23.9891541663 
Si 3.9124019158 9.5235902071 1.4005651128 
Si 15.8733019452 11.0406616310 0.1802285390 
Si 2.6035004038 10.8753507095 2.7945354912 
Si 1.1876371219 12.2036047416 1.4689938472 
Si 1.3097404470 9.5605033474 4.2324988869 
Si 3.9789139864 12.2319982119 4.1315270139 
Si 4.0218544268 9.5280862471 6.8304810348 
Si 16.1912012981 10.9243347399 5.5015271175 
Si 1.2666419936 12.2603265221 6.8604147880 
Si 1.2913881328 9.5478948873 9.5091883189 
Si 2.6547976143 10.8934000296 8.1644675462 
Si 4.0238906768 12.2536150421 9.4979595252 
Si 16.2257686784 10.9334082700 10.8283097691 
Si 0.9909060481 7.0872903648 24.9053771892 
Si 12.1583348312 4.2287211387 14.9641130335 
H 12.9695279686 14.0556148585 15.6958173037 
H 10.2475666837 7.4864116585 26.8284390185 
Si 15.2736344597 10.4839834559 24.9799352159 
Si 5.3539040290 13.6690368650 13.5524267604 
Si 4.0164135667 9.5605522174 12.2400833126 
Si 5.1954837775 10.8905818596 23.7189358637 
Si 5.0330887660 2.8850567664 26.5741330220 
H 1.5773607144 12.9057851980 17.0705300099 
Si 3.9644321763 1.2918361078 27.8732695467 
Si 3.9557333162 1.3813529166 14.8274184696 
Si 12.9152822681 11.2178316726 25.3277078295 
Si 12.7115106563 1.8074406765 23.1856263425 
Si 16.1516654677 13.6286376646 2.7458705974 
Si 2.6262249540 13.5143958936 0.1674556407 
Si 3.9977778066 14.9017174663 1.4609446057 
Si 1.2366309263 14.9072723563 4.1671333442 
Si 2.6307698641 13.5809894142 5.4978617600 
Si 4.0031372166 14.9706404569 6.8102052078 
Si 16.2101954383 13.6513785049 8.1861396998 
Si 1.2866819518 15.0126360773 9.5303077599 
Si 5.0562694362 8.1390868044 21.0253926087 
Si 6.7089062414 12.3296404728 17.7721259861 
Si 1.0050197042 2.9443523669 27.7364004419 
Si 15.3747627806 15.6750689334 21.9334413025 
Si 12.0564897503 4.0156153567 27.7403276107 
Si 7.9103263323 10.9245627999 26.4008430631 
Si 10.8013126588 8.2023734550 13.5684845172 
Si 0.9662609068 9.6273086380 27.8553791111 
Si 14.0839268788 15.3154183101 19.9062367750 
H 11.4794979450 9.9921883514 28.1705998590 
Si 6.6315124506 9.5000837369 27.7599925448 
Si 0.1095038245 13.6131132945 26.6260589204 
Si 2.6861395746 10.9788899504 13.5638300950 
Si 3.8815812355 12.1985385516 27.7760793918 
Si 5.3568525190 16.2291081284 0.0708010352 
Si 5.3289803287 2.7231178749 2.7340018206 
Si 8.0931815840 16.2763328389 2.7154859470 
Si 8.0066491032 2.6539342443 29.0849611130 
Si 6.6866703912 1.3306698392 1.4042566515 
Si 6.7052409913 4.0717018272 4.0869318306 
Si 5.3899212193 0.0217267877 5.4660371477 
Si 8.1005283741 2.7239323749 5.4168166323 
Si 6.7512928217 1.3903743187 6.8087216107 
Si 5.3914361893 2.7624256453 8.1588240592 
Si 8.1212003843 0.0458451103 8.1673474699 
Si 6.7337810716 4.1275113677 9.5222207012 
Si 10.8188244089 15.0548597577 21.7633221687 
Si 2.6732704744 2.8071742757 10.8654578768 
Si 9.3713927357 12.3881541533 14.9333065761 
Si 1.4481875292 9.4675363166 14.8465597811 
Si 6.5410866598 12.2495262520 25.0677001657 
Si 1.3847721877 4.3179414695 14.9910505023 
Si 0.1041090652 5.8842738538 16.2874816440 
Si 8.1178120642 0.1094736880 13.5800914828 
Si 5.3926579393 5.5028109203 10.8758139664 
Si 0.7163071446 15.7815566643 18.0310282246 
Si 7.7521341409 5.3687930891 21.0550063703 
Si 14.9738658769 4.5500088116 17.5514481904 
Si 14.8312469256 9.6418556082 12.1887973973 
Si 6.5503719599 16.1037728673 21.9256742353 
Si 0.6041570095 1.5943544426 17.0399562736 
Si 5.2278845878 5.4747758301 0.0022701276 
Si 5.3177890986 8.1641245347 2.7233170125 
Si 8.0427477436 5.4114077295 2.6975926024 
Si 8.0159995633 8.1327988644 29.0822266399 
Si 6.6470368208 6.7812012620 1.3591669358 
Si 5.3729144591 5.4514811299 5.4516084387 
Si 8.0779341439 8.1507667345 5.4192020237 
Si 6.7263528315 6.8172510323 6.8023217801 
Si 5.3852134093 8.1802842148 8.1741545625 
Si 8.0863234940 5.4745314801 8.1644675462 
Si 6.9476687735 13.8540423967 21.6071663017 
Si 9.2579817547 1.2635762156 27.6278942229 
Si 3.8468183752 9.5514786874 25.0891395983 
Si 4.0030394766 15.0008746972 17.5167436544 
Si 5.3561520490 0.0565277666 16.1705101945 
Si 6.7111379714 7.0240525842 19.7805673738 
Si 5.1866057274 8.1716016447 26.4580633668 
Si 1.1237656603 14.4547361522 21.7150907179 
Si 12.0553331603 13.9752725778 23.3771267286 
Si 5.3879012593 10.9997411506 16.3109864765 
Si 1.1839376628 7.5452837190 17.7164474597 
Si 7.6542475300 2.7291451750 23.8506269237 
Si 3.9421800361 4.0005633966 19.5958159000 
Si 3.7856820046 6.8889596130 27.8159037923 
Si 6.6307142406 4.0945241174 27.7895772163 
Si 5.2672086482 10.8467128892 0.0249115152 
Si 8.0624260637 10.8486351092 2.7252020535 
Si 6.6269023806 12.1648345413 1.4013505466 
Si 6.6963792312 9.5070395669 4.0846627997 
Si 5.3616580690 10.8724185094 5.4543720019 
Si 6.7311583816 12.2428310620 6.7854494994 
Si 6.7351820116 9.5474876373 9.5224534223 
Si 8.0793676639 10.9001440897 8.1597840338 
Si 5.3760258492 10.9044283597 10.8692686851 
H 0.0255500507 1.0104182102 25.7881465521 
Si 16.2576970787 3.0869713182 18.7990078984 
H 2.4491037824 8.3225284961 15.0561251436 
Si 6.3807767684 4.0856949374 22.4466495375 
Si 8.0097930733 13.3461853521 23.6167131147 
Si 0.9295122955 12.0372186801 25.1547960424 
Si 4.8201947541 13.2458226611 18.8202436999 
Si 0.5312560009 12.4380178438 20.3594029628 
Si 16.0034753364 11.3973311842 18.2272121231 
H 2.9226377967 1.5311052590 18.9177829365 
Si 9.3316451353 4.2780635491 17.6710377525 
Si 3.5597234126 4.1127037576 25.1933113866 
Si 9.4900816768 1.4332675181 14.9792689960 
Si 1.1936855989 9.2190649443 21.9360012347 
Si 12.4890381242 10.4505726656 19.1699362628 
Si 9.3469577355 1.6146338638 20.6318612061 
Si 5.3636291591 13.5643736141 2.7948496647 
Si 7.9414565226 13.5014942135 0.0279016324 
Si 6.7402807816 14.9431592267 4.1029604972 
Si 8.1099114142 13.5814618242 5.4295581132 
Si 5.3790232092 13.6093014345 8.1390427645 
Si 6.7400527216 14.9724160669 9.4839962584 
Si 8.0855741539 13.6392913247 10.8665051218 
Si 14.4715311424 14.4798879124 25.7160030070 
Si 12.0814623205 7.0160216142 17.7310216195 
Si 6.4720496392 9.4499268264 22.3672625477 
Si 13.7739607560 5.9596151045 18.9366624368 
Si 1.3074891690 14.9696630569 14.7390717169 
H 2.6671454344 8.5500835082 19.5399919230 
H 4.0780875073 6.8345347225 18.1421525562 
H 14.1035237490 16.0041595164 16.8655027091 
H 0.7936308883 16.0862122471 23.9087781118 
Si 13.9829614579 8.3074276660 21.8076555407 
Si 15.1915980189 3.8128211449 25.9669054573 
Si 9.9742856412 8.5640277483 21.1522547055 
Si 8.8027902805 15.4698638015 24.3420757346 
H 0.3305387640 15.8012024045 15.5320980005 
Si 6.6120784805 14.8722162760 27.7213608400 
Si 9.3911362159 4.0246725968 1.3338119705 
Si 12.6772202059 16.0903173272 28.8005177323 
Si 10.8131717789 2.6543252043 2.6333586661 
Si 12.4577776139 1.4474202702 1.3808041813 
Si 9.4591958365 1.3488559953 4.0506564270 
Si 12.0757282404 3.9967515366 4.1284725493 
Si 9.4195296861 4.0940679974 6.8094197741 
Si 10.7995370488 0.0147626497 5.4352888707 
Si 12.1361152710 1.3673874995 6.8198049537 
Si 9.4725536366 1.4101194279 9.5437764943 
Si 10.8016873288 2.7581087952 8.1636530223 
Si 12.1660074213 4.1018871975 9.5326931513 
Si 10.8632146594 0.1030218705 10.9296016337 
Si 13.4978941234 13.6888943752 10.9039732211 
Si 1.2625548325 1.5225937339 12.2255382430 
Si 6.3471867880 1.7001873155 17.5384739884 
Si 0.0662792865 5.6549269417 23.2166946111 
Si 9.4377256163 9.5892226177 12.2486649036 
Si 10.8230109390 2.8220633358 13.6227376268 
Si 2.6998068847 5.5726950210 13.5712771706 
Si 6.4581216891 6.7037748913 25.1520615693 
Si 13.4623004731 4.6759956728 20.8388957265 
Si 10.4335496154 15.6978749336 28.5385610292 
Si 6.8951661031 6.5766640201 17.4955369430 
H 4.2930829293 5.4299620397 19.9175237490 
Si 15.1913047989 1.7980250564 27.6789183270 
Si 15.1335078784 1.6315249649 15.2283387674 
Si 10.7554888884 5.3972842994 0.0094125218 
Si 10.8085454189 8.1243117743 2.7044607843 
Si 12.1666590213 6.6946850712 1.3970539331 
Si 9.4219894762 6.7719811219 4.0490855595 
Si 10.7691561985 5.4355657997 5.4480594417 
Si 12.1258037009 6.7882548321 6.8303646742 
Si 9.4381980263 6.8401059026 9.5242279208 
Si 10.7825302886 8.1902699849 8.1576313635 
Si 16.2027671982 13.6503033648 13.4701016666 
Si 2.6339464141 0.0785023252 13.4438914512 
Si 14.5777419433 2.6444045942 20.4087398388 
Si 8.0651139138 10.9546504302 13.5962365100 
Si 9.4350214763 15.0388303975 12.1996480192 
Si 8.1014894841 2.7793346654 10.8716831666 
Si 8.3046909460 11.1626737321 19.0508994133 
Si 13.4832331233 10.9883544405 13.5717426128 
Si 12.1033886607 1.6705395153 17.5792583635 
Si 11.8860637687 9.1986535741 22.3424195689 
Si 2.3162425412 5.7774766128 26.3499353195 
Si 6.7349376616 1.4084382999 12.1970299066 
Si 1.3000869929 9.9290157308 17.1475897885 
Si 14.8539551858 14.9823203870 17.7224109383 
Si 9.3407023754 12.2272578218 27.7424511909 
H 7.7903341912 8.0884737740 19.8029958711 
Si 12.0329018300 0.9750917159 25.2807854351 
Si 9.3895235059 9.4532011165 1.3739069093 
Si 10.6812227777 10.8777290495 0.0493255309 
Si 12.1985222616 12.1024764207 1.3507220684 
Si 12.0884344406 9.4582998865 4.1629152740 
Si 9.4564265365 12.2319493419 4.0365767997 
Si 9.4086968360 9.5251214671 6.7958637692 
Si 10.7639271084 10.8904678296 5.4572228356 
Si 12.1342907910 12.2557490321 6.8048526222 
Si 12.1320753510 9.5633703875 9.5136682003 
Si 9.4339300463 12.2664841422 9.5160245016 
Si 12.1209492809 12.3380298228 12.2384833549 
Si 12.1975448616 8.1895043549 24.3985978750 
Si 10.6787792777 13.5596658040 18.6912289328 
Si 14.4227588819 12.7827631169 17.0700063874 
Si 2.5613093034 13.7071391754 16.2192070874 
Si 13.0313973892 13.0302245092 26.8969172061 
Si 10.8354890791 13.9201472173 27.0272119394 
Si 5.3975775194 0.0509797184 10.8303751690 
Si 3.7409659542 0.2591103714 19.2253238877 
Si 1.2749156847 0.7209693426 25.0056508989 
Si 14.9982357172 12.2263292918 14.8599703353 
Si 12.1618860512 6.8670821428 12.2097422974 
Si 6.7377884116 6.8649155728 12.2404323943 
Si 13.0348997392 1.0816380909 19.6303749853 
Si 8.0071866732 13.7176788055 16.3473200603 
H 1.8128489566 2.6011709338 26.5014076741 
Si 15.0181746774 12.1085363007 21.9126127628 
Si 3.4246467313 7.5701911292 17.0274475138 
Si 9.3636386956 15.1597999386 17.6283916085 
Si 9.3568131856 14.8383819457 1.3355166527 
Si 10.8445951892 13.5613436740 2.6506294818 
Si 12.1351541610 14.9406016966 4.0613325081 
Si 9.4421890764 14.9582926368 6.7951656059 
Si 10.7949432687 13.6249561246 8.1697619515 
Si 12.1371252510 15.0003208372 9.5307150218 
Si 12.8665262977 11.8308569582 21.0447375512 
Si 5.3722139891 2.7585323352 13.5369217162 
Si 4.6594613226 13.7415110757 21.1212155270 
Si 10.7973867687 10.9332290800 10.8843082870 
H 0.9061540643 16.0342797266 19.5130253640 
Si 4.5151319213 3.4042679411 17.4333713156 
Si 15.3962330008 9.9333000008 22.7255948819 
Si 12.1259014409 12.1148894008 17.5507500271 
Si 11.2288925827 9.6194079880 25.9079979255 
Si 5.3829165192 8.2114632751 13.6201776945 
Si 0.9055627373 7.5646688192 20.1408778374 
Si 1.6242172709 5.7449129025 21.4350108581 
Si 5.9276215442 0.8908121421 19.8911099026 
Si 9.4103095461 11.5009030052 23.0796800557 
Si 2.4533391824 10.8514044092 26.4825572640 
Si 8.0020064532 5.3751461892 26.3598259669 
Si 2.1520882097 13.4624959531 23.6708789538 
Si 13.5916919443 16.2241722584 2.7485236180 
Si 13.6439013948 2.8962642865 0.0081558278 
Si 14.8779503561 4.1513110580 1.5227029711 
Si 14.8791069461 1.3409243943 4.1355705432 
Si 13.4957275534 2.6990412547 5.4656589759 
Si 14.8458753458 4.0876497374 6.8147141794 
Si 13.5058273535 0.0452301628 8.1815434578 
Si 14.8519026458 1.4274959711 9.5342640188 
Si 13.5254730937 2.7846614955 10.9305616083 
Si 1.2956528548 12.2749549423 12.1807976090 
Si 8.0989319541 8.2134343651 10.8869554897 
Si 2.5157135930 8.2881077258 23.6385016289 
Si 8.1498219145 5.5198991305 13.5515249661 
Si 4.0242001868 4.1688879681 12.2247818994 
Si 14.1390522393 6.0879640157 22.6160705079 
Si 5.0277945160 0.1266055554 23.7350808909 
Si 12.1570805012 9.5859646177 14.8862678211 
Si 3.5253026422 1.3843437607 22.4558711116 
H 1.6527508351 2.5964794137 21.2036569814 
H 16.1345609676 11.2571720230 15.0959204540 
Si 3.7504304443 9.6241320880 19.7724512250 
Si 9.4793628567 4.1370573078 12.2110804438 
Si 11.7861734878 11.5846010259 23.1567980146 
Si 3.7967103347 14.7642950250 24.9214349461 
Si 3.7086628839 9.8538048001 17.4851808534 
Si 13.4396410829 5.3884876993 2.8750599054 
Si 14.1013245990 7.5312091589 0.3312726867 
Si 14.8291618056 6.7970677222 4.1591044658 
Si 13.4883318934 8.1594004346 5.5150540322 
Si 13.5137605836 5.4586487299 8.1799725903 
Si 14.8683229660 6.8382488425 9.5250424447 
Si 13.5110890236 8.2229151452 10.8563817534 
H 9.5229548971 12.4270383837 19.1887284927 
Si 5.1809530974 13.5660840641 26.3835635204 
Si 14.4535469822 9.5808658476 18.2682583094 
Si 6.7006635013 9.5934743077 14.9585568169 
H 15.9148414456 12.6060166153 27.6513408750 
Si 16.1691283479 8.3033551659 13.5523103999 
Si 14.9909703771 1.7313175058 22.5237384063 
Si 8.1376044144 0.4282298949 18.9767486486 
Si 11.4721185749 0.9587919418 21.3407878974 
H 7.8401978817 13.4627891731 20.4324773923 
Si 2.7645433453 16.1136283174 26.5115310426 
Si 13.3975151425 5.3194506787 26.3187506904 
H 13.6655670950 8.5126490879 24.6000179985 
Si 14.8700659960 9.4163368461 1.5216091819 
Si 13.4446095330 10.7616627984 2.8072827901 
Si 14.8219290456 12.2136230917 4.0791938535 
Si 14.8413141457 9.5516090074 6.8414189271 
Si 13.4951248234 10.9315349200 8.1830852352 
Si 14.8431223358 12.3131387026 9.5362130581 
Si 0.3374587561 5.0940785266 27.3557268809 
H 10.9683014503 2.6572248243 17.9000935082 
Si 6.8826065129 4.0259595068 14.8109825409 
Si 1.2765023307 6.9055265432 12.2474722079 
Si 7.7503259509 8.1276349343 23.8297111136 
Si 9.3026163551 3.8925281156 20.0097685802 
Si 7.7443149408 0.0576879404 26.2797699039 
Si 16.2246283784 3.3992180411 23.8440234621 
Si 10.8235159290 5.4899418202 10.8570508266 
Si 10.9245627999 8.6513421491 19.0036279372 
Si 14.3971184217 14.0465576185 23.3334042494 
Si 9.3343166954 6.7069677313 27.7631342798 
Si 2.3197448912 10.9997900206 20.9944988809 
Si 11.1550825920 4.7695328536 21.1162702034 
Si 14.0226276082 12.7692098368 29.0785321923 
Si 14.7300534447 14.8049385754 1.1624274157 
Si 13.4893255834 13.5967092644 5.4355506819 
Si 14.8364597257 14.9635705969 6.8133178527 
Si 10.8255521790 5.5674496409 16.3733266447 
Si 8.3858477267 10.3415274046 21.2753350843 
H 12.6861797060 8.4026264268 26.8321043761 
Si 15.9049859955 8.5452942482 26.2214150847 
Si 14.8449793958 15.0895248780 12.2540465794 
Si 12.4794596041 5.9033331540 24.2662086517 
Si 10.8659350894 0.1021288527 16.3211680252 
Si 9.3819812358 9.6688644284 17.5920289346 
Si 6.2415624271 1.4825822356 25.2099800364 
Si 8.0979382641 2.7640057753 16.3441783252 
H 12.3481947829 3.2871754201 23.2836019312 
Si 5.0366888561 2.6781900545 21.1571709390 
Si 9.4585279465 6.8755529429 14.9706874049 
Si 10.9630723603 15.1597836486 25.0489370260 
Si 12.2440853920 1.4260119520 12.3612146520 
Si 10.7299298781 10.9318933000 16.1271367970 
Si 2.5826817836 2.6870681046 16.2145526652 
Si 12.1646064813 15.0548597577 14.9115180619 

