&CONTROL
  dt          = 30.D0,
  prefix = 'aSiHcSi_merged-24',
  pseudo_dir = './',
  outdir = '/scratch/ztzhao/aSiHcSi_merged/aSiHcSi_merged-24',
  wf_collect=.true.,
  verbosity ="high",
/

&SYSTEM
  ibrav= 0, nat=  406, ntyp= 2,
  ecutwfc     = 42.D0,
  nbnd=1540,
  degauss     = 0.05D0,
  occupations = "smearing",
  smearing    = "methfessel-paxton",
/
&ELECTRONS
  electron_maxstep=200,
  conv_thr    = 1.D-8,
  mixing_beta = 0.3D0,
  scf_must_converge=.false.,
/
&IONS
/
ATOMIC_SPECIES
Si  28.08  Si.pbe-hgh.UPF
H  1.00784  H.pbe-hgh.UPF

K_POINTS {automatic}
1 1 1 0 0 0

CELL_PARAMETERS angstrom
16.29000014898320 0.00000000000000 0.00000000000000
0.00000000000000 16.29000014898320 0.00000000000000
0.00000000000000 0.00000000000000 28.95459006505858

ATOMIC_POSITIONS angstrom
Si 15.7079747337 0.6265003737 0.0975300621 
Si 0.0001380584 2.8384836560 2.8724314210 
Si 2.7243396249 0.1597574976 2.5738748519 
Si 2.1307157295 3.3540458707 0.1320662285 
Si 1.2263535652 1.5505261972 1.3479172404 
Si 4.0326709869 4.2613825890 1.2671918433 
Si 1.3997036018 4.2724923691 4.0607075291 
Si 4.0485211570 1.5033405827 3.9891028279 
Si 0.0416260003 0.1415153038 5.4627466892 
Si 2.7324846250 2.8658671462 5.3903891686 
Si 1.3871228347 1.5234342979 6.7777773062 
Si 4.0725489072 4.1925247583 6.7817151304 
Si 0.0131572376 2.8660137562 8.1222547413 
Si 2.7412160651 0.1289092872 8.0972958846 
Si 1.3653170405 4.2157217186 9.4768662829 
Si 4.0825835473 1.4761444275 9.4597541202 
Si 6.8863206330 15.0167411573 27.3674442106 
Si 1.3733170596 15.0295450975 14.9548720411 
Si 0.0269073335 0.1483507508 10.8207646262 
Si 2.1616504398 14.0348451084 22.0235850682 
Si 7.6921869404 12.8606781876 23.7985883030 
Si 13.6217795746 5.5724180910 13.5733327307 
Si 5.4240813496 2.8113282257 13.5057527175 
Si 6.8640684928 9.6604099184 14.7959402962 
Si 5.5306016606 10.7134606880 18.1743908196 
Si 13.5108283836 13.6950519953 16.2549620896 
Si 3.2782810800 7.8389598417 18.0589778236 
Si 14.8087504354 15.1552876086 17.5536333632 
Si 5.4304833197 11.0034226906 10.8093275631 
H 13.5923761243 2.7207395349 27.8805485012 
H 10.0885111223 9.7897199395 23.6364715532 
Si 1.3803136146 4.2877235192 14.8698613646 
Si 12.2053477716 1.5441030501 17.5882051437 
Si 9.2478005046 9.7549733692 17.4081075935 
Si 2.0971420392 9.0694412929 19.5797308030 
Si 0.3866122025 5.0288207860 0.0998472979 
Si 16.2292873184 8.2952427459 2.6182506567 
Si 2.7265713549 5.6606936018 2.6525531595 
Si 2.1173742194 8.8172883806 0.0257023526 
Si 1.2807312147 6.9358259434 1.2422069275 
Si 4.0176027367 6.8885360730 4.1639016881 
Si 0.0018418777 5.6039229513 5.3982358625 
Si 2.6739057845 8.3139110860 5.4226445820 
Si 1.3454025153 6.9425374235 6.7805569468 
Si 0.0085492038 8.3003740959 8.1377744016 
Si 2.7136533848 5.5704144209 8.1138289556 
Si 4.0729724473 6.9284954434 9.4645316275 
Si 1.9199882876 15.3206148201 27.4956840900 
Si 12.1936189715 4.1732373982 14.8317281695 
Si 5.2998049385 2.7254147649 18.8841546858 
Si 13.5676479041 10.9753224404 13.5709874089 
Si 8.1235624343 2.8165898958 16.2183924423 
Si 2.7245188149 8.2925223158 10.8145393893 
Si 13.4867354733 10.9640334703 18.9263415236 
Si 12.6631293558 6.9740422838 19.6120151709 
Si 10.7748902785 2.6916944646 19.0546682667 
Si 14.9667308569 9.6095525379 17.7018808643 
Si 6.6440883308 1.4476695072 17.4685068684 
Si 5.4232016896 8.3246299061 13.5056948083 
Si 6.7957482322 1.4542034263 12.1862051845 
Si 0.0031339028 13.6904745052 13.5924717147 
H 9.3304885453 5.0512032462 22.2107185838 
Si 11.1993913924 5.9162837041 21.0956773204 
Si 11.6929458169 12.5617892649 22.6586750467 
Si 4.0364502669 9.5537104174 1.3585204113 
Si 15.7868997844 11.5780361559 0.0622885619 
Si 2.6990901247 11.0313600409 2.6359071657 
Si 1.2720714506 12.4389789538 1.3682115126 
Si 1.3489325583 9.6344599481 3.9834856374 
Si 4.0511438471 12.3804489832 4.0119479994 
Si 4.0667985372 9.6608171684 6.7520945848 
Si 0.0433258618 10.9960433206 5.4051270550 
Si 1.3767461046 12.3669771531 6.7633289658 
Si 1.3687411985 9.6602795983 9.4790089225 
Si 2.7251541249 11.0118934907 8.1197067374 
Si 4.0756765873 12.3697953231 9.4680061783 
Si 6.6032004304 11.3223971836 20.1317790172 
Si 14.9310068866 4.2273364887 12.1725096634 
Si 1.3966557428 12.3453277429 12.2578677949 
Si 6.5670529201 10.8091155689 23.4690271589 
Si 9.6984796487 1.5947877566 27.8714857145 
Si 10.8427055492 5.4618741500 16.2432644352 
Si 9.5193710971 1.4685516584 14.8703825473 
Si 10.6769222176 0.6764129342 23.6774422982 
Si 9.5061599069 12.3238575227 14.8051478558 
Si 3.2948317201 5.6879630620 18.9861906612 
Si 10.6987996878 13.4758374632 19.1033698872 
Si 12.1332971010 15.0617830078 20.1529448225 
Si 10.8598263393 13.7292935756 13.4982534787 
Si 0.0456716218 13.8170152264 2.7921895656 
Si 2.6938610346 13.7455672857 0.0752660091 
Si 4.1686110381 15.1283439484 1.2206849807 
Si 1.4316727271 15.1496838486 4.0715944549 
Si 2.7317678650 13.7292121256 5.4037372347 
Si 4.1054221275 15.0808097279 6.7314789167 
Si 0.0138779724 13.7147303154 8.1276982042 
Si 1.3784239746 15.0747661379 9.4656898111 
Si 5.6401356216 8.0720534538 20.7251743859 
Si 12.6651330258 6.4294512888 17.3594638822 
Si 4.8733978946 5.8772202838 20.7780744220 
Si 2.7011100847 13.6980819353 10.8332730091 
Si 5.2410469079 16.0050065964 21.1066511101 
Si 8.1405203245 0.0973006596 13.5653991730 
H 14.2097508400 10.1055015924 24.3470461480 
Si 9.9488569510 8.9851894122 19.4897978462 
Si 14.0456616685 10.3718756749 25.8266257003 
Si 1.8873594173 11.3777343141 19.6701559877 
Si 10.9109443598 8.2647315756 13.5069977649 
Si 16.0510910068 13.7967504662 18.9399501809 
Si 12.2195200718 15.9070711155 27.0091311586 
Si 6.8402036426 4.1663793081 14.7932764739 
H 11.1990981724 15.9422900958 20.9507306426 
Si 0.0129101835 8.3615104665 13.4501888592 
Si 5.4715992800 0.1666271535 28.6305302931 
Si 5.3842522992 2.8294101259 2.5960859180 
Si 8.1810661348 0.0950519880 2.5815622956 
Si 8.2467962854 2.8890641064 0.1607101358 
Si 6.7632496819 1.4467621542 1.2404493839 
Si 6.7336018816 4.1610524781 4.0238483359 
Si 5.4363640097 0.1446066571 5.3374891326 
Si 8.1269670443 2.8261032558 5.3699761826 
Si 6.7756300820 1.4826636856 6.7379357903 
Si 5.4367223897 2.8385651060 8.1158268223 
Si 8.1301924644 0.1468163956 8.1192434639 
Si 6.8014334422 4.1976398184 9.4595514380 
Si 10.8311396491 10.9704354403 16.1870346213 
Si 0.0062777425 5.5758878610 10.8219807189 
Si 8.0240956934 7.7156445406 23.7618449282 
Si 13.6818570951 8.2384558053 16.2606661438 
Si 6.7780735820 12.3541080530 12.1723648904 
Si 11.2637694730 2.7654067153 26.5468421736 
Si 15.6399314030 4.9136830649 26.9395243241 
Si 1.8294647567 4.6274026023 21.9068980703 
Si 3.6323279432 9.0785962730 21.4040726592 
Si 14.9158897664 9.6843236386 12.1395014307 
Si 2.6716577644 0.1071815221 13.5335201694 
H 6.1538570663 11.4121713744 26.5759415366 
H 9.3178475052 0.6487932389 17.2916811869 
Si 0.7866522522 1.8602854370 25.5484299990 
Si 8.3428584163 14.0231000183 21.8400129672 
H 8.3116141960 7.1077668950 21.4448117674 
Si 15.5163554619 9.0058614224 21.5176904706 
Si 5.5597118908 5.5654785509 28.9431240474 
Si 5.3244191287 8.2152099751 2.7995903588 
Si 8.1436317145 5.5658206409 2.7978386061 
Si 7.8567648119 8.5933986186 0.3139227700 
Si 6.7571898018 6.9138018632 1.4860885442 
Si 5.4319494197 5.5286468606 5.4314757319 
Si 8.0946965540 8.3122657960 5.4638469636 
Si 6.7717367719 6.9091917932 6.7871296388 
Si 5.4147797595 8.2893946358 8.1091093574 
Si 8.1606547646 5.5465007007 8.1065034443 
Si 4.9027361848 4.7719763536 24.5345271187 
Si 4.0685741472 9.6621366584 12.1641996960 
Si 8.1373926444 2.8319024959 10.8261212253 
Si 8.4615636474 4.2108672985 23.1670597391 
Si 5.4552115399 5.5745520810 10.7992803203 
Si 8.1497078845 8.2589974955 10.7943290854 
Si 4.2555344789 6.7075867513 27.3833113260 
Si 3.6456368733 5.8260696833 22.7530091012 
Si 2.4670553626 0.1527475847 18.9396027258 
H 10.5392554264 2.9532792870 22.0696228664 
Si 8.7161600597 10.4740954258 20.7576324814 
H 12.2804935423 11.2168542726 22.9741063509 
Si 5.1549053871 10.6393574773 27.4087334561 
Si 4.1409831979 4.1569636880 17.4581990343 
Si 10.8078938188 8.6618166192 26.4570829444 
Si 16.0988044172 6.0807964156 18.3344807480 
Si 13.1307175201 1.5044352708 25.8285077487 
Si 1.2111240441 4.8482135543 19.6797399571 
Si 2.7908516955 10.9906676205 13.6164171607 
Si 6.1037327358 10.2976747242 0.4657114175 
Si 8.2088405851 11.0816146913 2.8590833550 
Si 6.8599471227 12.3362867928 1.4130766499 
Si 6.7567662618 9.6428981682 4.0542217009 
Si 5.4078565095 11.0248114608 5.3877832555 
Si 6.7834167020 12.3598910030 6.7513707201 
Si 6.7844266820 9.6367079681 9.4642420816 
Si 8.1335156244 11.0133758807 8.1277271588 
Si 12.3270503627 15.0569937477 14.7570542817 
Si 0.3452958752 7.9216153024 23.2521572793 
Si 6.7943472921 6.9344412934 12.1791692191 
Si 4.6794817328 2.7612527653 23.3693944145 
Si 1.1870897779 12.4151792635 17.6842475190 
Si 16.2825067489 2.9153887467 13.5565101139 
Si 14.2032674199 4.7062462030 17.8690067582 
Si 14.9918826171 15.0741796979 12.1917065566 
Si 1.3404536133 1.5149944489 12.2089055831 
Si 0.3460272962 2.6724396844 19.3749060329 
Si 7.3164906669 0.8488409568 23.0368509476 
H 14.0083412781 6.5109664495 20.1330530191 
Si 4.7176654931 11.1170128617 21.9763022227 
Si 13.5371367338 0.2253851841 18.9545722489 
Si 2.6861069946 7.9045108023 23.1833322187 
Si 9.8063357397 2.7694955053 24.4888946847 
Si 8.1859531349 5.5552973008 13.4814887710 
Si 5.4302552597 13.7266708855 2.6570903438 
Si 8.1240511343 13.6665444950 28.8753123975 
Si 6.8247281424 15.0696184978 4.0001345267 
Si 8.1485675845 13.7471637057 5.4299121841 
Si 5.4322752197 13.7186562055 8.1048240781 
Si 6.7869353421 15.0629233078 9.4625048062 
Si 2.3097754111 7.7786868411 15.9709465156 
H 2.1492374597 11.4528637947 27.1686999044 
Si 1.2818161287 1.1595694516 23.2948652996 
Si 8.5816046585 14.1010639590 18.1634170299 
Si 8.1351609144 13.7110976454 10.8222702648 
Si 13.7294727656 6.2062457068 26.4996172372 
Si 4.9472078852 14.2254218201 19.6163873140 
H 13.7274039355 4.2236223686 19.2231839809 
H 8.2755481357 12.2572802921 26.1028524896 
Si 15.9946135763 0.1726104706 21.8625106837 
H 2.8167690858 0.2313212601 27.6757816402 
Si 8.0108356333 5.4532078699 18.8976475248 
Si 13.5839541942 2.8621530262 10.8169715749 
Si 4.1150169376 4.1559699980 12.0923633581 
Si 16.1389592676 11.0886845514 26.7115648365 
Si 13.1193796800 8.4287230071 26.9261762581 
H 1.1356410704 9.8219252698 0.6410922650 
Si 1.2488142174 1.5405241371 17.5401115696 
H 8.0753766139 10.6689075376 17.7399561502 
H 1.2728989826 2.0837842391 20.4236412850 
Si 9.2889653350 7.3870100776 27.7679441004 
Si 9.5603893174 4.3044370594 1.4381773840 
Si 11.0544918411 0.1319735991 0.0498496700 
Si 10.9071650798 2.9003856565 2.7460967537 
Si 12.2737169023 1.4590171213 1.5026621515 
Si 9.4895603968 1.4855877406 3.9942567449 
Si 12.2596097621 4.2434798788 4.0844792475 
Si 9.4921016368 4.1667051081 6.7526736766 
Si 10.8318238291 0.1606464429 5.4147689335 
Si 12.2073514416 1.4947622687 6.7795724908 
Si 9.4966628369 1.4860715536 9.4753606442 
Si 10.8502966892 2.8424909960 8.1294354796 
Si 12.2297501918 4.2059640085 9.4562795693 
Si 7.7765854311 1.7272775858 25.1496384300 
Si 6.8277092124 6.8409366926 17.4074416379 
Si 10.8561122193 0.1256294585 10.8196064426 
Si 12.2342625219 1.4804726805 12.1433523912 
Si 3.1669552190 5.0510892162 26.0946583406 
Si 2.7540525852 5.5020290003 13.4048459711 
Si 8.8220613507 11.9772388995 27.4672217280 
Si 1.0090107542 15.1888938789 20.3656452411 
Si 2.7160643048 13.6463774748 16.3658292149 
H 7.8352783017 9.6868974586 26.2332639632 
Si 3.5557323625 12.7319057364 20.7206285153 
Si 11.0366380009 0.1458958477 16.1021976724 
Si 12.1082593707 12.3179279627 17.5981655227 
Si 9.2076130742 16.2593586587 22.0054015857 
Si 12.4178019536 12.1106540008 26.1359186314 
Si 10.6463133074 5.8950415439 0.0802983169 
Si 10.8248354190 8.2355724753 2.9174644950 
Si 12.1644598713 7.0086096641 1.4499242612 
Si 9.4563287965 6.8918755230 4.2098526225 
Si 10.8823065395 5.5442526807 5.4694351995 
Si 12.2297827718 6.9256935633 6.7981902922 
Si 9.5189312671 6.9000693931 9.4632576256 
Si 10.8592724793 8.2847845658 8.1264242022 
Si 3.0338170477 9.3013620251 25.0123647185 
Si 10.8975213997 5.5655600009 10.8203013527 
Si 4.0443183370 15.0858270480 12.1459583043 
Si 0.0407015428 11.0289979909 10.8517460375 
Si 13.2377265311 8.8513344810 22.0420001875 
Si 13.5773241642 2.9799134373 16.3064433507 
Si 8.1630493947 8.1954013350 16.0838115077 
Si 9.5642337575 9.5917312777 12.1010497351 
Si 9.9578001611 12.4685615940 21.1379220673 
H 4.0745851573 11.0822337114 18.4378486346 
Si 11.9357482692 7.1590315255 22.9646381999 
Si 9.4881431668 15.0700909078 12.1701643416 
Si 9.2486964546 6.8631725428 20.2716296872 
Si 6.0841521556 3.0285390877 26.0860588273 
H 10.4296888854 15.2492320395 16.8362254851 
Si 10.4936922960 15.4304745811 25.4493473918 
Si 1.1669879177 12.2284307018 23.1557384944 
Si 12.7862003069 5.5923896311 24.4346916921 
Si 9.5185728871 9.6373269881 1.5887528342 
Si 11.3819860041 10.4947837260 0.4613305880 
Si 12.3572194430 12.3549714230 1.4620388617 
Si 12.2269320218 9.6512223583 4.1615853209 
Si 9.5820061476 12.4143647635 4.1523777612 
Si 9.4887133168 9.6489743382 6.7964240622 
Si 10.8816875195 11.0139297407 5.4970578784 
Si 12.2437921720 12.3543198230 6.8403192207 
Si 12.2396545119 9.6334662581 9.4590013008 
Si 9.5014032269 12.3608684030 9.4783140124 
Si 3.2587982398 11.3554495939 23.8898531709 
Si 10.8942959796 11.0026896406 10.7960953154 
Si 5.4348979097 0.1271307450 10.8145104347 
Si 5.4524422399 5.5080237204 16.0819873685 
Si 15.0497772776 6.9832298439 14.8446998259 
Si 9.5257730671 4.1923292783 12.1331603755 
Si 10.8582299193 2.8111816157 13.4822415904 
Si 14.9202391965 12.3206483927 14.9440719790 
Si 13.4880549634 13.9636252277 27.0117660263 
Si 5.2989089885 0.0663656235 16.2023805540 
Si 14.4039276417 15.3735410306 23.2400253060 
H 12.9481229084 10.0553283920 22.8725336489 
Si 12.9581086785 0.9432333626 23.5130091812 
Si 16.2346955985 0.1407231211 16.2142808905 
Si 9.5778033276 15.0052404172 1.2281784286 
Si 10.8901908996 13.7103971754 2.6904460316 
Si 12.1835680414 15.0306691075 4.1380162846 
Si 9.5020385369 15.0921964380 6.7879982765 
Si 10.8616182393 13.7278437656 8.1414516345 
Si 12.2352887919 15.0649921378 9.4924438523 
H 9.3854184258 12.6361368256 24.5627578440 
Si 0.3325766430 12.9089943281 25.2181449901 
Si 8.5927958886 0.0480170560 26.5069427485 
Si 5.4887689402 8.4221418470 18.4291622576 
Si 14.7023115745 12.4586084039 20.3413233855 
Si 14.3971347117 4.0365642969 23.6863892665 
Si 6.0570293054 11.5065882152 16.0560151012 
Si 9.4793139867 4.1185844477 17.6495020109 
Si 3.9503576161 15.1197591183 17.6948159443 
Si 10.2632213739 8.3489345864 24.1643716393 
H 6.6490893608 0.0945988002 20.6726507596 
Si 12.0046549698 4.8440433143 27.4758501958 
Si 4.0764259273 6.8607290427 14.7464569018 
H 7.9658100729 10.8625304793 28.0273772274 
H 8.1543994046 2.3742349417 20.3471432581 
Si 13.5618649540 0.0726952660 2.8488363256 
Si 14.0617236086 2.3345036314 0.3091018308 
Si 14.9876960871 4.1477761279 1.4548204824 
Si 14.9239696065 1.4648359094 4.1625408223 
Si 13.5731702141 2.8669911562 5.4563766794 
Si 14.9582763468 4.2276948687 6.7645740131 
Si 13.5783667242 0.1481476145 8.1359502624 
Si 14.9469059267 1.5041306478 9.4750421437 
Si 16.1460454177 8.2982726859 19.3202687214 
Si 2.7015987847 15.6486302631 23.6728095638 
Si 1.3692999455 6.9365264134 12.1586693693 
Si 5.3890415593 13.7365752056 13.4902620118 
Si 7.1195771451 13.5345140438 19.8805400392 
Si 2.6593751043 2.8689459562 16.2042915570 
Si 4.8833999547 8.6539159691 26.2148777985 
Si 4.0099138567 1.4881420126 14.8558473430 
Si 10.8994924897 13.2326929210 24.7043168348 
Si 11.5282864954 3.5959360829 21.1097202966 
Si 12.2429288020 9.5710103975 14.9280021815 
Si 0.1483453751 5.0598043663 23.3879543067 
Si 1.3591854844 9.6405361182 14.8996845924 
Si 12.2338715619 9.2601483247 19.9926232573 
Si 8.5251272280 5.6366332716 26.3966547149 
Si 13.5863325343 5.5877795611 2.6763798917 
Si 13.0561581894 8.8306624708 0.2773722328 
Si 14.9210536965 6.9578500236 4.0409315441 
Si 13.5942331843 8.2794577357 5.4576217268 
Si 13.5973608644 5.5684433309 8.1262215201 
Si 14.9465475467 6.9314439334 9.4732180045 
Si 6.8790715829 9.1544750937 25.1679087764 
Si 7.1904386458 5.6770650519 24.4521802645 
Si 13.5870004243 8.2813310857 10.8178112580 
Si 10.8027461788 10.8833002295 27.2482671179 
Si 6.2072231068 14.0398787184 25.2125567542 
Si 7.1142828951 4.3076298994 27.7076027347 
Si 9.5860134877 6.8705356228 14.8350869020 
Si 7.7585198210 13.2550753812 16.0905868818 
Si 7.3418541971 9.0893150931 22.0359486782 
Si 4.0931394674 12.9723461386 25.3677244024 
Si 13.4994579635 2.6987969047 21.9995238039 
Si 10.6542628274 4.8800767946 25.4560069475 
Si 12.2710779222 6.9078397232 12.1832228617 
H 15.9858169762 6.4629923991 22.6363221032 
Si 12.2268831518 12.3377854728 12.1942256059 
Si 14.8946150262 9.7866411295 1.3499382708 
Si 13.6315047047 11.0287210609 2.8861558967 
Si 14.9865720771 12.4336195437 4.1466447524 
Si 14.9653299169 9.6568261183 6.7706544770 
Si 13.6244837146 10.9982750506 8.1523385604 
Si 14.9629352868 12.3748452232 9.5053865541 
Si 9.1775580239 1.2930301648 20.0660810523 
Si 8.2151122351 10.9575663402 13.4063805644 
Si 2.5999328938 2.8503753561 26.8625919783 
Si 6.4376451589 4.2357421287 20.2307168514 
Si 8.3316346062 0.1176032126 18.2961448708 
Si 4.5213872814 1.4867866846 26.8486069113 
Si 16.2821972389 10.9544549502 16.3025923902 
Si 4.3706233300 0.7703671390 24.6205512058 
Si 0.9866282940 5.6808769120 25.4668070096 
Si 6.7285519815 2.9745866072 22.2044643924 
Si 1.3376110082 9.2194070343 26.6747345979 
Si 16.2423681885 0.0315025797 26.8151064506 
Si 3.8784698455 1.4447715162 20.2799686091 
Si 14.1131022691 13.3040919917 0.1938477955 
Si 14.9431592267 15.1138784282 1.4257558649 
Si 13.5733005341 13.7217350155 5.4885162744 
Si 14.9507340767 15.0857455980 6.8001302497 
Si 5.6457393816 15.5511509022 23.4540286812 
H 3.0813675582 7.2767267766 28.1552117425 
Si 3.4632540317 12.1857509014 27.4641814960 
Si 2.7079030148 2.8169156958 10.8020310064 
Si 13.5946730143 13.7190634555 10.8636753286 
Si 4.1472548479 12.3830553833 14.9557696334 
Si 2.7574409052 2.5189390130 22.0569986652 
Si 13.6551903649 0.2005022088 13.5005119367 
Si 16.1978639081 7.7265751307 25.5607356998 
Si 2.2221189203 14.2957457507 25.4729743373 
Si 0.1117668313 11.2007923324 21.3363189185 
Si 15.0102740273 2.9679239971 25.7112995681 
Si 14.9267714865 1.5913114706 14.9311582318 
Si 6.7477578917 15.0235015074 14.8978314986 
Si 0.5749539263 6.1468849462 16.1021397632 
Si 15.1028175181 14.6750746942 25.4532273069 
Si 14.8147451555 1.5936784076 20.4295190668 
Si 13.3817464224 13.8435190566 21.7334890304 

