&CONTROL
  dt          = 30.D0,
  prefix = 'aSiHcSi_merged-22',
  pseudo_dir = './',
  outdir = '/scratch/ztzhao/aSiHcSi_merged/aSiHcSi_merged-22',
  wf_collect=.true.,
  verbosity ="high",
/

&SYSTEM
  ibrav= 0, nat=  406, ntyp= 2,
  ecutwfc     = 42.D0,
  nbnd=1540,
  degauss     = 0.05D0,
  occupations = "smearing",
  smearing    = "methfessel-paxton",
/
&ELECTRONS
  electron_maxstep=200,
  conv_thr    = 1.D-8,
  mixing_beta = 0.3D0,
  scf_must_converge=.false.,
/
&IONS
/
ATOMIC_SPECIES
Si  28.08  Si.pbe-hgh.UPF
H  1.00784  H.pbe-hgh.UPF

K_POINTS {automatic}
1 1 1 0 0 0

CELL_PARAMETERS angstrom
16.29000014898320 0.00000000000000 0.00000000000000
0.00000000000000 16.29000014898320 0.00000000000000
0.00000000000000 0.00000000000000 28.86742770525465

ATOMIC_POSITIONS angstrom
Si 0.5796519623 15.7479992640 0.2661135163 
Si 0.1276078791 2.8112630657 2.5236886792 
Si 2.8126477157 0.1236433817 2.8763158556 
Si 3.2391850796 1.4732187435 28.4921511451 
Si 1.5550157212 1.2934716238 1.3053995145 
Si 4.0479347170 4.3622828499 1.1879408380 
Si 1.3907571337 4.2104763385 3.9682609495 
Si 4.1304435678 1.5749465364 4.1324588783 
Si 0.0764491336 0.1959638148 5.4706662244 
Si 2.7421283051 2.9324117968 5.4260660486 
Si 1.4321255891 1.5581499173 6.8037063010 
Si 4.1174767277 4.2723131791 6.7821711999 
Si 0.0729770830 2.9232242367 8.1377278701 
Si 2.7879032055 0.1860839297 8.1404125409 
Si 1.4209408750 4.2819568592 9.4842779029 
Si 4.1396637079 1.5426271761 9.4857212742 
Si 1.5789652794 15.3516798504 19.8010924207 
Si 5.5406363007 3.2600362798 18.6665447770 
Si 1.9289314976 7.5895925194 23.3393152997 
Si 1.3746463236 9.7201290589 27.5284120711 
Si 0.0907908497 0.2140212800 10.8414511490 
Si 2.7637614253 2.8954823665 10.8055978038 
Si 5.5701863609 8.4224350670 18.8566945233 
Si 9.3956159659 1.3053063089 27.7614299476 
H 1.4199537010 6.6802358411 27.1095745626 
Si 12.3046679025 15.1725550088 27.6507522298 
Si 5.0754264764 13.9503814576 26.1564298346 
Si 5.5497098308 13.8047325663 13.5094365524 
Si 0.0968898258 13.9446799575 18.7152441276 
Si 3.2206959295 0.0144960313 18.5047717122 
Si 13.7438568357 11.2634110930 19.0945332602 
Si 3.5586482725 13.5574829440 24.4118557087 
Si 1.4830318396 12.4929640143 17.5061607856 
Si 5.6185350814 0.2859448886 16.1120372320 
Si 15.5854413525 5.8641719936 28.7459247020 
Si 16.2268438184 8.3473218763 2.5474379120 
Si 2.6178518939 5.6275108715 2.5561183475 
Si 2.1890828000 7.5592442491 28.0852070167 
Si 1.1068305761 6.8422398926 1.1616483848 
Si 4.0246725968 6.9552924936 3.9895939786 
Si 0.0908283167 5.5957616612 5.3772800958 
Si 2.7321262450 8.3219909261 5.3874702978 
Si 1.4235603070 6.9551458836 6.7679684255 
Si 0.0942910821 8.3134875460 8.1544998456 
Si 2.7860135655 5.6315019215 8.1415383706 
Si 4.1533961780 6.9824967939 9.4885214147 
Si 8.3325957162 8.0574901937 21.2184253862 
Si 8.0834401639 14.3284397810 21.5631890753 
H 9.4750948767 12.7547606067 28.4429033134 
Si 6.7805985320 4.3473937898 20.3445217473 
Si 0.0730039615 5.6381971116 10.8428367855 
Si 2.8162152258 8.3356093662 10.8543548892 
Si 15.0348230575 7.0055797241 14.9631424767 
Si 2.7542317752 5.5525931608 13.4226899321 
Si 4.1922315383 9.6234316180 12.2555509626 
Si 4.2061757785 9.7437169791 17.4958262465 
Si 10.7643180684 3.0803412882 18.9904373159 
Si 9.6735070785 15.1790058488 17.4931127083 
Si 6.7875380721 15.3473304204 19.9598055382 
H 4.0863465374 4.6362643624 21.9506476899 
Si 1.4125254609 1.5913473086 12.2045999527 
H 14.1860325997 11.2900941133 22.8792839718 
Si 14.9634402769 15.2906249298 17.4849143588 
Si 2.5609997934 2.2298078004 23.1478087843 
Si 2.7121058348 3.0200031276 16.3280233261 
Si 6.1398965362 1.7699899662 25.4170484088 
Si 15.0238924674 9.8875739704 17.6717732183 
Si 4.2732417091 9.8484942601 1.3973307248 
Si 0.0923138018 11.1448524719 0.0322466488 
Si 2.7680945653 11.0145813407 2.7426625521 
Si 1.3981739708 12.4090216435 1.4872816295 
Si 1.3499001843 9.6283837781 3.9956561384 
Si 4.1513599280 12.3624648231 4.0896773504 
Si 4.1261918777 9.6676263884 6.7540254579 
Si 0.1100677843 10.9794275204 5.4789511762 
Si 1.4551987453 12.3725646232 6.8159749578 
Si 1.4518967623 9.6893735386 9.5070831707 
Si 2.8203528858 11.0309527909 8.1589454295 
Si 4.1645874081 12.3892130033 9.5298307038 
Si 15.0357352975 15.1348762384 12.1787347374 
H 1.5385611921 13.6477458348 26.8664530864 
Si 11.1232356417 8.4217020170 18.9547571753 
Si 0.1059688945 11.0594114211 10.8648048980 
Si 1.4443772982 15.2380733894 14.8975845484 
Si 4.2182303786 7.1786609757 20.2793968304 
Si 4.0301949069 12.5726058250 27.7592648905 
Si 15.0013633972 12.4881584642 14.8967473930 
Si 16.2001282182 8.5770434584 19.2030170535 
H 10.3935576651 12.7106472862 26.6263049554 
Si 0.0962564706 5.6514734617 16.3240107536 
Si 1.4587923193 12.4270058037 12.2221802161 
Si 5.2970030584 15.9769389261 22.9706493805 
Si 9.6414483582 7.0408964444 14.9467169104 
Si 1.4118820059 9.7575146092 14.8945246011 
Si 0.0530713544 13.6749338451 2.9151771868 
Si 2.5131560630 13.9877344279 0.2060403992 
Si 4.1379695478 15.0667025878 1.4963921897 
Si 1.4316157121 15.0752222579 4.1917525748 
Si 2.8265267959 13.7204643955 5.4804522824 
Si 4.1522721680 15.1112068682 6.8175337989 
Si 0.0985779585 13.7549991958 8.1524791257 
Si 1.4436393612 15.1252814283 9.5035613446 
Si 2.8080050657 13.7769092460 10.8570395599 
Si 8.2373643753 13.7706375959 10.8364859514 
Si 13.6711545650 8.3483644364 10.8627841781 
Si 8.2967414259 5.6807303020 13.5468487387 
Si 2.8326355459 11.0344225609 13.5351285630 
Si 0.0505234355 0.3647021523 16.1930392341 
Si 10.1380001427 2.2664277207 24.1827638024 
Si 11.0095477307 2.9688362372 13.5561151830 
Si 0.2405528032 9.0715752830 23.9218311234 
Si 0.0887484095 8.3439335563 13.5767842612 
Si 5.5141324704 5.8789958938 16.0630492072 
Si 12.4558391039 7.0101409241 17.6673276345 
Si 5.2175567277 0.3394982641 0.1339139764 
Si 5.3536270990 2.9672723971 2.6744776879 
Si 8.1416606245 0.1727521936 2.7955852073 
Si 8.1242791943 2.8281720859 0.1591394894 
Si 6.7269881415 1.5286650170 1.4616617875 
Si 6.7566033618 4.2516574589 4.0835574558 
Si 5.4924667702 0.2118302749 5.4861680331 
Si 8.1318377544 2.9261564368 5.4811162333 
Si 6.8363917825 1.5531342262 6.8506158710 
Si 5.4788483301 2.9319068068 8.1594073083 
Si 8.2274926352 0.1915443378 8.1603599334 
Si 6.8653228228 4.2815333192 9.4969795710 
Si 14.9260547265 1.6084159707 14.8378578405 
Si 10.7486145083 12.4518806339 22.5680353663 
Si 10.9434592001 13.8537328867 18.9581057969 
Si 5.9141660041 8.6743273393 24.3180943035 
Si 8.2326239853 2.9393676269 10.8588870753 
Si 10.6757167576 2.7362639050 26.4142736989 
Si 6.9124172132 6.9943559140 12.1916096102 
Si 5.4693349700 2.9397097169 13.5495045420 
Si 7.0697623247 4.5759262018 27.8455784993 
H 15.5225293720 7.7705255511 26.6175003899 
Si 6.9294076834 12.8962392579 25.1128145882 
Si 13.6785990951 13.7655388259 10.8472535020 
Si 4.0537339571 4.6017784321 17.4594821550 
Si 7.5207998488 2.3682076417 21.4276276348 
Si 5.3949711193 3.7031894439 26.4952179661 
Si 14.9442180767 1.2114482151 20.6551064020 
Si 4.1269412177 1.7708207562 19.7066670647 
Si 5.5151098704 5.8334327634 0.1569784738 
Si 5.4546088099 8.4146484470 2.8224174814 
Si 8.1762605848 5.6163359314 2.8160464401 
Si 8.1598402646 8.2122777751 0.0158890364 
Si 6.8452698326 7.0905972348 1.5507206887 
Si 5.4173698695 5.6464235616 5.3969965489 
Si 8.2296266253 8.3317323462 5.4407884367 
Si 6.8273019624 6.9757201538 6.7525243517 
Si 5.4959691203 8.3362772562 8.1235539631 
Si 8.1973561350 5.6419601016 8.1329070097 
Si 14.4154120918 3.3171978903 21.4309473890 
Si 8.2252934852 2.9994125674 16.0777138604 
Si 5.5219679605 5.6450226216 10.8458101306 
Si 8.2447274554 8.3607122565 10.8352157846 
Si 12.3415321729 4.3258584096 14.9611794917 
Si 13.4856114633 12.3200945327 25.8103093764 
Si 10.9806004004 8.3767579066 13.5697694763 
Si 15.4849320516 3.8425503951 17.5531280905 
Si 8.2734630157 0.2729519845 18.6980391407 
Si 11.0129686307 5.7014023121 16.3152350556 
H 13.6036650944 5.5761647910 22.1948083935 
Si 11.2869501432 0.2738316445 23.6421057489 
Si 0.1348588839 13.9670298377 26.3972707839 
Si 4.4494832207 5.4333503597 25.2695069858 
Si 0.8663136109 2.1148818493 17.5950435955 
Si 4.2981165393 6.8757810029 27.2517177766 
Si 5.6115955413 11.1016839715 16.2088008497 
Si 5.5682478509 11.3352011237 0.1608230378 
Si 8.2968228759 11.0197615608 2.6647407045 
Si 7.0165754742 12.5788774750 1.4226359119 
Si 6.9009653431 9.7343990990 4.0996654804 
Si 5.5214303905 11.0504030511 5.4654700874 
Si 6.8567217027 12.4062360535 6.8324871264 
Si 6.8575199127 9.6883798486 9.4886946193 
Si 8.2281768153 11.0419648310 8.1554813382 
Si 11.7048538070 10.2514111238 22.4655559979 
Si 2.7519511752 5.8783280038 19.0142529438 
Si 5.5225055305 11.0213254008 10.8837419306 
Si 0.9261956515 11.2361579228 23.5386448880 
Si 16.2570291887 13.2206546109 24.2230049966 
Si 14.6466160640 8.1161179042 23.0179630945 
Si 6.8638404328 1.5875191585 12.2088723320 
Si 8.3352835662 8.4374381572 16.3171114384 
Si 15.3337282702 4.6661239327 19.7471103309 
Si 6.8783711129 12.6657031758 22.7354375795 
Si 6.9855267339 9.7380480591 14.9006156283 
H 10.4989865460 6.7785459920 22.1631696927 
Si 13.6289797546 0.2384302162 18.9807089928 
Si 12.3029574525 1.5846423445 12.1716333502 
Si 8.2869511358 13.8033153362 16.2047882772 
H 2.7845311755 15.2799061097 26.5502970182 
Si 5.5451649207 13.7490859257 2.8003108052 
Si 8.4869760476 13.8117372663 0.0237871646 
Si 6.8390796325 15.1124449082 4.1739413719 
Si 8.2233061052 13.7324375456 5.4726003421 
Si 5.5095549804 13.7670700859 8.1826744550 
Si 6.8698514428 15.1361794384 9.5127411866 
Si 6.8930321130 12.4147720135 12.1874815680 
Si 10.9550902602 0.2150508080 10.8269019654 
Si 13.6298757047 13.8416619966 16.2400642739 
Si 4.6295365923 13.8517943767 22.4054251460 
Si 12.3619924131 15.0932715780 20.3129696488 
Si 9.5192896471 4.3136897795 17.4810461235 
Si 2.9105343266 0.4916110275 26.3706261482 
Si 2.8289540059 13.7734883460 16.0979787947 
Si 8.2973441559 11.0988658015 13.5322995551 
Si 13.5004027835 0.8615210929 24.1339778496 
H 12.9441807284 5.9987925549 22.3700914145 
Si 0.0794885218 11.1388088819 16.2268718594 
Si 11.0308061809 11.1130543916 16.2716741072 
Si 13.9286994674 4.2434635888 25.7528054604 
Si 15.9176596156 16.1629544378 27.0361935613 
Si 12.9750665687 2.5247708331 26.9990411819 
Si 8.6169376688 6.3381295480 27.4000097527 
Si 9.4439972664 4.0241676068 1.6592015952 
Si 10.9321539400 0.1625585631 0.2032471869 
Si 10.8532288893 2.7562028652 3.0007402425 
Si 12.2217680918 1.4735461725 1.6059123237 
Si 9.4607922565 1.4423019522 4.2672120308 
Si 12.2670542922 4.1943003684 4.2066193001 
Si 9.5437735173 4.2600630990 6.8082673546 
Si 10.9379043100 0.1353190764 5.5167675065 
Si 12.3038045325 1.5310629050 6.8199586628 
Si 9.5768259276 1.5657117353 9.5009055412 
Si 10.9329684400 2.9130918566 8.1414517683 
Si 12.2957898525 4.2775585591 9.4839892286 
Si 4.1482811179 4.2347973087 12.1177378627 
Si 4.4781373310 14.9170789364 17.2491829441 
Si 0.0480054901 2.9641447171 13.5503128300 
Si 12.6495597857 9.5969114978 20.3717437316 
Si 2.8049262557 0.2565903083 13.5307695814 
Si 13.6635145550 2.9412572669 10.8391706222 
Si 12.2709150222 1.7088861756 17.7418633328 
Si 8.1723672747 9.3482772255 24.6088181679 
Si 0.8492498358 1.3109980350 25.7526033884 
Si 5.6185025014 13.7184444355 18.8224000192 
Si 2.5525778633 4.2591671490 24.3424584125 
Si 6.9515295036 15.1604841187 14.8188053382 
H 9.9222065107 8.8407622709 27.1955706297 
Si 10.5569952366 4.9823779956 27.1907209019 
Si 11.4492962847 4.8125710340 20.4881372001 
Si 12.5491319348 6.0200347151 26.5066494675 
Si 11.2600064830 4.8044586139 0.5048595564 
Si 10.9627139803 8.2284863253 2.7017025589 
Si 12.2449161820 6.6691097710 1.4704692396 
Si 9.5936046277 6.9512688636 4.1191509941 
Si 10.9270877499 5.6106995913 5.4954344774 
Si 12.2997320325 6.9773165738 6.8098839305 
Si 9.5789762076 6.9825130839 9.4888966913 
Si 10.9516367802 8.3381343163 8.1624672557 
H 3.6936923738 6.3348715479 14.2751739397 
Si 14.0733709587 12.6668760558 23.5333332813 
Si 10.9581039102 5.6476616017 10.8419707627 
Si 1.2109318221 7.1410473653 17.8056314806 
Si 12.3095711926 7.0013280340 12.2138952644 
Si 1.4264338630 4.3314458796 14.8813610541 
Si 4.2075441385 12.4894779542 20.2085850302 
H 16.2084035382 6.0809593156 25.5369925709 
Si 7.9891373531 11.0927733415 26.1645127144 
Si 13.6843983352 11.0780146013 13.5599545508 
Si 9.7191353689 9.7968712496 17.6842439471 
Si 0.8454444917 11.8436283183 21.3064133058 
Si 13.6733374251 5.6730740019 13.5857042964 
Si 9.6407967582 9.5663351675 1.3030525927 
Si 11.3166142335 10.7246030481 0.1621376605 
Si 12.3020777925 12.3913469933 1.4880090887 
Si 12.2961645225 9.6323911181 4.0690660070 
Si 9.5789110476 12.3439756729 4.1341620565 
Si 9.5809798776 9.6727414485 6.8119335179 
Si 10.9569636102 10.9947889906 5.4544427301 
Si 12.2865534224 12.3692251731 6.8271755197 
Si 12.3104834326 9.6954822887 9.5131453306 
Si 9.5854596277 12.3887731733 9.5144154974 
Si 3.3007775702 10.6551750674 26.5506434273 
Si 12.3225869027 12.4292212437 12.2110951239 
Si 4.2166176686 12.4032061134 14.8233663918 
Si 14.9951731971 4.3151395895 12.1998945619 
Si 5.9824536847 6.3956821185 23.7483090154 
Si 1.2149391621 5.4418537398 22.8225017415 
Si 4.0843917374 1.6238067629 14.9446673230 
Si 10.9689367603 11.0643961612 10.8618604204 
Si 13.7196173155 10.0460593819 26.1393691848 
Si 13.6541640949 0.2084908249 13.4870354285 
H 16.1084155173 5.1884953675 23.2913087674 
Si 2.3580915516 13.7432052357 21.3167478450 
Si 6.8202321024 4.3855449701 14.8175640388 
Si 13.4007568526 6.0570618854 19.6160810766 
Si 8.1554745446 5.4517254799 24.0484436613 
Si 0.9292532845 0.5269929078 23.5467277678 
H 14.8711900060 6.8404154126 23.7759640112 
H 8.2061527351 4.9091707349 25.4619372589 
H 12.1190596408 1.6520340751 21.1612101445 
Si 9.6120449079 15.1208505483 1.5588641900 
Si 10.9461959201 13.7327307656 2.8498992725 
Si 12.3257145827 15.1056356882 4.1535898354 
Si 9.5771517276 15.0750919379 6.8455352037 
Si 10.9476294401 13.7361679556 8.1815774928 
Si 12.3088218526 15.1171038483 9.5081801330 
Si 14.3699141214 7.9645068728 20.6682699490 
Si 1.4255981860 7.0039181441 12.1828916470 
Si 15.8854379953 9.1476007137 26.1279954183 
Si 15.0322655275 9.7044092088 12.2134622530 
Si 9.4118082261 1.5892931395 20.2261652937 
Si 6.0280656851 16.0635854369 26.8636240785 
Si 5.7492460426 0.8400052607 21.0347130763 
Si 7.0552153545 12.3704957931 17.6021161153 
Si 5.5197525205 0.2218502540 10.8486391385 
Si 6.8946611131 7.0445942744 17.5329208911 
Si 5.6513105617 8.3327260362 13.6132149550 
Si 10.4360419854 5.9525778244 23.4369738076 
Si 13.4754627932 3.2378655896 23.6352064337 
Si 12.8570618076 9.0992194132 24.1494507908 
Si 5.2396296779 5.5938883112 21.6449127631 
Si 13.7142904854 0.1698004456 2.8221547878 
Si 13.0184794191 3.2227647595 0.3443133572 
Si 14.8854111761 4.1804049982 1.3458543277 
Si 15.0898995480 1.5718889034 4.0605789833 
Si 13.6946447452 2.8580805261 5.4696269970 
Si 15.0199177074 4.2765322891 6.7748100059 
Si 13.6619344249 0.1922594688 8.1767277649 
Si 15.0174416273 1.5717553254 9.5019159012 
Si 5.6901459220 11.1307779118 21.4512411906 
H 9.2658824047 11.5897323760 26.8040417077 
Si 9.5916335377 9.2479145346 22.7089661483 
Si 7.8727615920 1.8841177072 23.7194704551 
Si 8.5032986278 14.6356691839 25.0790396978 
H 7.4978798186 7.0389090644 21.9789666365 
Si 8.4430256272 11.1792569522 19.0986613024 
Si 3.1069265684 11.2741136231 24.3134177802 
Si 10.9740355304 13.8175365064 13.5409020486 
Si 2.5937915637 8.4385621672 16.4066581991 
Si 4.4640139008 9.9178407907 22.9543104164 
Si 2.8805118563 11.1279434518 18.7978049708 
Si 9.5810124576 12.7973263770 20.5204687191 
Si 15.0518298177 16.2562798487 22.5992699230 
H 10.7460406883 11.5682621558 27.9224524593 
H 3.6027615929 8.9842771722 0.3306273097 
Si 8.2550064455 15.5470132422 27.2102064156 
H 2.4478657424 0.6309035608 17.3650856664 
Si 1.4891259286 3.5297009423 26.3210030399 
Si 13.6779800751 5.4971908703 2.8759607863 
Si 13.2370260611 9.4280167762 28.3871891780 
Si 15.0180606474 6.9847611039 4.0655441809 
Si 13.6598655949 8.3109463060 5.4437906492 
Si 13.6641172850 5.6222329114 8.1389403021 
Si 15.0061689472 6.9828551739 9.4980765333 
Si 9.6584062483 12.4399563538 14.8921286046 
Si 9.6234641980 1.5998734946 14.8403404393 
Si 0.7945268383 1.2813502347 19.8320094358 
Si 11.1624945421 0.5053565296 21.3506959399 
Si 8.2901765558 0.2274996261 13.4844662274 
Si 14.0557125985 14.2271322701 21.7650301298 
Si 4.1484603079 1.0936128700 24.4216417667 
Si 12.3528374330 9.7180439389 14.9322543291 
Si 13.7127266454 0.3766329484 26.4686599327 
H 5.2909757584 7.1906015458 14.7888120808 
Si 1.6942577555 14.5953188535 23.4442195320 
Si 7.6158357097 15.8574680650 23.3506313314 
Si 0.1057611970 13.8231728464 13.5650640855 
H 12.9890759688 3.5358096923 20.9030198711 
H 3.2703478499 7.3718115074 15.5967536474 
Si 15.1988470690 12.7367764465 20.3133737928 
Si 13.5038236835 7.0983349849 28.4193474924 
Si 9.6157916079 9.7036924487 12.1963438683 
Si 14.8882782162 9.8366840100 1.2386407012 
Si 13.6749338451 11.0641355212 2.8168518413 
Si 14.9922409971 12.3487975129 4.2428767893 
Si 15.0127012373 9.6552296983 6.8153976092 
Si 13.6747057851 11.0340641809 8.1612836911 
Si 15.0315976375 12.4000621434 9.5033592726 
Si 5.0217346359 8.9733140021 26.4895888177 
H 7.8635414519 4.1966298384 23.2593813924 
H 2.9139063566 7.4670917183 24.5076089664 
Si 12.3319210728 12.4882562042 17.6668946230 
Si 9.6222913180 4.2898249292 12.2015977402 
Si 11.3036311034 3.8733222054 22.8183448319 
Si 8.1676594647 5.6018541212 18.8701756121 
Si 6.7912847721 9.8307055799 27.7434744076 
Si 9.6140485779 15.1310155084 12.1583832009 
Si 1.5597593693 9.8985208505 20.2511356186 
Si 13.7459093757 8.4204151070 16.3218456965 
Si 10.6542791174 14.3358843111 24.1550799392 
Si 11.5189523253 7.3745645174 24.9400719008 
Si 1.3288926002 4.7676432136 20.5465648738 
Si 13.6402361447 13.8131870763 0.1798440746 
Si 15.0495166376 15.0260427474 1.5495573313 
Si 13.6459702248 13.7539566358 5.5284299473 
Si 15.0194452974 15.1288815184 6.8324293916 
Si 7.0107925241 9.6793226085 20.1712883136 
Si 15.9935710163 5.0091750458 26.5501815485 
Si 12.2996505825 15.2085721991 14.8880005624 
Si 13.6756994751 2.9506077270 16.3273305078 
Si 3.4122011712 3.6400005333 27.8320108083 
Si 4.1597004080 15.1605818587 12.1936014627 
Si 9.8602067702 6.7363386016 20.0096595859 
Si 11.5417094556 13.5510646839 26.1520419856 
Si 15.0225729774 12.6251899455 27.6137153200 
Si 2.3222535512 2.6538527943 20.8837075620 
Si 6.8891388030 1.7170637557 17.4710002586 
Si 8.8154639006 11.3944804342 23.4075001639 
Si 3.0244340077 8.6522706791 21.6122637024 
Si 9.5205276871 8.0086201932 25.9940505538 
Si 11.0104925507 0.3365106781 16.2540649763 

