&CONTROL
  dt          = 30.D0,
  prefix = 'aSiHcSi_merged-23',
  pseudo_dir = './',
  outdir = '/scratch/ztzhao/aSiHcSi_merged/aSiHcSi_merged-23',
  wf_collect=.true.,
  verbosity ="high",
/

&SYSTEM
  ibrav= 0, nat=  406, ntyp= 2,
  ecutwfc     = 42.D0,
  nbnd=1540,
  degauss     = 0.05D0,
  occupations = "smearing",
  smearing    = "methfessel-paxton",
/
&ELECTRONS
  electron_maxstep=200,
  conv_thr    = 1.D-8,
  mixing_beta = 0.3D0,
  scf_must_converge=.false.,
/
&IONS
/
ATOMIC_SPECIES
Si  28.08  Si.pbe-hgh.UPF
H  1.00784  H.pbe-hgh.UPF

K_POINTS {automatic}
1 1 1 0 0 0

CELL_PARAMETERS angstrom
16.29000014898320 0.00000000000000 0.00000000000000
0.00000000000000 16.29000014898320 0.00000000000000
0.00000000000000 0.00000000000000 29.00005545547440

ATOMIC_POSITIONS angstrom
Si 16.2405762885 0.2608810944 0.1051576811 
Si 16.2107330083 2.8428493760 2.7825756210 
Si 2.7134416148 0.0157175044 2.6730134115 
Si 2.4030845320 2.9987772574 0.1379086037 
Si 1.3346022452 1.4693091434 1.5003584691 
Si 3.9058370457 4.3140155795 1.3899378579 
Si 1.2444208044 4.1405759479 4.2077920464 
Si 4.0120967167 1.4410329612 4.0232936936 
Si 16.2361291185 0.0765545299 5.3931113130 
Si 2.6671943044 2.7645433453 5.4540404295 
Si 1.2832252137 1.4293237091 6.7869989785 
Si 4.0077798667 4.1461471279 6.8185220387 
Si 16.2550580987 2.8108558157 8.1636026109 
Si 2.6752904345 0.1101850723 8.1272075413 
Si 1.3222967791 4.1606778081 9.5418012463 
Si 3.9946827065 1.4824779796 9.5123661901 
Si 0.0052571088 0.1360379541 10.8658567783 
Si 4.0429825570 4.1662489881 12.3282425747 
Si 7.9427923026 8.5860192485 16.4227024044 
Si 4.9435589252 0.3344874601 16.9495174118 
Si 3.8938150256 12.5134894144 14.9329695556 
Si 6.8786969129 1.3560252244 24.0603310095 
Si 8.8036047805 12.3931877633 17.1106417199 
Si 16.2507738286 5.5643382509 10.8488337457 
Si 15.7015564736 9.3888556159 23.7332683840 
Si 9.9569205011 4.2987681393 17.7372459181 
Si 9.3903380059 7.2492455463 19.6846286420 
Si 3.9741247263 3.8001963948 25.3768465270 
Si 13.5059413835 13.6945307152 16.1092408050 
Si 2.7309207850 8.4715494175 16.0241836423 
Si 15.6941608135 6.0344839452 0.3365920436 
Si 16.2802098589 8.2803862657 2.8783193041 
Si 2.5846528736 5.4961971803 2.8981582420 
Si 3.0150183876 7.6967155604 0.2536646451 
Si 1.2645438416 6.8524700127 1.5426115499 
Si 3.9614185262 6.8472572126 4.2415481109 
Si 16.1931235181 5.5464844107 5.5129685422 
Si 2.6480372642 8.2480017454 5.5730276570 
Si 1.2707568476 6.8812544429 6.8818291598 
Si 16.1999653182 8.2653180156 8.1984606775 
Si 2.6774407145 5.5216584505 8.1919936652 
Si 4.0348212669 6.8755203629 9.5709173020 
Si 1.7786073763 2.9914467574 25.2126192129 
Si 16.2006983682 2.8793878463 13.6031430127 
Si 8.8695141211 12.8549115276 14.7784862602 
Si 15.8784821652 12.7651210467 22.8571477087 
Si 14.8504365458 9.6282860381 12.2281633834 
Si 1.6452248550 8.7674409802 27.6574398881 
Si 12.0988111707 6.9480760235 12.3574166305 
Si 2.6291734440 5.5525117108 13.5967340004 
Si 10.8299830590 10.2649318239 23.0211720223 
Si 6.5664339001 12.8863349379 17.5012434668 
Si 3.2179917894 0.3335198341 22.6290332725 
Si 14.3398916511 10.9826855204 22.8319466605 
Si 10.3967830851 6.5733408601 17.5380155371 
Si 2.7410042951 1.8881739173 20.8575068849 
Si 9.5215376671 9.6358608881 12.3580836318 
Si 4.0696818672 9.3850926258 1.4863311422 
Si 0.2003588568 10.4466304855 28.8308691319 
Si 2.6971841947 10.8798956195 2.7206605026 
Si 1.2651286526 12.0937775606 1.3047472950 
Si 1.3574310514 9.6171436780 4.1814019959 
Si 3.9678530763 12.2498357620 4.1496759352 
Si 4.0255196768 9.6019776878 6.8971701891 
Si 16.2236998484 10.9841842005 5.4432524089 
Si 1.2682791386 12.3374922528 6.8195370407 
Si 1.2871478458 9.6231546880 9.5324632285 
Si 2.6308838941 10.9929645105 8.1786536397 
Si 3.9909685865 12.3726297832 9.5029411720 
Si 12.1283938109 12.2777242423 12.2881934981 
Si 7.7534047609 6.0923948957 24.4341997244 
Si 13.1992495507 2.1281581995 18.1551077172 
H 14.3144629609 3.2110685394 21.4227179657 
H 2.8182677658 11.0562837411 17.6547117603 
Si 3.9923858165 15.1572424086 12.2597734438 
Si 13.8594180968 8.1287915243 16.4543414649 
Si 6.6754302911 1.4919815656 12.2780144787 
Si 15.2165054292 6.3023241276 21.3575258410 
Si 9.7946395196 5.4502593798 23.5711580740 
Si 14.9129412764 8.2808098057 25.6120369767 
Si 12.3161849326 4.2884402792 15.1574879850 
H 3.7200984640 2.4959212428 28.2442850102 
Si 6.0952293557 14.1384332193 23.5556720444 
Si 11.7116467371 0.7546961589 22.2848026142 
Si 1.4255362840 11.2662455530 19.8997510534 
Si 16.2604663787 13.5965952344 2.6463884606 
Si 2.4976968528 13.4790628833 28.8914792478 
Si 3.9566944262 14.8391964457 1.2569581036 
Si 1.3048778819 14.9858064471 4.0218146907 
Si 2.6259480240 13.6687925150 5.4462974147 
Si 4.0156642267 15.0445970576 6.7553599180 
Si 16.2212400584 13.6973814653 8.1850046518 
Si 1.3254293461 15.0679406278 9.4896881467 
Si 3.6909556538 7.3806895575 20.5725233399 
Si 5.2766894283 7.1885815857 26.9761995853 
Si 11.2694221031 3.0145133976 19.1768086709 
Si 4.4441889706 3.1535974188 19.8678219923 
Si 7.1221835451 10.8125201789 22.0056190803 
Si 8.4843533576 2.9189725467 16.3616862877 
H 3.9979569966 11.8852818487 19.0439594169 
Si 12.1980009816 14.9717644669 14.6882960878 
H 13.2408379211 8.1810009748 22.3532427451 
Si 2.3684519917 12.1963882715 26.8263562988 
Si 10.4230099853 8.4309058671 26.3113733140 
Si 1.3131743790 1.4828998906 12.3153375501 
Si 9.8842182304 9.5222544271 19.6935316590 
Si 5.6426117016 3.2890813501 23.8853156748 
H 7.5519626191 13.9711837878 21.1481164406 
Si 5.7634020527 15.7866717244 0.0531376716 
Si 5.3114848686 2.7950708056 2.5911027548 
Si 8.0865026840 0.0025823723 2.6820092287 
Si 8.0097767833 2.8788991463 0.0691860123 
Si 6.7136140514 1.3306291142 1.3106314063 
Si 6.6855138011 4.1094783376 4.0299347063 
Si 5.3790394992 0.0950586669 5.3832222941 
Si 8.0709457338 2.7952499956 5.4074953405 
Si 6.7103560514 1.4583687793 6.7777189607 
Si 5.3742828192 2.8181537358 8.1695476223 
Si 8.0692515738 0.1374507859 8.1600936042 
Si 6.6972914713 4.1984868984 9.5462962549 
Si 5.9563571045 16.1069005473 20.4204180490 
Si 8.0523262636 2.8758854963 10.9284678980 
Si 9.3585073456 9.7489623592 24.7273612850 
Si 1.2689942696 4.2373059688 14.9909406665 
Si 5.6271036215 12.5985720852 21.8355627551 
Si 11.9480797993 12.0221015600 26.1949960915 
Si 5.8299467033 9.3624169456 23.4698028802 
Si 9.4326431363 11.0799368213 21.3488548244 
Si 12.8463592775 13.9343195174 23.6829242878 
Si 3.6704302536 11.6461120665 22.7972045940 
Si 1.3070591130 6.9191449833 12.2164763610 
Si 1.0385542985 12.4175738936 17.8577411485 
H 11.6155194462 2.3627993616 13.1787272011 
Si 4.1812194982 6.1579458563 25.1381760706 
Si 5.0079695858 2.6677807444 27.0939978106 
Si 2.0276000285 6.5703435001 24.2885614459 
Si 1.1753609777 3.4924457119 21.5793762653 
Si 0.9814969440 4.5404140015 23.6783422790 
Si 5.0383667261 5.9853533047 0.1045718800 
Si 5.3762050392 8.1915731849 2.9790016966 
Si 8.0752625839 5.4974026403 2.7448784489 
Si 7.8117229614 8.5483404782 0.3196038112 
Si 6.6694192810 6.9073998932 1.5270907202 
Si 5.3890089793 5.4682924100 5.4681634565 
Si 8.0964232940 8.2561793255 5.4643354492 
Si 6.7290732615 6.8772959729 6.8017020066 
Si 5.4014545394 8.2174742852 8.2060006920 
Si 8.0704407438 5.5413367707 8.1864546546 
Si 5.3947104793 5.5448391207 10.9713009799 
Si 6.7711992019 6.9458768735 12.3070145341 
Si 11.2271821327 0.4026334177 15.8838813740 
H 8.5606882983 12.1021017507 26.6794420179 
H 14.2616344904 12.6118973053 28.4784314580 
Si 1.9031932974 0.7491363819 24.5441389346 
Si 12.5936362152 13.7708004959 21.3226967744 
Si 13.8575284567 10.5473515565 20.5401882781 
Si 9.3794562858 15.1500422286 25.2641233114 
Si 11.9921931197 4.4542887707 20.9008329677 
Si 12.9004257880 2.1357656295 15.8815033695 
Si 4.2750498991 14.5622827332 19.9379151264 
Si 3.8742507354 10.0020926715 17.3251261300 
Si 13.2980484016 15.9527808559 21.0240542033 
Si 0.8663543359 1.7342008359 17.4783334230 
Si 2.5596151434 3.0173804376 16.4746415037 
Si 15.1252814283 14.1871566098 24.5547529549 
Si 14.9380767466 6.8152147823 14.8935004802 
Si 5.9080572540 10.1186150425 0.1931534194 
Si 8.0515606336 11.0846772114 2.8000249544 
Si 6.5265559797 12.1228552109 1.3176233196 
Si 6.7448582717 9.6638145284 4.1716869773 
Si 5.3559239890 10.9598306502 5.5264535680 
Si 6.7309791916 12.3395936629 6.8325000655 
Si 6.7812338420 9.5887664977 9.5278232196 
Si 8.1041284641 10.9678453303 8.1580926003 
Si 13.4703314432 13.6257217546 10.8678577821 
Si 8.1415954645 8.3004718359 10.9622819627 
H 10.9237482999 4.2473406088 14.6744630613 
Si 5.3622770890 0.1533763787 10.8646097759 
H 6.7076193313 4.2318813987 24.5137758766 
Si 13.7932318261 12.6742717159 19.6268315315 
Si 5.3373696788 10.9384093000 10.7710845971 
Si 1.2386117903 15.1489182185 27.7916521447 
H 9.8456272200 2.3574236616 13.9227526238 
Si 15.3702504506 2.6117594339 18.6822997253 
Si 6.4882907693 4.2791061091 27.9539944551 
Si 0.6396235978 7.2225951061 26.1552660155 
Si 13.5384888038 5.5053684504 13.5568299241 
Si 10.3223703644 13.6364405747 18.3726081331 
Si 16.2269904284 8.2769002057 13.5610349321 
Si 12.2659791522 1.4579028853 12.1516902371 
Si 12.4276574037 11.6613757967 23.9806388571 
H 15.3991326208 13.7107718454 21.7653246208 
Si 5.2605786181 13.5350027438 2.7190770996 
Si 9.2570206447 13.2726034214 28.7282669357 
Si 6.6818648411 14.9564192868 4.0188566851 
Si 8.0621328437 13.7125311654 5.4671194545 
Si 5.3586769990 13.7119447254 8.1457965768 
Si 6.7051921213 15.0724203778 9.5017521698 
Si 14.9048288563 4.1997412284 12.1792402898 
Si 15.7689156242 13.8058077063 18.9324832037 
H 3.3171816003 4.8032857339 27.3844333660 
Si 16.2534616786 13.6566564649 13.5864969808 
Si 7.1777650256 14.5260049029 14.5918129033 
Si 9.1801318440 1.5131373888 27.5658287129 
Si 8.0447188336 11.0636468212 13.5027738207 
H 13.2564274512 12.5713840750 26.7055420678 
Si 5.6272013615 1.4760532035 18.8543280543 
Si 0.0261327440 5.6714450019 16.3589892825 
Si 5.7609422627 6.9321281134 23.5207849777 
Si 13.5375276938 10.9488349001 13.6526751074 
Si 6.9470008835 13.6921035052 28.6287677455 
H 8.0325990735 15.6969301136 17.1461087877 
Si 9.4539504565 4.2019729584 1.3648267099 
Si 10.6662196875 0.2545736063 0.0397031059 
Si 10.7969143587 2.8329450559 2.7403950403 
Si 12.1591330412 1.4948877017 1.3747621289 
Si 9.4236510562 1.4152247139 4.0469287388 
Si 12.0930933806 4.1542758380 4.1867960062 
Si 9.3966585259 4.1813823982 6.7974389984 
Si 10.7881177587 0.1312381056 5.4768344731 
Si 12.1397805210 1.4733360315 6.8548591082 
Si 9.3950621059 1.5388821051 9.5078711815 
Si 10.7776595786 2.8712102663 8.1687066206 
Si 12.1246308209 4.2323700987 9.5349572333 
Si 10.8092947589 0.1906874837 10.7981996489 
Si 4.0241513168 6.9114886832 14.9051295024 
Si 2.4845345327 13.7169457555 16.4903885338 
Si 9.5522280274 0.3767469784 21.4897370938 
Si 12.4575984239 0.6002962795 25.9669106553 
Si 15.7315952339 9.0244483125 17.6650067800 
Si 8.3157355661 13.6351373747 23.9290477584 
Si 12.3286304928 12.5899383851 17.7665649742 
Si 12.1897908215 9.3451332555 19.2896478867 
Si 14.7859444352 1.3884602437 14.7277651632 
Si 15.5174957619 2.3939621319 20.9921831424 
Si 3.9679019463 1.5711069834 15.1894170460 
Si 3.4116147312 9.5850035077 23.7993305104 
Si 5.6034831212 6.2512386872 21.3010337330 
Si 11.4352868846 15.7605425641 24.2220353187 
Si 10.3939486251 13.1446943402 20.6667735201 
Si 9.3462409755 10.1743105531 17.5066084771 
Si 2.8523301561 13.8311549465 25.2732873289 
Si 10.6559081175 5.6379690516 28.9213493050 
Si 10.8225059490 8.2642917456 2.7367439333 
Si 12.0949015706 6.8473875326 1.3605666017 
Si 9.4252474762 6.9056568632 4.0719557866 
Si 10.7483375783 5.5634260109 5.4773564741 
Si 12.1466060311 6.9089311532 6.8081690189 
Si 9.4171513461 6.9715173338 9.4955461579 
Si 10.8062648188 8.2886941658 8.1507265863 
Si 10.7958392187 5.6724875619 10.8515887510 
Si 0.0478702831 11.8572141784 26.9634975611 
Si 11.3862376941 7.0079091941 24.6388531157 
Si 9.4093810161 7.0944742549 15.3264133080 
Si 3.5959849529 4.5166631813 18.0641925433 
Si 4.0206163868 9.6420673782 12.2152293586 
H 2.9055658766 5.3492450889 27.7603900849 
Si 15.5936840926 14.0379239184 26.8743803906 
Si 6.6462223208 12.3096363526 12.0996641376 
Si 14.6040340036 1.3668808805 25.4886997409 
Si 5.7562018726 3.9711273663 21.6664344317 
Si 5.3894325193 2.8227800958 13.7558283046 
Si 9.1094658233 7.1766898856 27.8250022085 
Si 10.5190721162 13.8202732264 26.8236882937 
Si 12.0203911099 4.1074420876 27.6524228785 
Si 1.2940971598 12.3743728132 12.1623622575 
Si 9.4080778160 9.6942605387 1.5450939546 
Si 10.5484266965 11.2254065227 0.1980851688 
Si 12.1771823614 12.4235197436 1.3930466639 
Si 12.1960461815 9.6344436581 4.0493067433 
Si 9.4568012065 12.3927968033 4.1370029110 
Si 9.4622583565 9.6271294480 6.7872019789 
Si 10.8167392889 10.9704517303 5.4183123612 
Si 12.1541971712 12.3261381227 6.7962789962 
Si 12.1600127012 9.6115236279 9.5315062267 
Si 9.4497150564 12.3215606327 9.5252422147 
Si 10.8034140688 10.9510340502 10.8935228312 
Si 8.2084822051 4.2633210990 19.3444289915 
Si 1.2631298696 15.0387815275 14.9703506271 
H 1.8257017667 13.9829451679 24.1516231840 
Si 0.8672519149 3.3145914903 27.3668593324 
Si 2.6754859145 0.1728499336 13.7356152660 
Si 10.2734677840 3.2239213495 24.1443441701 
Si 2.5054183129 14.6670600141 21.4670300504 
Si 8.1625281147 5.6888264320 13.7443442827 
Si 4.8225568041 8.8486303409 19.0940425127 
Si 16.2097393182 10.9809750704 10.8675387815 
Si 1.7265282458 12.5164704845 21.9050468880 
Si 7.0035597641 4.0643876172 14.9626366124 
Si 16.1209099474 0.1578939215 16.1475788783 
Si 7.7471656909 2.1718805599 18.4279402389 
Si 9.5934905977 14.9773356470 1.3880615543 
Si 10.8962833597 13.7227775755 2.8388589286 
Si 12.2046310116 15.0837907980 4.1773999883 
Si 9.4300693162 15.0568471377 6.8242640497 
Si 10.8002700988 13.6862716852 8.1605866051 
Si 12.1656164613 15.0453789776 9.5100171856 
Si 9.6848449186 1.2031223960 19.3228819503 
Si 14.9378161066 12.2636171022 14.9624626120 
H 2.6139422939 10.3075464643 19.8361829318 
Si 11.7431027274 8.1244095143 22.5948132070 
Si 2.6811385445 11.0874790914 13.4990618136 
Si 16.0032146964 5.3116477686 27.1638009441 
Si 9.3698126057 4.3940972202 12.1596942524 
Si 13.8245737864 4.7680830436 26.3188843284 
Si 3.3186477004 15.3499856904 17.9626343491 
Si 7.3646113274 6.1008331158 26.7107910778 
Si 13.5987943844 16.2511647886 13.3402575100 
Si 14.9764071170 14.9271787365 12.0851351098 
H 8.3995150368 8.1421819045 22.1016962641 
H 6.1796115565 4.8446460443 16.2036649855 
Si 1.1909374759 7.4291523079 17.3717002191 
Si 3.0371402078 10.0193926516 26.2160501317 
Si 13.0344924892 16.2161575783 18.7416048387 
H 10.3388558446 3.5502915025 12.8801426301 
H 7.4047173077 10.5716236567 18.8818201068 
Si 15.0306853975 5.1988558075 23.4197777846 
Si 13.4984479835 0.1189298702 2.7457571506 
Si 13.5075540935 2.8702654463 0.0160680607 
Si 14.7691494451 4.2096455485 1.4865544427 
Si 14.8437739358 1.4740413885 4.1055378508 
Si 13.5059088035 2.8165084458 5.4997445169 
Si 14.8586467059 4.1782221382 6.8578751140 
Si 13.5338298638 0.0928106468 8.1538005921 
Si 14.8988341363 1.4513917723 9.4994321653 
Si 13.5595680640 2.8624136662 10.8029266579 
Si 2.6634801844 8.2733001157 10.8751367960 
Si 6.6816693611 9.7883189995 14.8822194586 
Si 15.2789775797 1.8878481173 27.7078709845 
H 6.3027476676 13.1375593202 27.3844043659 
Si 5.1851884974 9.5926272277 27.0333296946 
Si 2.6729120944 13.7582571958 10.8798058050 
Si 7.6797739602 0.3809335085 26.0562018261 
Si 13.9359973875 3.3472855206 24.3763156137 
H 0.7311440767 9.9728684112 24.1880472537 
H 15.7353745139 11.2373145128 25.7356642131 
Si 2.9566513170 15.9073154655 26.3079513075 
Si 10.6223832971 6.3068364577 21.4839950829 
Si 7.9950506231 8.2807446457 23.5719990757 
Si 8.1162808042 3.9407790960 21.6368833752 
Si 10.9390771900 2.4561573525 26.3070233057 
Si 8.0725421538 0.0535059716 13.4933488027 
Si 6.0618674354 10.8351958591 25.2964583733 
Si 13.3912597825 5.5232222905 2.8340971195 
Si 13.9897380979 7.7156934106 0.2840511932 
Si 14.8438065158 6.8825902229 4.1200958787 
Si 13.5027974135 8.2689669756 5.4487624194 
Si 13.4962814134 5.5562421208 8.1780156384 
Si 14.8340162257 6.9119610932 9.5514292648 
Si 13.4708038532 8.2517973155 10.9315129038 
Si 0.5578298781 15.3415474703 20.3588509313 
Si 0.0754126009 8.3083724860 21.7592636092 
Si 13.9294813874 9.2494783746 27.5443106717 
Si 13.6158825945 5.7555828526 19.7033336778 
Si 5.0346526060 5.8830032338 16.7542600384 
Si 9.3821115558 1.3596644104 14.8937324806 
Si 2.6790371345 2.8235945958 10.9369939143 
H 12.2340181719 5.1959561875 16.3567272782 
Si 15.9492459259 0.0257152313 24.0924340709 
Si 8.8592514210 14.4067295218 21.7891046663 
Si 10.8185800589 15.8979975854 18.0477785119 
Si 8.0645763438 13.7025128153 10.8283887066 
Si 14.6677604841 15.1846584789 17.4410683518 
Si 5.4233320096 11.2816558932 16.1548288921 
Si 15.9294535757 9.7260097490 19.9249811016 
Si 5.3033724485 12.5409054847 19.4472341881 
Si 10.6855559177 13.6795276251 13.5143448429 
Si 5.3354311688 0.3084218308 26.8952604306 
Si 14.9565333168 9.5261477371 1.3998239768 
Si 13.5451025439 10.9677964603 2.6343389375 
Si 14.8776897161 12.3097992526 4.0357057173 
Si 14.8733402860 9.6112629879 6.7975549987 
Si 13.5036770735 10.9561002402 8.1462605777 
Si 14.8460219558 12.3118355026 9.4989391644 
Si 12.4380015538 9.5169927570 15.1693780077 
Si 11.7047397770 10.0669594521 27.4313844558 
Si 0.6107235086 5.2264999378 20.1412635152 
Si 2.3098079911 8.0063233032 22.4227558780 
H 7.3023672368 15.6300433729 19.9281711077 
Si 9.4719346166 15.0933693180 12.1046521472 
Si 15.3820769907 4.8634284145 18.3906751676 
Si 2.3238499713 6.2583411272 19.0509194302 
Si 13.6414090248 6.5181340496 24.8582675353 
Si 10.8362221291 8.3150025160 13.8729885287 
Si 6.2921102975 10.4154025553 19.8995770530 
Si 5.5614712109 16.2528426586 22.7474404989 
Si 1.8678114171 0.5062818016 19.1174745575 
Si 8.6944291995 2.0419840987 22.8458956872 
Si 12.1804892314 2.9974740574 22.8316276599 
Si 13.4910523234 13.8432258366 0.0256153430 
Si 14.9117521064 15.0942326880 1.3984232741 
Si 13.5530683540 13.6595886649 5.4517204251 
Si 14.8949408262 15.0355723975 6.7922479885 
Si 5.3788603092 8.3150513860 13.5995760058 
Si 6.3171643178 7.5174441088 17.8361941073 
Si 11.6807283168 10.4261050854 17.1890288698 
Si 12.5694292750 7.2776878866 18.2228518467 
Si 5.3203466287 13.6826064351 13.4794287761 
Si 12.1074774507 15.2976622099 27.6841489391 
Si 8.2236970652 11.6779590168 25.2629923093 
Si 6.6977964613 15.1027360681 16.7466910239 
Si 15.4253106511 0.2291563191 21.7998346868 
Si 7.2464599563 6.3679891182 19.6062994922 
Si 1.2900767878 9.7605119693 14.7831262691 
Si 0.0128654512 10.9244161899 16.3650792942 
Si 4.7218357332 12.6666642858 24.6398681177 

