&CONTROL
  dt          = 30.D0,
  prefix = 'aSiHcSi_merged-26',
  pseudo_dir = './',
  outdir = '/scratch/ztzhao/aSiHcSi_merged/aSiHcSi_merged-26',
  wf_collect=.true.,
  verbosity ="high",
/

&SYSTEM
  ibrav= 0, nat=  406, ntyp= 2,
  ecutwfc     = 42.D0,
  nbnd=1540,
  degauss     = 0.05D0,
  occupations = "smearing",
  smearing    = "methfessel-paxton",
/
&ELECTRONS
  electron_maxstep=200,
  conv_thr    = 1.D-8,
  mixing_beta = 0.3D0,
  scf_must_converge=.false.,
/
&IONS
/
ATOMIC_SPECIES
Si  28.08  Si.pbe-hgh.UPF
H  1.00784  H.pbe-hgh.UPF

K_POINTS {automatic}
1 1 1 0 0 0

CELL_PARAMETERS angstrom
16.29000014898320 0.00000000000000 0.00000000000000
0.00000000000000 16.29000014898320 0.00000000000000
0.00000000000000 0.00000000000000 28.95393846505263

ATOMIC_POSITIONS angstrom
Si 16.2637080887 15.9448639158 28.8249776231 
Si 0.0349951557 2.3725570717 2.7967304058 
Si 2.6768868545 16.0373422467 2.6857818090 
Si 2.2513594706 2.9685104371 0.3084231433 
Si 1.2801773547 1.0635008047 1.3038885017 
Si 4.0707081372 3.9172400458 1.4414718265 
Si 1.3818188106 3.7841833246 4.1018465545 
Si 4.0259106368 1.0921940110 4.0732690172 
Si 16.2885503390 16.0078573464 5.4189033074 
Si 2.7169276748 2.4439887224 5.4655191483 
Si 1.3420223403 1.0815354639 6.7819389145 
Si 4.0636708572 3.8157859249 6.8040886775 
Si 16.2870679490 2.4270634122 8.1573668074 
Si 2.7040422847 16.0291157966 8.1271388956 
Si 1.3487077563 3.7808275846 9.5177676062 
Si 4.0640618172 1.1189747712 9.4450063588 
Si 13.3484985321 4.3910184102 22.5695950335 
Si 0.0117100177 5.1413846870 10.8898368422 
Si 16.2758441389 15.9846603862 10.8222873037 
Si 5.1969498775 9.7132058088 16.7838453258 
Si 5.4310534697 5.1385828070 10.8500251768 
Si 3.6985142138 7.2369140162 22.9700280025 
Si 0.0693317067 13.2227560209 13.4009540173 
Si 13.4852856633 8.0207073734 16.2292036806 
Si 14.6686401442 13.8846838870 18.2139672084 
Si 10.8965114197 7.7846652712 13.3280480003 
Si 7.8933195722 1.9059951774 16.2201990057 
Si 4.1761533082 1.2081038780 16.6413340407 
Si 2.7956246656 5.0995519666 13.6982530575 
Si 6.9202201233 3.6154026331 14.8613617196 
Si 13.6610547649 13.1118862799 16.2032899056 
Si 14.9685553369 4.5581538117 27.4916777108 
Si 0.7263108336 4.7982032539 28.7464255881 
Si 16.2114660583 7.7882002012 2.7441471581 
Si 2.7396848051 5.2158788577 2.8292601557 
Si 2.4357134023 8.2538498555 0.4634685884 
Si 1.3272668581 6.4514102090 1.4411446470 
Si 4.1101950976 6.5816161802 4.1194215951 
Si 0.0034184240 5.1306658669 5.4368837032 
Si 2.7006376747 7.8889538521 5.4310929155 
Si 1.3765310766 6.4870038593 6.7673171756 
Si 0.0299682246 7.8397580517 8.1107509665 
Si 2.7020549047 5.1451802571 8.1649527393 
Si 4.0767191473 6.4987978194 9.5008874600 
Si 2.7140443448 7.8216924415 10.8733910051 
Si 4.2457930588 6.4141386887 15.0554689231 
Si 2.7211304949 2.4290182122 10.8555264251 
Si 0.1990214478 0.3917810196 16.4517726055 
Si 14.9634728569 13.1582964903 21.0060823564 
Si 12.3277671227 2.0112611584 19.9305593582 
Si 10.8340066891 2.3854424618 13.6683146851 
H 6.6424756207 1.4299248101 23.6804707906 
Si 2.3294537313 5.5612920209 26.9875606881 
Si 8.2041816450 5.0648216863 13.5211418159 
Si 4.2659274990 11.9919161897 27.5840986823 
Si 9.3513234555 13.8389252766 21.4989942048 
Si 0.4944666645 0.0355698669 20.1327736644 
Si 2.6570293443 10.5498602165 13.3911386322 
Si 6.2026944867 0.9364192556 25.0437669832 
Si 0.8022026863 5.8469371735 18.1135839037 
Si 6.6312843906 9.3070472351 14.8796606087 
Si 4.2264242487 9.3642902956 1.4507110282 
Si 0.7118876675 9.9663198311 0.2954749420 
Si 2.8363659559 10.6447168874 2.8396980505 
Si 1.4843904256 11.8902828787 1.4196781970 
Si 1.3643054315 9.2012273942 4.0137686737 
Si 4.1271366977 12.0145429999 4.1761423606 
Si 4.0750901473 9.2209708743 6.7758585875 
Si 0.0141067817 10.5641465466 5.3761383403 
Si 1.3545232864 11.9276032691 6.7336437452 
Si 1.3947139748 9.1680446638 9.4586726178 
Si 2.6962882447 10.5607419366 8.0881668945 
Si 4.0762630273 11.9005292888 9.3966822355 
Si 13.2162726009 2.0492005687 16.0597941866 
Si 2.8205157858 4.3159052195 18.4153997583 
Si 9.4314376763 12.3259100627 18.3793231510 
Si 16.2454632886 10.4951583960 10.7168081059 
Si 15.4848831816 9.7484084992 25.8607023570 
Si 12.7023719662 0.3808178495 21.6017227785 
Si 13.0456511393 12.4276411137 19.7619895284 
Si 1.7862799663 9.6523137883 19.3745279239 
Si 0.0760834231 7.8158769115 13.5974354438 
Si 8.8901372613 13.5007774535 16.4163329849 
H 15.1150187282 2.7491981651 18.6737557512 
Si 1.0365375965 0.3575817933 24.9443970664 
Si 6.6938379912 11.9870454796 12.0242811052 
Si 10.8068512588 2.6894464446 26.6586149932 
Si 0.0152460718 13.2566718012 2.6704246400 
Si 2.8099109957 13.2386550611 0.0192510973 
Si 4.0568616371 14.6698130242 1.3864217033 
Si 1.3341314642 14.6602345041 4.0318069773 
Si 2.6939261946 13.3491012621 5.4344515723 
Si 4.0638826272 14.6794078343 6.7854712950 
Si 16.2763165489 13.2756170714 8.0724449059 
Si 1.3126856790 14.6525293340 9.4153864798 
Si 13.6599307549 10.5856330568 13.4802588548 
Si 1.5310808240 9.1518686937 14.9007101220 
Si 2.6746062545 10.5497624765 24.1954165862 
H 1.7966892764 15.2271916693 23.1733715123 
Si 2.6642621044 13.2397627811 10.6751723424 
Si 10.1449071028 1.2850806448 19.4479551118 
H 12.7327202364 15.2573933295 21.0665092260 
Si 4.6863235329 15.3129748100 24.9086389524 
Si 13.4660960432 10.8252589590 26.3737951006 
Si 4.0244608268 1.1871467929 27.5376565650 
Si 6.7250822115 9.3797983758 27.0924318533 
Si 8.5790308385 2.6466037442 18.2986864323 
Si 11.0579779011 15.6409088030 18.4344804037 
H 8.1843567149 2.9066898866 24.7529246713 
Si 0.4448000831 12.7658378068 26.2987754460 
Si 10.4645331957 6.8427123026 21.9711171254 
Si 12.2733748122 6.4200356687 12.0809150088 
Si 7.2147270360 12.7942312770 25.0133653478 
Si 5.2939405384 16.2122642683 0.1323863824 
Si 5.3768403492 2.5134981530 2.7971560287 
Si 8.0809803739 16.1026162773 2.7772820453 
Si 7.9971520331 2.6718858244 0.0925848509 
Si 6.7352145916 1.2178778781 1.4344997181 
Si 6.7450048817 3.7994307647 4.1928487831 
Si 5.4037840094 16.0362345267 5.4249836344 
Si 8.1539595746 2.4559944525 5.4769559540 
Si 6.7844103920 1.0824363009 6.7791882904 
Si 5.4409903698 2.4594316425 8.1166575699 
Si 8.1746641648 16.0156765465 8.0863427963 
Si 6.7916757321 3.8236865750 9.4595991438 
Si 0.7084472195 4.9258028250 23.9359313897 
Si 4.5671784718 16.1318568275 21.1826434732 
Si 2.7628003153 15.9359044157 13.3993036429 
Si 8.2308320853 2.4799733327 10.7112199958 
Si 1.4229559480 6.4280829288 12.2759487383 
Si 9.5640545675 6.5107872595 14.7705332146 
Si 15.3708043106 3.7819678846 25.2782070230 
Si 16.2863511889 1.9291921376 26.2936505989 
Si 14.6325089238 8.8889480913 19.6524567792 
Si 7.2855233766 6.1605196763 24.2531507395 
Si 11.8551616384 6.4456109689 25.7554837446 
Si 3.4138138812 15.5603547523 17.7249641417 
Si 1.3401261843 1.0560448717 12.1673714690 
Si 2.1475595896 13.8823381270 22.5764281630 
Si 10.9437524201 13.2349735210 13.4316162382 
Si 5.3196135787 5.4034907894 0.1022569140 
Si 5.5012796603 7.9293693425 2.7818596630 
Si 8.1079891942 5.1369700970 2.8845477012 
Si 8.7581393901 7.3351101371 0.4370191656 
Si 6.8345347225 6.5136868796 1.4995186823 
Si 5.4132484995 5.2004359376 5.4873214640 
Si 8.1713084247 7.9010084523 5.4725549553 
Si 6.8051801422 6.5385454198 6.8011353757 
Si 5.4184612996 7.8620427719 8.1378808068 
Si 8.1598565546 5.1803992374 8.1340588869 
Si 1.8783999172 2.0693024289 16.4300861056 
H 6.2830204775 14.3187961010 20.3204241396 
Si 10.8458983892 10.5515055065 10.8243140794 
Si 8.1453421645 7.8595666919 10.8371985820 
Si 3.9325363560 3.7196260540 21.8589206139 
Si 14.4440824921 12.8648972977 26.9183028673 
Si 8.2893783458 8.0746109838 17.8911597484 
H 2.8629512362 2.3724756217 27.8882308520 
H 15.1099362482 4.0582299971 16.6216453625 
Si 9.4973144369 0.8369964977 14.9272319296 
Si 10.3604563848 5.0007531157 26.8632903842 
Si 0.9753148889 10.5871968968 27.0583530677 
Si 12.2835560623 11.8889470987 12.0993007597 
Si 1.0745763758 12.2672823522 23.9369158236 
Si 9.3310912753 4.8146072840 18.2324977290 
H 4.4881231010 10.9096737398 19.3382486390 
Si 5.6350042715 10.5817397468 28.8966096669 
Si 8.1548392346 10.6096119370 2.7654369891 
Si 6.8235878424 11.9748442695 1.3985447173 
Si 6.8253960324 9.2736690248 4.1424978841 
Si 5.4538594699 10.6036986670 5.4790985454 
Si 6.8376949825 11.9526735793 6.7821126382 
Si 6.8035511422 9.2046971642 9.4590779729 
Si 8.1751691548 10.5755658367 8.1268493562 
Si 16.1149315174 5.0672000263 16.1414153391 
Si 3.3242025904 8.2307995053 16.2454468400 
Si 5.4637800800 7.7696458911 13.5551626936 
Si 5.3927719693 10.5311104263 10.7685198400 
Si 8.5008062577 4.1453977879 23.9419538089 
Si 7.3043057468 5.9608205645 17.8800124821 
Si 5.7717425328 5.0309059060 16.2856638606 
Si 10.2980982642 14.6508840440 23.4608841213 
Si 5.4715178300 16.0428808467 10.6972931514 
Si 5.5128455604 13.6042515344 26.3520506928 
Si 10.3208228144 10.1057296524 15.6187388420 
Si 7.5040211486 11.5119476253 19.4893302899 
Si 10.4410104355 8.4794174876 18.7379755867 
Si 9.5630282975 3.7160748340 12.1871470090 
Si 5.4336761597 13.3202028018 2.7350932616 
Si 8.0832121039 13.4564034931 0.1129588688 
Si 6.7726001419 14.6839201643 4.0935367741 
Si 8.1658512747 13.3199095818 5.4101592179 
Si 5.4388400897 13.2935034916 8.0903094859 
Si 6.8183261724 14.6513727440 9.4016912669 
Si 1.3139579280 11.8482220984 11.9923159571 
Si 12.2113262017 9.1720357139 14.6537619808 
Si 8.1571198346 13.2962239216 10.7589650403 
Si 14.9372296666 14.6246245638 12.1841937073 
Si 15.3821910207 3.9326992560 21.3991031171 
Si 14.8680297460 3.8218295150 12.2089782786 
H 15.9920560463 14.2722229905 23.1809574442 
Si 4.0722719772 3.7872458446 12.2148559281 
Si 11.8754101086 1.5432071001 24.9621458307 
Si 4.7422959734 8.3063525260 26.3405270253 
H 12.5367189547 15.9764176461 18.3854903399 
Si 10.6363275373 13.4274724528 26.5535411505 
Si 9.1997938741 9.8400234600 22.5473005009 
Si 15.0985006681 11.8961635688 14.8257194213 
Si 13.6464426348 10.1978333133 23.0076681225 
Si 2.7950219356 0.3431390791 19.7427062054 
Si 0.4694859493 5.8124349532 21.6459933504 
H 14.2629214004 14.2999485708 21.6536661441 
Si 10.5837108368 8.3862875567 26.2133323736 
Si 9.4619977165 3.8620658153 1.4711959397 
Si 10.6185225671 0.0126635040 0.2130726122 
Si 10.8713596594 2.5012643629 2.7696411010 
Si 12.2553743621 1.2106369731 1.4057166079 
Si 9.4992366569 1.1302979503 4.0968954310 
Si 12.2469524320 3.8524384252 4.0769172134 
Si 9.5248771171 3.8169099349 6.7993112776 
Si 10.8752855495 16.0348335866 5.4024285164 
Si 12.2393775819 1.0831318839 6.7531007918 
Si 9.5557303774 1.0600815337 9.4329615204 
Si 10.8932371296 2.4281548422 8.0982139111 
Si 12.2438736220 3.7488503143 9.4692987132 
Si 3.8313917450 6.9806071538 28.0337243928 
Si 15.2348642593 16.2038097582 18.3752406456 
Si 10.0751370321 10.1178819925 24.6950457484 
Si 10.8889365696 16.0323900866 10.8494750519 
Si 4.8145747040 3.3040844402 17.5999410354 
Si 1.4742678195 14.5187232728 27.5417390704 
Si 1.2890619208 3.7306218041 14.8807029505 
Si 4.8750106046 13.6618203949 17.6084824472 
Si 9.3208448652 11.9746650795 27.7511049994 
Si 7.9240750925 10.6866310577 13.4635813862 
Si 12.2188196017 14.4860292425 14.9556067893 
Si 3.2148478194 10.2277580435 26.4054707092 
H 12.0789862405 1.0301714644 15.9302253120 
Si 6.1549810763 12.5485943648 22.9377443611 
H 0.8620554049 2.4679676026 27.4249099287 
Si 10.4024845851 5.6032713512 0.2179533777 
Si 10.9598632302 7.9056185223 2.8669929283 
Si 12.2004770616 6.5747743801 1.3896095319 
Si 9.5238671371 6.5384476798 4.1374019909 
Si 10.8893438196 5.1762452873 5.4586860188 
Si 12.2431405720 6.5146316996 6.8194053109 
Si 9.5185565971 6.5046785095 9.5038697157 
Si 10.8795046595 7.8580354319 8.1571641298 
Si 5.3414910489 2.7288193750 26.3433934652 
Si 8.2879774058 7.6518040300 22.5956825321 
Si 6.7084989914 8.0538086537 20.8168683685 
Si 10.8715877194 5.0846466165 10.7993557844 
Si 10.8078123688 8.9672215420 20.9836141001 
Si 12.0857628805 3.8648514053 15.0630548549 
Si 9.4066280060 12.0100143798 14.6702657257 
Si 12.9981006289 11.3818719741 17.6435456667 
Si 13.8325395965 6.5497855199 27.1031158566 
Si 11.9918510297 6.9650664937 17.6947362299 
Si 12.0769662805 9.4645552466 27.6975691672 
Si 8.4758988475 7.8321017516 27.1948419336 
Si 9.4219894762 9.2706716648 12.2056485757 
Si 15.0094106573 9.1642165138 12.1960648221 
Si 14.2273277501 7.9463435227 23.4686148228 
H 6.9292447834 15.5402366021 22.5425231010 
Si 10.8992481397 0.5763369473 23.0694268732 
Si 4.0145565067 14.6746511542 11.8903980937 
Si 4.1142187276 9.1609748038 12.1934879215 
Si 4.5093001012 14.3312742411 22.7297682211 
Si 9.5826903276 9.2273728444 1.5349148721 
Si 10.7379282682 10.7029373479 0.1357803631 
Si 12.2492981920 12.0202770799 1.3268895104 
Si 12.3289074228 9.2989348150 4.1048577641 
Si 9.5405643873 11.9716677195 4.0703736234 
Si 9.5584670974 9.2367721745 6.7921307009 
Si 10.8914615196 10.6096119370 5.4207853134 
Si 12.2360055519 11.9668784594 6.7628293152 
Si 12.2399803119 9.2065868042 9.4966022772 
Si 9.5371597772 11.9331092891 9.4538952179 
Si 14.9420026367 1.0466569446 14.8046120002 
H 1.2943936378 2.8654761862 20.4349948741 
H 3.2715695999 11.4666288449 21.2850535535 
Si 9.2193255843 1.3187504461 21.6238725414 
Si 6.8331174925 6.4535279090 12.1918085931 
Si 6.1805563765 4.0886922974 21.1194370255 
H 12.0602527403 2.4612887025 27.5165780978 
Si 10.8875356296 13.6280186446 19.7030103558 
Si 1.7936919164 1.5394929801 23.1443596660 
H 5.6518318417 10.1311094727 24.7237391014 
Si 12.8791184678 10.1050291824 20.8101510548 
Si 1.9246960976 14.0650793486 14.5469798557 
Si 2.7832605555 2.6875405146 20.1053832386 
Si 6.3970993485 2.6758280045 19.2850602540 
Si 0.0557121263 9.7557878692 20.9328288921 
Si 10.4179600853 15.3329300602 16.1968910852 
Si 6.7242025515 4.1111724976 27.6649959864 
Si 9.4667543966 14.7400717948 1.4923467918 
Si 10.8979775197 13.3422105920 2.7292822061 
Si 12.2513018620 14.6995748544 4.0553175754 
Si 9.5351072372 14.6644699041 6.7506397071 
Si 10.8836097395 13.3171891518 8.1198714571 
Si 12.2337738219 14.6753027542 9.4787666511 
Si 14.8483025558 6.5864380202 14.9251472460 
Si 14.5367888829 0.7938524323 22.9505420019 
Si 13.6310160047 7.8464369518 10.8240534940 
H 4.5282616614 0.9887639130 22.1596072648 
Si 14.5979904135 9.6719432385 17.4539842316 
Si 12.9737144987 16.2628610087 26.3641823930 
Si 5.2833846183 13.3268654119 13.2844723229 
Si 16.2567685487 1.7179108357 21.7326814422 
Si 14.6517637040 0.9971141671 27.6581049490 
Si 13.2474516612 5.5272622106 19.0366065081 
Si 7.8650564219 15.7496771340 21.3550641767 
Si 2.8486974861 5.7554688226 21.4053571678 
Si 12.1039913907 4.2122519485 20.6247879407 
H 13.4642064031 4.4446613806 18.0071781799 
Si 16.2430523686 2.4438584024 13.4593830652 
Si 15.2347502293 7.5014147486 25.5540222408 
Si 6.3707258383 0.3621397353 19.7473967434 
Si 12.3992802234 6.4010415285 23.4252707770 
Si 13.6051637744 16.0565807368 2.6912656849 
Si 13.6629932750 2.7138162848 0.1067876263 
Si 15.1580731986 3.8682885954 1.4645336385 
Si 14.9121104864 1.0858246209 4.1163814316 
Si 13.5781223742 2.4746465026 5.4333513227 
Si 14.9487792767 3.7900477247 6.8034227369 
Si 13.5864954343 16.0168657165 8.1140517154 
Si 14.9215586865 1.0726150598 9.5003952431 
Si 0.0624840423 7.9772293630 22.4075687939 
Si 13.6914030352 2.6725048444 24.0845230019 
Si 13.5571571440 2.4064402720 10.8768365238 
Si 3.8570647853 4.3917514602 25.5894908154 
Si 13.9712000778 1.8749301471 18.2724252102 
Si 1.6960333655 11.3255085736 17.7095027385 
Si 6.5293252797 0.2982340647 17.3732027432 
Si 1.1301301633 6.7298551815 25.3629552009 
Si 2.8206298158 15.9263096057 26.2129559724 
Si 13.8178460164 14.4128056918 25.2898465062 
Si 6.0575831654 6.0509694253 19.8491987911 
Si 3.7000454738 10.2818082640 20.4585344261 
Si 8.6427573190 8.4507959573 15.6740408644 
Si 11.8491343384 14.9007726463 27.8562077960 
Si 2.3092867111 7.6478781399 18.2444846595 
Si 6.6549863409 9.4323499163 18.7881817160 
Si 13.6145793945 5.1850744674 2.6854835834 
Si 13.4110521327 7.9684979229 28.9049194472 
Si 14.8950711462 6.4952954694 4.1427584695 
Si 13.5936141643 7.8894425522 5.4820518472 
Si 13.6049031344 5.1440562470 8.1582643795 
Si 14.9878915671 6.4962402894 9.4875396944 
Si 4.9703396855 6.4237334987 24.7666198842 
Si 8.1093412642 5.6522553817 26.4330059047 
Si 1.4811389415 14.7800148752 16.6840410999 
Si 12.1481861611 11.2365977528 24.4889226604 
Si 8.4046626769 3.5564817025 21.7143535991 
Si 12.2303692119 1.0516091046 12.2885726555 
H 15.8807301852 10.2275788535 24.4652383388 
Si 3.8927073056 11.7046746170 16.7705265141 
Si 5.5538149108 2.4188858321 13.3785436690 
Si 8.9263010616 14.4049864917 25.2888331184 
Si 6.7544693718 14.4518039522 16.5022103663 
Si 8.1554745446 16.0041106464 13.3709577371 
Si 6.8913868230 1.1120906172 11.9872779718 
Si 9.9204146107 4.9918099057 20.5542851006 
Si 10.7859186086 5.3853111493 16.4286094548 
Si 4.8854036247 8.9156311115 21.9238063900 
Si 14.9994574672 9.1442938436 1.2636743766 
Si 13.6468661748 10.5893634668 2.6047194675 
Si 14.9449674167 11.9269190891 4.0312858064 
Si 14.9757718070 9.2359739645 6.7912910367 
Si 13.5598124140 10.5729431467 8.1048443630 
Si 14.9256800565 11.9249479991 9.4240437074 
Si 9.5415906573 14.5990492635 12.1237668377 
Si 5.7611703227 13.0812936596 19.6430177953 
Si 12.2342951019 13.4631638431 23.8587401897 
Si 7.9542604627 16.2701589288 26.3012365308 
Si 0.8127716384 14.0563316186 20.5834417166 
H 4.5104241113 12.9025760680 20.4801630181 
H 12.8312421574 13.4617466131 22.4787954825 
Si 0.6881466213 13.3290971419 18.3424647873 
Si 10.8288916290 10.5711349567 17.7756045800 
Si 0.1223154209 10.5043785361 16.1941694150 
Si 6.7472040317 14.9175187664 27.8057700352 
Si 1.8724703571 8.3375804563 23.8598693933 
Si 9.2914414150 1.2880242478 27.7083400323 
Si 13.5061205735 5.1427693370 13.6252312247 
H 9.9943549214 4.2715638391 24.1347001772 
H 14.9928763071 3.9872544665 19.9354815277 
Si 15.6101858628 11.4453866847 22.4676192622 
H 12.5612191149 3.7737088545 28.9481476774 
Si 13.4482910730 13.5509669439 28.9342208330 
Si 14.9703798169 14.6766548242 1.3501887447 
Si 13.5896882743 13.3007688316 5.3829135619 
Si 14.9274882465 14.6497111640 6.7525796209 
Si 8.0844175639 11.8130194080 21.7381247826 
Si 15.3002360299 6.5550634800 19.5980812828 
Si 13.6051800644 13.2911414416 10.7857763873 
Si 8.1839983348 10.9106511398 25.9816140040 
Si 3.7830430246 6.2443154371 19.3595008298 
Si 2.6386379341 3.5684059826 23.8019036085 
H 1.6590876452 2.8159708758 17.7619383211 
Si 13.5624351040 15.8915793253 13.6040079878 
Si 3.5733255627 12.3496283029 14.5471246254 
Si 6.2424420871 15.1238804883 14.3835348731 
Si 4.9340781451 10.6197768971 23.4835840090 
Si 15.5510042922 15.3613724005 24.1297490538 
Si 4.6214730423 0.5856287634 14.4591625604 

