&CONTROL
  dt          = 30.D0,
  prefix = 'aSiHcSi_merged-5',
  pseudo_dir = './',
  outdir = '/scratch/ztzhao/aSiHcSi_merged/aSiHcSi_merged-5',
  wf_collect=.true.,
  verbosity ="high",
/

&SYSTEM
  ibrav= 0, nat=  406, ntyp= 2,
  ecutwfc     = 42.D0,
  nbnd=1540,
  degauss     = 0.05D0,
  occupations = "smearing",
  smearing    = "methfessel-paxton",
/
&ELECTRONS
  electron_maxstep=200,
  conv_thr    = 1.D-8,
  mixing_beta = 0.3D0,
  scf_must_converge=.false.,
/
&IONS
/
ATOMIC_SPECIES
Si  28.08  Si.pbe-hgh.UPF
H  1.00784  H.pbe-hgh.UPF

K_POINTS {automatic}
1 1 1 0 0 0

CELL_PARAMETERS angstrom
16.29000014898320 0.00000000000000 0.00000000000000
0.00000000000000 16.29000014898320 0.00000000000000
0.00000000000000 0.00000000000000 29.97416603103150

ATOMIC_POSITIONS angstrom
Si 1.3074288960 1.3626438515 1.2635339923 
Si 2.7175141149 2.7265224849 5.4058108695 
Si 1.3744052316 1.3531891354 6.7701449848 
Si 4.0501338670 1.3509541474 4.0308059512 
Si 2.9222305467 2.8291820659 10.7144454928 
Si 0.0315105618 2.7610572853 8.0981504108 
Si 0.0560038802 0.1938233088 10.8283473237 
Si 0.6945094954 3.1610582389 13.3144945768 
Si 1.6244795399 1.4474789142 12.0297118982 
H 3.7467814843 3.6594345035 11.5176931941 
H 4.0893113174 2.7863556555 13.8131148287 
Si 1.1931806089 2.1730860199 17.0072518835 
Si 3.3420727206 3.2411072996 17.6660540787 
Si 1.3602019804 0.1133327890 15.6331461901 
Si 3.5584853725 2.6979824047 20.0248111262 
Si 2.3839112018 0.6310566868 20.1041827178 
Si 1.7544655960 0.4195196318 22.3237397383 
Si 0.4145218598 1.0400497205 18.9365091059 
Si 1.5003823187 1.5413207181 26.0264784422 
Si 2.8325052259 2.7003444547 24.5218052817 
Si 1.1749911947 3.6395281233 23.2214959851 
Si 3.9313797660 1.1907468829 23.1092727074 
Si 2.6848526646 2.7262781349 29.8816058063 
Si 2.6389637341 0.0062420185 27.3114109917 
Si 1.3224547921 4.0814921173 28.5003962356 
Si 2.6785484345 5.4264922696 2.6488799979 
Si 1.3070020980 6.7699937419 1.2720406606 
Si 4.0493030770 4.0742430673 1.2825945645 
Si 1.3414684803 6.8185868124 6.7933749634 
Si 2.6936818446 8.1487467745 5.3901943290 
Si 4.0425590170 6.7827813920 4.0172876023 
Si 1.3288665362 4.0763281873 4.0403377360 
Si 2.7036187447 8.1336622344 10.9234853267 
Si 1.4289164591 4.1308182378 9.4321506700 
Si 2.7859809855 5.4888015202 8.1135271579 
Si 0.0740706307 5.5489930707 10.7484062229 
Si 1.2346239983 6.8839260030 12.2902473494 
Si 1.9287197276 5.2565875681 13.9398156286 
Si 0.7286826577 5.7552407626 15.9645405698 
Si 1.7168519857 5.1059376467 17.9954701634 
Si 2.7246165549 6.3395956480 21.4293106239 
Si 2.7454351751 6.8947262731 19.1518734889 
Si 0.2385295852 4.5919066920 19.7885547495 
H 1.5329444000 6.9350766034 21.9152518036 
Si 2.1214467194 4.1475317779 21.1690449403 
Si 1.4153387439 6.7442066717 25.8568546367 
Si 0.1638985785 5.4299457497 24.3490641628 
Si 0.0018395483 7.1386364453 22.7284509280 
Si 2.8243765158 8.1307137444 24.6070218357 
Si 2.7868606455 5.3839102092 27.1654667773 
Si 4.0819319473 6.7928323221 28.5355559324 
Si 4.0346257869 9.4872635068 1.2996049037 
Si 2.6891695146 10.8501174992 2.6784704946 
Si 1.3106689770 12.1924298015 1.3202541067 
Si 1.3191886471 9.4900490968 4.0304162870 
Si 1.3386095852 12.2288053718 6.7719434347 
Si 2.7607314852 10.8805146395 8.1016873624 
Si 0.6257705817 11.4388869746 10.7556899452 
Si 1.4254303990 9.5503220973 9.5230323414 
Si 2.7343742650 10.7109357380 13.8577163878 
Si 0.4719147883 10.8139211189 13.0130443890 
Si 4.0325406669 9.4383609263 12.3239682862 
Si 2.4505210124 10.5871317368 17.6211228038 
Si 2.4788656127 9.2826773949 15.7129074460 
Si 0.3397507591 11.6545339966 17.5719951457 
Si 0.3470682272 8.1600031646 15.7774118513 
Si 2.9432772269 9.7605282593 21.4231359457 
Si 2.0059343283 9.0929803432 19.3961029937 
Si 3.0655988380 12.0737571504 21.4773592120 
Si 1.3368991352 9.0838579431 23.0922174070 
Si 1.2027477260 12.1000655007 25.7783223217 
Si 3.9945849665 12.2083288417 28.5822556830 
Si 1.2881790028 9.4551559165 28.5214081260 
Si 2.6314377541 10.8623838693 27.1980786699 
Si 2.6811059645 8.1255335243 29.8903882370 
Si 4.0361733369 14.9374414366 1.2881128084 
Si 2.6746225445 16.3015660491 2.6516885773 
Si 2.7106071548 13.5830745342 5.4144734035 
Si 1.3390119482 14.9356006666 4.0417764960 
Si 4.0549557071 12.2195200718 4.0351821794 
Si 1.2692337326 14.9612574168 9.4871232905 
Si 2.2827014309 13.2475168212 10.7365064790 
Si 2.7304809550 16.2760559089 8.1589679936 
Si 3.0844463682 14.1479628694 12.7553864578 
Si 2.6203931340 16.3053127491 13.5784171087 
Si 3.3196902604 15.5886016126 16.9055795123 
Si 0.8837911521 12.9592001085 21.4307793580 
Si 0.8592763309 13.4055786926 19.1311913143 
Si 3.8841550555 15.3450172403 19.2363706629 
H 2.2049166802 13.7552272558 18.8093586936 
Si 2.4804294527 13.6560537349 24.6223686087 
Si 0.9699636239 14.6561782940 23.0990215427 
Si 3.9181685758 14.9239370265 25.9749828250 
Si 1.2265751092 14.8959182262 28.5500934029 
Si 2.6342559241 13.5785784942 29.9273164095 
Si 6.7669800919 1.3614123275 1.3043318297 
Si 5.4014219594 2.7160154348 2.6608996385 
Si 6.7814456120 1.3520276584 6.7577956284 
Si 4.1065298476 4.0690628472 6.7770090688 
Si 6.7760373320 4.0674501372 4.0188162848 
Si 5.4898440802 2.7236391549 8.1652325943 
Si 4.1845752383 1.2991714949 9.4975243261 
Si 6.2307132870 0.6720683911 12.9905637645 
Si 7.9172658724 2.3611214916 12.9650857234 
Si 4.3957913802 1.4552508733 14.2069753704 
Si 6.4991399094 0.8438643617 17.5908488961 
Si 4.4489782307 1.3803070986 16.5603370680 
Si 8.0836356439 2.6859278046 17.7349047381 
Si 5.4262804996 1.8443538169 21.3105829523 
Si 7.4909891485 2.9073414866 22.0078420025 
Si 5.9940684548 0.0791017972 19.7851676688 
H 4.2877235192 3.8323202750 22.4904860239 
Si 6.7593563718 1.2323955263 25.6723636448 
Si 5.4828882501 2.6804543645 27.0854657281 
Si 4.0947684674 1.3828955796 28.5422101972 
Si 8.1009844941 2.7314583550 29.8994404351 
Si 5.4259221196 -0.0003427677 29.9061546483 
Si 6.7836284720 4.0727606772 28.4802236219 
Si 6.7780084220 6.7797188720 1.2851213867 
Si 5.4146983095 8.1380116644 2.6569070796 
Si 8.1365129844 5.4276488596 2.6555192757 
Si 6.7544530818 6.8086173323 6.7381625496 
Si 5.4170603595 5.4334480997 5.3753571168 
Si 4.0997857875 6.8450254826 9.5343026278 
Si 7.6357095098 7.6780798002 10.6809343752 
Si 5.9285826542 5.9181570541 10.7332992432 
Si 8.1227316443 5.3846595492 8.0029524595 
Si 6.8645897728 4.0902398474 9.5247108947 
Si 6.0929813357 5.9240540342 13.1473286529 
Si 7.6524882100 4.3982674602 14.1201102372 
Si 7.9874594831 7.7041763805 13.0548283765 
Si 4.1947727784 5.8154648932 14.6039232511 
Si 4.8957640648 4.8749454446 16.7513024798 
Si 7.2533343363 4.6017295621 16.5161251731 
Si 4.7154826331 6.9157403732 18.0228365770 
Si 7.9676019729 6.8972023531 16.9658575602 
Si 4.2888312392 7.8510633118 15.8788744033 
Si 5.9580023945 5.4873517102 20.5602396540 
H 6.5136380096 4.6391965624 19.5659066443 
H 4.5823770419 5.2004685176 20.7648133372 
Si 6.0898536557 7.7004133904 19.7918818820 
H 4.9164686550 4.1696210181 22.2942751331 
Si 5.5340388506 5.5842609211 24.3193897384 
Si 6.8021339122 6.9163593933 25.7782323992 
Si 7.0925846149 5.1532438071 22.5781604595 
Si 4.2215698286 7.0619757046 23.0676685650 
Si 4.2227101286 4.1418302779 25.7107006031 
Si 5.4304507397 5.4163110195 29.8846931454 
Si 8.1148472842 5.4089153595 27.0484476331 
Si 8.1439086445 8.1193921943 29.8780988289 
Si 8.1388098744 10.8484396292 2.6525158643 
Si 6.7885806321 12.2130529417 6.8137873705 
Si 6.7783179320 9.5020059569 4.0244214538 
Si 5.4400944198 10.8794069195 5.3952599631 
Si 4.0665053172 9.5201693071 6.7243144849 
Si 8.1405691945 8.1575433746 5.4026036338 
Si 5.4125480295 8.2047517950 8.1067529964 
Si 5.4048591494 10.8766701995 11.0237489121 
Si 6.7273628115 9.5484650373 9.5748876486 
Si 8.1374089344 10.8768656795 8.2228729156 
Si 4.0796676373 12.2125153717 9.5703915237 
Si 6.2925989976 11.7403822974 13.1283550058 
Si 7.1107316750 9.7405404291 14.2458818379 
H 4.8872443947 8.5806109685 13.0716139095 
Si 6.3855171584 10.8376230691 17.5309305382 
Si 6.4304123988 8.7346654999 16.2961747428 
H 7.0304056843 11.5813756059 16.4793468714 
Si 4.3378152697 11.9630665994 17.7764789064 
Si 5.1523804371 8.7703894702 21.6918543442 
Si 7.8939548822 11.4704895749 19.3292006551 
Si 8.0472600736 11.4996323852 21.7772207690 
Si 6.7750599320 9.8857983604 22.9988179056 
Si 5.4022038794 11.0220747408 24.5340647156 
Si 8.0592820937 8.3081118460 24.2933721623 
Si 4.0903375874 9.5998599878 25.8738799630 
Si 6.7854692421 9.5262291871 28.5688272567 
Si 8.1390053544 10.8732492994 27.1921737592 
Si 5.4323566697 8.1940003949 27.1984383599 
Si 5.3930326093 10.8612598593 29.9242590446 
Si 5.4018292094 13.5793604142 2.6602791733 
Si 6.7683484519 12.2175001117 1.3014183407 
Si 8.1121757242 16.2837773689 2.6763603133 
Si 6.7637709619 14.9190826064 4.0444741709 
Si 8.1262828643 13.5546484840 5.4103969169 
Si 4.0922760974 14.9037537163 6.8112395664 
Si 5.4072863595 16.2802913089 5.4109964003 
Si 5.4706870400 13.5743430941 8.2281483688 
Si 5.3692329191 16.1158437574 10.9485137553 
Si 6.8836653630 14.9161666964 9.6047119438 
Si 8.1184962442 -0.0082479692 8.1196718620 
Si 7.5757134393 15.4045897709 14.2680926949 
Si 4.2314904387 12.6174359054 14.0866590679 
H 4.4023562503 15.1569003186 11.3844280519 
Si 8.1299318244 13.3447355420 13.1732263323 
Si 4.6049386921 13.7117818254 16.1687245888 
Si 6.6949945812 14.9897812071 16.4076186921 
H 7.5711522392 14.1692701896 17.1714803392 
H 5.2539648781 15.0071137673 21.6845706218 
H 5.6954564621 13.0740934796 20.2842675073 
Si 4.3502934098 13.0984470298 19.8124741340 
Si 7.9590497228 15.1765786388 20.4331192159 
Si 7.9506115027 13.8414013566 22.4353335584 
Si 5.7265052024 14.4583199522 22.9175879157 
H 7.6033086995 13.1391231602 25.1205392481 
Si 5.2486869180 16.1408651976 24.5002838304 
Si 4.2264242487 12.6934287561 23.3971146238 
Si 6.7849805421 12.2932811924 25.9158737696 
Si 6.7954875921 14.9371319266 28.5330081283 
Si 5.3603059990 13.5852736842 27.2575773895 
Si 8.1336948144 13.5716715341 29.9078332016 
Si 10.8366945391 2.7234599649 2.6587055295 
Si 12.1950850715 1.3817341026 1.2904088296 
Si 8.1311861544 2.6916455946 5.3735286927 
Si 9.5202018871 4.0059879666 6.7353449780 
Si 9.4947080368 1.3404405813 4.0214839856 
Si 10.8577737993 2.6337020641 8.1386455091 
Si 9.5125781670 1.2602155885 9.5347222661 
Si 8.5750234984 3.0221534076 10.7954057152 
Si 12.0790676905 4.0347398169 9.6219770635 
Si 9.2745649748 0.8695602080 14.2795728005 
Si 11.0479595510 0.0170466707 12.9792335298 
Si 9.8785167303 1.9092043075 16.3627773397 
Si 11.6109256662 3.4541153416 15.8550149671 
Si 10.5161724962 0.2947528917 17.9789843721 
Si 9.0222491625 2.7235088349 20.0828710858 
Si 9.7209598489 0.4605932382 20.2418240882 
Si 11.2778766131 3.6536515534 20.3544370300 
Si 11.6286003164 0.8673154459 25.7944184488 
H 9.3387964454 1.3510746934 23.9632366977 
Si 11.6235341263 3.5709146427 22.7214969215 
Si 8.3025895359 2.3022983011 24.2167881681 
Si 9.3739176857 3.9711762363 25.6110964494 
Si 12.1741850013 1.3870234657 23.4960893201 
Si 9.4300204462 1.3658089985 28.5428996030 
Si 12.1619186312 4.0518443171 28.3890122346 
Si 10.7385961582 2.6783692445 27.0634047419 
Si 10.7902028787 0.0362556759 29.9505763624 
Si 9.4879965568 4.0764096373 1.2724932705 
Si 10.8446114792 8.1222918143 2.6475221682 
Si 12.1812548614 6.7652859319 1.2472100615 
Si 12.1738266213 6.7636569319 6.7985305200 
Si 9.4890716968 6.7807451420 4.0345826961 
Si 10.8488631692 5.4127760895 5.3946604798 
Si 12.2066509716 4.0677433572 4.0228028489 
Si 9.4014966560 6.6784765211 9.4837961581 
Si 10.1553001229 4.8854036247 10.8821509517 
Si 10.8167555789 8.0879036240 8.2017111544 
H 12.2606523221 6.8055711022 11.1178677934 
Si 9.4833539067 5.6222980714 13.1008986697 
Si 11.1037365116 5.5101902904 14.7811005466 
Si 10.1628586829 7.1388156353 16.1574543024 
Si 11.6969368670 7.2702596465 17.9399879821 
Si 11.4287057245 5.9938403948 19.9337496098 
Si 9.7461930591 7.3682602874 20.8714314457 
Si 8.2913494358 7.9758121329 19.0859602978 
Si 10.6721329576 5.2975894985 24.1302227766 
Si 8.9847658722 6.5522453099 22.9391693152 
Si 12.0549910703 6.7264668615 25.5336432044 
Si 10.8367922791 5.4030509594 29.8274724625 
Si 9.4675851866 6.7546322718 28.4579528165 
Si 10.7970772587 8.1045682941 27.0522543522 
Si 9.4935677368 9.4857159568 1.2746124441 
Si 12.1778176714 12.1739569413 1.3171128141 
Si 9.4775872467 9.4884852568 6.8337501651 
Si 10.8438458492 10.8178632989 5.4337767664 
Si 9.4886318668 12.1850993014 4.0551749482 
Si 12.1899211415 9.4631380165 4.0497795983 
Si 10.5552033365 10.4682798957 10.8897344157 
H 9.4929161368 9.5018593469 10.8676134812 
Si 11.0355465709 10.5469931765 13.2071870624 
Si 9.9085392006 8.6734476793 14.3238746179 
Si 9.2313476044 9.9703108812 18.0570071262 
Si 8.9646314320 10.4047977652 15.7112588668 
Si 11.1187396017 9.2887698550 21.1278004878 
Si 10.4237919053 11.3558079739 21.9919856686 
H 11.6933367769 11.9772551895 19.1794497216 
Si 11.4592168948 9.4776035367 18.7700325878 
H 10.2764488540 10.4266100754 24.9912906442 
Si 9.4562799265 9.5451581673 25.7478086207 
H 12.0356385501 9.6187075180 24.6203303654 
Si 10.8442042292 10.8426240992 29.8651499892 
Si 12.1617231512 9.4886318668 28.4308261963 
Si 9.4690838666 14.9230573665 1.3242406708 
Si 10.8301622490 13.5494031039 2.6767379878 
Si 9.4946754568 14.8996160563 6.7747909805 
Si 12.1961927915 14.9104489064 4.0304162870 
Si 10.8420050792 16.2652230588 5.3975379997 
Si 10.8615204993 13.4969818834 8.1110093280 
Si 9.5509411173 12.2036210316 9.6073496704 
Si 12.1728329313 14.8512184658 9.5289072779 
Si 10.3583386847 15.7090010037 10.8144992590 
Si 8.6628428892 13.9729593978 10.9178202093 
Si 9.8960284805 12.2328615819 14.4623852391 
Si 9.7031222987 14.5740929833 17.1064663731 
Si 11.3751767840 13.4748437732 15.8787545066 
H 8.6232907689 14.8552583859 16.2299018617 
Si 10.9922803305 12.7498084466 20.1464462919 
Si 9.0165150825 13.5391241138 19.0935737359 
Si 11.1226492017 16.0524104968 22.0613458888 
Si 9.9753607812 14.5234962428 23.5764800334 
Si 11.6117401662 12.6937545561 23.6752748846 
Si 9.9689425212 15.3685074206 25.8288587656 
Si 8.1452444245 16.2667380288 27.1028207703 
Si 10.8729072094 13.6657462850 27.2264642051 
Si 9.5052476669 12.2457632620 28.5183207869 
Si 12.1785018514 14.9458633667 28.6854867109 
Si 14.8874148462 4.0691442972 1.2418296987 
Si 13.5410789138 0.0106035521 2.6706652218 
Si 16.2545531087 2.7321588250 2.6436315214 
Si 13.5564240940 2.7144027248 5.4084785703 
Si 14.9142444764 1.3686157655 4.0294571137 
Si 16.2703706988 0.0120234862 5.4059307662 
Si 12.2143235617 1.3196366221 6.7608829675 
Si 14.9312023666 1.4024012258 9.4081113888 
Si 13.6337201447 2.7498334751 10.8169871148 
Si 12.9833907587 1.2837709287 12.5214081178 
Si 13.2847394715 2.3589223416 14.5777558042 
Si 15.1870205289 4.0365154269 12.0125666753 
Si 15.7440570840 1.4751996075 14.6694767523 
Si 12.8143494272 0.5393863399 17.9991869600 
Si 15.7067041136 3.6726945636 16.0955276753 
Si 13.7149257954 0.2110516129 15.7925488051 
Si 13.5513253239 4.0120967167 17.2389222128 
Si 15.3690612806 2.5498085633 20.1435687720 
Si 13.1878465506 2.6394198541 19.1567892521 
Si 16.1019158073 1.9039589274 22.3472994328 
Si 14.5013092626 0.9696036149 23.7737699942 
H 14.8131487355 1.4562787723 25.0800141757 
H 14.1257595992 3.3871960210 24.7683427973 
Si 14.8256757456 1.3440748803 28.4260003555 
Si 13.5117569136 2.7242093049 29.8263933925 
Si 16.1880736181 0.0241222322 29.8734528332 
Si 16.1687536779 2.7878706255 27.1207453215 
Si 13.5475134639 5.4253356796 2.6369203057 
Si 16.2511973686 8.1201578243 2.6644216030 
Si 14.8954946862 6.7711177519 4.0396783043 
Si 13.5488329539 8.1208094243 5.4355752164 
Si 16.2657117588 5.4423587298 5.4265529924 
Si 14.8858347161 4.0932372074 6.7917863326 
Si 13.4818158933 5.3974634894 8.2033897077 
Si 13.2771320414 7.7985606413 10.9390119447 
Si 14.8743828460 6.8114029223 9.5016307868 
Si 13.2964682716 6.4305101388 14.5926829389 
Si 14.4080327218 4.4392856806 14.1656709696 
Si 13.6450905648 6.4167287987 16.9812942557 
H 14.8413955957 7.0105318841 17.4436157926 
Si 13.3067309717 6.3789359983 21.3134604722 
Si 15.5299413220 6.5599667700 20.5762158845 
H 13.2615099313 5.4250587496 22.3655536999 
Si 14.9084615263 4.1760555682 25.6554582151 
Si 14.8441811858 6.7788229220 28.4365212878 
Si 13.4744853932 5.4720391100 26.9935649351 
Si 16.2216635984 8.1316585644 27.0802202491 
Si 16.2277560584 5.4456167298 29.8398517930 
Si 14.8715483860 9.4498779564 1.2951537400 
Si 13.5425287239 10.8212190390 2.6794926137 
Si 14.9160200864 9.4950338368 6.7916964101 
Si 12.2443460320 12.1414258110 6.7969718634 
Si 16.2679923588 10.8520560092 5.4137839977 
Si 14.9048940163 12.1943683115 4.0359615077 
Si 13.5961879843 10.8039679288 8.2363013420 
Si 12.2121895717 9.4226736562 9.5899346800 
Si 16.2773102389 8.1956131050 8.1923592146 
Si 13.2143178009 10.3044513642 14.0669960150 
Si 14.9099602064 12.0025046898 13.9569908257 
Si 13.9188928873 8.2312556253 13.1813493313 
Si 16.2222663284 8.5096517278 13.4494982206 
Si 15.4184688510 9.5238182671 17.4654969338 
H 13.0089008990 10.1188919725 15.4688877603 
Si 13.4479001130 10.7013735079 18.4864470030 
Si 14.4715963024 10.1145262525 20.7411337460 
Si 15.9953140463 8.6646347892 19.6043335251 
Si 13.1387322002 8.6000938087 22.0565799964 
Si 15.3235307301 11.7244018072 22.2258740862 
Si 14.8668568660 9.5100369270 25.6543791451 
Si 13.0405686593 8.6143964288 24.4212119805 
Si 16.2965161490 10.7222735781 24.1987137460 
Si 13.5569616640 10.8726628594 27.0992238703 
Si 14.8747249360 12.1240769609 28.6196334681 
Si 13.5146239536 8.1372786144 29.8376936531 
Si 16.2604663787 10.7951876187 29.9423634409 
Si 16.2598636487 13.5720299141 2.6830145782 
Si 14.8993228363 14.9340694066 1.3176853206 
Si 14.8753276660 14.9459285267 6.7474545411 
Si 13.5441577239 13.5439785339 5.4042522129 
Si 13.3151854818 13.2695734814 10.8523266565 
Si 16.2259967384 13.6056198944 8.0964418833 
H 12.3420045829 12.2638614522 11.1372011305 
Si 13.5298713937 16.2603686387 8.1722765234 
Si 14.9841448670 12.2195037818 9.5610695581 
Si 14.0689563687 13.9909598480 12.9471611721 
Si 14.9732305669 16.2008123982 12.7379115190 
Si 12.4479221638 14.9751039170 14.4091211461 
Si 13.1874393006 12.8613134976 17.4094752175 
Si 15.2195842392 12.8589840276 16.1078170834 
Si 15.6892575235 15.1634651887 16.2360165915 
Si 15.8019843245 15.2113252091 18.5807157551 
Si 12.4632673440 14.4123007018 20.9467864991 
Si 13.5228666937 14.7679928551 18.9002103909 
Si 15.0048331672 14.9524119468 23.8376449420 
Si 14.3573545313 14.3568169613 26.0059161643 
Si 12.5638743849 12.6899101161 25.9066417265 
Si 13.6922826952 13.3845808824 22.6578617670 
Si 13.5493868139 13.5395313638 29.9641546596 
Si 16.1795213680 13.4575763731 27.2061417206 
Si 13.4064909326 16.2252311084 27.1289282689 

