&CONTROL
  dt          = 30.D0,
  prefix = 'aSiHcSi_merged-13',
  pseudo_dir = './',
  outdir = '/scratch/ztzhao/aSiHcSi_merged/aSiHcSi_merged-13',
  wf_collect=.true.,
  verbosity ="high",
/

&SYSTEM
  ibrav= 0, nat=  406, ntyp= 2,
  ecutwfc     = 42.D0,
  nbnd=1540,
  degauss     = 0.05D0,
  occupations = "smearing",
  smearing    = "methfessel-paxton",
/
&ELECTRONS
  electron_maxstep=200,
  conv_thr    = 1.D-8,
  mixing_beta = 0.3D0,
  scf_must_converge=.false.,
/
&IONS
/
ATOMIC_SPECIES
Si  28.08  Si.pbe-hgh.UPF
H  1.00784  H.pbe-hgh.UPF

K_POINTS {automatic}
1 1 1 0 0 0

CELL_PARAMETERS angstrom
16.29000014898320 0.00000000000000 0.00000000000000
0.00000000000000 16.29000014898320 0.00000000000000
0.00000000000000 0.00000000000000 29.41467651053830

ATOMIC_POSITIONS angstrom
Si 1.4358641441 1.0976902570 1.4368892987 
Si 3.3250333804 1.9116152275 0.2310031615 
Si 2.8027108156 2.5357665832 5.4826015548 
Si 1.4947199147 1.1573083996 6.8550021168 
Si 1.4745137985 3.8713999854 4.0559015000 
Si 0.1525835444 2.5627428234 8.1572780899 
Si 1.5498273562 3.8972196356 9.4626720188 
Si 1.6377151650 1.2245584072 12.1938835621 
Si 2.9347575568 2.6228366340 10.8606927640 
Si 0.4450118531 2.7351887650 13.5034543750 
Si 2.0287077486 3.2948154301 15.1957983734 
Si 0.9683183339 2.3044974511 17.0743666887 
Si 3.9717626763 1.8576301670 15.0375179991 
Si 1.7248177958 0.7632923920 21.0803808974 
Si 2.5215291231 3.1088813684 20.6137170546 
Si 2.7545575752 1.8676322271 18.4902421426 
Si 0.1343079561 3.8696895354 20.3980192317 
Si 0.4383736780 2.5619446134 23.7266134403 
Si 2.5742272735 3.3097533603 23.0331918563 
Si 0.6917434533 0.5178591047 24.8673145954 
Si 2.7362313250 2.3699506717 27.4203026138 
Si 2.1765069199 0.1666304115 26.6584036628 
Si 1.5568043632 6.4806996293 1.2705169469 
Si 2.8826621364 5.1742904873 2.6864600545 
Si 0.1168470308 7.9070194623 2.5793229783 
Si 1.4832859636 6.6060023104 6.7534626534 
Si 0.1181901413 5.2603831381 5.3821798492 
Si 2.8426213160 7.9527129127 5.3930338648 
Si 4.2149886685 6.5801175002 4.0512539811 
Si 2.8623647962 5.2254573778 8.0669456183 
Si 2.2685942907 7.1457551754 10.8125115238 
Si 0.3954299796 5.5059060204 10.7262088630 
Si 0.1571069516 7.9889255831 8.1330403965 
Si 2.6906844846 5.8246361633 12.7909132513 
H 1.4613726554 5.2402975679 13.2066014597 
Si 3.5006232920 7.1560341654 14.5353506417 
Si 0.6523835550 5.9288107142 17.2917705628 
Si 2.6384587441 5.4642524900 16.0240274199 
Si 1.3906121527 7.2510537363 19.2250501765 
Si 3.1705390190 6.6864260412 20.7511718379 
H 2.8966715365 4.4379987706 20.1346696329 
Si 1.1464511145 6.6614697609 24.0301434872 
Si 2.9034481766 5.6318765915 22.8860596443 
H 4.1084194876 5.9024372040 23.5992184763 
Si 3.8021023248 6.8960946331 27.2854951513 
Si 1.7742090762 6.2639611773 26.2834547813 
Si 0.2314206291 5.0326489360 29.3103426530 
Si 1.0463327736 4.1470104979 27.1807200736 
Si 2.8523790261 10.6438372273 2.6803035627 
Si 1.4027449448 12.0389942901 1.4252969747 
Si 1.5301197140 11.9319689891 6.8862699179 
Si 1.4656210874 9.2703132848 4.0032198144 
Si 0.1670637255 10.6353990073 5.4390678336 
Si 1.4952428237 9.1884723240 9.6989601152 
Si 2.8770420863 10.5839388968 8.3200883244 
Si 0.2134527590 10.6609417275 11.0435049785 
Si 3.1339353887 10.9599283902 13.7784816004 
Si 1.5533248192 12.0751255104 12.4043749872 
H 3.5986076429 12.0116107999 14.6294481919 
Si 2.5302768531 9.2079551642 15.2126529830 
Si 3.4557117616 9.9158371207 17.2874760201 
H 1.1192077182 9.0865783731 15.3019853556 
H 1.6647402752 12.3836418233 16.1382151941 
Si 1.4281980701 10.8843427895 20.4426412960 
Si 1.5643645523 9.5351072372 18.5872223310 
Si 4.1421397879 8.5630992183 21.9162283451 
Si 0.5674263172 8.6008920187 22.7986392258 
Si 3.2212660795 11.8759313886 23.5256523704 
Si 2.4050393320 9.9881973013 22.3447119378 
Si 0.6613919250 10.7057880979 25.5899743679 
Si 2.9743748372 7.8433092717 29.3790847520 
Si 1.6369821150 9.4152454161 28.2673570532 
Si 2.9599256071 10.6389339373 26.7452652025 
Si 0.3797622575 8.0343583935 26.9227827753 
Si 0.1110518632 13.3375027820 2.8784584725 
Si 2.7273206949 16.0784256270 2.9190477846 
Si 2.8608009562 13.3254644719 5.5386659282 
Si 1.4407706922 14.6790494542 4.2483028991 
Si 0.0992579031 16.1038706073 5.5278707419 
Si 0.2084615029 13.3604716822 8.2158132962 
Si 0.2754573865 16.1775828580 10.8363079971 
Si 1.5976710866 14.7175264346 9.5718004686 
Si 2.8994245465 16.1166908374 8.2110187039 
Si 2.9535399270 13.4216243427 11.0373573111 
Si 0.1355569104 13.5728769941 13.6262018201 
Si 2.9266614268 16.3103626492 13.7956303568 
Si 2.1625463898 13.6884871252 16.3993586922 
Si 1.1853402318 15.2242920492 14.9941019366 
Si 1.6616940452 14.2667495505 18.5597490232 
Si 2.5879923237 12.8770985078 20.1830861904 
Si 3.0053421275 15.9895148062 19.4112450788 
Si 2.0811941290 15.9223185556 23.0730487429 
Si 2.2421882005 12.7565525067 25.4954650123 
Si 2.1020127492 13.6625697350 22.3552718067 
Si 2.6416678742 13.4988552335 0.0784286461 
Si 1.2412491414 14.8270278156 28.0978696872 
Si 0.0936130923 13.5152592636 26.4422646198 
Si 4.0518931871 12.1598823812 28.2302357315 
Si 3.6276038432 14.8139632355 25.6841013327 
Si 6.8176419924 1.2274042702 1.5733528075 
Si 5.5189543105 2.5493850233 2.9563220627 
Si 4.2549969089 3.7631040644 1.3952792973 
Si 5.0808184665 0.1987184538 0.3671804654 
Si 8.1482417845 2.6239932240 0.3142281648 
Si 6.9443619035 1.1725590977 6.8545903113 
Si 4.2287537187 3.8613490553 6.7896721202 
Si 4.1531681180 1.1337416564 4.2102697223 
Si 6.9286583434 3.8984576757 4.2163291457 
Si 5.5998830312 2.5509162833 8.1816040274 
Si 4.2503868389 1.2210984112 9.5541810774 
Si 6.9827574339 3.8775576055 9.5426505242 
Si 8.3228217161 2.5697801035 10.9693505790 
Si 7.0052050541 1.2809006307 12.4623219000 
Si 5.6382622716 2.7868117755 13.6945026990 
Si 4.2248441186 4.0554444071 12.2191507692 
Si 4.5892351320 2.6078987039 17.2850640166 
H 5.2748649482 0.5099845187 15.9466668207 
Si 7.2423222962 3.9123856258 15.0006614094 
Si 4.8763463846 2.1984332601 20.7627023911 
Si 6.2478177871 1.9733706180 18.8287462399 
H 4.5404140015 0.8531040498 21.1195024172 
Si 4.4787889310 2.3172199412 24.1017682245 
Si 6.1665632664 2.9997057874 22.5736757798 
H 6.7598613618 0.6197253627 25.3986613119 
Si 8.0666288838 1.6179977488 22.3366229018 
Si 4.2795296491 -0.0750900589 23.8335063748 
Si 6.5588753400 1.1125320762 26.7224394136 
Si 4.8359146042 2.8873699464 26.4082318391 
H 6.9342946834 3.8115016549 -0.0162099282 
Si 6.9499656636 6.5226789597 1.3630290460 
Si 5.5954684412 7.9272190625 2.6843951442 
Si 6.9345390334 6.5920417803 6.8476190329 
Si 5.5548900508 5.2726006382 5.4847488262 
Si 4.1825064083 6.5138334896 9.5167067795 
Si 5.6553830617 5.2705806782 10.8557510983 
Si 5.5067205204 7.9059443223 8.1775742167 
Si 7.0110531641 6.5532715799 12.2602430723 
Si 5.6944464821 7.8358973217 13.7805112131 
Si 4.5165328613 4.9757153855 17.3316274495 
Si 6.6622191009 5.5248024205 16.5797294885 
Si 7.2480400863 7.5878983594 15.5894255745 
Si 6.9706376738 6.1376648061 20.1736146646 
Si 4.8619134445 6.4159794587 19.1578964700 
Si 6.9881168439 7.0165428942 23.9593717755 
Si 7.0543845645 5.1961027975 22.3417704702 
Si 5.9229137342 4.8061364840 0.0916367183 
Si 5.4264596896 5.1622033072 27.2093699685 
Si 7.3670222474 6.1221567260 26.1482649281 
Si 8.1392008344 8.1066371241 27.3505310011 
Si 4.2624251490 9.2823353049 1.3201512721 
Si 6.8698514428 12.1715134413 1.3204865994 
Si 5.5368081506 10.6544420174 5.4753949591 
Si 6.8970883231 9.3216756553 4.0799627054 
Si 4.1738889982 9.2827914249 6.8273229062 
Si 6.9006558331 12.0083365098 6.8535607976 
Si 4.1774727982 11.9955814397 4.1045239603 
Si 6.9705073538 9.1648192438 9.4692609063 
Si 4.2649500990 12.0109266198 9.6372481239 
Si 5.8770248037 10.7513512283 10.7938626189 
Si 7.9933401731 11.8618242485 11.1048345790 
Si 6.5212291496 11.4747901349 14.0141519886 
Si 5.1238403569 9.9966843914 12.9108663021 
Si 6.7927020021 11.3297602636 16.3338816223 
Si 7.1509191054 9.2230397044 17.2168219671 
Si 4.7831350037 11.9433882792 17.3674251108 
Si 5.1523804371 8.6483936591 18.3195781895 
Si 6.5289180297 11.5989036461 20.5811550077 
Si 5.7405146025 9.4111729161 20.4646728887 
Si 7.7598881810 8.2557232055 20.6946662443 
Si 5.4253845496 11.0860129914 24.1022976887 
Si 5.2586401081 8.6428224790 24.0063470139 
Si 7.1259302452 11.9567460794 22.7993451780 
Si 5.5339411106 10.7534526383 29.4131175327 
Si 6.4157351087 9.7809559195 27.4082425964 
Si 6.4587895791 11.8068129180 26.1159087839 
Si 4.5258507414 8.8915056213 26.2551284478 
Si 5.4981031103 13.4194089027 2.7750276455 
Si 4.0247377568 14.7487217849 1.5157235732 
Si 6.8856038730 14.7448773449 4.1512050519 
Si 4.2213906386 14.7075895345 6.8779161498 
Si 5.5567796908 16.0910829572 5.5353126551 
Si 5.5968205112 13.3989160825 8.2680831763 
Si 6.8472246326 14.9219985165 9.5963028942 
Si 6.2309413470 13.7453718057 13.3392616508 
Si 5.5623020009 16.2753228588 11.0530941630 
Si 4.2791549791 14.8393104757 12.4574390637 
Si 7.7835086812 14.0703084387 11.5694393945 
Si 7.4740801284 14.6892958643 15.1171435284 
Si 5.8140476632 15.5963719426 16.4699833305 
Si 4.4209594304 13.7524416658 15.9459314538 
H 4.6375349824 13.4079570326 14.5853261771 
Si 5.1308124769 15.1103760782 20.0574266924 
Si 4.8594699444 12.8220383073 19.5476115191 
Si 6.7308000016 15.9923166863 18.5964879541 
H 5.5566005008 13.6699491050 22.7426042670 
Si 5.7115672722 15.0403127876 22.3700673890 
H 7.3701173474 13.3269794419 23.0719309852 
Si 7.9607764628 15.5807009625 22.8121993916 
Si 7.9551727028 13.8588968167 -0.0002237713 
Si 5.2675833182 13.7115863454 26.9528445747 
Si 6.4065475486 15.3791122107 28.1511396664 
H 7.4031534677 15.4240563211 25.8511766953 
Si 10.9460981801 2.6133395639 2.7832372817 
Si 9.5846451277 4.0037236566 1.4518907838 
Si 12.2809822423 1.2208605772 1.4894621501 
Si 8.3069715460 2.5524149633 5.5410779317 
Si 9.6370989281 1.2107542611 4.1642063389 
Si 9.7030408487 3.9060651057 6.8560316304 
Si 9.6702816584 1.2403271273 9.5760067674 
Si 11.0694786412 2.5895561637 8.2496990035 
Si 11.4797422950 2.5161534230 13.9799133052 
H 9.1590525838 3.4150845012 11.7496042881 
Si 8.5660314183 0.0865437209 13.9079650064 
Si 9.9682583412 1.2979546319 15.3529315753 
Si 8.9669446120 3.0977878783 16.4130953461 
Si 10.7066677579 0.2678564724 17.3705724812 
H 9.9758983512 4.1115308776 16.3917402910 
Si 9.5363778572 2.7299596750 20.7594667767 
Si 11.6581992466 1.7054326956 20.4679085031 
Si 8.3326120062 3.0173152776 18.7322366862 
H 9.0414387827 2.0450466187 24.0709416435 
Si 11.8190467081 0.2922931017 23.7599990982 
Si 9.7795549794 3.2547257398 24.2323399736 
Si 12.0748322904 2.6339138341 23.9187795220 
Si 10.4751379858 1.2019234520 27.4508644627 
Si 11.0090264507 16.2074424282 0.0150202516 
Si 8.4069106969 2.3252672013 27.4699251730 
Si 12.1274327009 3.0344360678 27.4846913407 
Si 10.3908861050 5.7679632528 0.0746009143 
Si 8.2436197354 5.2681208882 2.8762258986 
Si 10.9310462200 8.0473252336 2.7810753030 
Si 11.0210158908 5.2678765382 5.4640408939 
Si 9.6385161582 6.6356989807 4.1434984067 
Si 8.2522208555 7.9644742928 5.4618347932 
Si 9.7656596093 6.5406142498 9.5789482350 
Si 8.3425326163 5.2494525480 8.2061946969 
Si 11.0651292112 7.9198722724 8.1701911329 
Si 8.3415715063 7.8646491719 10.8645755013 
Si 11.2679560031 5.3584652290 10.9863228473 
Si 8.4822356576 5.3516885889 13.6824132669 
H 11.3940406042 5.3772475992 13.9363795839 
Si 10.5875715668 4.5212569613 13.0995908666 
Si 11.0301871609 8.0254477634 13.8059843230 
Si 9.5414603373 6.8655834628 15.2496566461 
Si 10.2684667539 6.2765207674 17.5467369788 
Si 8.2217259752 5.3269603687 18.3648179619 
Si 10.3621994148 6.6643856710 23.1849715870 
Si 11.1562391820 6.7463080817 25.4721097591 
Si 9.3615698656 4.6193553422 22.3866278519 
Si 8.7098069597 7.5147888387 0.1380230749 
Si 10.8099626489 5.0450782061 27.2592572599 
Si 8.8894530813 4.2626206290 26.1992111478 
Si 9.5584670974 9.3836753958 1.3627878457 
Si 12.2283981218 12.0739200504 1.4424427897 
Si 8.1914591549 10.7484353183 2.7049589446 
Si 9.6908885086 9.2495761146 6.7808477173 
Si 10.9812031304 10.7020902679 5.4638349912 
Si 9.5796440976 12.0582002003 4.1105245543 
Si 9.6868648786 11.7601257776 9.4677901725 
Si 11.1344431618 10.5403468564 10.8342489698 
Si 8.2703027556 10.5395323564 8.0764759735 
Si 9.7763784294 9.1435119236 12.1669691331 
Si 8.6316638289 10.9092664898 13.1554493372 
Si 10.1517489028 11.7868413778 14.6765705036 
Si 11.7924125578 9.9997143315 14.8716192236 
Si 8.7557121801 9.4168255461 18.9226673020 
Si 8.7528614301 11.6229802663 19.7133926359 
Si 10.7493638483 8.4172385570 18.4575036076 
Si 9.1061915333 10.6647210075 23.1787945050 
Si 10.0941963323 10.9028645197 25.2676483427 
Si 8.7030791896 8.3306897862 22.8296128801 
Si 10.7221269681 10.9519300002 0.0126225436 
Si 10.2727998940 8.7824277803 26.4675612416 
Si 11.9326694591 9.4716413966 28.0902512860 
Si 9.5577666274 14.9233668765 1.3740007204 
Si 10.8855319596 13.4850738933 2.7570288049 
Si 8.2272971552 16.1619607478 2.8430343776 
Si 9.6103996179 14.7441280048 6.8899467524 
Si 10.9727974904 16.1271815975 5.5411367611 
Si 8.2473990154 13.3952671225 5.5127515982 
Si 10.9499589101 13.3657822222 8.2538170582 
Si 8.3041045059 16.1526591577 8.2457574368 
Si 11.0688922012 16.2208002284 10.9056678043 
Si 9.7742933094 15.0057779872 12.4122875352 
Si 11.1976483624 13.4831842533 13.4770694102 
Si 8.6228835189 12.8396803774 16.1543638515 
Si 9.5336411372 13.2312431110 18.2346580184 
Si 9.0217441725 15.4354756112 18.9013122468 
Si 9.4617370765 14.6852233643 21.2390142478 
Si 11.4406625846 15.9242570656 21.5543101653 
Si 11.8735856286 13.4027768126 18.4547974574 
Si 10.0307304917 12.2637311322 21.6144925935 
Si 8.4676561074 14.8683066760 25.0760117252 
Si 10.4681984457 15.9316038557 25.6326844782 
Si 12.1061579607 12.1169256508 25.5518529471 
H 10.7149104980 13.6770189651 28.0130377601 
Si 9.6397541982 12.7502482766 28.1874373772 
Si 12.1045452507 14.3464565212 26.2976620701 
Si 8.6473836791 12.6113597353 26.0267823141 
Si 14.9951731971 3.8088789648 1.2126847514 
Si 0.0775716775 2.5388453932 2.6962345515 
Si 16.2720159888 16.0444283967 0.1713293131 
Si 13.5515859639 2.4259231122 29.3366687884 
Si 12.3729881632 1.2039108320 6.8612674428 
Si 15.0569448777 1.1865033379 4.1350563945 
Si 13.7047608353 2.5634107134 5.4687472422 
Si 15.0922290180 3.9163766758 6.7948196886 
Si 12.3669119931 3.9261018059 4.0894342312 
Si 15.1276760584 1.2406741043 9.5636526032 
Si 12.4835483942 3.9350450160 9.5935379146 
Si 13.9257183974 2.7133764548 10.9918233918 
Si 12.4663298640 1.2839159097 12.2217686755 
Si 14.9470199567 1.6211091388 14.5453222170 
Si 16.0910015072 0.4846258754 16.2018685541 
Si 13.5364851338 3.5454045024 17.4703470639 
Si 13.4249149228 3.3613275007 15.1018773113 
Si 15.8727480852 3.9090787558 18.0844960948 
Si 12.6598387758 1.4660429984 18.3263435651 
H 15.5822322225 0.9998932411 19.1075973732 
Si 12.9962761489 3.0961588783 21.7941574376 
Si 15.7584248641 0.5866110504 20.4567309260 
Si 15.2501116995 2.3980997919 21.8470156113 
Si 15.7084145637 3.8996468457 25.3557747135 
Si 13.6295010347 2.8024501756 25.6828070870 
Si 14.4834065525 0.5024797156 28.2828880024 
Si 14.8389846757 0.7740405341 25.9668940327 
Si 13.6513947949 5.2321036979 2.5956893043 
Si 12.1796910214 6.6440394608 1.3697914801 
Si 15.0410784176 6.5787980102 3.9770407523 
Si 12.4127683435 6.5966192703 6.7916134889 
Si 13.7322420656 7.9513445527 5.3969754315 
Si 13.7746123560 5.2817881983 8.1739562115 
Si 15.0854035080 6.6857907311 9.5197070765 
Si 14.1390522393 5.4014219594 14.0004447494 
Si 12.6033613453 6.6794865011 12.5798629473 
Si 15.3964936408 4.2300080487 12.2790390506 
Si 15.2197471392 6.7656280219 15.7598247955 
Si 13.6490001648 7.4296247179 17.4224893853 
H 15.7923080644 7.8871130821 15.0950236917 
Si 12.4850633642 5.5067693904 18.3324324031 
Si 12.9534008685 5.2398251579 20.7226690164 
Si 15.1765623488 5.5771096110 21.5276898831 
Si 15.9907202662 7.6248114997 20.7982941497 
Si 12.2890457924 7.1023749050 21.9806170720 
Si 15.2414617094 5.7413453925 23.9466646353 
Si 13.5484257039 6.9277135234 25.1537841299 
H 13.3255947919 7.4662446383 22.8842065197 
Si 15.4739363015 6.9468705635 28.5309419695 
Si 13.5380001038 6.2667467673 27.3988004852 
H 13.0303548292 4.9798367555 27.6791517671 
Si 14.9265922965 9.2998796351 1.2969783899 
Si 13.6429402848 10.6830635477 2.7312586068 
Si 0.0773794555 10.6794308777 29.4602692591 
Si 15.0831880679 9.3035937551 6.7731999014 
Si 15.0120822173 11.9805946396 4.1582645743 
Si 12.3335337828 9.3404743154 4.1160839281 
Si 12.3381438528 12.0217268899 6.8779749791 
Si 13.7711425859 10.6518844874 8.1762211416 
Si 15.1680752587 11.9677581195 9.5581814734 
Si 12.4900969742 9.2182504443 9.5216190305 
Si 13.8287440265 7.9934053331 11.0304742768 
Si 15.0785128379 9.4179658461 12.4542328639 
Si 13.6555650349 10.8704148394 13.6681177342 
H 15.8422694949 8.6410468690 13.3667937880 
Si 12.4170526136 12.0594219503 12.0627823489 
H 15.7659997142 9.2568740347 16.2814646687 
Si 15.8153095446 9.9469836010 17.5221168946 
Si 13.0749894296 11.4299763445 18.1641804535 
Si 12.3267897227 9.4792325367 17.0527763162 
Si 15.6366245330 11.2305867427 21.5498097198 
Si 13.6037302544 10.7442976583 20.3698399716 
Si 14.5838018234 8.7152478197 19.2552002199 
Si 12.2620369721 8.6396459290 20.2517694601 
Si 13.5535733440 9.2150250243 24.7758937808 
Si 15.4397273012 10.2367827036 23.7770596105 
H 12.4268591937 9.5160642270 23.9576951390 
Si 13.3733244923 8.0177914633 29.3204318870 
Si 13.4335160429 10.5897055569 26.7155563793 
Si 15.5078357918 11.4511859247 27.3906526198 
H 15.9300400157 8.6611813092 25.8961223210 
Si 13.7432378157 13.3260509119 0.1988761576 
Si 15.0267269274 14.6890678043 1.5981464383 
Si 13.6438525248 16.1244937475 2.8353365567 
Si 15.0707587978 14.7210939446 6.8922705119 
Si 13.6840888252 13.3834080024 5.5173402878 
Si 12.2949590624 14.7498620849 4.1746779638 
Si 12.3478364029 14.7748672351 9.5442095021 
Si 13.7393119257 16.1445141577 8.2263143357 
Si 15.1811724188 14.8106400755 12.0825195969 
Si 13.8063289863 13.4204188827 10.7903622724 
Si 13.8576261967 16.1550537877 13.4380949638 
Si 14.6361090139 12.6598387758 14.8883267598 
Si 14.4257888219 16.0563038068 17.6921337248 
Si 12.4549105739 15.0193964274 16.8874364195 
Si 12.9622137585 14.3870349116 14.7230162778 
Si 15.0529538277 12.1923646415 17.1781416675 
Si 14.9727255769 14.6818676243 20.6596627793 
Si 12.7002705562 14.2245258701 20.5745955348 
Si 15.6284632429 14.1249776792 18.4768290501 
Si 12.4006811634 12.2224522718 21.7606247064 
Si 13.5974097344 15.4822279116 24.8578136549 
Si 15.1065967982 13.7956101662 24.4081514951 
Si 16.0525733968 13.4381749829 22.2873239040 
Si 13.6360007447 12.0362738601 23.7653819840 
Si 12.8035165771 15.0632328178 28.4007231965 
H 14.5378151530 12.4940880243 28.7846729690 

