&CONTROL
  dt          = 30.D0,
  prefix = 'aSiHcSi_merged-30',
  pseudo_dir = './',
  outdir = '/scratch/ztzhao/aSiHcSi_merged/aSiHcSi_merged-30',
  wf_collect=.true.,
  verbosity ="high",
/

&SYSTEM
  ibrav= 0, nat=  406, ntyp= 2,
  ecutwfc     = 42.D0,
  nbnd=1540,
  degauss     = 0.05D0,
  occupations = "smearing",
  smearing    = "methfessel-paxton",
/
&ELECTRONS
  electron_maxstep=200,
  conv_thr    = 1.D-8,
  mixing_beta = 0.3D0,
  scf_must_converge=.false.,
/
&IONS
/
ATOMIC_SPECIES
Si  28.08  Si.pbe-hgh.UPF
H  1.00784  H.pbe-hgh.UPF

K_POINTS {automatic}
1 1 1 0 0 0

CELL_PARAMETERS angstrom
16.29000014898320 0.00000000000000 0.00000000000000
0.00000000000000 16.29000014898320 0.00000000000000
0.00000000000000 0.00000000000000 29.17519467508972

ATOMIC_POSITIONS angstrom
Si 0.1018471986 0.1542366536 29.0925996990 
Si 0.0160665828 2.6747202845 2.7518685472 
Si 2.7271577949 16.2843963889 2.7869517188 
Si 2.7840261855 2.7742358954 0.0462245949 
Si 1.4482999302 1.3677084125 1.3995019958 
Si 4.1716898482 4.0487329270 1.4242892412 
Si 1.3782936546 4.0699099272 4.0702605843 
Si 4.0284681668 1.3215181171 4.2127230599 
Si 0.0336909783 16.2391101885 5.5001660505 
Si 2.6723419444 2.7167321948 5.5021499638 
Si 1.3478020323 1.3330546952 6.8640772264 
Si 4.0648926072 4.0600218971 6.8317511107 
Si 16.2579088487 2.6813340245 8.2051734000 
Si 2.6936818446 16.2620953787 8.2196734718 
Si 1.3379091152 4.0504759570 9.5304274430 
Si 4.0503782170 1.3348335632 9.5700765325 
Si 16.2382956885 16.2537711887 10.9508509709 
Si 2.6661680344 2.6897070846 10.9047541633 
Si 16.2427428586 8.0521796536 19.0677110567 
Si 10.8447417992 2.7051662947 13.6864922748 
Si 10.3917331850 0.7814622581 28.1413716518 
Si 6.8585461827 14.8995346063 14.9548546881 
Si 16.1067376473 1.9795445281 27.5220406192 
Si 8.0716950738 8.1469711645 16.1629703244 
Si 8.0025928932 2.4492829724 23.6420314794 
Si 2.7247468749 16.2877847090 13.6141669672 
Si 7.4528868382 9.0470588327 20.3827829566 
Si 3.8886673856 6.7296922815 27.2238701296 
Si 13.9185833773 13.9732851978 21.7728351069 
Si 1.8315010068 5.7211295023 26.5004711777 
Si 5.3088784686 5.4752319501 16.2268931759 
Si 6.6698102410 4.1276579778 14.8929741002 
Si 16.1773059280 5.3852134093 0.1597140600 
Si 16.2833212489 8.1197017043 2.6966136460 
Si 2.7525213252 5.4307928297 2.7083245691 
Si 2.8811797464 7.9700454729 29.0669547028 
Si 1.3936925917 6.7702706719 1.3273546569 
Si 4.0727443872 6.7718019319 4.1028492768 
Si 0.0278461263 5.3964860894 5.4770884715 
Si 2.6938447446 8.1310558344 5.4388981417 
Si 1.3627725425 6.7734798019 6.8223566980 
Si 16.2644574287 8.1344767344 8.1456851781 
Si 2.7057690247 5.4154476495 8.1860052971 
Si 4.0537339571 6.7772753720 9.5367292850 
Si 2.7555512652 8.2353118353 16.3986183718 
Si 4.1469453379 14.9789320670 17.6703067573 
Si 10.3832135150 4.4483429207 21.1271880488 
Si 2.9368752569 8.4134266969 21.5988634211 
Si 10.7817320786 10.8611295393 16.0686469200 
Si 5.2827167283 8.4683891574 26.3088484990 
Si 15.1693784587 0.2641488684 24.4056922000 
Si 6.2361052770 11.9086905789 25.3031211882 
Si 9.4949360968 9.4437692064 12.1800310978 
Si 2.6494219142 2.6993344747 16.3392176754 
Si 15.0374620375 6.8865649830 27.9516161856 
Si 11.0343736909 1.9045453674 25.1987615168 
Si 16.2711689088 10.7926952487 16.2673883462 
Si 5.5578548308 2.8048122257 26.4531198367 
Si 13.7878887061 3.9465457561 25.3121654986 
Si 14.9284004865 6.7518141017 15.0353198750 
Si 7.7618266910 2.4235936422 27.2575674795 
Si 4.0545810371 9.4376441663 1.3421027178 
Si 0.0648920301 10.6585959675 29.0984055627 
Si 2.6703382744 10.8088712189 2.6936056834 
Si 1.2848688748 12.1487237311 1.3215167005 
Si 1.3244975581 9.4799655867 4.0751911922 
Si 4.0326709869 12.1766285014 4.0570733963 
Si 4.0538805671 9.4854878968 6.7925979994 
Si 16.2598147787 10.8683948794 5.4052883175 
Si 1.3341314642 12.1982942016 6.7845748209 
Si 1.3263041191 9.4872309268 9.5071748128 
Si 2.6850318546 10.8390891691 8.1444598199 
Si 4.0252427468 12.2019268716 9.5097130547 
Si 11.5353400655 7.1343684652 24.3604122979 
Si 4.0763770573 14.9264293965 12.2531149604 
Si 4.3228610495 6.9355490134 20.3844459427 
Si 2.6651743444 8.1280910543 10.8704149592 
Si 14.1732612396 9.7138899888 24.3544022078 
Si 6.6959556912 6.8276114724 17.5198211032 
Si 16.2886643690 10.8362058391 10.9028286005 
Si 9.4317308963 1.4212585300 15.0682003194 
Si 12.9272717082 8.6738386393 20.7500986576 
Si 13.5607898140 10.8082521988 13.6018842103 
Si 0.7479586148 1.1644564516 25.5267782306 
Si 10.7724630685 5.2110407277 27.4198690875 
Si 14.9522490467 11.8289510282 27.6378077917 
H 8.0480745736 13.9221183073 24.3483921177 
Si 2.7348140950 13.5845406342 16.3706101849 
Si 16.2145774483 13.6070534144 2.6087758874 
Si 2.6302648741 13.6105068945 0.0874841552 
Si 4.0568616371 14.9699888569 1.3671554575 
Si 1.3151894520 14.8939308462 4.0436819820 
Si 2.6808453245 13.5459170439 5.4158497379 
Si 4.0115428567 14.8915687962 6.8305841029 
Si 0.0037297584 13.5476274939 8.1759106798 
Si 1.3179701551 14.9139349664 9.5703682845 
Si 2.7069744848 13.5647645741 10.9006404609 
Si 5.3860930693 13.7833763761 26.4186055814 
Si 14.6038548136 6.9938835040 20.4990752826 
Si 8.6226391689 14.3825714515 19.5279205775 
Si 10.5495832865 11.6287469264 20.2574754955 
H 13.5198530436 7.0472332545 23.3009734536 
H 11.6263848763 11.7953773379 16.8782293971 
Si 5.8298815433 15.9240778756 21.2101039520 
Si 10.8441064892 10.8017199088 10.8268563935 
Si 1.3468669863 12.2144864617 12.2543986690 
Si 9.4866770668 12.1549953812 14.6420090756 
Si 1.4253326590 15.3317897602 22.3184695977 
Si 2.6860092546 10.9790365604 18.9635847869 
Si 4.0683135072 1.3442084583 15.0029062337 
Si 4.0735914673 12.2539245521 14.9620317860 
Si 10.4643702957 8.2439129554 26.2280915602 
Si 10.5309801063 14.5451619430 16.8199373581 
Si 1.6986397655 14.5110181027 20.1641732229 
Si 5.3921040793 0.0447694816 29.1337658987 
Si 5.3746411992 2.6516210643 2.8657976824 
Si 8.0728353738 0.0041666725 2.8308487167 
Si 7.6787314002 3.1157883285 0.3122883663 
Si 6.6899935512 1.3284820921 1.4648573494 
Si 6.8031276022 4.0556235971 4.1085092645 
Si 5.3990273294 16.2508715686 5.5263653754 
Si 8.1033628341 2.7062414348 5.5273573320 
Si 6.7546811418 1.3325773982 6.8647190807 
Si 5.3948245093 2.6900165946 8.2043564946 
Si 8.1372460344 16.2632682587 8.1870264289 
Si 6.7680063619 4.0374602469 9.5476991582 
Si 5.4401432898 16.2762839689 10.9031495276 
Si 8.1370016844 2.6928836346 10.9116103341 
Si 8.2023734550 16.2778315189 13.6413582486 
Si 9.7011837887 3.4511994316 26.3560539640 
H 12.4336358337 11.0477477810 18.5315293289 
Si 1.3736982456 9.4908473068 20.2344854421 
Si 9.4046569160 6.3078953077 20.2315095722 
Si 5.4498521298 13.5741801941 13.5984123621 
Si 14.9614854768 6.7576133418 22.8603113133 
Si 3.8134075849 12.4343037237 22.4723395745 
Si 8.1271299443 5.4260198596 13.5902433076 
Si 13.4296064428 16.2090877182 13.7526032659 
Si 10.5160421762 10.5533299865 23.7107098876 
Si 12.1912569215 6.7171652714 17.7447035037 
Si 4.0354077069 1.4311595921 27.7348736644 
Si 12.2640406422 12.1116802708 12.1409363369 
Si 6.0456263053 4.8511783344 0.2283417034 
Si 5.4284796496 8.0862583340 2.7033006006 
Si 8.2304248353 5.4462520398 2.8269509107 
Si 8.1136092442 8.0794654039 29.1587398653 
Si 6.8554510827 6.7106329814 1.4094215620 
Si 5.4251890696 5.4044356094 5.4592332524 
Si 8.1235950143 8.1369202344 5.4748128064 
Si 6.7721114419 6.7613600418 6.8218023693 
Si 5.4021387194 8.1247841843 8.1582305118 
Si 8.1179260942 5.4022038794 8.1909942554 
Si 5.3967793094 5.3941566193 10.8804804013 
Si 8.1178120642 8.1036234741 10.8474832562 
Si 9.0709725530 6.8086824923 27.4046979862 
H 0.2011293738 5.3551257790 20.7601057494 
Si 14.9442832367 9.4646204066 12.2659520461 
Si 0.0296634387 5.3960788394 16.3861313885 
Si 13.7113257054 13.5331619738 16.3503917750 
Si 13.5426753339 8.1019130241 16.3900408646 
H 6.7711829119 12.1657467813 23.9172119156 
Si 5.4932486902 10.8813942995 16.2151355725 
Si 8.0605690037 10.7655561085 13.4623392541 
Si 1.2725715536 14.8525216658 27.8057693874 
Si 1.3877923537 14.9373274066 14.9842924595 
Si 1.3155185100 4.8108117140 24.4073551861 
Si 5.4937373902 16.2691652388 16.2991601332 
Si 12.1684835013 1.3108416510 12.3216474927 
Si 9.5066160269 14.9318050966 12.2094105188 
Si 3.4664794517 1.6144921408 20.2807573009 
Si 4.1910260783 9.6448203882 17.7153240827 
Si 5.3545882090 10.9218097899 0.0682337783 
Si 8.1391193844 10.8059553088 2.7162252118 
Si 6.7676805619 12.2179562317 1.4119218762 
Si 6.7719648319 9.4557749365 4.0668762617 
Si 5.4091271295 10.8293803290 5.4166082930 
Si 6.7439134517 12.1807172914 6.8108908465 
Si 6.7671429919 9.4802913867 9.5053076003 
Si 8.1276186443 10.8426078092 8.1612063817 
Si 5.3921366593 10.8445137392 10.8378846171 
Si 6.8017918222 1.3288665362 12.2809189209 
Si 8.4912277377 0.2333884611 26.8552707201 
Si 13.6192057546 10.5354435664 19.3306670863 
Si 4.4376892606 10.3131828043 25.1835904156 
Si 0.0082657090 13.5774056142 13.6273541552 
Si 16.2181286683 13.5048988235 19.0096815944 
Si 12.2111795917 9.4172165061 14.9471524367 
Si 9.3502646055 4.0683135072 17.4756206832 
Si 3.3500385306 12.8567197176 20.2597511607 
H 15.3388596203 3.5488254025 22.6882943654 
Si 12.2250749618 6.7501362317 12.2362808731 
Si 12.2444437720 4.0762141573 15.0003971670 
Si 7.9105706823 2.7381861250 16.2653460825 
Si 13.3596246022 10.6995816079 26.2970617204 
Si 1.3391553002 4.3900084301 20.4702501903 
Si 5.3858324293 13.5743919641 2.7365807452 
Si 8.0889787640 13.6212094246 0.0689345665 
Si 6.7229645115 14.8991110663 4.1415939353 
Si 8.1077285542 13.5423169539 5.4812313492 
Si 5.3938145293 13.5457052739 8.1667496686 
Si 6.7602523218 14.9077773463 9.5193116938 
Si 8.1297526344 13.5658885841 10.8727489748 
Si 0.0086830099 0.0429704140 16.2824427466 
H 14.0511513985 12.5714166550 28.6154102149 
H 2.8531609461 2.9199662367 19.8395700070 
Si 2.7110306948 1.0295133484 22.4347327485 
Si 8.4038807569 13.5751413042 16.1400677966 
H 6.0976239858 11.2435047128 22.2994765460 
Si 2.7167321948 11.0714823113 26.5628185687 
Si 7.0014094840 12.6952369461 19.4573749567 
Si 4.8404269343 4.4663270808 23.3020529358 
Si 2.7172208949 10.8719786794 13.6113661485 
Si 10.8173094389 13.6593931849 19.0613216890 
Si 11.0649663112 7.8321017516 19.4978117766 
Si 1.2401593403 1.4038266008 17.7276068396 
H 14.1228436892 1.3776730056 24.4250937045 
Si 1.3879943497 6.8075096123 17.6988109225 
Si 6.8737447529 15.0358330375 27.7939534336 
Si 9.5177583870 3.9973053966 1.4985897095 
Si 11.2256020027 15.8273152748 0.6798345513 
Si 10.7671362385 2.6269091340 2.9120812112 
Si 12.2650506222 1.3911220297 1.6320954004 
Si 9.4336042463 1.2867438538 4.2409354732 
Si 12.1868097515 4.0559331071 4.1480416533 
Si 9.4889902468 4.0564380971 6.8524071485 
Si 10.8675966694 16.2303461684 5.5029085188 
Si 12.2143724317 1.3281318571 6.8424875823 
Si 9.4872309268 1.3431642693 9.5384797967 
Si 10.8517302092 2.6907170646 8.1882517871 
Si 12.2115868417 4.0344954669 9.5516086343 
Si 10.8617811393 16.2866769890 10.8751705159 
Si 12.3925198733 14.9702494969 20.2671908353 
Si 14.3350209411 14.6249014938 25.4251902027 
H 4.6869262629 5.2621424581 24.5779425494 
H 9.9936544514 3.2256969595 18.5548403095 
Si 8.7734682802 4.4945087811 24.5221012267 
Si 1.0512181446 10.4048792152 23.6807177875 
Si 11.3619330139 0.3029809708 21.5844216997 
Si 7.9257366725 10.9801279904 26.6149546416 
Si 13.8609656468 2.4855445127 27.2449054450 
H 8.5133984279 7.1767061756 23.0792419741 
Si 1.3145997540 6.7626958218 12.2345303614 
H 13.8559646167 6.3485388581 26.8998795928 
H 10.3140950443 8.3845119467 21.9965213245 
Si 12.2961645225 9.0061057724 23.0793878501 
Si 11.4255454645 4.7876147538 0.3764737946 
Si 10.8514532792 8.0957554040 2.7019322840 
Si 12.2830510723 6.7239419115 1.4173776376 
Si 9.5424866073 6.8062552822 4.1725196417 
Si 10.8595331193 5.4148612095 5.5143743703 
Si 12.2381069619 6.7787903420 6.8193516530 
Si 9.4964347769 6.7376418016 9.5355039268 
Si 10.8527727693 8.0932304540 8.1777778922 
Si 10.8510460292 5.3860279093 10.9046082873 
Si 14.9516626067 9.4660213466 17.7086137879 
Si 4.7801213537 0.3068612488 23.2799964887 
H 15.1443407285 9.4583324665 21.8746857115 
Si 12.2874167924 0.7979493673 26.8027261945 
Si 6.6614697609 9.4964021969 27.9414923931 
Si 8.8972722814 9.5245350271 25.1042338861 
Si 2.6436063842 5.4034256294 13.6000753482 
Si 16.1830074280 8.3469146263 24.2738786705 
Si 14.9084126563 4.0538642771 12.2541069170 
Si 9.2242288744 0.5783406173 24.5934637529 
Si 3.3612786307 10.2263408135 23.0839391804 
Si 1.2784115187 12.2575409321 25.1177420012 
Si 14.9487629867 12.1668219213 14.9324481386 
Si 10.9017730897 13.4813597733 13.4031136089 
Si 3.9541043162 6.8332966825 14.9230537259 
Si 12.7231580064 14.7983574153 27.1048936858 
Si 9.5025109469 9.4581206965 1.3255574649 
Si 10.8289242090 10.8406692991 29.1246924131 
Si 12.1374999210 12.2872864724 1.3195853026 
Si 12.2233482218 9.5020548269 4.0143025609 
Si 9.4437854964 12.1010103207 4.1920086717 
Si 9.4969560569 9.4635452666 6.8386656318 
Si 10.8770122895 10.7813248286 5.4750170327 
Si 12.2123198917 12.1856857414 6.8136333148 
Si 12.2231690318 9.4547649565 9.5053367755 
Si 9.4821158667 12.1960461815 9.5218791109 
Si 2.8183817958 5.5939534712 19.0831739098 
Si 5.1787702374 14.1520353694 19.6238194424 
Si 8.9530166619 13.9964495780 23.1288689802 
Si 4.0161529267 9.5143537770 12.1934808625 
H 11.8622152085 11.1694829522 20.8629191354 
Si 8.0618396237 15.4182407910 21.5377413882 
Si 7.9182921424 5.2941034384 18.7617507901 
Si 13.6833883551 0.1193105675 18.9871583442 
Si 14.9169811964 12.2083451317 20.5063107309 
Si 10.8401643091 15.3382894703 23.5163155655 
Si 6.7486049717 1.2982103849 17.7691814921 
Si 0.0224446880 2.6895604746 19.3330594522 
Si 13.5332760038 5.3023298885 19.1157334271 
Si 1.1503541985 3.9577695662 28.0077784354 
H 6.3991844685 7.9350219726 23.3840644081 
Si 9.3932539159 14.8053132454 1.6222400196 
Si 10.7995044688 13.4414329829 2.8765458241 
Si 12.2216377718 14.9011961863 4.1016530938 
Si 9.4878825268 14.8866980861 6.8381696535 
Si 10.8571547793 13.5385865438 8.1796451047 
Si 12.2145679117 14.9016360163 9.5376920664 
Si 10.8255684690 13.4970959134 26.4736591738 
Si 3.9620701262 4.1669331681 17.6190459403 
Si 16.2623234387 5.4018129194 10.8801886494 
Si 15.0241205274 4.0374276669 17.8316455839 
Si 2.5886765037 16.2797211589 26.4593633284 
H 3.2835590400 7.2925117867 24.1203879713 
Si 5.3765145492 2.6909614146 13.5796818871 
Si 1.2692451356 12.2028879816 17.5862238463 
Si 12.1408719510 3.4783874418 19.8652441783 
Si 12.1320916410 14.6188904837 15.0287262810 
Si 13.5847035342 5.4247003696 13.6277334327 
Si 14.8294713156 1.3360080722 15.0106376603 
Si 12.0283569200 9.3677437757 27.6954288012 
Si 9.5103301470 6.7762979720 14.9306101013 
Si 10.8516813392 8.1090643342 13.5574212136 
Si 13.6819385451 0.0481382536 2.8867892350 
Si 13.1308152601 3.1190951985 0.2495339813 
Si 14.8559262759 4.0594354571 1.5253112703 
Si 15.0068368372 1.3844040337 4.2242180866 
Si 13.5640966841 2.7160317248 5.5070805717 
Si 14.9327662066 4.0648926072 6.8450841747 
Si 13.5744245441 16.2650927388 8.1952246586 
Si 14.9062135063 1.3300622222 9.5786540398 
Si 13.5353122538 2.6699310244 10.9443740777 
Si 9.5780150976 9.6321467681 19.3805566692 
Si 2.0865861191 6.9266546733 23.2306612345 
H 9.6630488984 8.8070745505 21.9541005914 
Si 13.5973608644 2.7661723453 16.4267724347 
H 5.1693871973 13.0104810290 22.7482785657 
Si 6.7407857716 12.2062925916 12.1861287134 
Si 1.3187993161 1.3359706052 12.2810356217 
Si 16.2841194589 8.0988667941 13.6416500006 
H 3.3914314210 2.5887253737 25.0129155268 
Si 5.9213824742 5.6335055915 21.5967044567 
Si 12.7723375168 13.8456530466 23.8325455006 
Si 16.1769638379 10.5663131166 21.6615609144 
Si 5.7740882928 1.7017022856 19.9215231288 
Si 10.8521700393 5.4293104397 16.3140978328 
Si 16.2124597483 2.6733519244 13.6292213677 
Si 4.0216263668 4.0576924271 12.2424660144 
Si 2.6294666640 4.5439163516 22.4956213798 
Si 12.5592480249 5.7985070030 25.9782643682 
Si 6.9988519540 8.0254477634 24.7846196284 
Si 13.5978658544 5.4602614399 2.8902348254 
Si 13.5000444035 8.1583415846 29.1499581317 
Si 14.9879078571 6.8052941722 4.1658968725 
Si 13.5628260640 8.1656069247 5.4362140238 
Si 13.5674198441 5.4121081995 8.1953997098 
Si 14.9262339165 6.7773079520 9.5267221932 
Si 13.5789694542 8.1249959543 10.8934050126 
Si 2.1102066193 2.5492221233 24.1925090525 
Si 7.3483213272 11.8128076380 17.3220716337 
Si 7.7944066913 7.0964127649 21.7543672087 
Si 15.4084993709 4.6233463923 23.7500088749 
Si 12.2489398120 1.7462554360 18.0598831318 
Si 14.8734868960 1.2672854486 20.6798156136 
Si 14.9865557871 14.9964601072 17.6487754636 
Si 6.6765868811 9.4300041562 14.8030561502 
Si 2.4555057525 13.7862108361 23.7997234066 
Si 4.0752204673 12.4167593936 27.9049650493 
H 10.2128689834 2.1689483598 28.7520668267 
Si 7.4768331384 5.9955997148 25.8432999176 
H 9.9436767309 14.3509199812 25.5859747006 
Si 15.4468134513 15.8175412747 22.1982386205 
Si 14.8595100759 14.9269506765 12.3404363181 
Si 14.8953969462 9.4799492967 1.3399904338 
Si 13.5648134441 10.9201970799 2.6540966348 
Si 14.9115240464 12.2531589221 4.0430984781 
Si 14.9191151864 9.5152008570 6.7909350134 
Si 13.5750924342 10.8460612892 8.1778945930 
Si 14.9458307867 12.1940099315 9.5336075392 
Si 1.3856567347 9.4743129566 14.9536293299 
Si 0.4173286268 7.6706352702 26.5045557049 
Si 11.8563508084 12.0099166398 25.0020915295 
H 13.0649222095 12.7065096262 17.4270439841 
Si 5.6376921216 8.2926689258 18.9989159476 
Si 16.1037402873 13.4684255132 26.4561248818 
Si 6.7972469122 3.8529597052 20.3125290879 
Si 8.6169702488 2.9647637371 21.4599311440 
Si 5.3261621587 8.0869425140 13.4908434193 
Si 12.2532729521 3.2250290695 23.7021032052 
Si 5.7018421421 2.3884886918 24.0943345224 
Si 8.9500844619 10.0359921618 17.2324746108 
Si 3.9969144366 15.0987450181 24.9890793927 
Si 1.3015465769 4.0349515869 14.9633154946 
Si 12.8780759078 2.1530330297 21.6551131964 
Si 7.2287364361 11.1820751223 21.2945661406 
Si 12.9717434086 14.2849617706 0.2283431621 
Si 14.9137394864 15.1370753884 1.2905589014 
Si 13.5678433841 13.5563100640 5.4671980806 
Si 14.9252890965 14.9043727363 6.8349895573 
Si 13.6018569044 13.5590467840 10.8847691550 
Si 10.7651977285 5.0932151566 23.3509505621 
Si 9.2913762550 11.8759476786 22.1955545026 
H 14.6239240937 10.9980958606 23.6912208576 
Si 10.4137246852 0.5604248751 17.0552061280 
Si 9.4972655669 4.0388286069 12.2791975845 
Si 9.3048806651 0.9147698454 20.6941114590 
Si 6.7641456319 6.7522865118 12.2096439204 
Si 2.6195460540 16.2426288285 18.8853660899 
Si 5.6070017613 5.0989655266 27.1200356118 
H 4.8681036445 3.2664219599 18.4264111025 
Si 9.4302647962 12.2656044822 27.9001219670 
Si 8.6666547493 0.2379089362 18.5476632116 
Si 1.5254037590 9.3784463058 27.7529914603 

