&CONTROL
  dt          = 30.D0,
  prefix = 'aSiHcSi_merged-16',
  pseudo_dir = './',
  outdir = '/scratch/ztzhao/aSiHcSi_merged/aSiHcSi_merged-16',
  wf_collect=.true.,
  verbosity ="high",
/

&SYSTEM
  ibrav= 0, nat=  406, ntyp= 2,
  ecutwfc     = 42.D0,
  nbnd=1540,
  degauss     = 0.05D0,
  occupations = "smearing",
  smearing    = "methfessel-paxton",
/
&ELECTRONS
  electron_maxstep=200,
  conv_thr    = 1.D-8,
  mixing_beta = 0.3D0,
  scf_must_converge=.false.,
/
&IONS
/
ATOMIC_SPECIES
Si  28.08  Si.pbe-hgh.UPF
H  1.00784  H.pbe-hgh.UPF

K_POINTS {automatic}
1 1 1 0 0 0

CELL_PARAMETERS angstrom
16.29000014898320 0.00000000000000 0.00000000000000
0.00000000000000 16.29000014898320 0.00000000000000
0.00000000000000 0.00000000000000 29.37676483463750

ATOMIC_POSITIONS angstrom
Si 10.2049357533 8.8190965707 23.3484470532 
Si 3.7827009346 6.6513210908 28.0849803546 
Si 13.4258434528 13.4294761228 23.5769395301 
Si 5.2026025076 2.5907942037 18.1612741793 
Si 7.7477847109 16.1831377480 24.3573332879 
Si 0.3374669011 15.9703740561 11.2151968877 
Si 11.6677126067 3.9622981862 17.5190393465 
Si 0.5974878835 7.1630062855 25.9515221852 
Si 8.3884541267 16.1909406581 19.8562253800 
Si 5.3320102688 3.9977289366 21.3091120384 
Si 1.2481202634 8.8878077913 27.4999127061 
Si 10.3614337848 10.0742736621 27.4431861732 
Si 7.6996803404 1.9498315678 12.4983152221 
Si 6.0085013950 0.7852057002 14.6959322459 
Si 9.7963825496 7.4155338678 17.8919186225 
Si 3.7467489043 12.1114359208 15.7898642148 
Si 7.4312700080 12.7026814762 19.2277388731 
Si 9.8071502397 13.5559028140 25.6494409124 
Si 10.9815452204 13.3070730617 17.7081375817 
Si 6.7525797318 5.4911961502 22.3813933316 
Si 12.8293036473 0.0833204186 21.4688922623 
Si 9.7783332294 4.7959063639 20.9706623307 
Si 15.2515777995 5.1976992175 17.3363746227 
Si 13.3170099618 13.9322669774 14.4127989864 
Si 6.7834167020 1.6048142517 16.7064780312 
Si 5.8948134839 9.5359217372 16.5267216071 
Si 15.1054239181 6.4111250386 27.3554083999 
Si 12.4293189837 0.4233396369 25.0880215597 
Si 11.5053175952 14.6491573040 24.3525154985 
Si 12.2779523023 0.7224566196 15.4718607355 
Si 5.8062447531 7.5001115486 24.8881126750 
Si 5.1344777270 9.0535422528 23.2485954295 
Si 5.3578950790 10.0789814722 12.8149673703 
Si 14.5485013931 3.9448353061 15.5099917762 
Si 5.4241139296 13.6743962751 15.6985318529 
Si 13.4287430728 9.3778924458 12.3842452443 
Si 9.7654804193 2.7219612849 17.9514065713 
Si 14.1718277196 8.7423706700 15.9420652334 
Si 8.1578691746 5.0974831366 26.7233085509 
Si 4.4609025108 11.0799856913 24.1361262487 
Si 1.8832380472 5.5480482507 14.2793697205 
Si 4.9109463449 5.6905531720 15.7319919881 
Si 14.8566756159 11.1619243921 11.8882185700 
Si 12.2346371919 3.5372269224 27.4222699167 
Si 9.2887209850 1.7411566659 14.1941183490 
Si 12.3438779329 9.3127324452 24.0840412447 
Si 15.8921983453 2.7878054655 26.6463708038 
Si 12.7907126370 7.0668301246 21.1661940775 
Si 14.4649499823 3.3288289504 23.1113471842 
Si 7.3043220368 10.2401547337 18.1938823883 
Si 12.5324509746 0.9428456606 19.3268560776 
Si 11.0260820808 2.0198785685 26.0849808279 
Si 13.9015277471 8.4354833571 27.6098111834 
Si 5.6588854118 2.7218309649 13.4228607650 
Si 3.0904085083 16.1962837781 13.4478310151 
Si 6.3107134777 4.2269129487 27.8143322201 
Si 10.7097791479 10.0888206323 14.9875553904 
Si 2.7370295350 12.1223339309 22.9051810486 
Si 2.9248206567 14.5012278126 22.6265130574 
Si 12.1025578707 4.7554257135 20.9174316329 
Si 4.0497103270 11.4329411246 19.5112540305 
Si 1.9942381082 9.3892791559 17.0594398607 
Si 8.4570838973 3.3500059506 19.7829009749 
Si 13.0520693994 13.9192349773 16.8177865931 
Si 14.9734423369 12.3393981829 13.9776115921 
Si 6.2884613375 4.8976537048 14.0072821246 
Si 11.9988068597 8.7970236205 26.3158234459 
Si 8.9686876420 4.8209440941 23.2031789511 
Si 9.2381405345 7.8398395017 12.6085955973 
Si 1.6910812055 1.2139943421 20.3078050090 
Si 7.4358149180 3.8689727754 24.8553282054 
Si 5.3961928694 1.6953980555 21.6287018630 
Si 2.2674702807 14.6740972942 17.8316081243 
Si 1.3267276591 6.5160326396 12.1909461317 
Si 6.8778987029 9.4425474564 21.7995865041 
Si 5.6648149718 6.5133936596 19.0256854846 
Si 8.7450422300 10.5106990561 22.7209299796 
Si 6.2256308069 10.9074094298 20.1198230908 
Si 9.2322598444 1.0566671497 22.9751858792 
Si 7.3294249270 12.7733963668 14.6711382564 
Si 3.5297335223 4.2711240091 25.0763883608 
Si 9.1550289537 6.8037303322 20.0615689662 
Si 0.4729997023 13.7780006760 26.2158543152 
Si 12.0281451500 1.4223972010 12.4400610975 
Si 0.2798019296 10.2231805535 20.5976949244 
Si 9.5623278275 6.8339971525 24.3284265513 
Si 3.3979637111 2.2193659103 12.9104712328 
Si 10.2163876234 16.0101705264 14.8943722923 
Si 4.0427056270 13.7271270055 19.0263611502 
Si 2.1644686098 2.5193136830 16.7207845156 
Si 13.0195545591 3.2837056500 19.2850235645 
Si 13.7774468160 15.7823711643 26.6991608503 
Si 2.4533717624 0.1294141143 26.4559506142 
Si 10.1559680129 13.7147466054 21.5058776093 
Si 8.4659130774 5.0598043663 14.8524810257 
Si 8.5038687778 15.4189086810 26.4405278127 
Si 0.8789285870 15.5759605725 13.4401049260 
Si 7.9849182430 14.1848760097 20.9732474860 
Si 2.4238705722 10.7642691984 26.7301533372 
Si 16.2539177987 8.0132465533 19.8283762069 
Si 4.5586913817 7.8850931221 12.4811004379 
Si 13.9184367673 8.1859694249 19.4079065718 
Si 14.8004914054 4.0895882474 12.2779601091 
Si 13.6491630648 14.2159247500 21.3204220929 
Si 3.9778551364 10.4668137957 17.4089058551 
Si 6.3995102685 4.2701628991 19.2447480199 
Si 9.5238508471 9.7225562689 18.4238143266 
Si 2.5379005732 10.6353012673 21.0827640653 
Si 1.6721848053 3.1445238888 21.6536427364 
Si 3.7917418847 15.2894683398 24.7914631187 
Si 16.0471162468 12.1044149307 19.2823502789 
Si 11.8724779086 6.3902901284 14.4798955173 
Si 1.1436329445 3.9746785864 27.9853931218 
Si 3.3455262006 5.8708183137 18.8904936128 
Si 0.6905168163 6.2800556974 16.2259916655 
Si 0.3183408119 11.5164925353 26.0672666387 
Si 4.3474589498 15.1362608884 20.8044485953 
Si 6.7568314218 16.1109567573 12.6055697905 
Si 8.7174469697 8.8666307911 14.6504570139 
Si 13.4190016527 16.1962674881 17.3846112706 
Si 14.7856349252 1.1933255899 27.9943530350 
Si 0.9387438386 1.4599342484 25.1617572394 
Si 5.0144530059 13.6753248051 26.3881784177 
Si 6.1701470664 7.2555171964 16.9023035456 
Si 3.2479002297 0.4289531709 17.2463642153 
Si 12.9716782486 5.5235155105 24.6046856478 
Si 10.6865007377 8.1445113745 21.1801186640 
Si 6.0590492654 14.0237027483 17.8833112304 
Si 2.4336445723 6.6124531505 22.2516655381 
Si 12.2275510418 11.1429302519 20.7619404166 
Si 6.2237900369 10.0707550221 27.3402793660 
Si 8.3311133262 7.0373615144 16.1288427042 
Si 15.3267072802 3.7314851741 19.1684271849 
Si 15.0360936775 10.9304760700 15.9149504795 
Si 2.3567231916 9.0488996028 14.7908485731 
Si 15.9561691759 2.8760809763 13.9714424715 
Si 1.5775089534 7.3706712074 18.1468795645 
Si 1.9227412976 11.9866545196 12.5117110269 
Si 12.2440528120 3.9461547961 23.0749787494 
Si 6.9079700432 10.3927920350 14.5693183894 
Si 10.0276353917 5.6737744719 13.1493924612 
Si 7.4400014480 15.8843139853 17.7501169787 
Si 11.6022430961 6.2335477470 16.8845012261 
Si 11.7417343674 13.2705834614 12.8261599177 
Si 4.3009835793 15.7539125341 15.3866387407 
Si 3.4593770116 10.9044283597 13.8562267998 
Si 3.4951172720 8.5821259385 21.6805224762 
Si 8.5566972483 2.9865923373 16.0184154452 
Si 4.0154524567 0.9648192418 19.6788778507 
Si 10.4716356358 5.1352596470 27.4720635331 
Si 15.6451930731 0.6498423149 14.5523973729 
Si 0.7748859851 13.3510397721 14.0469407572 
Si 16.0020906864 0.0167078387 23.7022020554 
Si 10.4620408257 11.3478095838 12.9970151820 
Si 11.8598694485 13.3068124217 20.0014053518 
Si 11.2929611533 6.5982156903 25.8539619492 
Si 13.9550566876 1.0661511878 23.2726843767 
Si 14.1968328698 12.0552191303 17.8083123498 
Si 6.6128278205 14.7687584851 27.7681813226 
Si 0.6484283429 11.3095280834 17.2283856352 
Si 15.5738754524 10.0945058423 22.7159359296 
Si 7.9097073123 7.2747231065 25.8573402772 
Si 10.0570551320 14.8744154260 12.8299788971 
Si 0.6860110023 8.4868620176 13.2608772837 
Si 10.0433063719 10.3621668348 20.6767184218 
Si 14.0630593886 5.6452669716 13.9405087382 
Si 12.9189800982 10.2946447842 18.6879408193 
Si 2.5312542532 2.5633455534 23.8028468517 
Si 9.6494630383 0.8398879727 27.6575484262 
Si 13.3787001924 11.0832762714 22.9134065428 
Si 11.0468518310 10.9657439203 17.2095845057 
Si 3.7387342242 12.3007745925 27.9172096506 
Si 15.7760832243 14.2355053302 20.3547490792 
Si 10.3110162343 2.9044581566 23.9831026807 
Si 10.3236409844 0.5142818207 18.5978422815 
Si 6.9914725839 7.2752280965 20.8241310277 
Si 15.8873113453 4.2756200491 21.4478291219 
Si 0.9427088246 15.6073676927 21.7461795456 
Si 12.4044767334 3.0527460279 15.5206555418 
Si 15.5286544120 7.3825954875 14.6821545432 
Si 15.8716240752 7.8778440720 23.6803457423 
Si 4.4664248208 1.1092757051 23.7408325011 
Si 15.6401920430 0.4256137209 16.9247180171 
Si 9.6136739079 15.1727179088 16.9996581442 
Si 12.4386531538 14.4501912422 28.1163547394 
Si 15.5659748024 10.1216612726 27.6074610422 
Si 7.7546590909 1.6234597858 21.2314398722 
Si 12.4648963440 8.6782206494 14.4059542002 
Si 13.5918059743 7.4206326379 23.3969187152 
Si 4.1436710479 14.6927493444 12.0613945987 
Si 3.8504999152 1.3290831932 27.9098067059 
Si 6.1799210665 11.7913211278 25.5597536494 
Si 14.1497384794 4.4847999410 26.3516630990 
Si 14.9809520270 14.6202588437 25.0209837823 
Si 1.9251033476 3.2283522295 14.4443496318 
Si 13.7161475454 6.9974021440 17.4771187031 
Si 3.1689425990 4.8117402440 20.9792990996 
Si 6.3368100580 1.7422806759 25.0804717311 
Si 8.2777961557 8.8853642913 27.5201532971 
Si 0.5726179402 11.6817057168 23.7657733745 
Si 3.7469280943 4.2047422585 17.2520633077 
Si 0.4574476392 2.0005260483 18.3463771745 
Si 6.0563288354 6.1658953764 12.0061369041 
Si 10.7965233987 15.7286141638 22.4097712865 
Si 1.6990958855 13.1057938199 16.1866855542 
Si 4.7905632438 8.2811681857 26.7786249991 
Si 3.5922056729 7.1078972150 14.4715818928 
Si 7.1725685156 14.1617767895 23.1717164360 
Si 1.2776524047 15.0254725974 27.9800171738 
Si 0.1656448665 6.6103517405 21.7683590031 
Si 2.2810235609 5.5348859306 26.6012187163 
Si 4.8070650140 2.9736417872 26.5564779035 
Si 13.6125920145 16.2033699282 13.6181574976 
Si 5.5395611607 5.2784324583 24.3575389253 
Si 7.8821446321 14.0391619584 12.7447275256 
Si 8.1694839447 12.3173415227 24.3070990201 
H 9.0200988825 11.7759433677 13.0935178544 
H 15.4123926810 15.1303476184 19.1981858477 
H 3.4618042217 8.7881292804 26.2830683531 
H 1.3144596600 14.8408906057 18.9896989476 
H 0.9696166469 1.0594283047 11.0355579707 
H 8.5161514379 13.0073696390 15.6071113608 
H 8.8585183710 12.5859310451 18.6797153251 
H 10.6576511475 2.2108788202 13.3967154443 
H 12.1461173311 6.7874240421 11.2471294311 
H 6.5284944897 1.1029356371 26.4689938978 
H 2.6260620540 6.4054235386 23.7425657302 
H 3.3036283202 10.5759567967 25.3351976590 
H 4.2008000784 8.1181541542 20.4143839118 
H 11.6909910169 3.8024607048 14.4008426431 
H 10.4714401558 8.5244104680 12.0193564483 
H 0.1119007351 15.4145592510 17.1146681785 
H 10.2299246136 12.6731965759 22.6076531744 
H 12.2697584322 10.3082469343 12.0274350586 
H 13.1761340405 11.7245809972 27.6095174157 
H 10.2091222834 11.4825278850 26.8030370907 
H 8.7240932898 12.5138315044 28.3807162462 
H 5.8444285135 15.1462629485 21.0976580851 
H 1.7046996456 13.8138712563 25.3127538106 
H 11.3818882641 13.6877052052 27.2766492934 
H 7.1664923455 2.8891944264 28.2770162663 
H 16.1261879075 12.9716130886 23.4580517628 
H 12.7142147963 11.3033215934 27.1840243539 
H 5.6619968018 13.9509190276 23.1738021863 
Si 16.1180754874 16.1896374581 29.3935095906 
Si 16.0630152869 2.6211261840 2.6474076078 
Si 2.5677112735 -0.1421380705 2.6775217294 
Si 2.5084319629 2.6063674438 29.3331990924 
Si 1.1869513129 1.2503177844 1.3602470305 
Si 1.1273331703 3.9347843760 4.0687700599 
Si 3.9369672360 1.2115475841 3.9987358525 
Si 3.8604856853 3.9455846461 1.3406351023 
Si 16.1204864074 16.1452797877 5.4798242052 
Si 2.5103867630 2.5130094530 5.3687212806 
Si -0.1267655232 2.5315311832 8.2791655031 
Si 2.5940359137 16.1102888673 8.1903301662 
Si 1.2007782650 1.1838089718 6.8470482174 
Si 1.2838686687 3.9284312759 9.5637526757 
Si 4.0140189367 1.2333240563 9.4753286136 
Si 3.8982784857 3.8572113953 6.6854760108 
Si 14.3001766308 -0.3239022180 11.2601433379 
Si 3.1991116793 3.0718379081 10.7287176620 
Si 16.0564015468 5.3671803791 29.2789402077 
Si 16.0662732869 8.0609110937 2.7476646308 
Si 2.4631946325 5.2994139785 2.6827037908 
Si 2.4030193720 8.0228902334 29.3496207039 
Si 1.0711277828 6.6804639011 1.3494481318 
Si 3.8727683454 6.6719442310 3.9665095415 
Si 16.0437279267 5.2832380083 5.4431620027 
Si 2.5395295732 8.0022996732 5.3877574242 
Si 16.2255894884 8.0332506735 8.2903286737 
Si 2.4634715625 5.2017554276 7.9715613985 
Si 1.1356133774 6.6757886711 6.7462859140 
Si 3.9537459362 6.4312268988 9.2271537043 
Si 16.1664893679 5.3034376085 10.8560365608 
Si 2.8561583061 7.6679962901 10.8379698504 
Si 1.1896489369 9.4040867660 4.0608677102 
Si 3.8312288450 9.4472063964 1.1887043499 
Si 15.4213358910 11.3348427437 0.2026814638 
Si 2.4690427426 10.7572644984 2.6063976441 
Si 1.0644619147 12.1820530714 1.3198716049 
Si 3.8331999351 12.0917250206 4.0121022805 
Si 16.1691935079 10.7240980581 5.5151350765 
Si 1.4539427863 9.2326345144 9.7213883958 
Si 3.8986205757 9.3408326954 6.7629719164 
Si 2.6155550039 10.6536112274 8.2362166729 
Si 1.1623794766 12.0540136702 6.9715763235 
Si 4.0986943575 12.0082550598 9.4428379117 
Si 0.6328665058 10.2185704835 11.7044081525 
Si 16.1382587976 13.4921763334 2.8350105657 
Si 2.4581121525 13.5723231341 29.3701256858 
Si 1.2366064913 14.8241281956 4.1349265343 
Si 3.9572482862 14.8606666659 1.2584212883 
Si 2.5010037229 13.3863727824 5.4947769785 
Si 16.0075641264 13.3740738323 8.3642699908 
Si 1.3063472399 14.6437164439 9.5583473510 
Si 3.9059836557 14.8006217254 6.7183779874 
Si 2.7797582054 13.3158859518 10.8162016677 
Si 5.3105563386 -0.0844235774 29.1636070290 
Si 5.2963514584 2.5479840833 2.5975934277 
Si 8.0081966532 16.0645139669 2.5839919856 
Si 8.3362609662 2.2498445006 29.2291465913 
Si 6.7000770613 1.1731308767 1.2173966362 
Si 6.5830334102 3.8739086454 4.0487644830 
Si 5.2878643684 16.0959699572 5.3226878901 
Si 7.9951320731 2.5013783929 5.3389919946 
Si 5.3164858986 2.4316734822 7.9494113178 
Si 8.0409721335 16.0779532170 8.1316941436 
Si 6.7000933513 1.0811803419 6.6796006578 
Si 6.6578370909 3.8099215248 9.2459842105 
Si 5.3850830893 -0.2482840373 10.6956394248 
Si 8.4120257569 2.9954378074 10.5725214034 
Si 5.2032378176 5.3913058693 0.0718209022 
Si 5.2012178576 8.0754743539 2.5797705445 
Si 7.9113037324 5.2120181277 2.6875568323 
Si 8.4742861375 7.6609427201 0.1702448151 
Si 6.6571854909 6.7006472113 1.3420980652 
Si 5.2029120176 5.2779437583 5.3316478034 
Si 7.9286362925 7.9698337029 5.3067950603 
Si 5.2887766084 7.9877852831 8.1022586252 
Si 7.9249547525 5.2483774080 7.9326078083 
Si 6.5703923701 6.6486332408 6.6605351374 
Si 4.9467517652 4.7606385135 10.4908539972 
Si 7.6833088903 7.5476946390 10.8910536645 
Si 6.5760612901 9.3637527256 3.9746175286 
Si 5.1465160371 10.9155055598 -0.1444784547 
Si 7.9705015929 10.7218337481 2.6585972175 
Si 6.5945015703 12.0755164704 1.2879038094 
Si 5.2102750977 10.6986204978 5.3407546005 
Si 6.6772221911 9.2589591547 9.5542933575 
Si 7.9510350427 10.5758264767 8.0712661383 
Si 6.6316753507 11.9841621496 6.6987543085 
Si 5.8450475335 11.1085094816 10.7586819622 
Si 5.2450705380 13.4379795029 2.6585825292 
Si 7.8777463320 13.4243447728 29.2453038120 
Si 6.6719442310 14.7277076847 4.0085476920 
Si 8.0227762034 13.3974336925 5.4233326864 
Si 5.2675181582 13.3905756025 7.9687412290 
Si 6.6353731807 14.6422829239 9.3444257495 
Si 7.4589467182 12.9146958281 10.7211090799 
Si 9.3361085954 1.1814550668 3.9374265443 
Si 9.3092138051 3.9496734361 1.2622931459 
Si 10.9304760700 15.9360998957 29.2502097317 
Si 10.6994187079 2.5870800837 2.6212534741 
Si 12.0341561601 1.1588233696 1.3009735321 
Si 12.0758911404 3.9111964558 4.0119847735 
Si 10.6800498977 16.1334043776 5.3378169240 
Si 9.3886764259 1.1783518218 9.4904282707 
Si 9.3514211955 3.8334442851 6.7259571927 
Si 10.7341489882 2.5236468231 8.1193559024 
Si 12.0250337600 1.2209518012 6.6724327272 
Si 11.9008550888 3.9781972264 9.5878709997 
Si 10.7121249080 0.0397839271 11.0820026359 
Si 9.3052879151 6.5243568297 4.0831059211 
Si 10.1480999428 5.9198023441 0.2253227240 
Si 10.7396550082 7.9861399930 2.9785101866 
Si 11.9838852196 6.7546974318 1.4287037056 
Si 10.7203350680 5.2167585177 5.4227745279 
Si 9.1857518940 6.4422063589 9.4799113889 
Si 10.5453641764 7.8818514121 8.1474694663 
Si 12.0220852700 6.5843691902 6.8425535723 
Si 10.0584560720 4.7449675334 10.8897317101 
Si 9.4494707064 9.2798592249 1.5502118803 
Si 12.0690330504 9.3612929356 4.3280493863 
Si 9.3435368355 12.0452822302 4.0421840877 
Si 11.1944066524 10.1775685531 0.2721554562 
Si 12.0967912106 11.9996865197 1.4584388670 
Si 10.6469811974 10.7525241083 5.5312922972 
Si 9.2833452849 9.2587962547 6.7138833424 
Si 11.9144083690 9.2899753150 9.4100534421 
Si 9.2001848341 12.0718675104 9.3881383756 
Si 12.0130443199 12.0913829306 6.9278343207 
Si 10.8519093992 11.0153143907 10.6449057519 
Si 9.3731357657 14.7141544046 1.1797855641 
Si 10.6689075376 13.4067515726 2.6570784388 
Si 12.0582490703 14.7495362849 4.0395695556 
Si 9.4133231961 14.7681231751 6.7699048329 
Si 10.7230554981 13.5253101937 8.3104223808 
Si 12.3325563828 15.1298426284 9.8901579098 
Si 13.4073380126 16.1560311878 2.7143983823 
Si 13.3089789917 2.5135796030 29.2654856494 
Si 14.7880947152 1.2180717291 4.0637760099 
Si 14.6847183743 3.9459430261 1.2011101577 
Si 13.4463525630 2.5908430737 5.4142846428 
Si 13.3723470923 -0.0495004235 8.1044912593 
Si 14.5110018127 1.3864777507 9.5765903220 
Si 14.7690354151 3.8936195456 6.8893213820 
Si 13.2869874915 2.7908679855 11.0196945177 
Si 13.3788630924 5.2961233984 2.6257216800 
Si 12.9574570785 8.5859052185 0.3522567871 
Si 14.7032075245 6.6420683707 4.0546692128 
Si 13.4528196930 7.9508069827 5.5690414400 
Si 13.3728520823 5.2659868982 8.2352472396 
Si 14.7806501852 6.6530967008 9.5324957980 
Si 13.1253255300 7.8080577114 10.7307446588 
Si 14.6708067142 9.5561213374 1.5840950409 
Si 13.3669551022 10.7887041987 3.0252486194 
Si 14.7956044053 12.1539039512 4.2544018369 
Si 14.8560077259 9.3286314853 6.8763074751 
Si 13.3975151425 10.6247942172 8.1709415014 
Si 14.4470635621 12.0750603504 9.7193026455 
Si 13.7258889655 13.1017701898 0.2113943184 
Si 14.8086852754 14.7939591153 1.4235921485 
Si 13.3627848622 13.4706083732 5.5582307905 
Si 14.7779460452 14.7938125053 6.8968418338 
Si 12.4142996035 12.8957831379 10.5505475833 

