&CONTROL
  dt          = 30.D0,
  prefix = 'aSiHcSi_merged-7',
  pseudo_dir = './',
  outdir = '/scratch/ztzhao/aSiHcSi_merged/aSiHcSi_merged-7',
  wf_collect=.true.,
  verbosity ="high",
/

&SYSTEM
  ibrav= 0, nat=  406, ntyp= 2,
  ecutwfc     = 42.D0,
  nbnd=1540,
  degauss     = 0.05D0,
  occupations = "smearing",
  smearing    = "methfessel-paxton",
/
&ELECTRONS
  electron_maxstep=200,
  conv_thr    = 1.D-8,
  mixing_beta = 0.3D0,
  scf_must_converge=.false.,
/
&IONS
/
ATOMIC_SPECIES
Si  28.08  Si.pbe-hgh.UPF
H  1.00784  H.pbe-hgh.UPF

K_POINTS {automatic}
1 1 1 0 0 0

CELL_PARAMETERS angstrom
16.29000014898320 0.00000000000000 0.00000000000000
0.00000000000000 16.29000014898320 0.00000000000000
0.00000000000000 0.00000000000000 29.05863429601014

ATOMIC_POSITIONS angstrom
Si 15.7399845840 0.4506090971 0.2604824696 
Si 0.1297050537 2.9359467269 2.8821603016 
Si 2.7762721454 0.1485985217 2.7561969337 
Si 1.8522707569 1.7537814160 28.3401305044 
Si 1.2232356592 1.3910128867 1.4972955318 
Si 4.3751030800 4.2326633187 1.4365513626 
Si 1.5281193020 4.2354651987 4.2177735922 
Si 4.2098410285 1.5387778491 4.0662037557 
Si 0.1309699722 0.1971415818 5.5514777304 
Si 2.8989195565 2.8714871963 5.5212567508 
Si 1.5156004369 1.5462663621 6.8822178880 
Si 4.1971348284 4.2590042490 6.9079638380 
Si 0.1558259060 2.9088727466 8.2297829949 
Si 2.8563212061 0.2041690879 8.2542794236 
Si 1.5135185748 4.2471939988 9.6134970428 
Si 4.2046119385 1.5762497364 9.6113176452 
Si 10.8844568195 13.7245694755 13.6008937822 
Si 2.8752990563 2.9133687866 11.0088926617 
Si 0.1499865926 0.2044932589 10.9670482283 
Si 4.1928994283 12.5734203250 15.1125529970 
Si 7.2213733560 15.8889892153 23.4360210288 
Si 1.5136472658 12.4467167038 12.3297528836 
Si 5.6857313320 3.0495531879 13.7263108479 
Si 15.1309666384 7.1920839358 20.4667226005 
Si 14.5608329232 9.5121872070 25.1741341806 
H 3.2302092895 12.1281005909 24.7326172911 
H 3.4541967916 5.8393134534 25.3268082452 
Si 16.0738318470 15.5522749122 27.2290155048 
Si 0.8437144937 1.4787899235 24.7145137619 
H 9.5490026073 0.2717041705 21.3869804901 
Si 4.8092152940 9.5527330174 19.9338744235 
Si 5.5046191103 11.2604463130 16.5476427103 
Si 9.6420185082 2.3490180215 23.7182966024 
Si 14.1970772198 5.8753469337 24.9271067304 
Si 10.7056089079 13.2518336712 26.2144332884 
Si 0.0965281878 5.6721291819 0.1175116642 
Si 0.1346899566 8.2803536857 2.8667301668 
Si 2.8824177864 5.4993737303 2.7893354002 
Si 2.8750872863 8.2442224654 0.2035702626 
Si 1.5045020598 6.9008676031 1.5168432751 
Si 4.1837281583 6.9189820833 4.1657586368 
Si 0.1332331419 5.6124100413 5.5275334158 
Si 2.8494305361 8.3090403760 5.5320956214 
Si 1.4783957055 6.9769093238 6.9006991794 
Si 0.1442867215 8.3475499363 8.2675011022 
Si 2.8488115161 5.6277389315 8.2625030171 
Si 4.2040743684 7.0044231341 9.6210522877 
Si 3.2896352101 8.2130271151 21.0637903594 
Si 2.8767325763 8.3829318167 10.9824202458 
Si 15.0471382976 4.3912790502 17.6865377643 
Si 8.3674563165 5.7557946226 13.7042553444 
H 1.2501809484 8.6728286593 23.6274883702 
Si 11.1987235024 8.3666255265 18.9571556075 
Si 2.9013141865 11.1437773319 13.7128276416 
Si 1.4823297406 6.9621017137 17.5896272189 
Si 10.8690301894 12.5568208148 22.9687000721 
Si 16.0970776772 8.3844467867 26.5799618492 
Si 11.0402218010 5.7816794329 21.9723957366 
Si 0.9937796041 12.2749386523 26.2861499978 
Si 10.9879797705 11.6138578662 20.8309144642 
Si 11.3162558535 6.0902771957 27.3015458560 
Si 4.1898369083 9.6806420985 1.5055307487 
Si 0.2076062779 10.8712944994 0.2245000345 
Si 2.8340364859 11.0621807212 2.8482604988 
Si 1.5024381167 12.4005182634 1.4529142796 
Si 1.4802413625 9.6813099885 4.2021400469 
Si 4.1956850184 12.4459673638 4.1692166143 
Si 4.1972814384 9.6927129886 6.8856468069 
Si 0.1187773958 11.0428770710 5.5602534380 
Si 1.4789756295 12.4143647635 6.8973283779 
Si 1.5149015959 9.7144927188 9.6026872308 
Si 2.8538125461 11.0612196112 8.2367570671 
Si 4.2007349184 12.4195938536 9.6025419377 
Si 0.1765005226 11.1131032616 10.9240705082 
Si 9.5070721469 9.6915889786 12.4873378574 
Si 16.0518077668 3.8046272748 21.1930141061 
Si 11.8211644081 0.9089396543 19.6758337509 
Si 1.9844803981 11.7487716475 17.6063068750 
Si 10.9844122605 5.6194473214 10.8921350691 
Si 9.1723940939 14.9562238068 25.5410284972 
H 3.1000521884 2.0183147285 16.1731059729 
Si 6.8303156125 4.3835250101 27.7126674141 
Si 9.9850207513 0.9435461306 25.5977800100 
Si 5.5640287409 5.6638049918 10.9986349638 
Si 7.1531508354 12.2293755218 24.7714977438 
Si 0.5857102134 1.1939397229 18.6209762673 
Si 0.2445226762 10.9856665905 16.2473798421 
H 1.8199025266 10.9202785299 23.3677913555 
Si 12.9543782685 7.8534416518 24.8360369706 
H 12.5245177445 15.5768076525 26.0706802245 
H 13.0563862494 14.2805471806 20.0574317365 
Si 8.4963590877 2.9685104371 16.3272620278 
Si 2.3838134618 4.9920868357 18.5072117141 
Si 13.9418129175 11.1438099119 18.8358067507 
Si 0.1025470170 13.7603748958 2.8017637781 
Si 2.9556250470 13.5814781142 0.0055112315 
Si 4.1448602179 15.1451552285 1.3473936609 
Si 1.4523512533 15.1203618483 4.1694490833 
Si 2.8190008158 13.7795156460 5.5300324583 
Si 4.1905047983 15.1438194485 6.8682697436 
Si 0.1147912327 13.7771210160 8.2464045337 
Si 1.4810379435 15.1336870684 9.5889424968 
Si 5.6028315212 15.9874296862 27.0139234938 
Si 8.4071876269 14.3278207610 20.9362520135 
Si 10.9777659404 0.2150394050 10.9533325529 
Si 2.5706923435 13.7016005753 20.4544598569 
Si 13.7028874853 8.3456114263 10.9775093366 
Si 6.1413463462 10.4704301758 23.5683249908 
H 0.3465941882 12.3951588534 24.9086254390 
Si 16.1184827374 15.6459098331 24.8297893642 
Si 13.5889063543 5.4291638297 27.1394858526 
Si 4.1183400977 3.9237723359 21.1861853271 
Si 12.3893921933 4.2581571689 15.0172406765 
Si 1.5475272082 6.9682593337 12.2927903008 
Si 7.0554271245 4.3760641900 15.0995347288 
H 13.2097728908 10.1101279525 14.4972073571 
H 12.7176356963 9.2128747443 15.8697047722 
Si 6.6665522410 12.8745572677 17.8757385322 
Si 5.9730869346 4.0318401969 19.7920973467 
Si 13.6090896645 0.9335310385 21.3163680087 
Si 5.2536879480 0.5668512802 0.1217893857 
Si 5.7075762222 2.8790457563 2.7952749851 
Si 8.2980283359 0.1950124788 2.7438731669 
Si 8.3200849961 2.9939391274 28.9092729157 
Si 7.0494486945 1.5636396473 1.2923711369 
Si 6.9120588332 4.2338687787 4.2760361539 
Si 5.5406688807 0.1970633898 5.4811558355 
Si 8.2985496159 2.8753967963 5.5625200115 
Si 6.8928040530 1.5371912031 6.8845716374 
Si 5.5699583009 2.9227844067 8.2567784661 
Si 8.2322818953 0.2082464749 8.2832799406 
Si 6.9065528132 4.2995337693 9.6212847568 
Si 12.2534847221 15.0995758081 14.8315560033 
Si 8.2658392956 2.9556739170 10.9764922844 
Si 2.8578198861 0.8671281109 18.9508789425 
Si 2.7532706652 5.8877599138 20.6004504356 
Si 12.4972319943 15.8838415753 22.9557399212 
Si 9.5898253477 15.1469959985 12.2794233290 
Si 1.4869088596 9.6428167182 20.5589547058 
Si 11.0696904112 2.9908928974 13.5603860460 
Si 8.4772997875 5.2871476084 22.1603760418 
Si 11.6634609167 13.4462874030 19.5202247642 
Si 12.3306667428 12.3652992831 12.3523895597 
Si 15.8177367547 0.1490903168 20.5698807523 
Si 12.5012393343 6.9388558835 17.7105983135 
H 2.2065131002 0.3855891905 27.7595971084 
Si 6.8936022630 7.1066428850 24.8556515487 
Si 13.8223583464 8.7735171502 21.6458348044 
Si 3.6262843532 14.9265597165 25.7335710081 
Si 13.7862922861 8.3281811262 16.4090330247 
Si 9.6449507082 7.2525849963 14.9911750815 
Si 5.7435771225 5.7306917324 0.2325931547 
Si 5.5335175706 8.3501400464 2.8882306503 
Si 8.2688855256 5.5845215611 2.9536648830 
Si 8.5664223783 8.0980034241 0.2653893106 
Si 7.0129102241 7.0415969144 1.6434401212 
Si 5.5442038107 5.6241714214 5.5711213672 
Si 8.2429681354 8.3537564264 5.5883240787 
Si 6.8926900230 6.9907558239 6.9261254845 
Si 5.5564213108 8.3667069765 8.2755794025 
Si 8.2687552056 5.6418297816 8.2633747761 
Si 9.6370989281 4.3368541597 12.3017113015 
Si 8.2572055955 8.3758619566 11.0097934793 
Si 3.0244340077 13.4032492226 23.9329817925 
Si 6.8177397324 15.3527712804 15.0277889607 
Si 13.8659992568 3.2399018396 21.7671546026 
Si 1.3739474826 4.3938528702 14.9649060761 
Si 12.3837395633 1.5697353654 12.2591404023 
Si 10.1517489028 4.6170584522 26.0142774154 
Si 4.5423525115 4.1467661479 17.8891926798 
Si 0.8906736771 9.8807810404 22.7754601540 
Si 13.3628826022 3.9218826959 23.9296691082 
Si 8.6416821790 13.8056773863 23.4267513245 
Si 10.2766117540 15.2715493397 19.6400335135 
Si 14.3853733316 13.9863497779 27.4964711749 
Si 8.2858271258 8.4556829573 16.4916467220 
Si 12.9979703089 13.6344857747 23.4041437070 
Si 5.6739536619 10.8440087492 0.1167631137 
Si 8.2042468050 11.0831459514 2.8776591192 
Si 6.8617390228 12.3818987932 1.4437782450 
Si 6.8804562329 9.7115930988 4.2348310105 
Si 5.5372968506 11.0934412315 5.5592945031 
Si 6.8978539531 12.4407545638 6.9222606861 
Si 6.9037835131 9.7342361990 9.6399985173 
Si 8.2619459856 11.0836672314 8.2851687518 
Si 5.5547434408 11.0966014915 10.9978794393 
H 11.4131976444 10.3828062650 15.3819846542 
Si 5.5208113705 13.8926008271 13.7068125043 
Si 5.5960385912 8.4156910070 13.7705962065 
Si 14.4305780820 15.4819184016 17.4370112716 
Si 0.1765331026 8.3701604566 13.5477164815 
Si 4.7834608037 3.5261334322 26.9676621480 
Si 9.5447672073 9.4661190866 25.2088883072 
Si 13.6300874747 13.7709471059 16.1324820021 
Si 5.3472577089 6.2237411669 23.3434111613 
H 10.9400545901 0.0302441772 28.0237691528 
Si 1.2798173457 11.8805414587 19.8062779603 
H 7.7779049211 1.6218242698 25.8640733347 
Si 5.8559618336 0.3449146892 16.8030681058 
Si 3.3231926104 14.8673944360 18.5832000427 
Si 1.0600864207 5.0003947357 27.1092939315 
Si 8.5119486178 1.1564450296 22.0694806338 
Si 5.5159080804 13.8039017762 2.7523640998 
Si 8.2769327857 13.7009652653 0.1147845113 
Si 6.9062433032 15.1404474185 4.1144992059 
Si 8.2264174952 13.8066873663 5.5524947826 
Si 5.5335990206 13.8015234362 8.2541050718 
Si 6.8702098228 15.1489345085 9.6341867904 
Si 8.2286003553 13.7780006760 10.9699831504 
Si 8.1867024749 11.1399817619 13.7958772184 
Si 5.5333058006 0.2361300682 10.9980247325 
Si 1.5720241104 9.6377342381 14.9209984797 
Si 8.2975722159 0.2651230104 13.6558146011 
Si 3.5454533724 7.7745491811 23.3775550566 
H 6.4992050694 3.2444141697 23.4736810189 
Si 15.1840557489 12.4564744139 14.9851890028 
Si 15.3320015302 12.5063218144 20.1736662737 
Si 15.0597304677 15.1549292286 12.3141483970 
Si 15.0327542275 12.6834755660 22.5454901222 
Si 15.2448174494 9.6598886383 17.6345228089 
H 14.9267877765 1.5636429053 24.8133131185 
H 9.8477775001 8.5316106480 13.6942301156 
Si 9.5282165671 4.3524273998 1.3950817856 
Si 11.4652930649 15.9277431257 0.3253288461 
Si 10.9585111602 2.9541589470 2.7091364754 
Si 12.3495305629 1.4706367784 1.5006750509 
Si 9.6305503481 1.5728809644 4.1130172155 
Si 12.3139206226 4.2495071789 4.1495148602 
Si 9.6264941380 4.2633536790 6.9158096693 
Si 10.9220052699 0.2127392569 5.5607764934 
Si 12.3240041327 1.5408417921 6.8995368341 
Si 9.6062293779 1.5756632964 9.6189310074 
Si 10.9784827004 2.8978281265 8.2512573256 
Si 12.3570239630 4.2591671490 9.5661605275 
Si 10.8567312393 3.0653707780 19.4626596097 
Si 4.2258378086 9.7394815791 12.3700281507 
Si 0.1549592780 6.3941671485 25.4275254716 
Si 4.2297962787 4.2958685193 12.3659018247 
Si 6.6316590607 15.7976674745 20.2942305474 
Si 16.2839076889 0.2623309044 16.5041128761 
Si 5.6033853812 14.9137394864 18.3771162083 
Si 7.9164676624 8.8306136008 23.5560331884 
Si 7.0815237048 9.4409510363 27.8995144326 
Si 8.3961430068 8.6742458893 21.1738063489 
Si 0.4139875478 2.7922363455 26.7616364308 
Si 5.3394059288 15.3064588100 22.1437254444 
Si 8.9358795817 3.2849599800 20.7970030379 
Si 11.0588738511 4.2435287488 23.8560345289 
Si 10.3368684645 6.3099804277 0.3197670235 
Si 10.9731070004 8.4069106969 3.0347094141 
Si 12.1893835715 7.0597113946 1.5951068948 
Si 9.6187726780 6.9739119638 4.2858289137 
Si 11.0047096006 5.6007626912 5.5685932660 
Si 12.3488138029 6.9812913338 6.9115671087 
Si 9.6089335179 7.0187583342 9.6197446492 
Si 10.9824248804 8.3387859163 8.2644790042 
Si 6.8550275427 9.8255905199 15.2132411648 
Si 5.6353300715 8.2963504659 26.4441417925 
Si 15.1185536583 9.7410617091 12.2242409825 
Si 15.3833801907 11.9121440589 27.5700766956 
Si 11.0953471615 5.7688754928 16.2528428654 
Si 9.9922860914 2.5947689637 27.2727487494 
Si 15.1172504583 4.2352697187 12.2517885678 
Si 14.9507177867 10.3488416146 23.0353024619 
Si 1.8120344566 14.3201807510 27.1692709527 
Si 3.8334931551 10.1455424128 17.7704300415 
Si 4.1203763477 1.9054576074 17.2567024458 
Si 7.9156857424 5.2244962678 25.7985170557 
Si 4.3686359500 7.0451318444 27.9653903565 
Si 11.0228077908 0.2148097160 16.2197160223 
Si 9.5944679977 9.6765044385 1.6401506838 
Si 10.9292869000 10.9783360904 0.2595627638 
Si 12.2773495723 12.3909234533 1.5347259586 
Si 12.3727112332 9.7597300493 4.2943430935 
Si 9.5689741475 12.3786733732 4.2791744864 
Si 9.6058384179 9.7004018687 6.9462921767 
Si 10.9674706603 11.0692831612 5.6259840688 
Si 12.3313020528 12.4202617436 6.9671272174 
Si 12.3079584826 9.6782637585 9.6567653493 
Si 9.6261846280 12.3906628133 9.6835574101 
Si 10.9483136201 10.9711522003 11.0712234322 
Si 13.7342783156 2.9120167166 10.9014338321 
H 3.7281783041 0.8836575741 14.6487190763 
H 10.8915918396 8.8092085406 22.6951130302 
Si 13.6766117151 13.7673470159 10.9964265076 
Si 0.2495872373 8.3495210264 19.0447092726 
Si 2.8387280060 13.7793853260 10.9388904117 
Si 6.5618238300 0.9196405554 25.2731369476 
Si 10.9750292204 11.2636717330 24.8645434908 
H 8.8136720006 6.4236683387 23.1961129441 
Si 2.7955920856 0.1102591918 13.7643486002 
Si 2.7254962149 13.7389046757 16.5779508659 
Si 12.3658857231 4.4902408011 20.5155120475 
H 2.1131225293 3.4572918916 15.8967583607 
H 4.8279650842 2.2763320408 14.7136651240 
Si 0.5034554866 3.5049564321 18.9491644831 
Si 5.6612800418 5.6677471718 16.4841786530 
Si 7.4077635377 12.3146699626 20.0655972127 
Si 9.6434520282 15.0369896275 1.4917424268 
Si 10.9166295698 13.6929994552 2.9297496270 
Si 12.2638451622 15.0785291279 4.2892868912 
Si 9.5847591577 15.1402519385 6.9333320258 
Si 10.9544549502 13.7764694160 8.2981579614 
Si 12.3374922528 15.1326933784 9.6231735680 
Si 3.0722940281 0.7245954966 24.7389811320 
Si 9.7947372596 6.9863086539 20.2917605634 
Si 13.8649404068 11.1202708617 13.6048457565 
Si 9.9262627208 4.2492139589 17.6173782146 
Si 12.8065302271 0.9525040017 17.5508630007 
Si 13.6652087150 2.1675311298 25.3797240182 
Si 2.2195288103 4.2194521286 23.7989924298 
Si 12.9998925289 13.3022675117 25.7575153227 
Si 2.9097686966 1.9350565377 21.0682653891 
Si 16.2808125889 5.7753914928 16.2415971739 
Si 4.2831786092 7.0024194640 15.1142093391 
Si 7.1041993850 6.9604401337 17.8438902690 
Si 9.7481967292 1.6404355950 14.8858665908 
Si 13.6132273245 0.2286985701 3.0465072196 
Si 14.2029416199 2.2977045210 0.3471344453 
Si 15.0865763880 4.2039277584 1.4579646703 
Si 15.0563584377 1.5963939506 4.2617102472 
Si 13.6638403550 2.9366146169 5.5686513833 
Si 15.0666048478 4.2732905791 6.8981710783 
Si 13.6956873053 0.1937793258 8.2571562284 
Si 15.0920172480 1.5454697811 9.5775805708 
Si 0.1704960286 5.6289606815 10.9398784052 
Si 7.7737509711 1.2775465197 17.7692095788 
Si 7.4374276280 14.5714051333 27.1600884243 
Si 15.0677614378 1.6337078249 15.0294743615 
Si 13.8047977263 5.7200380723 19.1673657680 
Si 1.1230212073 2.5398553732 22.5727471211 
Si 9.4992040769 12.5820866051 15.1164468540 
Si 14.9938374171 7.0994427049 14.8403607695 
Si 12.4946581743 9.9245685608 20.1611710609 
Si 12.0220852700 7.7940157313 22.7486390345 
Si 13.7579313958 5.5430960907 13.6146094576 
Si 4.3002342393 13.2039247808 21.9564425464 
H 2.1916403300 3.7473842143 25.2445432515 
Si 6.3901109384 5.9722724346 21.2005693510 
Si 1.4926054727 9.4668032666 27.8641791333 
Si 13.4857906533 11.0853125214 26.4498663435 
Si 13.6464100548 5.5860202411 2.7637550844 
Si 13.5180611436 8.4790428175 0.3093611266 
Si 15.0215629974 6.9293099434 4.1678508584 
Si 13.7223866155 8.3252326361 5.5635951809 
Si 13.7257260655 5.6380016316 8.2536110750 
Si 15.0729416579 6.9931667440 9.6202967632 
Si 9.6718454985 9.7583616892 17.8762615876 
Si 4.2971065593 9.5199086671 24.8940380046 
H 11.5287426154 7.5050474186 13.2957781221 
Si 8.5159885379 5.4755088801 18.9973146401 
Si 13.6992711053 2.8922732365 16.4637213745 
Si 12.4422695338 12.4360630437 17.5858495964 
Si 1.3699987865 15.3016695499 21.7016564408 
Si 14.7193672046 14.6496134240 19.5737507686 
Si 2.9204549367 8.3921193768 16.4147866343 
Si 7.1299212952 1.8935007473 19.9749052151 
Si 0.1795532686 13.8503934367 13.6625562042 
Si 1.5333027800 1.5232697689 12.3612524432 
Si 0.5391501349 5.9811341947 21.5495344903 
Si 13.7129872854 0.2402872762 13.6640672532 
Si 9.5776241376 12.2313140319 27.9467928306 
Si 4.7504898434 2.3090260711 24.9950458174 
Si 14.8734380260 7.1077017350 28.1432001398 
Si 1.5445217031 6.4553523890 23.5972092732 
Si 3.3446628306 5.3649160691 26.7671285127 
Si 15.0370710775 9.6846331486 1.5984428260 
Si 13.7037182753 11.1032966815 2.8908197746 
Si 15.0719153878 12.4364051337 4.2216093319 
Si 15.0539638077 9.6957755087 6.9336516707 
Si 13.6802606751 11.0404987310 8.3071370794 
Si 15.0454278476 12.4377897838 9.6166063167 
Si 8.1579994946 13.9876855579 16.4225452897 
Si 11.2125700025 8.2179304052 26.3538275571 
Si 12.1934072015 0.4351710640 25.1358058420 
Si 8.2555928855 10.9164015098 26.5112381791 
Si 6.5217667196 7.9426294026 19.9126325618 
Si 1.4089058229 15.1331494984 15.2062089753 
Si 10.8052385488 11.2235331726 16.4604958660 
Si 3.3255220804 0.1862321687 22.4831012343 
Si 7.8503465518 3.8374516251 23.9115365204 
Si 12.2127597217 9.7208295289 27.8686251043 
Si 6.8700795028 12.4765274041 12.3808089041 
Si 13.1344968001 14.2315468602 0.3569039582 
Si 14.8469341958 15.1195636383 1.6674977646 
Si 13.6920546352 13.7570680258 5.5931478120 
Si 15.0536380077 15.1398121085 6.9027042252 
Si 2.8985774665 5.6750613819 13.7266886101 
Si 6.9109674032 1.6042783107 12.3344313237 
Si 14.3725693914 3.1921395592 27.3034927845 
Si 5.5996386812 13.3764195923 26.1892103938 
Si 4.5195628013 4.0340393469 23.4385491300 
Si 5.6345644415 11.3314707136 21.3817208773 
Si 0.1516357922 2.9116257566 13.6392802382 
H 14.7323177547 15.5335902821 24.1977640682 
Si 3.9533061062 2.5362064132 28.8733564437 
Si 6.9123194732 7.0326374143 12.3731955419 
Si 4.1449253779 15.1531373286 12.3118527649 
Si 4.3261190496 12.1147102108 27.7370766669 
H 11.3290760836 2.5566992334 27.9535344337 
H 11.0902321014 15.7693554542 22.4065317330 
Si 9.0175576425 10.6384289473 19.9844073885 
Si 9.2792239149 15.7140183237 17.5816070358 
Si 12.4138434835 6.8497332926 12.2490861148 
Si 0.7073818535 13.9047205872 23.4586867636 
Si 2.8283186959 10.7799075986 26.4316175211 

