&CONTROL
  dt          = 30.D0,
  prefix = 'aSiHcSi_merged-27',
  pseudo_dir = './',
  outdir = '/scratch/ztzhao/aSiHcSi_merged/aSiHcSi_merged-27',
  wf_collect=.true.,
  verbosity ="high",
/

&SYSTEM
  ibrav= 0, nat=  406, ntyp= 2,
  ecutwfc     = 42.D0,
  nbnd=1540,
  degauss     = 0.05D0,
  occupations = "smearing",
  smearing    = "methfessel-paxton",
/
&ELECTRONS
  electron_maxstep=200,
  conv_thr    = 1.D-8,
  mixing_beta = 0.3D0,
  scf_must_converge=.false.,
/
&IONS
/
ATOMIC_SPECIES
Si  28.08  Si.pbe-hgh.UPF
H  1.00784  H.pbe-hgh.UPF

K_POINTS {automatic}
1 1 1 0 0 0

CELL_PARAMETERS angstrom
16.29000014898320 0.00000000000000 0.00000000000000
0.00000000000000 16.29000014898320 0.00000000000000
0.00000000000000 0.00000000000000 29.05898724650998

ATOMIC_POSITIONS angstrom
Si 0.0606382224 0.0472015786 28.9625404678 
Si 0.0524507054 2.7739426754 2.6697624884 
Si 2.7286076050 0.0339718179 2.5867845503 
Si 2.6966954947 2.8848612864 29.0125219259 
Si 1.3841450227 1.4357126471 1.2627379495 
Si 4.0601196371 4.1930949083 1.3578654502 
Si 1.3659653825 4.0861347674 4.0921156430 
Si 4.1115308776 1.3943425628 3.9441763390 
Si 0.0276297951 0.0645110070 5.3390367858 
Si 2.7774124454 2.7308230450 5.3660616439 
Si 1.3850360857 1.4073517569 6.7114927534 
Si 4.1023107375 4.1090059276 6.7302358002 
Si 0.0252524324 2.7858017955 8.0535239614 
Si 2.7496705751 0.0619459836 8.0618348318 
Si 1.3774270266 4.1522558780 9.4069462925 
Si 4.0964952075 1.4200986820 9.4241492129 
Si 0.0379755741 0.0981110871 10.7882071332 
Si 2.7384467650 2.7961622356 10.7592353230 
Si 10.3957568151 3.0489341679 20.6455677280 
Si 6.8575850727 12.2908702724 17.3956105944 
Si 5.9808572647 5.7758801928 21.6933476312 
Si 2.6389800241 5.5703329709 13.3560336003 
Si 6.8050661122 1.4606396054 12.1339869506 
Si 3.5562862225 2.6651906344 21.9917834302 
Si 12.2931182924 6.8622114328 12.0939436662 
Si 2.7610247053 0.1698216226 13.5562500224 
H 13.3972219225 12.0208635199 23.6128390337 
Si 1.2859277248 6.9407292335 17.6384856098 
Si 16.2891693590 11.0181162708 16.2348784078 
Si 7.1517498954 2.2607262207 21.5358769793 
Si 6.8393891426 14.9413836166 20.1069303404 
Si 14.9425076267 12.3843422933 14.8828509082 
Si 14.9539594968 15.0406222976 12.1340160096 
Si 12.0778459405 6.5229721797 25.0587270622 
Si 3.2073218393 2.1422979196 26.8654986532 
Si 3.1084578284 9.3972938359 27.6279774196 
Si 0.1750376806 5.5183841605 28.8999183503 
Si 0.0552765317 8.2307832153 2.5932182101 
Si 2.6862536046 5.4459262398 2.7579042085 
Si 3.2773199700 7.8089047914 0.2535754063 
Si 1.4508965563 6.8259661824 1.3214632568 
Si 4.0746340273 6.8096598923 4.0917959942 
Si 0.0085568439 5.5051729703 5.3718153234 
Si 2.7282655150 8.2350186153 5.3741981604 
Si 1.3729586796 6.8665119928 6.7125969950 
Si 0.0227717912 8.2334059053 8.0584930483 
Si 2.7359055250 5.4995529203 8.0494847622 
Si 4.0756602973 6.8667889228 9.4085154778 
Si 16.2884525990 5.5205996005 10.7312515182 
Si 2.7181005549 8.2554625655 10.7410443969 
Si 4.0726629372 4.1573057780 12.1257923162 
H 13.6398288947 0.5168703017 27.6890012928 
Si 8.2573522055 10.7262320481 13.7306039459 
Si 1.3038059999 6.9378296135 12.0504714213 
Si 8.3316183162 5.5551995608 18.9355625645 
H 0.2034735049 5.1023375567 19.5376066623 
Si 8.1439412245 0.1216235846 13.5209724119 
Si 2.6467014842 8.2399381954 16.1905634522 
Si 9.4204907962 12.0833519605 27.7448817252 
Si 3.2235140995 16.0460085268 19.7402640393 
H 8.0674433838 10.5206848262 22.6192250828 
Si 3.9916527665 12.4259795336 14.8878490540 
Si 2.4242289522 5.6043790713 25.9511866785 
Si 12.3025013325 1.3926435157 17.5626125941 
Si 4.2385277188 9.5164063170 1.5170476764 
Si 16.1767846479 11.0576683911 28.8126251526 
Si 2.7136859648 10.9510177602 2.5829342345 
Si 1.3696110845 12.2978098125 1.1310629606 
Si 1.3934400967 9.5817292176 3.9722473206 
Si 4.0530334871 12.2852502224 4.0050839762 
Si 4.0802214973 9.5822993676 6.7467703640 
Si 0.0510171854 10.9300851100 5.3576635966 
Si 1.3898123137 12.2967183825 6.7274751964 
Si 1.3625086445 9.6114258879 9.4076727671 
Si 2.7524561652 10.9646850703 8.1012097595 
Si 4.1030763675 12.3219027227 9.4808432970 
Si 0.0322045158 10.9787270504 10.7769613052 
Si 2.4563039625 6.0912057257 21.1221641778 
Si 0.4557632532 6.3186955778 22.3393579766 
Si 16.0412029767 15.9573583459 22.2745854941 
Si 2.7212282349 5.5450671807 18.8643389868 
Si 8.2287306753 0.0813618718 18.8819487330 
Si 8.1089340142 5.5665536909 13.4988004046 
Si 0.2974260807 11.3309168536 21.5201560672 
H 6.2819779175 8.9290052017 14.1730560857 
Si 1.4012609258 1.4585284213 12.1411064025 
Si 11.1591713821 3.1476352788 18.5151952550 
Si 14.5540074131 12.3809865532 27.7092844659 
Si 12.4263704936 4.1113842676 27.6282098915 
Si 13.6303969847 11.0223679608 13.4726182571 
Si 15.4872126516 13.0286280892 24.4123389498 
Si 13.5928159543 0.1165445255 13.4769771052 
Si 0.0334032969 13.6064832644 2.5885542426 
Si 2.6924275146 13.5726652241 28.6960114368 
Si 4.0068839166 14.9314955866 1.1594245321 
Si 1.3671724715 14.9856598371 3.9681500034 
Si 2.7225314349 13.6547994049 5.3603660824 
Si 4.1130784276 15.0066413572 6.6942607740 
Si 0.0368813748 13.6617552349 8.0744754913 
Si 1.3911252877 15.0182398374 9.4353950410 
Si 2.7458912951 13.6956058553 10.8248214572 
Si 1.2749645547 12.4772441641 17.5856273120 
Si 10.1102745625 6.9873023439 21.7259227559 
Si 12.2490212620 11.9065240089 24.5773358794 
Si 5.4043541594 0.1848328577 16.3619533590 
H 4.7656721236 0.8280565456 28.0240514157 
Si 14.3960432817 14.6029751536 23.1631512061 
Si 16.2460171486 13.8147346263 19.0180029113 
Si 6.8588394027 9.8332956899 22.1022366407 
H 6.0393220752 10.1578902329 15.2918270947 
Si 8.7875754204 5.1056607167 24.3687214100 
Si 5.5453604007 13.6040234744 18.7521131780 
H 9.3815251158 14.6281757838 21.7940079630 
H 12.1702591113 12.5884234151 22.0012566600 
Si 3.9831168064 9.6387930882 17.5017049568 
H 5.7901502330 10.8684763294 22.2993728102 
Si 11.1303869518 10.1256197426 23.6661332163 
Si 14.9406831466 1.5143493648 14.7919253371 
Si 5.5028109203 0.0259454090 0.0183982328 
Si 5.4866349502 2.7863230755 2.6154192763 
Si 8.2908118658 0.0070467771 2.5285968342 
Si 8.0768915839 2.7860624355 28.8342450391 
Si 6.8681572828 1.4225112310 1.2645773834 
Si 6.8207859624 4.0990364475 4.0253962083 
Si 5.4832792101 0.0562653347 5.3135811130 
Si 8.1893577449 2.7250726749 5.3471442432 
Si 6.8185053624 1.3867595677 6.7151251268 
Si 5.4650995700 2.7508923252 8.0643920227 
Si 8.1573641846 0.0428238040 8.1109154613 
Si 6.8101323023 4.1183400977 9.4086607727 
Si 9.3643880356 1.5983715566 27.1763426398 
Si 8.1714713247 2.8062131657 10.7907352651 
Si 5.4570197299 2.8166876358 13.4921168375 
Si 1.5006559907 11.1500652720 25.0055781745 
Si 16.0552123768 2.8731976463 21.2680693528 
Si 5.4552604099 13.6872002152 13.5513390536 
Si 11.0081630807 4.4376729706 24.4197199326 
Si 8.2529701955 8.9007746314 15.5221776866 
Si 13.6427122248 5.6963035421 18.8632928632 
Si 9.5081635770 4.3016351793 17.3658251324 
Si 6.8480228426 9.4711526966 27.7311077653 
Si 10.9650597403 8.2704982356 13.3900616743 
Si 4.7445602834 11.1405519119 25.5693806450 
Si 9.0940717732 1.1582890576 20.7805757828 
Si 14.9670240769 9.6092918979 17.5842034216 
Si 14.4978557826 9.4064976860 24.8554303874 
Si 14.8761258761 12.3349998828 20.2587054308 
Si 14.9703635269 15.2140945091 17.6704504957 
Si 12.1741524213 9.4547649565 20.1290151707 
H 0.2394141322 4.7018641930 25.1423588275 
Si 4.9416204152 6.0682856955 0.2782351534 
Si 5.5355375306 8.1891133949 2.8971258164 
Si 8.1809195248 5.4133299495 2.6441498970 
Si 8.1426217345 8.1160527442 0.0521146783 
Si 6.7880267721 6.8567217027 1.4528360323 
Si 5.4721042700 5.4596098399 5.3982880608 
Si 8.2269387752 8.1483883945 5.4443756146 
Si 6.8127224123 6.8285400025 6.7590041976 
Si 5.4552278299 8.2239251252 8.0820017689 
Si 8.1860671649 5.4698236700 8.0777591568 
Si 5.4269158096 5.4734726301 10.7271832600 
Si 8.1718134147 8.2289913153 10.7661804209 
Si 4.4479682507 11.9649725294 19.9717479317 
Si 15.0623857378 6.8609245227 27.5903460311 
Si 13.3698873023 10.8718320694 26.3410129924 
Si 6.1827718165 4.9849843956 19.4904729850 
Si 10.9205391699 13.7369335856 13.4319356750 
Si 1.5677382113 9.7565372092 20.2564097708 
Si 11.4787648950 14.0846599288 24.9090151599 
H 10.0749741321 1.0783638009 28.5811412602 
Si 4.0544995871 15.0631024978 17.7192986533 
Si 3.3044428202 8.2880425658 21.0318488455 
Si 3.9751347064 4.8873910047 22.4564366363 
Si 15.8882724553 10.8417933092 23.6880727517 
Si 15.1195799283 4.6542485226 22.4419652606 
Si 6.8272530924 12.0522869302 25.1411383500 
Si 14.8997626663 1.4143092159 27.7435740708 
Si 5.5679057609 10.8483744692 0.1027200328 
Si 8.1803819548 10.8367108291 2.8077810542 
Si 6.7644877219 12.1856694514 1.5543942868 
Si 6.8478599426 9.5515764274 4.2129138530 
Si 5.4178748596 10.9597329102 5.4074707008 
Si 6.7818365720 12.3072091426 6.7567666556 
Si 6.7964975722 9.5952499178 9.4450426247 
Si 8.1623652147 10.9367803000 8.0832513054 
Si 5.4723974900 10.9604170902 10.8381304733 
Si 1.2393985973 14.9968021972 20.6383901582 
Si 9.4887296068 7.0364655644 14.6980938673 
Si 0.9830705580 9.9728195412 26.9632821453 
H 10.5989094069 0.5924330964 24.6891839213 
Si 15.3508164804 14.1708177396 26.4413827343 
Si 13.0623483895 7.7115720405 21.5097529497 
Si 2.6909777046 11.0820545214 18.7610633461 
Si 8.2344647553 13.6871187652 21.4871159987 
Si 8.1210374843 2.8553438061 16.1914642808 
Si 5.0735857064 7.3159368069 24.6448980248 
Si 9.6060990579 9.8220067198 17.2175371205 
Si 10.8631657894 2.8147979957 13.4983935788 
Si 3.1662710390 3.4211769613 16.0835973202 
Si 7.1141688651 9.1785028439 19.8703030073 
Si 6.6241330806 3.9418542361 27.4391811794 
Si 8.1807566248 13.7157891654 16.1112905350 
Si 5.3680926191 13.6776379851 2.6557909273 
Si 8.1584556146 13.3673949323 0.1986742617 
Si 6.8482183226 15.0089056673 3.9317390924 
Si 8.1258104543 13.6550111749 5.3872456456 
Si 5.4412347198 13.6697862050 8.1062660233 
Si 6.8139441623 14.9702657869 9.4972325658 
Si 9.4911731068 15.0533773677 12.1370381443 
Si 3.2601828898 8.2799953057 23.4524624831 
H 6.9877258839 8.4154629470 16.1972760783 
Si 6.7833189620 6.8339645725 12.0501517724 
Si 12.2878892024 9.6413669082 14.7877117839 
Si 15.1312761484 4.2307899687 24.7979517106 
Si 4.8285515242 6.1891737866 18.1508536729 
Si 8.8115705906 7.3425872472 23.6428279086 
Si 4.0410603370 9.6204179680 12.1207941704 
Si 1.3573219084 15.1174948083 14.8667522292 
Si 13.5955363843 0.1720109986 19.1322047312 
Si 9.4337508563 6.6779389511 27.8073585478 
Si 5.3014502285 11.0524393011 16.2169490127 
H 2.2018541601 14.2863464207 25.1430562431 
Si 0.0570620786 8.4020725668 19.0718782737 
Si 10.7780179586 8.3960615568 18.5964441833 
Si 4.8796206746 5.1797150574 16.0239392194 
Si 9.4972492769 4.0641269772 1.2126954676 
Si 11.3815950441 14.8572131859 28.6577116916 
Si 10.8661957294 2.7643315753 2.6130567807 
Si 12.4146416935 1.5996112256 1.2953508509 
Si 9.5534986474 1.3704728255 3.9713464920 
Si 12.2429776720 4.1278697478 3.9680628265 
Si 9.5322076172 4.1166296476 6.6964111391 
Si 10.8884315796 0.0556329569 5.3789057163 
Si 12.2444600620 1.4277500951 6.7179729076 
Si 9.5126596170 1.4445678912 9.4226962635 
Si 10.8851898696 2.7829021755 8.0697388763 
Si 12.2249609318 4.1435407279 9.4385915296 
Si 1.7392507359 13.1529533703 21.9835597368 
Si 5.3450096889 8.1223732643 13.3374067894 
Si 14.9399175166 6.9282510934 14.8207809114 
Si 12.2157082117 1.4565605893 12.1304417542 
Si 10.8655929994 0.0941954598 10.7722246903 
H 5.4605709499 10.8361732591 19.8484215899 
Si 9.4923459868 4.1776194082 12.1708918644 
Si 5.1901895275 2.9455578269 25.8619174696 
Si 12.2577852821 15.0541755777 14.8562619348 
Si 12.7382751265 8.3667558465 23.7047526104 
Si 2.7137348348 10.9929808005 13.5170203896 
Si 0.6385598608 0.8330820106 24.2101465166 
Si 1.4449849152 13.3469184021 24.2642252918 
H 6.7513091117 13.0590740994 26.2407304274 
Si 6.8649644428 14.8246168956 28.0560163017 
Si 5.9316288842 2.6544881043 19.4965463133 
Si 10.9476620201 5.3721488291 28.9899140338 
Si 10.9041514297 8.1496753045 2.6603851532 
Si 12.2652298122 6.8123151623 1.2658298257 
Si 9.5266853071 6.8035185622 4.0013353669 
Si 10.9000300597 5.4724626500 5.3515030913 
Si 12.2412346420 6.8404154126 6.7140790033 
Si 9.5297804072 6.8479251026 9.4324891422 
Si 10.9115307998 8.1941795849 8.1024592960 
Si 13.6595235049 13.8005134562 16.2752413411 
Si 10.8761326295 5.5044562103 10.8024169780 
Si 6.7411604417 15.1213555383 14.9097014124 
Si 13.5963020143 8.2772422957 16.1931497021 
Si 9.5286726871 9.1265703235 25.0023235679 
Si 15.4276889911 7.9316988125 21.2235800433 
Si 4.9865156556 8.3278390362 19.1728582544 
Si 1.3453764513 7.0998336649 24.4175114496 
Si 3.9504553561 6.8950846531 14.7439489491 
Si 8.9221796916 7.6469821899 19.7725195152 
Si 8.1377673144 13.5792626742 10.8926741924 
Si 0.0247868642 13.7140624254 13.5160614430 
Si 11.8464627783 3.7356554142 22.3010291725 
Si 9.4911731068 9.5061599069 1.3800665164 
Si 10.8648599494 10.8430802192 0.0431767150 
Si 12.2019431616 12.1469969911 1.4816015238 
Si 12.2515136320 9.5154777870 4.0251346774 
Si 9.4981452269 12.2236414418 4.1504370304 
Si 9.5510714374 9.5492632473 6.7764105309 
Si 10.9205554599 10.8795535295 5.4181644081 
Si 12.2553743621 12.2936395724 6.7302358002 
Si 12.2498357620 9.5888316577 9.4307165440 
Si 9.5010122669 12.3150609226 9.4399573020 
Si 10.8851409996 10.9685132203 10.7590028511 
Si 9.5425028973 9.6049261778 12.1082116289 
Si 14.9588139168 9.6403569282 12.1243393668 
Si 7.0465164944 13.6987824053 23.5066284353 
Si 10.8424286192 7.9317313925 26.4837797967 
Si 10.8367108291 5.6587062218 16.0509350185 
Si 7.5805678593 4.3268358096 22.5385573342 
Si 1.4423866602 2.6032723438 22.9360261618 
H 2.9561951970 6.5833755002 26.9744117374 
Si 9.5706845975 12.3909397433 14.7595826843 
Si 2.3267658813 3.3193318804 18.2911504633 
Si 12.3299336928 12.3824852332 17.5923689970 
Si 10.8849455196 0.0876737582 16.2179079592 
Si 8.1789321448 10.9121823998 18.7007368886 
Si 14.9706730369 4.1671612281 12.1187309823 
Si 7.8858098821 5.5938883112 26.4290907827 
H 0.8872022781 1.1685989987 16.9599582576 
Si 9.6691087784 14.7583817550 1.2893966644 
Si 10.8804657695 13.5215472037 2.8261608636 
Si 12.2512529920 14.9892436371 4.0327481321 
Si 9.5113889970 15.0016077472 6.7279110812 
Si 10.8759534395 13.6512970549 8.0761609125 
Si 12.2313954819 15.0256192074 9.4194707160 
Si 5.4527517499 0.0844636508 10.7987846046 
Si 11.0552411811 11.1701671322 16.0643602706 
Si 8.5101241378 15.6752481234 26.6648754052 
Si 3.9168165058 11.7044465570 27.7403194643 
Si 9.2138195643 4.9500423453 21.0052889311 
Si 10.1339928027 15.7393166939 23.8227320986 
Si 4.3500490598 5.0067804158 24.7825795064 
Si 5.0523924162 8.9171949516 26.3552809551 
Si 16.2828488389 0.2092434229 16.1909993370 
Si 5.8955954039 0.8531447748 24.7648535241 
Si 6.8646223528 1.5217955239 17.6522014518 
Si 11.6682990467 0.7894573902 28.2911035085 
Si 3.3831235209 10.5767875867 23.8017515098 
Si 10.8095391089 13.5869678443 18.9142913858 
Si 4.0954689375 1.5551020582 14.9463447953 
Si 13.5937607743 0.0661349571 2.6458672832 
Si 13.8230913964 2.9745703172 0.0473324408 
Si 15.1537237686 4.3016025993 1.3502578073 
Si 14.9458796567 1.4238111730 4.0014516028 
Si 13.5888411943 2.7834723255 5.3484809566 
Si 14.9375880466 4.1432800879 6.7153866577 
Si 13.6087638645 0.0752252659 8.0668620366 
Si 14.9599216368 1.4406143082 9.4253115724 
Si 13.5994296944 2.7974817256 10.7839645211 
Si 12.2443460320 12.3313997928 12.1064099717 
Si 0.0081318703 8.2875212858 13.4789240573 
Si 7.8330628616 15.7170971337 24.4480815042 
Si 4.1025713775 15.0562769877 12.1915528043 
Si 13.6217307046 5.5211208805 13.4778488748 
Si 6.7311746716 4.2260495787 14.8815432537 
H 15.7703817242 9.1220091234 22.0939838883 
Si 1.3402288113 9.6484367682 14.8611729037 
Si 9.5110631970 1.4749438545 14.8766613439 
Si 11.3786628441 2.6456100542 26.0992712775 
Si 4.2982794393 15.4315497211 25.0092686659 
Si 13.5758906442 2.8024990456 16.1755980738 
H 5.8888839239 13.8154513864 27.5631468190 
Si 13.6313906747 5.5157126004 2.6583394005 
Si 13.6429565748 8.1587814146 28.9674223777 
Si 14.9841774470 6.8868419130 3.9901476568 
Si 13.6194012346 8.1954013350 5.3816372611 
Si 13.5814618242 5.4922550002 8.0770908001 
Si 14.9398849366 6.8811078329 9.3921262090 
Si 13.6281000946 8.2523023055 10.7710042128 
Si 1.3657715315 12.3407339629 12.1520035227 
Si 12.0797355805 15.0379181575 20.2346736483 
Si 13.0178766891 1.2938870188 24.8864363268 
Si 16.2848850889 5.5928457512 16.1884421462 
Si 14.5535838731 1.1052357851 21.1586622658 
Si 2.6750135045 13.8062312463 16.2775079421 
Si 10.2272367635 14.0534319985 26.8340277700 
Si 0.0588357338 2.8372456159 13.4771224001 
Si 2.2979651610 0.1911582647 25.8448307851 
Si 14.8678179760 4.2411992788 17.4919120781 
Si 15.1741025588 1.9629613080 25.4421022809 
Si 5.3345189288 1.2937241188 22.5790365034 
Si 1.4166012190 4.0556398871 27.4342702106 
Si 15.0013308172 9.5671985375 1.1944580472 
Si 13.6683852650 10.8179121689 2.6830918458 
Si 14.9812615370 12.2668425222 3.9901476568 
Si 14.9614366068 9.5894995477 6.7084706188 
Si 13.6122987945 10.9413577901 8.0777882158 
Si 14.9595143868 12.3168691126 9.4201971906 
Si 1.1773450998 15.0014774272 27.3889963084 
Si 9.5367688172 14.9787202970 17.5366629185 
Si 3.8242241450 12.2454374620 22.1885999508 
H 5.5622368409 5.0420645561 28.1027140942 
H 9.5159013270 9.3864609858 21.2613276678 
Si 13.5883687843 10.9074257198 18.9309712445 
H 14.7276913947 6.7621908318 19.0384604383 
Si 0.1481963216 3.6342990332 19.0963749999 
H 4.7017175830 14.3836303015 26.0115712540 
Si 3.6286301132 2.0840611691 19.7462211317 
Si 13.2638556913 13.5114474036 21.4900800154 
Si 4.9716917555 15.6820084734 21.3034050813 
Si 12.1673594913 6.9199431933 17.4903719518 
H 12.3766697032 4.0501012870 18.6524408518 
Si 6.8354958325 12.1721813313 12.3421074173 
Si 12.1468992511 9.4434922764 27.7189029906 
Si 13.3453871421 13.6741193451 0.1639755062 
Si 14.9414324866 15.0049634872 1.2881442221 
Si 13.6283933146 13.6306087547 5.3596686667 
Si 14.9700214369 15.0057128272 6.7114636945 
Si 13.6073629244 13.6835675451 10.7647855895 
Si 13.4610787231 15.2978739799 25.2189292588 
H 1.3876294537 3.8028353748 23.8541158048 
Si 12.7206167663 1.5796364274 22.5663958440 
Si 8.2801093357 10.6484635874 26.2872538660 
Si 6.6210542706 7.6850030503 22.9509915402 
Si 10.9745242304 0.1551989039 21.7786648177 
Si 1.3718265245 4.2581571689 14.8117435664 
Si 16.1298368675 8.1774334648 25.9680990090 
Si 10.5524666165 10.4722546558 21.4453872930 
Si 13.2182274009 5.3631241690 21.2164605915 
Si 9.4555957465 12.1475997211 20.2252004185 
Si 12.2204486018 4.1970045084 14.8254012904 
Si 13.7607984359 5.4735540801 26.2577008759 
H 6.8584647327 6.6960860112 26.1453878902 
Si 4.7911333938 14.1734404296 23.0587422649 

