&CONTROL
  dt          = 30.D0,
  prefix = 'aSiHcSi_merged-9',
  pseudo_dir = './',
  outdir = '/scratch/ztzhao/aSiHcSi_merged/aSiHcSi_merged-9',
  wf_collect=.true.,
  verbosity ="high",
/

&SYSTEM
  ibrav= 0, nat=  406, ntyp= 2,
  ecutwfc     = 42.D0,
  nbnd=1540,
  degauss     = 0.05D0,
  occupations = "smearing",
  smearing    = "methfessel-paxton",
/
&ELECTRONS
  electron_maxstep=200,
  conv_thr    = 1.D-8,
  mixing_beta = 0.3D0,
  scf_must_converge=.false.,
/
&IONS
/
ATOMIC_SPECIES
Si  28.08  Si.pbe-hgh.UPF
H  1.00784  H.pbe-hgh.UPF

K_POINTS {automatic}
1 1 1 0 0 0

CELL_PARAMETERS angstrom
16.29000014898320 0.00000000000000 0.00000000000000
0.00000000000000 16.29000014898320 0.00000000000000
0.00000000000000 0.00000000000000 29.04414162538098

ATOMIC_POSITIONS angstrom
Si 15.6004444427 0.4041532747 0.0446135442 
Si 16.2524516986 2.6313237241 2.7146862118 
Si 2.6441928242 16.1687699679 2.5518299009 
Si 2.6571107943 2.6240095140 29.0352831622 
Si 1.1919311659 1.2901338028 1.2570043098 
Si 4.0289894468 3.9676901763 1.3757861358 
Si 1.3625347085 3.9374396460 4.0882533752 
Si 4.0626120072 1.1985188420 3.9486672305 
Si 0.0469127569 16.1536202677 5.3962562933 
Si 2.7611224453 2.5540602534 5.3767676743 
Si 1.4210467600 1.2026255510 6.7599658750 
Si 4.1360636178 3.8950530656 6.7454728484 
Si 0.0916107254 2.5523009333 8.1495828311 
Si 2.7617577553 16.1410769676 8.1444710622 
Si 1.4515953973 3.8977409156 9.5172714602 
Si 4.1282444178 1.1999344430 9.4976376205 
Si 0.1057147705 16.1299834775 10.8747365515 
Si 2.7967975456 2.5355059432 10.8952417155 
Si 7.9506277927 7.7153187406 21.3843301545 
Si 6.6325875907 15.2471632094 27.1788687619 
Si 12.3091639426 14.7413749948 14.8160265701 
Si 13.3933774825 1.0772381619 25.0686956963 
Si 15.0550715277 6.5970916803 14.9714417719 
Si 8.2199992352 10.7341001182 13.4973063637 
H 5.0967826666 12.9254309382 27.0516844657 
Si 5.6675842718 8.2017218550 26.3812295005 
Si 13.6868581252 13.3851673224 16.1459868592 
Si 0.1445519227 12.8754043478 23.3457391268 
Si 8.2655786556 13.4089018526 16.2656777669 
Si 6.9869928339 6.4593923091 25.5290743852 
Si 6.8609571027 12.0774549805 12.1607530544 
Si 1.4860389736 6.6142613405 17.7373444230 
Si 15.3337445602 9.4668358466 23.0468168212 
H 8.2318583553 5.0066826758 22.8754854297 
Si 0.2472088973 5.4539897899 0.1490949062 
Si 0.0354004509 8.0628170237 2.7712148246 
Si 2.7571151052 5.3155410786 2.7940522332 
Si 2.8036882156 8.1689789547 0.0495612137 
Si 1.5248010289 6.8103603623 1.4772024696 
Si 4.1537056880 6.6376049107 4.1125052334 
Si 0.0683808594 5.2867892284 5.4946288010 
Si 2.7792857954 7.9935682331 5.4554192098 
Si 1.4448285312 6.6283684806 6.8262155621 
Si 0.0542709500 7.9860259630 8.1441515766 
Si 2.8053986657 5.2419754379 8.1424670164 
Si 4.1502522080 6.5961305703 9.5043177731 
Si 0.0740315347 5.2552680781 10.8515883706 
Si 2.7642175453 7.9442095327 10.8287015870 
Si 0.1822329737 2.6727654844 24.4058502961 
Si 13.7375363156 8.0056554132 16.3061653003 
Si 14.7263556147 3.9638294463 17.7135282269 
H 15.7002532736 1.5352738700 23.7679538136 
Si 0.5704920952 5.5847984911 21.7797951869 
Si 7.4957295386 3.8411331651 22.2818812632 
Si 0.0290864469 15.8720313252 27.0407638685 
Si 2.7483836651 5.1869152374 13.6016619646 
Si 7.2303002761 9.9865194313 20.9489584716 
Si 2.2249370903 4.2544267589 20.8550297175 
Si 0.1113030550 10.6749511276 16.2640803391 
Si 11.9956791797 8.4664995174 27.4814215852 
H 11.6446785465 11.4152990544 21.0735578391 
Si 4.2351068187 9.4042333760 1.3893904118 
Si 0.1528686194 10.6337374273 0.1375437606 
Si 2.8585529361 10.7080035379 2.7918710182 
Si 1.4949919577 12.0255224600 1.4425179556 
Si 1.4358478541 9.3817531758 4.1106754525 
Si 4.1695395681 12.1208026709 4.0856974907 
Si 4.1311277478 9.3522519855 6.8069883403 
Si 0.0556728674 10.7492823983 5.4234125657 
Si 1.4232931510 12.0849483805 6.7801515535 
Si 1.4149266069 9.3336162254 9.4925258516 
Si 2.7656510653 10.7112289580 8.1443258415 
Si 4.1387351779 12.0628917203 9.4895052608 
Si 0.0587150249 10.6832101577 10.8478416764 
Si 12.3231896327 12.1106214208 17.5293012366 
Si 12.4919051642 15.0208788174 20.0441753716 
H 3.0398769278 12.9536615085 15.3595005482 
Si 9.5803119876 12.0504298702 14.8848611857 
Si 9.1086839033 9.4224781762 24.2494766376 
H 11.0393584310 5.1159071268 14.8836703759 
H 2.8020429256 3.2716347599 25.6705483990 
Si 14.7809108252 11.5295734054 26.0969163981 
Si 12.8393057074 8.5508817182 25.3422334221 
Si 14.6226208937 0.4591352832 16.9508581120 
Si 5.2681697582 4.7498545334 25.4802221390 
Si 1.5328759820 4.1615737581 27.7093600087 
Si 8.3273829162 16.0553752768 19.0402355722 
Si 5.4686670800 7.9703061129 13.5492082448 
Si 2.8181374458 7.8965775722 16.2674204154 
Si 8.4859334876 10.9163200598 19.1729963436 
Si 0.0363879507 13.4703803132 2.6347538296 
Si 2.6917107546 13.3038476417 28.9193389488 
Si 4.0160388967 14.8031466754 1.1697528040 
Si 1.3912279147 14.8074798154 4.0123319890 
Si 2.7501592752 13.4544812731 5.3998868110 
Si 4.0991504775 14.7890395353 6.7833173649 
Si 0.0815759224 13.4270652028 8.1589350447 
Si 1.4435856042 14.7714137551 9.5158192531 
Si 7.1106339350 9.4640991266 27.7103475095 
Si 9.5510877274 3.9392804160 12.1887225628 
Si 6.3697484383 7.2417032762 17.5508229455 
Si 6.9547549236 3.9394596060 15.0342642503 
Si 4.1090222176 12.0185992099 14.8259887107 
Si 15.5601592723 1.5521763742 20.6454181474 
Si 5.7090260322 3.5410387824 27.4409050077 
Si 12.1145473108 4.0463057170 14.6888713180 
Si 5.5296079706 13.3975803025 13.5759869434 
Si 4.1727812782 1.1698060877 15.1333338173 
Si 13.6835838351 5.4521327299 23.3373163257 
Si 1.4807219175 11.9795520796 17.6450421410 
H 2.9061034466 11.5046171252 17.5120199723 
Si 6.7167743114 9.5254798471 14.7981063347 
Si 1.6498186351 9.5555511874 20.2917476349 
Si 10.9124593298 2.4984624829 13.4262643933 
Si 10.9301828500 13.3851673224 13.5102600509 
Si 3.1026097184 5.5182212605 19.0966102511 
H 5.7675071327 14.4114047518 26.2672602887 
Si 5.4353051597 16.2156362983 28.9439393368 
Si 5.4748572801 2.5852230236 2.6531649110 
Si 8.0909661440 16.0945853072 2.8691545746 
Si 8.7062231596 1.9844803981 0.2346124768 
Si 6.8406597626 1.1264828323 1.3908658542 
Si 6.8674079428 3.9065049357 4.0220327323 
Si 5.3956390093 16.1682486879 5.4036625494 
Si 8.1966393750 2.5635573234 5.4220474911 
Si 6.8103929423 1.2043278560 6.7492485868 
Si 5.4773985201 2.5551191034 8.1315173750 
Si 8.1615507146 16.1446444777 8.1219908965 
Si 6.8204764524 3.9069610557 9.5090229240 
Si 6.8189451924 1.2150841431 12.2622623294 
Si 8.1690766947 2.5625799234 10.8749398605 
Si 1.1703550607 14.2031696799 17.0558236398 
Si 12.2961808125 6.6164279105 12.2507318052 
Si 2.4942596628 10.9648479703 26.1343252525 
Si 1.8688865571 12.9490677284 21.6530175087 
Si 15.8916281953 15.6189498828 21.2345204720 
H 14.0696894187 2.4204659621 24.9443577260 
H 4.9376782352 6.9899250339 23.6514287174 
Si 5.7314084924 2.6493241742 19.0678565509 
H 1.1625260866 0.4383296950 26.5192182173 
Si 1.6134805318 2.0852014691 20.6041173780 
Si 14.9795510870 9.3659030057 25.3245455398 
Si 8.5877785685 14.0330043383 27.4524936202 
Si 15.0864786480 9.3365647154 17.6555270761 
Si 9.4354450163 16.1387800776 25.1055817561 
Si 15.3524454804 6.7765586120 20.4834680137 
Si 5.3279377687 5.3031443885 28.9855305476 
Si 5.5177977205 7.9303956125 2.7016628187 
Si 8.2458840454 5.2154878977 2.6196479716 
Si 8.2059572550 7.8476098318 28.9866342250 
Si 6.8266014924 6.5378612398 1.3007476915 
Si 5.5244440405 5.2559033881 5.4176327815 
Si 8.2145095051 7.9437045427 5.4378184600 
Si 6.8548157727 6.6074358304 6.8036773082 
Si 5.4951057503 7.9754374629 8.1497861401 
Si 8.2008421950 5.2576789981 8.1684905673 
Si 5.4799560501 5.2467158280 10.9005567934 
Si 8.2148027251 7.9690029129 10.8708736807 
Si 4.1022129975 11.9655100994 27.6100871326 
Si 4.1413578679 6.5462505899 14.8852968479 
Si 13.4427036029 1.5297808820 28.6934045711 
Si 8.7392755699 6.2695323573 27.1569404350 
Si 14.6640789441 14.3074256809 19.7408093124 
Si 0.6928169643 12.3912981233 25.5848681812 
H 5.3035027685 15.9928216763 19.6082808941 
Si 1.2679109846 14.8785693761 14.8218644425 
Si 10.6601598075 4.8552508344 21.1482303272 
Si 13.3300419619 2.1068020093 21.2672241755 
Si 0.0306419790 5.2345146179 16.4220804695 
Si 8.8787831312 10.4129427652 26.3478577817 
Si 12.4822777742 12.1205420309 25.9054864606 
Si 7.2045946559 4.2236712386 20.0119944627 
H 9.5774286576 6.4413104089 23.8018192827 
Si 12.3313346328 14.8896302862 22.3505416140 
Si 7.0683776746 14.5057238527 22.6249797082 
Si 5.5549226308 10.7134281080 28.9895676833 
Si 8.1291661943 10.6101332170 2.7593386751 
Si 6.8141396423 12.0343353501 1.4062621536 
Si 6.8086173323 9.2818954749 4.1329232650 
Si 5.4834746902 10.7115221780 5.4470835411 
Si 6.8475830126 12.0414052101 6.8141912874 
Si 6.8619833728 9.3238422253 9.5057990243 
Si 8.2113981151 10.6766941576 8.1460975341 
Si 5.4980053703 10.6948086378 10.8338133560 
Si 5.4849896602 16.1512093477 10.8722968436 
H 8.8261827207 11.9973733397 22.5496972931 
H 0.2432227342 16.0023839064 14.9548575671 
Si 11.9391202992 8.3770022566 21.8310000086 
Si 13.6897251652 10.7636990484 18.8511291661 
Si 8.2196245652 5.2829610783 13.6007325521 
Si 6.9966690940 11.9971289897 17.6555851644 
Si 8.6949993495 1.8124254166 22.2197848884 
Si 16.0013087663 3.1634202889 26.5993219599 
H 3.4145795112 14.5378966030 26.3227926875 
Si 4.3023356493 1.6101524847 27.7197868555 
Si 2.7974980156 10.6210638071 13.5103181392 
Si 3.1068125384 10.3714684249 23.9215392345 
Si 4.5348591115 14.6917719444 18.0220350993 
Si 9.5729489076 1.1816293698 14.8044089134 
Si 9.5802631176 12.7585398867 20.3830333720 
Si 12.5916488352 6.6951900612 17.8639478364 
H 13.5913335643 14.2556886404 22.9270387811 
Si 5.4213120496 13.4951085334 2.6275857355 
Si 8.7261132498 12.9026575180 0.3880907248 
Si 6.7359150616 14.7312914847 4.1466611440 
Si 8.1729700047 13.3859818224 5.4338394126 
Si 5.4781478601 13.4298019228 8.1287581815 
Si 6.8235715524 14.7961256853 9.4916835715 
Si 8.2040513250 13.4270489128 10.8049725233 
Si 12.4719987841 3.3423170706 16.8872223977 
Si 15.0769327079 3.8551914353 12.2328115698 
Si 1.4382229362 6.5853140102 12.2242435480 
Si 13.9020978971 5.3962906094 19.3654718701 
Si 12.2937210224 1.1640247666 12.1001088867 
Si 9.5069906969 9.4387030163 17.6261053606 
Si 15.9309033857 4.8568309644 23.8095159802 
Si 3.4632377417 14.7175590146 24.8165344587 
Si 0.1592235114 2.5183525730 13.6316936070 
Si 5.6221514614 16.1241679475 16.4539418929 
Si 8.9611290820 14.1103655490 23.9971411351 
Si 10.9364545000 10.7219640681 16.2662296056 
Si 0.2532150203 8.1335807844 19.0459572681 
Si 9.6802022685 3.8812065655 1.2716803146 
Si 10.2678477339 0.1393930426 0.2363754562 
Si 10.9720644403 2.6053248838 2.7505992929 
Si 12.0921811406 1.0044707312 1.4570981147 
Si 9.5641034375 1.2208947862 4.0677772553 
Si 12.3154681726 3.9339535860 4.1377155484 
Si 9.5519999674 3.9201070859 6.7892423698 
Si 10.8736565494 16.1804336080 5.5064207225 
Si 12.2692208622 1.2160257051 6.8457913135 
Si 9.5154940770 1.2122676021 9.4885758483 
Si 10.9041840097 2.5802219936 8.1726438795 
Si 12.2901535124 3.9252058559 9.5127696183 
Si 10.8883338396 16.1171958274 10.7948651620 
Si 0.8408132447 13.7636003159 27.4943752724 
Si 14.9267714865 12.0574671503 20.3153605220 
Si 6.8581715127 6.6134305505 12.2259571524 
Si 1.4773938705 9.3042942251 14.9367921110 
Si 1.4593396633 9.4135675461 27.6391022301 
Si 0.9190964694 11.7234081172 19.9011039300 
Si 11.9509468393 1.3813871256 26.8401850264 
Si 11.4071214743 9.5400431073 23.7800652206 
Si 5.5202900905 2.5474953833 13.7296304526 
Si 10.6704062176 15.5758302525 27.0772723545 
Si 14.2105816300 4.6821044228 26.8443383387 
Si 9.4409836163 3.5790433527 19.5985511067 
Si 7.8362557017 10.9248723099 22.9793182360 
Si 7.3642366574 0.7102651835 25.8633724553 
Si 11.3603203039 5.0452411061 0.0293215132 
Si 10.9087614998 8.0195019133 2.7132804753 
Si 12.3106463326 6.6289060506 1.4740715111 
Si 9.5486442273 6.6136911905 4.0199705982 
Si 10.8993621697 5.2883530684 5.4258522736 
Si 12.2683086222 6.6366926707 6.7854666314 
Si 9.5682410975 6.6242634006 9.5048115235 
Si 10.9214025399 7.9815462130 8.1519063624 
Si 10.9372364200 5.2864797183 10.8623056589 
Si 13.6337038547 7.9724401029 10.8726163292 
H 10.8219357990 9.8774253003 19.5296874469 
Si 15.0431798276 11.9964448097 14.8636589623 
Si 15.8412920949 15.1094964182 23.5711216658 
Si 14.5316901129 15.4194951210 25.5741218488 
Si 4.1467335679 6.9150073232 27.7012857373 
Si 11.0504682111 10.6160464871 27.2271110812 
Si 6.7703684119 0.4796525384 22.2748816250 
Si 4.5820512419 8.8801840712 17.4871872312 
Si 12.2999112225 12.0189738799 12.1899424167 
Si 0.1123325830 7.9217619124 26.4322310132 
Si 6.8558094627 14.7573391950 14.9736200825 
Si 10.3366078245 1.5962603726 23.8521818243 
Si 9.5113727070 9.3057603251 1.3386880537 
Si 10.4345107254 11.2407028328 0.3183092701 
Si 12.2512204120 12.1942705715 1.4233488222 
Si 12.2688299022 9.3789350058 4.0652213709 
Si 9.5256753271 12.0228671900 4.0672544608 
Si 9.5644943975 9.3219200053 6.7850309692 
Si 10.8997531297 10.6995001579 5.4361338997 
Si 12.2717132322 12.0340584201 6.8010342913 
Si 12.2856737624 9.3280124653 9.5082096880 
Si 9.5688275375 12.0429364701 9.4884306276 
Si 10.9178838999 10.6786489577 10.8520240328 
Si 6.3156982178 11.7359025473 24.6334982782 
Si 4.1432963779 9.2933310550 12.1476251024 
Si 8.3165174861 7.2735502265 23.7149192110 
Si 12.3653644431 0.8548112418 23.0150715744 
Si 12.4326258537 1.0845882099 17.3953496554 
Si 1.3723315146 9.3394154654 22.6207973518 
Si 1.8492571069 7.1410310753 22.9722895537 
H 10.1942169332 4.6172702222 22.5486226599 
Si 9.5605196374 14.7573391950 12.1791960843 
Si 15.3361066103 12.3659020131 28.1638427369 
Si 4.1748012382 14.7609229950 12.2406534880 
Si 8.2622392056 12.5820703151 25.6759506094 
Si 5.7825428029 1.2306720443 24.1946412982 
Si 9.5887827877 9.3097025051 12.2284549485 
Si 9.4915803568 14.7215500646 1.6277702042 
Si 10.9745568104 13.4756256932 2.9030694188 
Si 12.2783269723 14.7856023452 4.2882803786 
Si 9.5169927570 14.7662335350 6.7928728875 
Si 10.9065949297 13.4082828326 8.1230074415 
Si 12.2688299022 14.7576324150 9.4731824532 
Si 0.1019449386 7.9515400327 13.5883016594 
Si 2.8664210062 2.6090715839 16.5014290645 
Si 1.4624901494 12.0142009099 12.1762626260 
Si 15.0222308874 9.3021276551 12.2184347197 
Si 15.0269386974 14.7245474247 12.1513717967 
Si 13.6492445148 10.6504346774 13.5552203821 
Si 10.5709557667 7.5816755793 18.5643473117 
Si 5.5765231710 5.3549302990 16.3335248817 
H 13.8159726664 2.4642209025 14.9520402853 
Si 15.7225542838 1.9035842574 18.3299610888 
Si 10.1490447628 3.7589338244 17.4161743050 
Si 9.6300127781 14.8467712958 17.5183806393 
H 3.8946783956 1.0425192845 26.3422522624 
Si 1.7678396862 1.4958602147 18.2984481951 
Si 2.3793174218 15.5029162118 18.5574928943 
Si 13.5353122538 16.0779695070 2.8375719750 
Si 13.3796938824 3.8131143649 28.8432432978 
Si 15.0388466875 4.1852105483 1.4282369512 
Si 14.9359753366 1.2249558832 4.0699846101 
Si 13.6349744747 2.5585725834 5.4892265906 
Si 15.0002556772 3.9166373158 6.8280743871 
Si 13.6508246448 16.1284847975 8.1575990142 
Si 15.0336338875 1.1880362269 9.5018780652 
Si 13.6811729151 2.5619609034 10.8361659314 
Si 5.4501453498 10.7563522584 16.3287906866 
Si 1.8594383570 15.1078837082 20.8009204817 
Si 11.0723782613 6.3026987976 27.0201134838 
Si 13.6267154446 13.3965703225 10.8232993767 
Si 4.2930014793 3.9964908966 17.7493396535 
Si 10.9454954501 16.1285662475 16.1095655057 
Si 13.7362982756 5.2711019582 13.5398850753 
Si 13.6320748547 16.0809505771 13.4373592554 
Si 12.2187544417 11.7518993275 23.5804448352 
Si 12.3125196826 9.3333392954 14.9793998667 
Si 5.1142781268 11.0967155215 20.5699324233 
Si 3.9953668865 6.4246783188 22.6242245605 
Si 14.7921346353 1.3098153810 14.7809702911 
Si 5.2302792178 9.5791879776 24.5147948713 
H 2.2049329702 14.0573578886 24.3215932412 
Si 10.9491444101 3.1434813287 25.5311655634 
Si 12.6930377961 14.2675966305 26.8505247408 
H 5.8813905238 8.9482436918 23.2786181155 
Si 13.6778497551 5.3827861992 2.8835023806 
Si 13.6151984145 7.9408375026 0.0497784639 
Si 15.0393679675 6.7116755414 4.1938288300 
Si 13.6117449345 8.0439694936 5.4654684828 
Si 13.6281326746 5.2832705883 8.1474335646 
Si 14.9923550271 6.6234814806 9.5087615267 
Si 9.7658550893 5.9947200548 17.1111527296 
Si 14.0882274388 7.5802420593 22.2674753689 
Si 7.6380552699 14.1433365094 20.3750462330 
Si 1.4309103551 3.8726380254 15.0848010567 
H 12.1569013112 5.5817848410 16.8968069644 
Si 7.7683264010 2.5455080033 27.2345173373 
Si 9.7018353887 1.3179017371 20.1552401692 
Si 8.9527723119 4.1505942980 26.1621785843 
Si 4.4476913207 7.0210063542 20.3975844869 
Si 5.1767176973 0.9063267383 20.5742890446 
H 13.0280416492 7.1147553051 24.9007624694 
Si 5.1432417470 13.4983176635 23.6317077452 
Si 2.8923872665 16.1136120274 13.6633517214 
H 0.7854663402 15.8478406749 24.0787842172 
H 4.0767354373 13.6279046146 17.0653791624 
Si 2.4843553427 2.6435249342 24.3018141808 
Si 15.0760367579 6.6259249806 27.8279472390 
Si 3.9001681257 9.2494132146 19.7012221473 
Si 14.9406994366 9.3594847456 1.3702851754 
Si 13.6063855244 10.7540064984 2.6987061251 
Si 14.9959388271 12.1010917707 4.0349283312 
Si 15.0039372172 9.3754000757 6.7939765649 
Si 13.6346486747 10.6931633478 8.1597773248 
Si 15.0024874072 12.0523195102 9.4894181284 
Si 0.0845276705 13.3496551221 13.4985262177 
Si 4.1619972981 3.8554683653 12.2871531588 
Si 5.8002826130 13.1101921199 19.3139766070 
Si 12.0442885402 10.1450537128 20.3408322342 
Si 3.8726054454 11.9980575197 22.3837390678 
Si 5.6213532514 3.4449277815 23.5640348952 
Si 9.3865750158 6.8019058522 14.9704833152 
Si 3.1018766684 0.5906982114 21.6600171468 
Si 8.4139153970 2.5540439634 16.2899296251 
Si 12.3848147033 5.0159516859 25.3750823463 
Si 2.8092919757 13.4187410127 10.8687244142 
Si 11.9936592197 0.9743505209 19.6868743414 
Si 11.0835532014 13.6128037845 18.8303045165 
Si 2.9887426173 5.4539897899 26.2787617688 
Si 13.5223128337 13.5551534740 29.0049029900 
Si 14.8671337960 14.8771521461 1.3546855669 
Si 13.6781266851 13.3864216524 5.5012508653 
Si 15.0258798474 14.7896748453 6.8023703218 
Si 7.0335496543 1.2251350732 17.7015910847 
Si 15.1980651490 14.5805438233 17.4801875931 
Si 8.0194367533 8.2639007856 16.2201075087 
Si 3.5604890426 4.1168414177 22.7642173231 
Si 8.1801376048 16.0863588571 13.5434284606 
Si 1.4952688877 1.1403179294 12.2757097670 
Si 10.6566900375 13.2712024814 22.5835046739 
Si 3.5642194526 0.5979146815 23.9975477531 
Si 14.5013255526 11.6372665964 22.5971844647 
Si 12.9366384583 4.4073735703 21.3032098670 
Si 1.1676476627 6.3496139981 25.0382283917 
Si 10.9457886701 7.9816276630 13.6389255983 
Si 6.6703478110 6.5071545895 19.8081336327 
Si 10.1978496033 7.1475470754 20.8081234288 

