&CONTROL
  dt          = 30.D0,
  prefix = 'aSiHcSi_merged-15',
  pseudo_dir = './',
  outdir = '/scratch/ztzhao/aSiHcSi_merged/aSiHcSi_merged-15',
  wf_collect=.true.,
  verbosity ="high",
/

&SYSTEM
  ibrav= 0, nat=  406, ntyp= 2,
  ecutwfc     = 42.D0,
  nbnd=1540,
  degauss     = 0.05D0,
  occupations = "smearing",
  smearing    = "methfessel-paxton",
/
&ELECTRONS
  electron_maxstep=200,
  conv_thr    = 1.D-8,
  mixing_beta = 0.3D0,
  scf_must_converge=.false.,
/
&IONS
/
ATOMIC_SPECIES
Si  28.08  Si.pbe-hgh.UPF
H  1.00784  H.pbe-hgh.UPF

K_POINTS {automatic}
1 1 1 0 0 0

CELL_PARAMETERS angstrom
16.29000014898320 0.00000000000000 0.00000000000000
0.00000000000000 16.29000014898320 0.00000000000000
0.00000000000000 0.00000000000000 29.22446180141540

ATOMIC_POSITIONS angstrom
Si 1.3061924849 8.2941024459 21.3859643304 
Si 15.0844749780 7.2283291861 27.8098809524 
Si 8.3713659166 8.1596284946 21.2456576893 
Si 7.6790083302 7.0524623445 24.9091777718 
Si 13.5923761243 2.1412227796 22.9295127294 
Si 8.0983455141 15.6067486727 21.4946501039 
Si 4.6176123122 10.7308258281 17.2357985100 
Si 4.4757427009 14.6658219741 23.9408252300 
Si 15.4536063813 14.3437849612 17.0900561190 
Si 13.2189604509 8.6216291889 23.8909682982 
Si 3.5500797325 5.0731132964 21.5655486482 
Si 13.1087097299 0.8234138955 14.5284735932 
Si 8.5152066179 3.0709745381 15.1844458628 
Si 5.6255560714 2.9774536472 26.4920915208 
Si 14.7984062853 9.8736460203 25.2207689835 
Si 3.3427569006 0.9173061984 15.7791928849 
Si 7.3411537271 11.1388903319 19.5221742790 
Si 9.7206829189 0.6192350337 22.5365898405 
Si 12.2993736525 2.0784411190 12.6636606856 
Si 12.9160967681 9.2731640348 17.1530056097 
Si 10.9439967701 8.9637191920 24.3803611355 
Si 10.6959326478 12.1659748413 17.8229763965 
Si 6.7554304818 14.7486566249 26.8103166854 
Si 15.5590841323 3.2735732699 22.2035770982 
Si 13.2211270209 14.0608276586 16.4369186222 
Si 13.5298713937 6.3005648076 23.9078308127 
Si 7.7422298208 16.2210934484 14.6675235824 
Si 16.0390852767 0.2989247607 17.0169365156 
Si 12.4438496638 12.5149229345 24.8987738634 
Si 10.4492694656 2.1321492495 25.8298359919 
Si 0.5301336198 3.9216546359 24.0532517346 
Si 5.4314281397 3.7264026941 13.3958211271 
Si 1.5230189029 12.5598833349 12.2066777764 
Si 7.5993665195 10.7750694685 13.5287924283 
Si 2.6108634839 11.1223234017 25.9425255167 
Si 10.5608396766 11.2818350832 24.1907528274 
Si 0.1889949527 10.9031414497 16.2865295418 
Si 15.8617034651 11.4682252649 23.8277850118 
Si 4.3347201696 10.0370184318 12.1163449650 
Si 7.0797643847 4.3762108000 27.7475451754 
Si 15.4194788310 13.7831808961 19.3771624996 
Si 6.4734017092 11.2808413932 24.9909185915 
Si 13.1107296899 16.1557379678 26.1010974464 
Si 12.9477319484 11.8519199284 17.2877303786 
Si 14.2545972104 10.9119217598 15.5328598964 
Si 7.3939659076 13.0943419498 12.9975501617 
Si 4.7543505735 14.1399644793 15.7644053072 
Si 13.9713466878 15.6022363427 19.8506280052 
Si 7.0953864949 3.8170076749 23.2751504391 
Si 5.9723050146 8.0591029037 20.9336281107 
Si 14.3914657916 4.7774497937 14.0482864613 
Si 5.0012092357 4.3465304198 16.4995174194 
Si 6.9869765439 7.1815768857 11.9675924545 
Si 1.4252430640 4.3884120101 27.7442720356 
Si 13.7428631457 3.5724621927 26.7109535153 
Si 1.4788062135 9.5604218974 14.8914706332 
Si 11.0366868709 9.3181570152 13.8379872342 
Si 2.7599658552 11.0649337312 13.5575785232 
Si 13.5396779738 16.2307045484 22.1083930262 
Si 15.1150024382 15.0181746774 23.2995236403 
Si 3.0013999474 3.1440840588 16.4995758683 
Si 12.7557868767 14.8338207457 14.2096347149 
Si 3.7303285841 10.8648925294 19.3816046178 
Si 10.8287938890 6.3562603181 27.2751025259 
Si 8.4594459474 15.0202272174 19.2300465589 
Si 1.8768360772 3.9290014259 14.5741806514 
Si 5.3441463189 7.2658776365 18.8178939741 
Si 6.1960644567 2.6553840543 15.3964985576 
Si 2.3499465515 7.6558602400 16.0593970247 
Si 7.1258650852 9.1460857436 25.7945036176 
Si 3.0700134281 7.2029330759 18.3512377680 
Si 10.7673968785 8.6465528891 26.7212697503 
Si 12.7442372666 5.8090140531 17.7897774079 
Si 16.1279960975 7.5051777386 17.9507165191 
Si 9.0778958030 10.4078928652 20.8369828155 
Si 4.4527575107 1.5071459268 27.9440504565 
Si 10.6779159077 10.2370433436 19.1768288139 
Si 1.7948973764 0.6964838434 21.4788104456 
Si 12.2593491221 15.4335045211 18.0966634813 
Si 1.5198570139 7.2115341960 12.3212084422 
Si 7.6689736901 13.6694604050 22.7719052069 
Si 9.4871006068 6.8888781630 19.5435081362 
Si 1.1382425834 12.7461594866 25.1599236541 
Si 9.3977988259 15.0473174876 25.7202442602 
Si 11.6169203862 0.7772936471 16.4339961760 
Si 6.1063065558 12.5314084146 16.7275558948 
Si 10.5890539568 14.1157412491 19.0935390978 
Si 4.8857620047 16.2700611888 19.7556485044 
Si 14.1495592894 7.3576392073 16.7914405683 
Si 9.0015445723 14.2895718407 14.2006628052 
Si 12.2371458519 7.7496254809 12.6365403851 
Si 14.1181195891 12.8813501978 23.2700653828 
Si 3.3994298111 15.9606326360 26.8992174982 
Si 13.1771928905 2.5772735036 19.2540398420 
Si 1.7697293262 14.8714995160 28.1509888705 
Si 13.7362982756 11.6283885463 13.3899177859 
Si 4.6093369922 6.9317860234 22.4995916718 
Si 14.7741341851 12.7153388063 28.0375979587 
Si 6.8311789825 2.8380112460 21.1621634019 
Si 8.5184320379 5.7931313030 13.1233614698 
Si 6.0354939252 5.1092770967 18.4698890830 
Si 5.9863632847 7.5919219894 15.1487627949 
Si 13.9763477178 12.0052576998 19.4028508015 
Si 9.4778804667 15.5510694522 28.0225181364 
Si 14.4059638918 13.7771210160 12.9840484604 
Si 9.2992443250 7.5669657092 23.3062452665 
Si 7.7963777813 3.4259336413 12.8763563186 
Si 8.7230181498 9.5870071777 27.3722154124 
Si 5.1837712674 13.7488904457 13.4939276454 
Si 2.5104845030 6.1577992463 14.2549910796 
Si 1.0619581417 13.2367328411 20.6494786686 
Si 4.9724736755 9.0071972024 26.5858728188 
Si 6.0835494256 0.8798001020 17.9985277386 
Si 8.6930282595 5.6085656013 26.4808108786 
Si 11.0090590307 13.6122825045 21.3448455127 
Si 7.3975334177 1.0086800672 12.5381708467 
Si 2.9441080169 13.0606542294 19.2494808260 
Si 4.1123127976 7.2353827562 27.8835265961 
Si 12.7600548567 1.9854740882 25.2411092090 
Si 9.3544511356 4.2980513793 23.0587725239 
Si 2.7664329853 5.8862123638 26.4980533110 
Si 5.0413477961 3.9112941958 20.2207558139 
Si 15.9320436857 3.3899001610 15.1455481041 
Si -0.0587640578 8.5175035079 13.4688822817 
Si 0.2792676176 6.5979061803 20.1164537098 
Si 1.3956620528 7.2248757061 25.0724548399 
Si 5.4013242194 13.3361018420 22.3068563462 
Si 10.7985922288 14.9046985363 12.8070943442 
Si 1.7831359963 3.2380121996 18.6315880301 
Si 11.4262296445 2.6579415843 17.7350984399 
Si 15.8622410351 9.6918170386 21.9682617318 
Si 1.4180819800 10.0087064115 27.7165380214 
Si 0.0578112557 13.9089722772 26.8264485883 
Si 12.3354560028 3.2940172201 21.3593408457 
Si 13.5558376540 11.3205075435 26.5990530510 
Si 10.8944751696 5.8078900431 12.7340916386 
Si 0.4878496665 16.2858950689 13.1984975611 
Si 5.8170776032 8.7463780100 17.1404683156 
Si 10.2258684035 4.3236103895 25.2032343065 
Si 12.8633334576 12.2562540221 21.4137860181 
Si 11.0461513610 8.4630949074 16.0087218079 
Si 9.4387681763 12.1615602512 22.3223160865 
Si 4.7754298337 5.6987307521 14.5854028448 
Si 5.5215118405 10.3373245845 20.8099794128 
Si 0.7547548029 13.1640631504 15.9068453340 
Si 15.4436206112 1.1135795232 14.8725916309 
Si 5.1288576769 0.6149214416 23.5780912101 
Si 2.7608455152 0.8771757830 19.3612936168 
Si 2.0340019986 0.4017716767 25.1830402034 
Si 5.9084807940 5.7512497126 24.0439583557 
Si 16.1292341375 3.3226876204 26.2686997348 
Si 14.3626162014 4.4414685406 18.7183262327 
Si 14.8060462954 7.0061010041 14.6129030633 
Si 12.6396228856 8.9932692522 19.5053117646 
Si 2.8519066161 3.8648514053 23.5182979613 
Si 12.2740589923 9.9311171408 27.9651797424 
Si 12.0755164704 4.1620298781 13.9934029221 
Si 4.6632080226 14.0754397887 26.1917517269 
Si 8.9812472321 11.8387087383 28.1351784367 
Si 11.4804590550 15.3992629408 22.7900828221 
Si 2.2047212002 5.3705849891 19.6534505615 
Si 2.0357938986 16.1432924076 17.3885547718 
Si 4.9175763750 13.9769667378 20.0806537441 
Si 9.4057972160 9.8844788704 12.2724035910 
Si 15.2926774699 4.2723946291 11.9739341627 
Si 2.1510782297 14.5814723534 24.0747901629 
Si 3.2402113496 2.8438756460 12.9612826046 
Si 0.2092743739 9.7587037793 18.3453344268 
Si 7.7715192411 9.8418642300 17.5731656970 
Si 12.3696812931 5.2835800983 25.7401461187 
Si 16.1819811580 3.9658982763 17.3868889775 
Si 2.7699516253 0.5907910644 13.5085106519 
Si 11.6135646462 14.6929448244 25.0516470231 
Si 2.9879444073 1.5670393703 23.3478316756 
Si 12.8180472572 5.5958756912 21.6813944148 
Si 4.1057316375 15.3834127707 12.2198580087 
Si 5.1160537368 11.1534535920 23.0067822064 
Si 6.1871538266 0.6523770390 21.5327588021 
Si 0.3469330202 13.9656614777 13.6938814131 
Si 0.0770388316 8.6129466188 26.4283529696 
Si 8.3798530066 0.9110720153 18.2871192989 
Si 2.9495651670 10.4679703857 23.6194145991 
Si 2.7023155447 13.9160258473 17.0237458152 
Si 0.2350647021 1.0393916045 26.6146296892 
Si 15.9496694659 6.0640828755 23.9705465077 
Si 2.2064805202 9.1449617336 19.4006589669 
Si 14.9323752466 9.9877574713 12.1394030654 
Si 8.1516952646 6.6939357312 15.2241326819 
Si 6.7493543117 1.9352520177 24.7219658695 
Si 9.8964357305 12.5646237249 15.6126426771 
Si 11.4040589543 4.5073778812 16.3225048543 
Si 14.9440063067 5.1351619070 20.8645999319 
Si 9.2770899248 1.0585372417 16.0951677659 
Si 0.8990304472 14.9640430069 22.1816587519 
Si 9.8563623301 1.5915395306 28.0427706885 
Si 11.4899072551 11.5588791157 14.0983771889 
Si 6.0601081154 8.9624648620 13.2671750463 
Si 8.7102630797 2.8261358358 19.6993914154 
Si 14.7747043351 9.9207404107 19.9378045748 
Si 15.2895009198 15.6128900028 25.6033756374 
Si 7.9222669025 11.3346635537 15.7808879037 
Si 5.6193170014 0.1348728933 15.8463799226 
Si 4.2856709792 4.5644906217 25.2870792874 
Si 0.3395731981 2.1544502597 20.4305582252 
Si 4.7772543137 11.6290238564 26.7238122785 
Si 9.6400962882 8.5690450684 17.8968558360 
Si 11.8589246285 6.7697331019 19.8181888526 
Si 8.8794184412 0.8392265987 24.6995507073 
Si 15.0558534477 1.1647789937 19.0078529758 
Si 2.7050685547 8.1388098744 23.2752965614 
Si 9.0974600932 4.9409036552 16.4566451339 
Si 10.1323149327 2.7127411448 21.5394219793 
Si 8.3948235168 4.9300056451 18.6686738721 
Si 6.8095458623 13.3204308618 18.8430270112 
Si 7.7639769710 13.4305349728 25.1226916897 
Si 1.2510329154 11.3235863536 22.1187092612 
H 14.2215448001 6.4849838993 26.7854466684 
H 9.6540079483 5.9136935941 22.7827767067 
H 12.9307740583 0.1437773332 27.5954026272 
H 4.6644297727 4.9528442253 11.4675034641 
H 1.4931984287 1.8376586268 10.7485524793 
H 4.0918688474 2.8267222759 19.7147634823 
H -0.1106056801 6.5253830997 22.5425516307 
H 5.5551018208 2.2992032010 18.1094053466 
H 12.2347512219 10.9551880002 21.8695122754 
H 9.5404014873 11.6163176562 25.2546693592 
H 8.6459827391 0.5348398009 11.7915150721 
H 9.0769998530 7.8845555521 15.2610431772 
H 4.5424502515 12.5003108043 12.9268854131 
H 6.7353937816 16.2737264388 26.5272485484 
H 0.8534135598 7.1972478658 16.6537641288 
H 0.1006454853 3.2437299897 12.2229558017 
H 10.8476902892 13.7707842059 11.8103648500 
H 6.9139647632 10.0149780616 0.3063804902 
H 9.3636386956 12.9330546583 27.1464272206 
H 3.4788109818 10.6512491774 16.2543241849 
H 13.4299648228 9.0269406826 22.4568362842 
H 4.3160844095 8.8041586405 25.2243051434 
H 13.7602771558 9.5260337071 15.0676941379 
H 11.2300003027 7.0006601440 15.6982119012 
H 3.2835101700 11.9544003193 14.6453422159 
H 11.7801136077 11.7290281673 11.7790362269 
H 0.4301195349 5.3342094188 17.0582891290 
H 13.3477654821 7.4838052584 13.8367305823 
Si 0.3664484404 0.2629955364 28.9846458679 
Si 16.3751968498 3.0684495881 2.5650748490 
Si 2.8050891557 0.3978571896 2.7009393719 
Si 2.9005648465 2.9912675674 29.0655684026 
Si 1.5076053048 1.7150926657 1.2329888107 
Si 1.4646290264 4.4331443505 3.9514102557 
Si 4.1989593084 1.7568113561 4.0382069073 
Si 4.2151678586 4.4559666408 1.1829331526 
Si 0.1257100940 0.3933464886 5.4375325872 
Si 2.8122078857 3.1024142384 5.3830874149 
Si 0.1137691981 3.0655988380 8.2051475688 
Si 2.8699233562 0.3995627527 8.1908275825 
Si 1.4948730407 1.7504419660 6.8136832690 
Si 1.5152697499 4.4904851511 9.4691639906 
Si 4.3130381794 1.7214131857 9.5522491355 
Si 4.2174484586 4.4424785206 6.7267989441 
Si 16.0265093966 16.1799449080 10.8690741598 
Si 2.6281634640 2.8493653761 10.7173407541 
Si 16.3843192498 5.7685496928 29.1355025397 
Si 16.3841563498 8.4990469377 2.6974061345 
Si 2.8349650159 5.8020582231 2.5819432084 
Si 2.7106234448 8.6120343788 29.1691691197 
Si 1.4176812460 7.1666226655 1.2855256257 
Si 4.1521418480 7.1890051257 3.9634799584 
Si 0.1305648399 5.7498813526 5.4064669843 
Si 2.8102205057 8.4807695576 5.4165494237 
Si 0.0812206375 8.5086417478 8.1703412347 
Si 2.8634073562 5.8026935331 8.0848304595 
Si 1.4403601842 7.1394183653 6.7806596272 
Si 4.1697350481 7.2021674459 9.4354097372 
Si 0.2336328111 5.8826448538 10.8484124653 
Si 2.9145253767 8.5505396282 10.9170315016 
Si 1.4309119841 9.8275127399 4.0958083215 
Si 4.1136974476 9.9930354314 1.2325972030 
Si 16.3238833493 11.3185364535 29.1893632228 
Si 2.7841727955 11.1812932023 2.7690265230 
Si 1.4052747819 12.5380873147 1.4611471065 
Si 4.1979167484 12.5797897151 4.0396389059 
Si 0.0639120237 11.2354085828 5.3898382656 
Si 1.4732985645 9.8397791100 9.5340715202 
Si 4.1677313781 9.8719192803 6.7467884759 
Si 2.7758648954 11.1949768024 8.1043816245 
Si 1.4899925566 12.5625060249 6.6870244516 
Si 4.1248235177 12.6266723355 9.3719342062 
Si 0.1245144080 11.2583286130 10.8352614575 
Si 16.3180189492 14.0229371182 2.6420754610 
Si 3.1385291687 13.5626957440 0.3049455691 
Si 1.4238176890 15.3257787502 4.0249097771 
Si 4.2317673687 15.2710280597 1.5048142973 
Si 2.8122078857 13.9582983977 5.3415594547 
Si 0.1712486266 13.9291392974 8.0312620210 
Si 1.4418865572 15.2893705998 9.4745120671 
Si 4.1213048777 15.3489105504 6.7040623128 
Si 2.8244905458 13.9644071477 10.8176098826 
Si 5.7741208728 16.5126844510 0.2438234840 
Si 5.5270993105 3.1457619288 2.6614980383 
Si 8.3069715460 0.4194023438 2.7960766849 
Si 8.3518179164 3.0144156576 -0.0175872811 
Si 6.9827085639 1.7807902363 1.4462923125 
Si 6.9338874334 4.4538978107 4.0123140341 
Si 5.5567959808 0.3949380216 5.4137730998 
Si 8.2484252854 3.0712677581 5.4371234448 
Si 5.5805630910 3.0784516482 8.1181463460 
Si 8.2691624556 0.3119697929 8.3142717091 
Si 6.9480923135 1.6711259553 6.8413003854 
Si 6.9786523538 4.4772250909 9.3766685690 
Si 5.6524182817 0.3485734232 10.9992691371 
Si 8.7577484301 3.5928246929 10.6784722199 
Si 5.6322023915 5.8028890131 29.0427148735 
Si 5.5021756103 8.5664549583 2.5774718657 
Si 8.3035343559 5.8088511531 2.6289653674 
Si 7.9927700231 8.9409457718 0.2666045365 
Si 6.8908818330 7.1475959454 1.2751889336 
Si 5.5240042105 5.8150250632 5.3131240533 
Si 8.2367290653 8.5637671083 5.2914102782 
Si 5.5412390307 8.5107757378 8.0629997865 
Si 8.2213350152 5.8571672936 7.9606557213 
Si 6.8646386428 7.2075594359 6.6276695696 
Si 5.5939208912 5.8446239935 10.6656134567 
Si 8.3400565363 8.4970269777 10.6819499309 
Si 6.8635960828 9.9403861509 3.9367395759 
Si 4.8810379046 11.8652288585 -0.0983891188 
Si 8.1898301549 11.4082129043 2.6340854931 
Si 6.8637915628 12.7385683465 1.0207753814 
Si 5.5330288706 11.2218390126 5.3948064241 
Si 6.9408758435 9.8584637402 9.3629915209 
Si 8.3161102361 11.2101590825 8.0416951539 
Si 6.8828019929 12.5811092051 6.7656382538 
Si 5.7054422322 11.4284776645 10.5939843009 
Si 5.6459185716 13.9052581572 2.7502439614 
Si 7.4664564083 14.7799171352 29.0839798135 
Si 6.9530933436 15.3004640899 4.1195385845 
Si 8.2913983058 13.9966939280 5.5414255489 
Si 5.4628515500 13.9837270879 8.0245696193 
Si 6.7866421221 15.1804393688 9.5417575537 
Si 7.4903212585 13.2181133709 10.6889053528 
Si 9.6684571784 1.7246060258 4.1491137398 
Si 9.6821407785 4.3978765002 1.3321298750 
Si 11.4379095746 16.0735223370 0.1179613254 
Si 10.9852756305 2.9902087173 2.6798889921 
Si 12.3456535429 1.7364488559 1.1764277874 
Si 12.3461748229 4.4045228203 4.0038389402 
Si 11.0066806907 0.3164104469 5.4479072712 
Si 9.6925500886 1.6505353951 9.6875876181 
Si 9.6398845182 4.3840788701 6.7933722680 
Si 10.9809099104 2.9251953268 8.1225884642 
Si 12.3821757232 1.6914070055 6.7235258043 
Si 12.3481622029 4.2919752093 9.4454629521 
Si 11.1105457316 0.4574704452 11.2710858563 
Si 9.6158078979 7.1073107750 4.0716689160 
Si 11.4564150148 5.3599639090 29.3255784392 
Si 11.0088635507 8.4494601773 2.7768440666 
Si 12.3754316632 7.1356553753 1.3676609756 
Si 10.9887291105 5.7274826024 5.4041582519 
Si 9.6325377281 7.0893917748 9.3498989620 
Si 10.9996108306 8.4619546074 8.0471893527 
Si 12.3707401431 7.0900270848 6.7446843147 
Si 10.5102103561 5.2403953079 10.5370550493 
Si 9.6631955084 9.9113736606 1.5708440463 
Si 12.3554112530 9.8800642804 4.0787996847 
Si 9.5500125873 12.6135100154 4.1463958648 
Si 10.9058130097 11.2509166629 29.3396061809 
Si 12.2553254921 12.6371142256 1.4040249734 
Si 10.9811542604 11.2512750429 5.4303725941 
Si 9.6314300081 9.8274149999 6.6984512161 
Si 12.2606197421 9.8505468001 9.4537334748 
Si 9.4963370369 12.5605512249 9.5642019404 
Si 12.2723811222 12.6558477257 6.8505060909 
Si 10.7958229287 11.0870066814 10.8147458853 
Si 9.5962598978 15.3027772700 1.4546797331 
Si 10.9091035898 13.9178177473 2.7904480535 
Si 12.3583108730 15.3459457703 3.9849307134 
Si 9.6758365485 15.3166726401 6.9279801391 
Si 10.9948052806 13.9960749080 8.3718438989 
Si 12.4211088236 15.4297252411 9.7053560909 
Si 13.7487927057 0.4701733873 2.6148967115 
Si 13.1717520305 3.6056775030 -0.1345806923 
Si 15.0931901280 1.7547099460 4.0417430671 
Si 14.9553767268 4.4519430107 1.2419841001 
Si 13.7146325754 3.0922166983 5.3925561405 
Si 13.6929994552 0.3674437594 8.1368792260 
Si 15.0548271777 1.6360861650 9.5729985034 
Si 15.0573032577 4.4100777103 6.8061433579 
Si 13.6684341350 2.9900295273 10.9152195850 
Si 13.7367381056 5.8155952132 2.7295355078 
Si 13.6822317651 8.5158745079 29.2053490034 
Si 15.0667514578 7.1581192855 4.1049555780 
Si 13.7106741054 8.5266584880 5.4512680843 
Si 13.6960782653 5.7619685327 8.1773551056 
Si 15.0136134773 7.1574351055 9.5631790842 
Si 13.5874076743 8.5473956582 10.8723180751 
Si 15.0520252977 9.8697690003 1.3230235327 
Si 13.6759601151 11.2327044427 2.6701221769 
Si 15.0020801572 12.6206613254 4.0313683832 
Si 15.0264337074 9.9143058607 6.8288507647 
Si 13.6458236148 11.2865591832 8.1798684093 
Si 15.1157029082 12.6427179856 9.4458136456 
Si 13.3173194718 14.2310092902 0.0677580837 
Si 15.0377715475 15.4106985209 1.1721756282 
Si 13.6398126047 13.9632016877 5.4112597961 
Si 15.0377715475 15.2973364099 6.7555850389 
Si 14.3244487310 14.4500120522 10.7491369686 

