&CONTROL
  dt          = 30.D0,
  prefix = 'aSiHcSi_merged-29',
  pseudo_dir = './',
  outdir = '/scratch/ztzhao/aSiHcSi_merged/aSiHcSi_merged-29',
  wf_collect=.true.,
  verbosity ="high",
/

&SYSTEM
  ibrav= 0, nat=  406, ntyp= 2,
  ecutwfc     = 42.D0,
  nbnd=1540,
  degauss     = 0.05D0,
  occupations = "smearing",
  smearing    = "methfessel-paxton",
/
&ELECTRONS
  electron_maxstep=200,
  conv_thr    = 1.D-8,
  mixing_beta = 0.3D0,
  scf_must_converge=.false.,
/
&IONS
/
ATOMIC_SPECIES
Si  28.08  Si.pbe-hgh.UPF
H  1.00784  H.pbe-hgh.UPF

K_POINTS {automatic}
1 1 1 0 0 0

CELL_PARAMETERS angstrom
16.29000014898320 0.00000000000000 0.00000000000000
0.00000000000000 16.29000014898320 0.00000000000000
0.00000000000000 0.00000000000000 29.08075068521919

ATOMIC_POSITIONS angstrom
Si 16.1207796274 0.0680777025 28.9682372608 
Si 16.2835818889 2.7895647855 2.5847843632 
Si 2.5601201334 0.0691777662 2.6836007540 
Si 3.2704618799 2.2003391901 29.0760105229 
Si 1.3234859491 1.4068874919 1.1581554364 
Si 4.0293966969 4.0086595267 1.3735769133 
Si 1.2899187748 4.1230967777 4.0352740458 
Si 3.9800379964 1.3948394078 4.0529842230 
Si 16.2221848784 0.0897965081 5.4367917444 
Si 2.6507088242 2.7754250654 5.4226875803 
Si 1.3128176280 1.4107123839 6.8008825167 
Si 4.0210399268 4.0894416374 6.8206865080 
Si 16.2391101885 2.7580110552 8.1627340713 
Si 2.6613624843 0.0185880305 8.1468850622 
Si 1.2995249879 4.1332943178 9.5108595116 
Si 4.0172769367 1.3226046601 9.5342404352 
Si 16.2338159385 16.2682692888 10.8760553525 
Si 2.6757954245 2.7571639752 10.8224013675 
Si 4.1592605780 11.6412087765 17.5236241517 
H 11.2027960025 5.3442114789 20.7425433642 
Si 9.5375996072 14.8311166056 12.1843110836 
Si 15.5658770624 7.8868687321 18.9172609667 
Si 6.6603783309 4.2833740892 27.8168430989 
Si 7.5736120293 10.8059390188 18.7235250057 
Si 13.3761915323 5.5915099711 13.5532583414 
Si 1.2226801702 3.9157413658 14.9148190884 
Si 11.9927306897 14.6674509741 22.0081085533 
Si 13.5973608644 10.2571614938 25.8819262713 
Si 6.8194501824 1.4092169619 25.9280192612 
Si 16.2872471390 8.2581829955 13.6203476332 
Si 15.9799362861 4.4030404303 19.8491827032 
Si 15.7878120244 6.0032560149 0.1606362506 
Si 16.2597333287 8.3096919760 2.8479418923 
Si 2.6201324940 5.4520024099 2.6390170551 
Si 2.5773712436 8.3229357461 0.0783089363 
Si 1.2297695782 6.9554228136 1.4264864311 
Si 3.9580464962 6.7710200119 4.0954130382 
Si 16.2476950186 5.4762745101 5.4350759801 
Si 2.6723908144 8.1663888447 5.4791914789 
Si 1.3000234619 6.8223172224 6.8176330291 
Si 16.2575341787 8.1993272250 8.1778560617 
Si 2.6708106844 5.4813081201 8.1639263821 
Si 4.0317261669 6.8443738826 9.5185949913 
Si 16.2245143484 5.4913916302 10.8814643721 
Si 1.2979578899 6.8118753323 12.2791434116 
Si 4.2096781285 9.4523703264 12.3975020669 
H 9.8154581398 8.6190390788 16.7704908704 
H 5.4179563096 14.5786378933 17.2521262633 
H 9.1024774132 6.0992366958 27.7893617895 
Si 14.7773921851 4.2093197485 12.2318290302 
Si 7.0161845142 12.0897050606 23.0983458965 
Si 5.6631371018 8.0195182033 13.7397241147 
Si 13.9043459172 2.9786428172 27.0414048819 
H 14.3662325814 6.9931178740 21.7884325626 
H 3.8568367253 0.3672776014 13.6177012849 
Si 10.4249647853 0.2300848491 26.8832055982 
Si 5.2412260979 4.8667189945 16.0622873490 
Si 9.4514255064 1.1471483265 14.9132778086 
Si 5.4663050300 3.3166277403 26.0463197550 
Si 10.8362221291 10.8963322297 10.9680377669 
Si 9.3509813655 6.9060641132 14.9094100688 
Si 8.5685889484 7.6913398603 21.0269821867 
H 16.2702403788 1.1962154359 26.2460172699 
Si 3.9876454265 9.5400431073 1.5110532541 
Si 0.0589351028 11.0767765613 0.0604341620 
Si 2.6620466643 10.9399568501 2.8428905659 
Si 1.3353369242 12.3477549529 1.5263322805 
Si 1.3231520041 9.6031505678 4.2141788240 
Si 4.0565195471 12.3182700527 4.1067545310 
Si 4.0680528672 9.5313768272 6.7869237564 
Si 16.1754162879 10.9583971302 5.4542692755 
Si 1.2871445878 12.2837026723 6.7808167988 
Si 1.3980289898 9.4998393869 9.5387188708 
Si 2.6396316241 10.8592887693 8.0766550493 
Si 3.9792723664 12.1731261513 9.4459803568 
Si 0.0819937609 10.9274461299 10.8402278677 
Si 1.4395831512 12.1613484812 12.3245675441 
Si 1.9243051376 15.5765958825 25.7036031081 
Si 8.1377836044 16.1585887178 13.4676155306 
Si 12.0236491100 4.1703214881 14.8655272160 
Si 16.1189714374 2.7667099153 13.4572337026 
Si 1.8359644668 10.2151821634 27.8804427007 
Si 5.4511879099 15.3391202603 15.9379962205 
Si 15.0434241776 11.1338730118 19.9125205782 
Si 2.5558684434 5.2072125776 26.6662922788 
Si 1.2185131881 1.4795066835 12.1173090340 
Si 4.9921845757 8.1730840347 26.6293597255 
Si 14.7926396253 1.4803912305 14.9231361831 
Si 10.2123477034 8.8774636412 19.9060355708 
Si 7.0446757244 0.5736246622 23.7881703835 
Si 5.7699506328 10.1529217829 23.0037171338 
Si 16.1335672776 13.7016331553 2.6967888744 
Si 2.5988577538 13.6742496651 0.0481914568 
Si 3.9787510864 15.0414042176 1.3590772510 
Si 1.2446423484 15.0091500173 4.0735152330 
Si 2.6376442441 13.6473385848 5.4194596169 
Si 4.0255359668 14.9628864168 6.7882614709 
Si 16.2639035687 13.6423049748 8.1654967427 
Si 1.3617299825 14.9420515067 9.5550622526 
Si 2.7203159949 13.5216775237 10.8932420762 
Si 10.8072747988 2.1030715992 18.9145273762 
Si 15.1655828887 12.2717621022 15.2244709217 
Si 8.0737801938 13.6018243244 10.8144041611 
Si 4.4576770908 9.2839805949 17.4609842147 
Si 12.7482608966 9.1392439436 14.7147435237 
Si 0.0031811438 5.8654751936 18.0126460552 
Si 14.1719743296 9.6694997384 23.6701897780 
Si 12.6705901759 9.7846537495 16.9485813876 
Si 10.8091644389 13.1995590607 25.7097973080 
Si 11.2548751329 12.2739123823 19.1536874698 
Si 13.4619258031 13.4585863531 16.4278033043 
Si 5.3144659386 1.3748222556 19.0200032589 
Si 3.9317870160 11.0404498610 24.0561204203 
Si 4.1611827981 6.5944689903 14.8640150170 
Si 3.5381065824 11.9371003392 27.8631687348 
Si 9.9722656812 12.1061579607 15.3095902790 
Si 4.9640843254 0.4465007591 0.0725806100 
Si 5.4175979295 2.7737309054 2.7896698840 
Si 8.0973355341 0.0595990832 2.6426579651 
Si 8.0182475833 2.8231547658 29.0498669280 
Si 6.7001096413 1.4343296261 1.3385724137 
Si 6.7729422319 4.1417162479 4.1117855009 
Si 5.3610227590 0.0420925459 5.4093685965 
Si 8.1041121741 2.7610247053 5.4520882192 
Si 6.7202115015 1.3993484798 6.7679049455 
Si 5.3709107891 2.7046775947 8.1762857012 
Si 8.1091294942 0.0499524710 8.0937254500 
Si 6.7466501717 4.0608526871 9.5141747172 
Si 8.0718416838 2.6646204844 10.8805337881 
Si 2.3770368217 15.4418287112 18.5328716042 
Si 15.5974633726 12.9687297586 27.9538134347 
Si 14.6097029236 5.3100350586 23.7736300082 
Si 0.3741079984 2.6882084046 24.1588336317 
Si 14.3184214310 13.9326416474 22.1861409090 
Si 3.8024607048 16.2808940389 20.1207096723 
Si 14.8974169062 9.8788588203 17.8982133012 
Si 3.1356295487 5.4377160797 24.4136682500 
Si 0.7825781232 7.4604453982 22.4538873806 
Si 5.2173775377 3.2337605096 21.9923758672 
Si 10.8674011894 7.8144108115 26.2455228972 
Si 7.2312125161 14.4249417419 14.7684265895 
Si 5.3072331785 5.5281255806 0.1504152392 
Si 5.3356918088 8.2000276950 2.8704649337 
Si 8.1363663744 5.4778709301 2.7161915513 
Si 7.7568093709 8.3664952065 0.1298391540 
Si 6.6584886909 6.8563144527 1.5074530571 
Si 5.3658771791 5.4618252800 5.4583696614 
Si 8.1229271243 8.1789973048 5.4387110739 
Si 6.7358010316 6.8314722025 6.7954153356 
Si 5.4183309796 8.2010702550 8.1832650813 
Si 8.0786183239 5.4689277200 8.1670089417 
Si 5.3789906292 5.4465452598 10.8238554050 
Si 8.1544319846 8.2362240753 10.9363106679 
Si 13.2258837010 11.8399467783 22.8138198318 
H 1.2476999814 15.1197754083 16.1091364383 
Si 2.3181484712 2.0658652389 15.7542058762 
H 1.3379775332 0.5189603087 22.1771258763 
Si 8.4256116171 15.5306580820 19.5798367904 
Si 3.2320989296 2.9617175071 26.8385375651 
Si 8.0282007734 5.4149589495 21.0520788745 
Si 7.5727486593 8.5431113881 15.2449728510 
Si 15.4541439513 4.1360636178 25.6525082292 
Si 12.3989381334 5.5560629308 19.8227773816 
Si 15.3076479800 13.4646625231 20.0272441396 
Si 5.9008082040 1.2446847024 16.7341108513 
Si 5.9182222141 5.4542015599 22.1798303861 
Si 15.7459630140 0.9179626854 20.4379225008 
Si 10.3873511750 15.7168039137 16.2507887749 
Si 5.1867360474 11.0313600409 0.1652193769 
Si 8.0769567439 10.9362590200 2.7010695609 
Si 6.6964606812 12.3384044928 1.3760022479 
Si 6.7633637119 9.5756204676 4.1187648810 
Si 5.4041586794 10.9382138200 5.4578462079 
Si 6.7631519419 12.2741730223 6.8177202714 
Si 6.7972957822 9.5547855574 9.5356944727 
Si 8.1337925544 10.8971141497 8.1473503542 
Si 5.3361479288 10.8451979192 10.8390064761 
Si 13.0234804491 2.3403191614 18.2006821891 
H 15.7178953438 15.1508567286 16.4428089717 
Si 10.8196389090 2.6002098238 13.6012706607 
Si 6.7932558621 6.7653348019 12.1427837716 
Si 9.2277963844 14.8708479160 25.7720591953 
H 8.1896998349 2.3699018017 19.4140474307 
Si 13.7600979658 14.4825431825 18.5739336242 
Si 6.7128484214 12.5272544646 25.4720912519 
Si 10.8813291395 8.1683925147 13.5849563596 
H 8.4849072176 6.5237052297 18.1618884677 
H 15.2886375498 5.4818619801 14.9432600626 
Si 13.5009892235 0.0028574778 13.6499809181 
Si 4.4949811911 2.6827349645 15.6340732951 
Si 6.3673212282 9.6437778282 27.8668038286 
H 8.3344201962 7.4615694082 28.2002727967 
Si 5.3650138091 13.7008838153 2.7136993309 
Si 8.1547577846 13.5592259740 29.0773773181 
Si 6.7574015718 15.0123917273 4.0517337507 
Si 8.0882945840 13.6326124247 5.4294924759 
Si 5.3745271692 13.6000161344 8.1687247060 
Si 6.7653836719 15.0056802472 9.4613349932 
Si 6.1365570861 13.3364276420 21.2780363074 
Si 11.1645470821 12.8506435475 23.3687968779 
H 10.4836739459 7.7855938012 27.6960707413 
Si 5.3521447089 16.2113194483 10.9109522533 
Si 10.8853690596 0.2697819505 22.9102516011 
Si 4.4111528503 12.0215151199 15.1320522961 
Si 1.4208431350 9.4526472565 15.1157379949 
H 14.7762681751 7.2329718362 16.1270211000 
Si 15.0118378673 0.9024155093 27.0492857654 
Si 12.1319776110 3.0255743077 25.5157414587 
H 3.2464992897 14.7923789853 17.5010574891 
H 4.1385722779 8.6793446594 18.8306003297 
Si 15.6689764733 4.6357430824 16.1520305456 
Si 3.7834014046 1.7691754662 23.3261935781 
Si 13.7542987258 3.7013812539 19.9088273229 
Si 15.0740656679 1.5520656022 22.6365435756 
H 13.1974576507 6.5029191895 17.1022149935 
H 0.3360643321 15.9702600261 20.4006409784 
Si 15.0204389874 15.6965717336 23.5742233007 
Si 10.9438827401 8.4225165170 17.7715375512 
Si 0.3232050060 10.8995739397 16.6593733220 
Si 9.4797375267 4.0667822472 1.3554479733 
Si 11.2455409628 15.9304309757 29.0550433016 
Si 10.7735382085 2.6801122745 2.7320085716 
Si 12.1630426412 1.4209490200 1.2830572606 
Si 9.4218102862 1.3644911375 4.0932901434 
Si 12.1390800510 4.0907122574 4.0817160047 
Si 9.4562473465 4.1200831277 6.8134163203 
Si 10.8163157489 0.0120650257 5.4126838020 
Si 12.1784855614 1.3802061006 6.7606056770 
Si 9.4646366966 1.3565204404 9.5001287146 
Si 10.8176352389 2.7270926349 8.1321702024 
Si 12.1967629415 4.0840007774 9.4550244703 
Si 10.8394638391 16.2624537587 10.8378432461 
Si 12.2114076517 14.8737801160 15.0121814417 
Si 4.0204534868 4.1000627175 12.1923373708 
Si 1.0833941529 2.4659639326 19.6608266810 
Si 8.4028870669 10.5868059368 14.3392237901 
Si 11.7459208974 11.8918467188 16.8875408919 
Si 8.8721042311 13.9095098472 16.2840862344 
Si 9.4634149465 11.0931480115 20.0267788476 
Si 7.1456900154 8.9920312122 24.4874461145 
Si 6.2344436970 12.6793053260 11.9706257276 
Si 12.0918879206 6.8348931025 12.0964872165 
Si 8.3588551964 5.4961157303 26.6393925844 
Si 10.2210954335 4.6772988728 23.7877632530 
Si 16.1995254882 7.7089819305 26.0863639487 
Si 15.6826763634 0.3377438311 16.7688332676 
Si 11.3468321838 4.9508731353 0.2070159767 
Si 10.8171139589 8.2005978450 2.6291005191 
Si 12.2696281122 6.8205253224 1.3325439740 
Si 9.4959297868 6.8442272726 4.0553688446 
Si 10.8102395789 5.4721368500 5.4447307893 
Si 12.1741361313 6.8440155026 6.7876507752 
Si 9.4416840864 6.8387701225 9.5202525941 
Si 10.8272952090 8.1826462648 8.1727669303 
Si 10.8005470288 5.4019758194 10.7870100939 
Si 6.6284173506 12.1807335814 14.1933838254 
Si 5.4956270303 5.1460273371 24.4876205990 
Si 2.9387486069 7.4717669483 23.3614685287 
H 12.1369134810 7.1506910454 23.4900054467 
Si 12.1902632315 1.3214236351 12.2096404174 
Si 13.7475057957 3.2117852994 16.1370248782 
Si 14.2139699500 8.3471263963 27.0573120525 
Si 2.6694097444 10.2413764837 20.4189618514 
Si 4.8997551148 15.9740718861 23.5705882069 
Si 12.8377255774 11.2001896024 20.5685241521 
Si 2.3404657714 11.4728353349 22.4266387172 
Si 15.0145257173 9.6180559180 12.1827116423 
Si 7.9463109427 5.2074569276 18.7305916281 
Si 4.9196126250 9.3018833051 20.9759163885 
H 12.8854552778 5.3843989092 27.1984118549 
H 5.0070899258 6.5215712396 18.5420029599 
Si 9.3879433759 9.5577503374 1.3174772371 
Si 10.8916569996 10.7361852382 29.0102589456 
Si 12.0819673105 12.3548899730 1.1943086257 
Si 12.1749669213 9.5914380577 3.9894427828 
Si 9.4397455763 12.2650180422 4.0838098187 
Si 9.4864327168 9.5344882172 6.7907042540 
Si 10.8248842890 10.9015287397 5.4118113795 
Si 12.1750646613 12.2665818822 6.7856442034 
Si 12.1628471612 9.5605847974 9.5434881139 
Si 9.4784343267 12.2144213017 9.5481991955 
Si 6.9026757931 8.8352562508 19.8426104535 
Si 5.9918530148 12.4446315838 19.0129075557 
Si 0.8276851336 14.6393833039 23.8058805607 
Si 5.5001230703 2.8449996560 13.5077469665 
Si 15.7738026243 9.7777956594 21.7904391344 
Si 6.7529055318 8.8932160713 17.4516783745 
Si 11.8367702283 0.7844775372 25.0508565783 
Si 9.8509703401 3.6819961537 25.9037077536 
Si 7.3676086874 1.2748114287 20.0759253163 
H 11.9706740295 9.7106482788 28.7736579580 
Si 10.4118513352 5.1677744873 16.2585824161 
Si 4.3433212897 7.1106502250 21.5169055935 
Si 2.6102770439 6.5176616396 20.0626354132 
Si 9.4870680268 15.0118541573 1.2878352279 
Si 10.7602129884 13.6121358945 2.6898385750 
Si 12.1721487513 14.9904979671 4.0079672209 
Si 9.4768541967 14.9500661867 6.7913149498 
Si 10.8174234689 13.5902258443 8.1749189059 
Si 12.2218495418 14.9331897466 9.5025714977 
Si 9.4516698564 9.6219003580 12.3997703654 
Si 3.7906015847 6.7322172316 27.9590188890 
Si 9.5304645872 3.9812434564 12.1814320893 
Si 12.8331806674 6.6133491005 26.3166544133 
Si 2.2201478303 1.6093347267 25.1681101650 
Si 8.8684552711 15.4942173517 23.5118450905 
Si 5.6938274621 15.9554035459 27.0413758012 
Si 0.5227737978 10.7341001182 23.7177368054 
Si 1.3998257768 1.1242103773 17.6938628662 
Si 10.8628236993 2.0756555290 21.3234604399 
Si 9.1701134939 3.5938998329 22.0410570438 
Si 0.9721920959 14.7027188245 27.7682200838 
Si 13.5401666738 0.1207823690 2.6875499199 
Si 13.0919636097 3.3090691803 0.1534099749 
Si 14.8412815657 4.2445713088 1.4089623707 
Si 14.9251913565 1.4562624823 4.0181745644 
Si 13.5408182738 2.7595423152 5.4153883119 
Si 14.8898583462 4.1142024376 6.7870400794 
Si 13.5335040638 0.0439118131 8.1457218322 
Si 14.8943218062 1.3826789226 9.5259524212 
Si 13.5150474936 2.7477809351 10.8752410915 
Si 7.0423951244 4.1059271176 14.7633374581 
Si 6.6635874609 6.9209531733 25.5287987158 
Si 1.2610822165 9.5333316272 25.7249483791 
Si 12.3244439627 8.9534564919 20.7554261368 
Si 14.3790853915 7.4371344080 14.6923804264 
Si 8.8303529608 1.9095789775 27.0381187571 
Si 6.7094926814 1.2678898076 12.2401752057 
Si 1.8416985468 4.1100484876 22.9079542218 
Si 3.9334485960 14.2365478902 14.4834061520 
Si 5.6296285715 5.1581796772 18.3439630477 
Si 2.4168007121 1.3441889103 21.4567375203 
Si 14.5205966228 12.3797810932 26.0022624177 
Si 13.8440403366 7.2768082266 20.3865949759 
Si 12.5443100947 4.2277111587 23.5216743842 
Si 13.0840140897 2.6877522846 21.8937630416 
Si 13.5245934337 5.5323935606 2.8511204183 
Si 14.1362992293 7.7836227112 0.2120161209 
Si 14.8918294362 6.9047283331 4.1554357077 
Si 13.4978615434 8.2630048356 5.4502852127 
Si 13.5454609239 5.4886712002 8.1373465760 
Si 14.8837821761 6.8520301827 9.5171700345 
Si 9.2384011745 12.0239097500 22.2051888007 
Si 2.5286804331 4.1705495481 20.5857108758 
H 3.0998892884 5.1074851967 17.3595796370 
Si 2.8404058760 10.8044892088 13.7637738956 
Si 4.3917351702 12.6001847952 25.7363771142 
Si 1.7101567956 14.8594286259 14.7115446411 
Si 7.9466693227 2.4300119022 16.1406890528 
H 9.2024817242 12.5260327146 28.6933660053 
Si 3.4131134112 9.0100642424 25.0490535717 
Si 12.8930301279 13.8999313271 26.5921945261 
Si 0.0741607144 13.5767377242 13.6499227566 
Si 12.3012144225 12.2043866616 12.2777475355 
Si 13.7906580061 10.9705494703 13.6629509329 
Si 10.9054872097 13.4951736934 13.6152294211 
Si 2.9296099168 7.9998724632 16.2505852097 
Si 7.4666030183 13.9968242480 18.1152138628 
Si 14.9272764765 14.9383373866 12.3202635930 
H 10.9987148806 5.1028099667 27.8295223062 
Si 4.5294019614 14.3542268513 12.1519442081 
Si 14.9856598371 9.6409107882 1.3771625698 
Si 13.4824674933 10.9978026406 2.5826469280 
Si 14.8270441056 12.2844194323 4.0337327660 
Si 14.8728515860 9.5760114276 6.8406359029 
Si 13.5230621737 10.9361124100 8.1951591083 
Si 14.9415465167 12.2699702022 9.5323501864 
Si 7.7497883809 10.5700272367 26.2204843708 
Si 16.2593260787 5.2608881281 22.0502174803 
Si 2.3845302218 0.6065939935 13.9191814272 
Si 2.7522281052 8.1719926047 10.9894411994 
Si 10.4312527254 16.1246566475 18.5556999935 
Si 11.2809554232 10.0149780616 25.5848373223 
Si 15.3026469500 7.5431334390 23.9677440190 
Si 8.3119888660 14.2837888906 21.5707922245 
Si 10.4610471357 10.0706084121 23.4051187355 
Si 9.3000914051 3.5858037028 17.6806892861 
Si 0.3233923410 5.6345644415 27.0376534651 
Si 7.3434017472 14.2593213104 26.9735885713 
Si 2.2841349509 6.3216114878 17.7730206695 
H 13.0452275993 6.1422097162 24.8964377921 
Si 13.7631930659 15.8318601848 25.5658766729 
Si 12.2257102718 8.5983344886 23.0011580277 
Si 9.4585442365 6.6680672110 24.7618229972 
Si 4.3129078594 14.6996563044 21.7289624275 
Si 2.1532610897 13.7529466558 21.9583804696 
Si 12.9600146085 14.1616301795 28.9628282412 
Si 14.7521426849 15.0195756174 1.2367112682 
Si 13.5112519236 13.6466381148 5.4187035174 
Si 14.8926113562 14.9878589871 6.7877089367 
Si 13.5884502343 13.6096761045 10.9086548740 
Si 8.9233688616 8.3526487064 23.2154540795 
Si 4.1483462779 14.9460262667 25.5468287812 
Si 1.9754068681 11.6529864466 18.4942814480 
Si 7.2937986967 2.2074090502 22.2149890137 
Si 13.5588838840 8.2344647553 10.8898977898 
Si 4.6127416022 3.4880637019 19.7115435102 
Si 8.2806143257 5.5014262703 13.4129437193 
Si 11.7045442970 14.4910954325 19.6719355278 
Si 9.9481239010 11.3240424736 26.9093491931 
Si 1.3292803022 13.6767909051 19.6748436028 
Si 15.6744824934 12.7495152266 24.0156400154 
Si 1.1086029281 8.4107714269 20.3511455408 
Si 11.8380408483 6.2645639073 17.7057278124 
Si 14.3169227509 0.4626050532 18.6339853743 
Si 2.6022297838 5.3671152191 13.5975483246 

