&CONTROL
  dt          = 30.D0,
  prefix = 'aSiHcSi_merged-2',
  pseudo_dir = './',
  outdir='/scratch/ztzhao/aSiHcSi_merged/aSiHcSi_merged-2/',
  wf_collect=.true.,
  verbosity ="high",
/

&SYSTEM
  ibrav= 0, nat=  406, ntyp= 2,
  ecutwfc     = 42.D0,
  nbnd=1540,
  degauss     = 0.05D0,
  occupations = "smearing",
  smearing    = "methfessel-paxton",
/
&ELECTRONS
  electron_maxstep=200,
  conv_thr    = 1.D-8,
  mixing_beta = 0.3D0,
  scf_must_converge=.false.,
/
&IONS
/
ATOMIC_SPECIES
Si  28.08  Si.pbe-hgh.UPF
H  1.00784  H.pbe-hgh.UPF

K_POINTS {automatic}
1 1 1 0 0 0

CELL_PARAMETERS angstrom
16.29000014898320 0.00000000000000 0.00000000000000
0.00000000000000 16.29000014898320 0.00000000000000
0.00000000000000 0.00000000000000 29.89412943589470

ATOMIC_POSITIONS angstrom
Si 1.3101851640 1.3942790318 1.2491949550 
Si 16.2439646086 2.7468198251 2.6178528300 
Si 2.6544066543 2.7496379951 29.7511159207 
Si 4.0423472470 1.3791977496 3.9820774056 
Si 1.3580305234 1.3578252694 6.7477028963 
Si 2.6882735646 2.7250400949 5.3617512674 
Si 0.0722707486 2.7028368247 8.1862980871 
Si 3.2395108796 3.1128887085 10.8011674830 
Si 4.1119055476 1.3541551324 9.4579046709 
Si 2.4661105426 2.0431732687 12.8519944447 
Si 3.6631812035 3.6066874830 14.0189117872 
Si 0.1816465337 2.2480363106 13.4666476400 
Si 2.0699703189 1.9046268174 17.2803613087 
Si 3.2773199700 3.7144947040 16.3404599851 
Si 0.0791565316 2.3663342916 15.8727065418 
Si 0.3358851421 3.1609279189 20.9198818851 
H 2.6293852140 1.1881339669 20.2614935784 
Si 1.9909475282 3.2553936298 19.2700248815 
H 2.0146820584 0.9355591436 19.9354682028 
Si 4.0107772267 3.7967592047 20.3511460726 
Si 2.6120200739 2.7028694047 24.2790553157 
Si 1.2822054597 1.4148695919 25.7296081583 
Si 3.5929061429 0.9404982716 23.0154304644 
Si 2.6162391839 0.0060429547 27.0789693728 
Si 4.0230273068 1.3882386997 28.3875251006 
Si 1.2798515547 4.1015613975 28.3753282958 
Si 1.3033612829 6.7849153821 1.2478317827 
Si 2.6586746343 8.1361546044 29.7663320326 
Si 2.6782063445 5.4340019597 2.6147498194 
Si 4.0356520569 4.0842451274 1.2332225216 
Si 1.3340337242 6.7891670721 6.7364029153 
Si 16.2621768287 5.4192920896 5.3911969849 
Si 1.3242809011 4.0822414573 3.9961874347 
Si 0.0043286277 8.1280096043 8.1437587409 
Si 2.7013544347 5.4558631399 8.0910852849 
Si 1.4457700932 4.1064809776 9.5567944511 
Si 2.7329896150 8.2182399152 10.9564375913 
Si 0.8209036065 7.3624773373 12.1423078119 
Si 1.2045054170 6.9256772733 14.4437970489 
Si 3.4075422312 6.0122318050 14.2390521564 
Si 1.6145263498 4.8919684947 17.5673150571 
Si 2.2252791804 7.0346247943 18.2239396102 
Si 2.7542643552 5.4404039298 21.6276253995 
Si 1.1364181034 6.6655096810 20.3312365824 
Si 1.2424562304 6.8283445224 25.6756193605 
Si 1.2939896458 4.0933512374 22.9210248037 
Si 2.7075283448 8.1605570246 24.4425164154 
Si 4.0196226968 4.0927322174 25.5996882718 
Si 4.0272301268 6.8728162229 22.9664040922 
Si 2.6450724842 5.4459913998 26.9985541646 
Si 4.0256662868 6.7729422319 28.3922782672 
Si 1.3024669619 12.2030671716 1.3004275140 
Si 2.6801611445 10.8357497191 2.6439713309 
Si 1.3261021231 9.4720649366 4.0083244513 
Si 2.7056061247 8.1268855943 5.3678197756 
Si 1.4510806333 9.4994647169 9.4294753538 
Si 2.8060665557 10.8443997092 8.0748527726 
H 2.7882778755 10.9071976598 12.4158092021 
Si 1.8093466065 11.9078760789 12.1387205164 
H 2.9804835873 9.8116788597 13.6288232922 
Si 3.2173076094 9.8545378501 16.1816324754 
Si 1.4284065821 8.3633349465 16.3827003900 
Si 2.8607032162 12.1658119413 15.9430474284 
Si 1.9755371881 10.7170281980 19.5759614022 
Si 3.3640153508 10.3798089049 21.5078994111 
Si 0.1604613885 8.4166032470 21.6087920980 
H 2.2588854507 9.6189355780 18.7052948824 
Si 1.6781306553 9.6148956579 22.9575255357 
Si 1.0383979145 11.8637464685 23.4392395374 
Si 1.2624114805 9.5103301470 28.4319477769 
Si 2.6574528843 10.8720438394 27.1398936086 
Si 4.0004656566 12.2022038016 28.5259947081 
H 1.8677136771 11.7058312071 26.3024394666 
Si 16.2383771385 13.5775522242 2.6482850538 
Si 2.6648159644 0.0319482741 2.6265729476 
Si 2.7047101747 13.5697330241 5.3280306894 
Si 1.3296859232 14.9369364466 3.9878768667 
Si 1.4128219389 12.1563800312 6.6904556384 
Si 0.0761733439 13.5099975936 8.0366779693 
Si 2.8389397760 13.5305718637 10.8082224975 
Si 1.4032173548 14.8425358957 9.4848691757 
Si 2.6945452146 0.0058316246 8.1346709256 
Si 4.1878169483 12.2491190020 9.3693283654 
Si 1.2235875232 12.8168417972 14.2237762562 
Si 1.1475181095 15.1653385387 14.4436475782 
Si 3.2269024195 16.1679228879 13.8571546528 
Si 2.5506067733 12.6438419956 18.2772408430 
Si 0.2154824930 15.1111091282 16.6877998750 
Si 1.5720599484 14.7626986050 18.5992604053 
Si 3.2745995399 16.2540481187 17.8070360811 
H 3.1867964391 14.2032837099 20.6427334111 
H 3.3650579108 13.5984197144 21.0304602699 
Si 0.4661220643 15.2763385997 20.7229991486 
H 0.8317006186 12.3558836630 22.0974714318 
Si 2.6226411540 13.6312114847 23.9534484579 
Si 1.7702017362 15.5576506123 22.7882350807 
Si 3.8504184652 14.7904404753 25.7298772055 
Si 0.0466056904 0.0147023930 24.3225811682 
Si 2.6574691743 13.5877008943 29.8622622939 
Si 1.3115942490 14.9625117468 28.5076995009 
H 0.8175967365 12.7467459266 26.3702991404 
Si 6.7528240818 1.3877141617 1.2589225047 
Si 5.3960625494 2.7429916751 2.6218108127 
Si 6.8102952023 1.3130017050 6.6848654362 
Si 5.4109190295 16.2976564491 5.3216333457 
Si 8.1491866045 2.7128551748 5.3589412192 
Si 5.4380581697 2.6545369743 8.0147356783 
Si 8.0752462939 2.5779739736 10.8325264248 
Si 6.7685765119 3.9483213661 9.4458573368 
Si 6.6630173109 1.3515682804 12.2575795750 
Si 5.6867413120 2.4142431821 14.1611779492 
Si 7.9062701223 0.0566747024 13.8057666443 
Si 7.2133749660 3.7546006843 17.4773038334 
Si 8.1016198041 1.5753326094 17.5438481655 
H 5.5164456505 1.3835406637 15.1309734022 
H 6.0498942853 0.8176228005 18.6048506075 
Si 4.9148559449 1.7583914861 21.2256390410 
Si 7.3214265370 2.1800581399 21.6747983358 
Si 5.0106085658 0.2242074171 19.3947132954 
Si 6.6888369612 1.3200340981 25.6132901007 
Si 5.3516397189 0.0466662892 29.8137441218 
Si 5.3805544692 2.7400268951 26.9759542028 
Si 6.7647320719 4.0824043573 28.3381698929 
Si 7.9997747232 0.0704913918 27.1421954565 
Si 5.4065695994 5.4214749496 29.7454659302 
Si 6.7646669119 6.7590794418 1.2489737384 
Si 6.7879290321 6.7390590316 6.7845922520 
Si 5.4221102596 5.4239184496 5.3746356372 
Si 4.0543203971 6.7661330119 3.9964265878 
Si 6.7749296120 4.0696981572 4.0020167900 
Si 4.0556887571 4.0704474972 6.7297365245 
Si 5.4157408695 8.0885715140 8.1607983947 
Si 4.0131718567 6.7679249119 9.5584685224 
Si 5.0895173265 4.9930316557 10.7564458654 
Si 8.1411067645 5.3598335890 8.1544907334 
Si 8.0229065234 7.8726801420 10.8957226144 
Si 6.6213149106 6.3373639180 12.1331901024 
Si 5.1449847771 7.4647948283 13.5790196726 
Si 4.6675900327 6.8849034030 18.1001779143 
Si 4.8101438240 5.5277672006 16.1393322822 
Si 6.6478839008 4.2618712890 15.2544660509 
H 7.0542868245 5.3339487788 22.0635714891 
Si 5.7754077828 4.8520579944 19.1528996824 
Si 7.3685697974 4.4800758410 20.9731233296 
H 7.3356151271 7.7860336312 19.7762520694 
Si 6.8092689323 6.8198248524 25.6015716019 
Si 5.4084103695 5.4820737501 24.2608497909 
H 6.2043886467 4.6670687527 23.4106308556 
Si 8.1333853044 8.1012940041 29.7750013301 
Si 5.4436130598 8.1138047242 27.0668921445 
Si 8.1446742745 5.3656816991 26.8885138742 
Si 6.7646832019 12.2020083216 1.2930257276 
Si 5.4153987795 8.1166066042 2.6284323624 
Si 4.0273115768 9.4652394266 1.2755077677 
Si 6.8220891624 12.1741361313 6.7060603740 
Si 6.7968559522 9.4498127964 4.0087130750 
Si 5.4418537398 10.8223593390 5.3549055117 
Si 4.1125571476 9.4457240064 6.7289293830 
Si 6.8794625429 9.3941987359 9.4634649790 
Si 6.1076912059 11.4015502943 10.4801045329 
Si 8.1992294850 10.7885412987 8.0698604530 
Si 5.7260002124 10.9276416099 12.7066790815 
Si 7.5840050494 9.9332837108 13.8319539017 
Si 3.9592193762 9.3187434552 12.7195933454 
Si 6.1930345166 10.9565237802 18.2497681380 
Si 5.2441745880 9.0625017529 17.1196504688 
Si 6.5622473700 8.3110114660 15.2900699591 
Si 4.9914189456 8.6105845687 21.6716295580 
Si 7.5078004287 11.4227272945 21.8659115052 
H 4.3582917999 11.7394700574 20.5845594352 
Si 8.0449631836 10.7560427484 19.7181976700 
H 5.4729839301 8.1736378948 20.4141330033 
Si 5.3456124189 10.9047052897 24.5113028073 
Si 6.6421009507 9.6025315478 23.0429031694 
Si 4.0275396368 9.5039770469 25.8196492762 
Si 6.6993928813 12.2605220021 25.8472714518 
Si 4.1595537980 12.1671151413 22.8896658619 
Si 5.3948733793 10.8369225991 29.8377491078 
Si 6.7523516718 9.4825556967 28.4687474503 
Si 5.4061460594 13.5732516641 2.6398280046 
Si 4.0348538469 14.9509132667 1.2970464880 
Si 8.1142934242 0.0221112317 2.6275744009 
Si 6.7839542720 14.9223894765 3.9922414096 
Si 8.1576411146 13.5538828540 5.3500028745 
Si 4.0266273968 14.9710639969 6.6804112109 
Si 4.0679062572 12.1875428015 3.9949916696 
Si 5.4400944198 13.6246466146 7.9557844550 
Si 7.7225189206 13.2351201310 10.6962988769 
Si 6.7499570417 14.9382885166 9.3955156228 
Si 5.4269972596 16.2601405787 10.8258899280 
Si 5.6534608417 13.2355925410 13.3483864640 
Si 7.8966264422 14.0803267888 12.9909722524 
Si 4.2412807288 14.7853417052 12.2064307195 
Si 4.5962887020 15.6956920735 15.8718097179 
Si 4.9396656152 13.3196978118 15.5712242464 
Si 7.0125029741 16.2075075882 16.0821448126 
Si 6.9268990234 12.4458207538 16.6032891711 
Si 8.0774128639 14.3863670216 17.3118996152 
Si 5.8376518734 14.3627791014 19.9013888952 
Si 5.9787069847 13.2443402711 21.9446227480 
Si 4.6582069926 12.3731021932 19.3402461916 
H 7.5625348292 15.9011578454 22.4091177312 
Si 6.7704661519 15.0292844575 23.1990999957 
Si 5.1952394275 16.2133231183 24.4217101014 
Si 8.0482700536 13.6820037051 24.5837661770 
Si 6.6833961011 14.9512553567 28.4766992887 
Si 5.2914155884 13.5804844242 27.1509843306 
Si 12.1863047615 1.3906936027 1.2684467743 
Si 8.0945173640 2.7603405252 29.7777814841 
Si 10.8371180791 2.7395707751 2.6412300392 
Si 12.1978706616 1.3531467814 6.7093188341 
Si 9.4954573768 1.3534546624 3.9949916696 
Si 9.4974121769 1.2774047967 9.4780234200 
Si 8.1606873446 16.2496335286 8.0695017234 
Si 10.8560633493 2.6597660643 8.1328473837 
Si 9.8139757498 1.5650096363 13.8059759032 
Si 9.4525495165 3.6355207832 12.4163174023 
H 10.9436383901 0.9166513404 13.2281223813 
Si 10.1349864927 1.5603490673 16.1999874709 
Si 11.7774420477 3.1681443890 16.6058301721 
Si 10.7449981283 0.9617860438 20.4923659400 
Si 11.2785119231 3.3202278304 20.6035721015 
Si 8.4565789073 0.8885983311 19.8645892219 
Si 10.2429729037 0.4348827310 24.2981875585 
Si 12.0736105404 1.4206134460 25.5360436702 
Si 8.3782240066 2.1009213192 24.0380488442 
Si 9.4327897463 4.0034793066 25.3514175268 
Si 10.8048801688 0.0649317777 29.7918317250 
Si 9.4490960364 1.4273705381 28.4046245426 
Si 10.7650185385 2.7838144155 26.9587351842 
Si 12.1793326414 6.7775848820 1.2426750453 
Si 9.4794443067 4.0852225274 1.2542231475 
Si 10.8404086591 8.1226339043 2.6410865474 
Si 8.1294594143 5.4274533796 2.6365007879 
Si 10.8575783193 5.4203346496 5.4163977360 
Si 9.4996927769 6.7580694618 4.0212985035 
Si 8.1504246445 8.0979056841 5.4081469562 
Si 9.5063390969 4.0357335069 6.7650414913 
Si 9.5399127872 6.6018646504 9.6045652699 
Si 10.8535872693 5.1493504971 11.0253136655 
Si 10.8780385595 8.0831958139 8.2731704273 
Si 9.7930430996 6.2932505976 14.7666237527 
Si 10.9125081998 7.9049995023 13.5536096626 
Si 8.0935725440 5.1381755570 13.6116939560 
Si 10.9699793203 5.3438693889 16.6497745424 
Si 8.9451974618 5.2551540481 17.8742679782 
Si 8.2839863558 7.0901411148 16.3667967131 
Si 10.1465523928 7.1101126550 20.7766890051 
Si 9.5317677872 4.9298101651 20.1433220848 
Si 10.8979286497 5.4688299800 24.0991823389 
Si 10.1068536624 7.5104719887 23.0699872507 
Si 12.1696726713 6.8049520822 25.6351726034 
Si 10.8198018090 5.4322426397 29.7503685674 
Si 9.4509368064 6.7426102517 28.3427735888 
Si 10.7942102187 8.1584719046 27.0174173603 
Si 12.1602081812 4.0954852275 28.3478555908 
Si 9.4764469467 9.4706151266 1.2650657483 
Si 10.8055643488 10.8750411995 29.8126380391 
Si 8.1349980144 10.8308464291 2.6440281297 
Si 9.5638427975 9.4054877060 6.7801380267 
Si 12.2236740218 12.1615439612 6.7880898651 
Si 12.2066346816 9.4645226666 4.0211789269 
Si 10.8659839594 10.8143120789 5.4017496125 
Si 9.5122034970 12.1766773714 4.0098191578 
Si 12.2024807316 9.5099066070 9.6992698720 
Si 10.6865496077 10.7804288786 11.1091965927 
Si 9.3325247954 9.2019441542 12.3510884119 
Si 10.4826313859 10.3020404442 16.4495735575 
Si 8.6457058091 11.3636434639 15.3094712491 
Si 9.4761700167 8.5896356286 17.6034869538 
Si 12.1322708310 9.2373260345 15.0541753837 
Si 11.2442051828 12.1796910214 17.6321853180 
Si 8.5750397884 8.4833270876 19.7172709520 
H 9.1357415936 11.5190337753 19.2227622629 
Si 11.7089914671 9.3883180459 23.0912120826 
Si 10.6599969075 11.0529768711 24.3653596674 
Si 9.4076216960 9.5987522678 25.7482023068 
Si 8.1467593945 8.2597631255 24.2493704452 
Si 8.0788626739 10.9026364597 27.1578898745 
Si 12.1272535109 9.5058341069 28.4291676229 
Si 9.4617533665 12.2775124723 28.4711987689 
Si 9.4769845167 14.9586021468 1.2712030131 
Si 10.8302274090 13.5792952542 2.6411254098 
Si 8.0822021239 13.6087801545 29.8286015042 
Si 9.5271902971 14.8723465960 6.7443547538 
Si 12.2067324216 14.9156128364 4.0120014292 
Si 10.8422005592 16.2701915088 5.3657570807 
Si 10.8566986593 13.4990181335 8.1596923119 
Si 12.2743847923 14.8964232162 9.4135118887 
Si 10.8454585592 16.1599570778 10.8004201298 
Si 9.4840543767 12.1324663110 9.5376921024 
Si 9.7174737889 13.1381131802 14.1844355819 
Si 11.3145128235 12.6961166061 12.4813072397 
H 10.0325875518 15.3198166101 11.6056484003 
H 10.9203925599 13.6948890952 11.5156072824 
Si 10.2143025034 13.9508212876 16.4224296880 
Si 11.3842503141 15.9282318257 16.7641494816 
Si 9.8642629802 13.8580008667 21.2561011589 
Si 11.3170866435 12.4067410435 20.0805444129 
Si 11.0451088010 15.7086100437 22.2930388266 
Si 12.1917619115 16.0698407970 18.9868676875 
Si 8.1815548348 14.7920043153 19.6920403068 
Si 9.4083547460 15.0821780879 25.8012942807 
Si 9.2500811046 12.4204735136 23.0522002436 
Si 12.0795889705 12.3423140929 25.7326872536 
Si 10.7794840586 13.7017146053 27.1102386322 
Si 12.2062437216 4.0804821373 4.0204913620 
Si 14.9164924964 1.3721963075 4.0041990614 
Si 13.5749946942 2.7260500749 5.3865036065 
Si 16.2836633389 0.0094185197 5.3664446457 
Si 13.5722253941 -0.0104062150 8.0112679593 
Si 13.6539197449 2.5642577935 10.8691467333 
Si 14.9622511068 1.2638938706 9.4261272113 
Si 12.2460727720 3.9346214760 9.5533267321 
Si 15.1410175685 3.8066309448 12.2203613838 
Si 12.4322511837 0.9766164599 12.0911290623 
Si 15.9316201457 16.2852760489 12.9817349664 
Si 15.0798974879 0.7066113365 16.8843836702 
H 12.7899632970 3.0439168478 15.6150191461 
Si 15.5177726919 1.0996971851 20.8275389193 
Si 14.0903451389 1.1674196027 18.9561066283 
Si 12.7961046270 3.1019581184 18.7461003690 
Si 13.4717160932 2.6940239346 24.0616951006 
Si 14.5659316932 0.8564760798 22.9905286546 
Si 14.8254802656 4.0614554171 25.5251921012 
Si 16.2075727482 0.0530882960 29.7951499733 
Si 13.5053223635 2.7564797952 29.7617283366 
Si 14.8470645158 1.3998485828 28.3885415010 
Si 13.4777108133 0.0735275221 26.9786147803 
Si 16.1723211879 2.7753110354 27.0060276970 
Si 13.5399386138 5.4404690898 2.6321302662 
Si 14.8848736061 4.1016102675 1.2343525197 
Si 16.2425799585 8.1292965143 2.6391972384 
Si 14.8951200162 6.7763794220 4.0276659530 
Si 13.5474483039 8.1190663943 5.4292522116 
Si 12.2133461617 6.7504457417 6.8291046107 
Si 14.9546762568 4.0368575169 6.7951448797 
Si 13.5628749340 5.3529429190 8.1781967780 
Si 0.0329100357 5.4220776796 10.9314460991 
Si 14.9360079166 6.7275745815 9.4993977226 
Si 13.7384974256 5.1409937270 13.5342382667 
H 12.8817411578 4.2946630593 14.2940872487 
Si 12.3415647529 6.5711580001 12.2503451957 
Si 15.2299283893 6.1838143766 15.0183323225 
Si 14.2908098807 4.8398242043 18.3150270226 
Si 13.7619224459 7.7876789212 16.0867186144 
Si 15.8124750846 4.5532342316 16.5939323086 
Si 12.7190040563 6.5216363996 17.7775604695 
Si 13.6536102349 5.8869454138 21.4900227217 
Si 15.5317332220 5.1520872171 20.2525552337 
Si 12.3746823232 7.2922511467 20.0164215053 
Si 14.9563215468 7.1285203552 22.9722932357 
Si 12.3197198627 4.2218141786 22.5902761556 
Si 16.1941823681 5.5109722104 24.2323307914 
Si 16.2211748984 5.4724789400 29.7383511274 
Si 13.5187290336 8.1483232345 29.7633426196 
Si 14.8705546960 6.8343881125 28.3356288919 
Si 13.5292849537 5.4346046897 26.9669859639 
Si 14.8741059160 9.4815457167 1.2709997330 
Si 13.5343837238 10.8457517792 2.6449697948 
Si 14.9018640763 9.4858951468 6.8020205295 
Si 14.9066533363 12.1876894115 4.0157083013 
Si 16.2622908587 10.8201113190 5.3880879954 
Si 13.5545018740 10.8307486891 8.2295249983 
Si 0.1358491530 10.8151428689 10.8631978016 
Si 13.6301363447 8.0726398938 10.9541058492 
Si 15.4221341010 9.0976229932 12.1729492946 
Si 15.0582154977 10.1607084029 14.2660166611 
H 12.8397781174 10.2530238338 14.3522014363 
Si 15.5475182322 9.2933636350 16.4244624888 
Si 14.6264327538 10.3319977545 18.3381949729 
H 13.5244631137 9.4973307269 18.7038300700 
Si 14.6269866138 11.6358004964 21.7176665174 
Si 16.0021395564 10.3552272947 20.2585340596 
H 12.7187271263 9.6362029781 20.1723791786 
Si 12.5037479944 10.6159161671 21.1857901664 
H 12.8137466972 8.6379680590 20.1229641826 
Si 15.0943955880 11.6026177661 24.0790038015 
Si 14.7377749048 9.7482944692 25.6030065201 
Si 13.4364482429 8.3011397259 24.3073650563 
Si 16.2182264083 10.8644526994 29.8205898775 
Si 13.4171771727 10.9588206702 27.1212695659 
Si 14.8554864459 12.2440365220 28.4772074889 
Si 16.1629544378 8.2911213758 26.9495875806 
Si 12.1828349914 12.2224196918 1.2779052769 
Si 14.8892393262 14.9590908468 1.2844969324 
Si 13.5358661138 0.0234901802 2.6486497621 
Si 14.9594166468 14.8888646562 6.7120690940 
Si 13.5529054540 13.5375114038 5.3886260897 
Si 14.1626401595 14.0136029482 10.5763935238 
Si 15.8544707050 15.7413529440 10.6709486552 
Si 15.0651061678 12.1530894511 9.4757514662 
Si 13.5433269339 13.5004679435 12.7757345205 
Si 13.6679780150 15.8000295245 13.4197736451 
Si 15.1267963983 12.4666393740 14.2413241102 
Si 14.6422992139 13.6825086951 16.1771483560 
Si 13.4522495430 15.7285490038 15.7177951631 
Si 13.6377926447 12.4159286036 17.8019839732 
Si 14.7075406645 13.9776834978 21.1721883375 
Si 13.0610126095 13.9514728876 19.5371289281 
Si 13.7281044056 13.5202928737 24.5228120471 
Si 15.0106975673 14.9866372371 25.7986934914 
Si 13.3137356718 15.1106367182 22.7672494019 
Si 13.5108283836 13.6271064046 29.8152986166 
Si 16.2785319889 13.5809568342 27.1679940902 
Si 12.1834214314 15.0176533973 28.4358041196 

