&CONTROL
  dt          = 30.D0,
  prefix = 'aSiHcSi_merged-20',
  pseudo_dir = './',
  outdir = '/scratch/ztzhao/aSiHcSi_merged/aSiHcSi_merged-20',
  wf_collect=.true.,
  verbosity ="high",
/

&SYSTEM
  ibrav= 0, nat=  406, ntyp= 2,
  ecutwfc     = 42.D0,
  nbnd=1540,
  degauss     = 0.05D0,
  occupations = "smearing",
  smearing    = "methfessel-paxton",
/
&ELECTRONS
  electron_maxstep=200,
  conv_thr    = 1.D-8,
  mixing_beta = 0.3D0,
  scf_must_converge=.false.,
/
&IONS
/
ATOMIC_SPECIES
Si  28.08  Si.pbe-hgh.UPF
H  1.00784  H.pbe-hgh.UPF

K_POINTS {automatic}
1 1 1 0 0 0

CELL_PARAMETERS angstrom
16.29000014898320 0.00000000000000 0.00000000000000
0.00000000000000 16.29000014898320 0.00000000000000
0.00000000000000 0.00000000000000 29.07865470619324

ATOMIC_POSITIONS angstrom
Si 15.7684920842 0.6558028260 0.1281644614 
Si 0.2821851566 2.7244536549 2.7494042497 
Si 2.8667630962 16.2897557990 2.5243790802 
Si 2.9446455869 2.6703871444 28.9408218829 
Si 1.4670448334 1.4006305028 1.2111754022 
Si 4.2623925690 3.9651978063 1.3013948363 
Si 1.6205731978 4.0985151675 4.0584787587 
Si 4.2540195089 1.3270599751 3.9324227905 
Si 0.2286562161 0.0106725402 5.3449184429 
Si 2.9683149571 2.7028694047 5.3491930051 
Si 1.5777614484 1.3783246056 6.6987915274 
Si 4.3083792394 4.1069045176 6.6684334118 
Si 0.2280974691 2.7352050550 8.0679890629 
Si 2.9545010370 0.0398168329 8.0402480263 
Si 1.5943234916 4.0892298674 9.4076717638 
Si 4.3684241800 1.4557281703 9.2924621339 
Si 0.2729552425 16.2654022488 10.7372932503 
Si 3.0017257475 2.7006376747 10.6985314035 
Si 8.3953447968 3.0773927981 16.4073982887 
Si 10.9006002097 3.2871265501 22.0568865610 
H 0.4398495520 1.6545753151 17.6970366250 
Si 13.8432095466 13.7450785857 18.2803835170 
H 9.1276943335 13.3641043522 20.4744843292 
Si 4.2736326691 9.4732215266 11.9856108181 
H 14.8812898061 10.9920196905 26.3356942864 
Si 12.0548118802 14.4935226426 19.6023282386 
Si 9.6737188485 12.9049544080 16.8341857039 
H 15.4020648209 1.4743916235 13.4095053031 
Si 2.0148775384 11.6235178363 24.3533151591 
Si 2.8713242963 13.6480064748 10.6886446609 
Si 1.0675847078 15.8037273545 23.7576098388 
Si 2.9246251767 2.7452071151 23.1741466321 
Si 13.9027983672 15.8319905048 26.1236527363 
Si 1.5367236801 3.9867657665 27.5951780577 
Si 4.3831503401 1.3220947831 27.6166671835 
Si 0.2034735049 5.2583631781 0.0036291324 
Si 0.2101458889 8.0974821441 2.6287307405 
Si 2.9549245770 5.4065695994 2.6378556223 
Si 2.9382924869 8.1398198544 0.0286891170 
Si 1.5570259072 6.7152593414 1.2858261246 
Si 4.2769232491 6.7892811021 4.0035491799 
Si 0.2309286711 5.4468547698 5.3805107163 
Si 2.9268406168 8.1748596448 5.3279655872 
Si 1.5883841575 6.8247770124 6.7071371013 
Si 0.2258901741 8.2104532951 8.0207071703 
Si 2.9507543370 5.4441017598 8.0391430374 
Si 4.3003319793 6.8199551724 9.3752199852 
Si 13.8917374570 2.7932626155 10.9211575840 
Si 2.8988869765 8.1821901448 10.6595950849 
Si 0.2213306030 5.4932975602 10.7001016509 
Si 2.1639636198 0.8372734277 11.8790375486 
Si 8.5786887485 15.8810559852 26.3105703287 
Si 0.3250669530 8.3169084461 13.3360526214 
Si 8.2641451356 6.4779629092 18.5698615246 
Si 11.9750560395 6.0313399752 25.3937203459 
Si 5.9937100748 10.8597611793 18.4951003034 
Si 3.0024587975 10.7224201881 26.2841378316 
Si 15.9688753760 4.0730864773 15.9391737907 
Si 1.0619744317 7.4981893286 19.8864848524 
Si 2.3203150412 5.9229300242 26.4026624282 
Si 6.9319815034 9.3757258757 27.8199851372 
Si 10.3907232050 10.8125853389 16.0381866099 
Si 13.8514522867 7.1996750758 20.2227794941 
Si 4.2762879391 9.5332338872 1.3331022014 
Si 0.2182452770 10.7614347384 29.0027012601 
Si 2.8945212565 10.9248071499 2.6055724999 
Si 1.5448246971 12.2536964921 1.1689212091 
Si 1.5662411603 9.5097599970 3.9389654878 
Si 4.2776237191 12.2431242820 3.9702831990 
Si 4.3032641794 9.5311650572 6.6745980866 
Si 0.2213664410 10.8853364796 5.2752459862 
Si 1.5664333823 12.2397033819 6.6346440151 
Si 1.5728272074 9.5968626278 9.3500378702 
Si 2.9432446469 10.9117099898 7.9923554820 
Si 4.2511850489 12.2777405323 9.3821988623 
Si 0.2904164937 11.0445386510 10.6841374695 
Si 1.2850040818 12.6331394655 16.8605891223 
H 14.1787346797 14.6727452242 25.1772297616 
Si 1.4880410146 12.4431654838 12.1558954201 
Si 7.3747437074 10.8223593390 20.4884711621 
Si 14.3203110710 9.1159492434 21.6330942473 
Si 0.0677406624 10.8118848689 16.0002680442 
Si 4.2451577488 4.0758231973 12.1284451701 
H 8.0070889332 1.8131421766 24.4180151658 
H 6.3745214083 6.0123621250 0.4408731155 
Si 1.7903198864 1.4421292782 14.0804080245 
Si 4.2157217186 4.9514758653 19.9395533972 
Si 9.8674232402 8.1758533348 18.6567194662 
Si 16.0515308368 0.2269734591 26.9614087784 
H 15.5285240920 4.6032608221 19.8288800374 
Si 15.0237132774 12.2850384524 14.7645124551 
Si 1.5922171946 9.4127856261 27.6500494791 
Si 9.8777185203 14.5182508628 24.8662917068 
Si 0.2191102760 13.6256077246 2.5622045943 
Si 2.7456143651 13.6572429049 28.7487573686 
Si 4.1904233483 14.9126480564 1.1310753400 
Si 1.5669106793 14.9537965968 3.9520508825 
Si 2.9336009668 13.6149214845 5.3146766420 
Si 4.2897923492 14.9653299169 6.6792215927 
Si 0.1838342807 13.5945752743 7.9588277931 
Si 1.5266157350 14.9336295766 9.2888273020 
Si 5.7033571122 0.1836322847 10.7256617884 
Si 8.4072364969 0.1689142695 13.6720273978 
H 12.1397968110 9.8076878097 17.9392327400 
Si 6.9644637637 1.4692195484 12.3016667161 
Si 9.1043018933 6.5698222201 22.3437765683 
Si 7.2409702262 11.7030130370 14.2583112340 
Si 4.8937603948 4.1737912582 17.8009928155 
H 15.6216703129 11.2213340226 23.4188725901 
Si 5.7994681130 13.5020969435 26.3385730732 
Si 13.8509472967 3.0376940678 16.1399909801 
Si 10.2980493942 4.3901224602 25.4393447551 
H 10.2112888534 10.2179514635 11.2750738904 
Si 13.2205731609 3.7687892745 18.2691300776 
Si 3.7445497542 10.1435224528 17.8924161059 
Si 1.5769143684 6.8319609025 12.0369928010 
H 9.4311118763 10.2071186134 12.9742559995 
Si 8.3052773860 10.6371909073 26.4534919166 
Si 0.8069463344 13.6625534450 24.8904269902 
H 10.1012499024 11.3146268535 19.0939751970 
Si 9.6370826381 0.5060016136 22.1987031600 
Si 6.9953496040 9.3912828259 16.8805080008 
Si 5.7078531522 16.2267623684 28.9766467855 
Si 5.6817565720 2.6624376243 2.6359858648 
Si 8.3934388668 16.2485095186 2.6393909753 
Si 8.3833716467 2.5713276535 28.9269804432 
Si 7.0340872243 1.2951902188 1.2754217819 
Si 7.0071109841 4.0406530870 4.0199204625 
Si 5.6419438116 0.0146075364 5.3113907540 
Si 8.3919401868 2.7210164649 5.3812667613 
Si 7.0205176542 1.3585876414 6.6871309868 
Si 5.7155909023 2.7969604456 7.9822070315 
Si 8.3765950066 0.0709670598 8.1166958095 
Si 7.0008556240 4.1094620476 9.4491670041 
Si 15.1364074984 9.7033014887 17.6867427812 
Si 8.3243041061 2.7992410456 10.8915845921 
Si 11.3718536240 14.0372723184 15.6484744796 
Si 11.1064732316 0.0559844951 10.9081012680 
Si 6.3639329082 2.2814633909 21.9133543214 
Si 15.7458326940 6.3777468283 16.4774196893 
Si 15.7056126836 0.8757455210 22.7750130176 
Si 14.2212190001 0.5045778676 13.5116586171 
Si 5.0724291164 15.2872528998 25.0204376554 
Si 14.8316541756 7.3923694876 14.5894298752 
Si 10.7705571385 13.3197141018 13.4621958255 
Si 0.4365882940 1.8280475267 20.8502968626 
Si 11.2816396032 2.4480123524 26.3472094337 
Si 7.0831689948 12.0340421301 25.0466956806 
Si 12.6583238058 3.6539936434 27.8569731860 
Si 3.2274074095 2.7188173149 17.1089499122 
Si 5.3930977693 5.0164403859 28.6515765045 
Si 5.6192029714 8.1916057649 2.7105638906 
Si 8.4160168070 5.3502387789 2.6853963149 
Si 8.4131171869 8.1596447846 0.0859021262 
Si 7.1527598754 6.9114561032 1.5425964614 
Si 5.6719174119 5.4621999500 5.3386374535 
Si 8.3813516867 8.1451466845 5.3716708052 
Si 7.0139202041 6.8107676123 6.7286553057 
Si 5.6685779618 8.2074070651 8.0639471298 
Si 8.3671956765 5.4707522000 8.1053842128 
Si 5.5996875512 5.4553418599 10.7783813894 
Si 7.0141645541 3.7960098647 27.4478074357 
Si 13.1256187500 11.0948095915 21.2166006760 
H 9.9635179511 1.9634174280 22.8392186872 
Si 14.6857120643 15.5541808423 21.4458277110 
Si 4.1801769382 6.6366275107 14.5762863232 
Si 11.2823237832 15.8271686648 23.5148321507 
Si 1.3428498723 9.4902934468 23.2900250711 
Si 9.7129451688 4.1835978383 12.2114356506 
Si 9.5431870773 4.9338337951 17.2911276839 
Si 12.4363236837 9.3073567451 27.5397832205 
Si 13.2226419909 12.6708182359 22.9582666996 
Si 3.9467249461 1.7005945656 15.0789399485 
Si 1.9555982279 1.4053725219 24.8280823545 
Si 5.5573009708 2.8471988060 13.6580696436 
H 8.1452932945 3.7858774846 23.2325656494 
H 2.7035535847 15.1172178783 14.8023728636 
Si 11.0271735109 9.9738132312 21.6647899810 
H 3.4892365819 10.2498472837 13.0204619818 
Si 8.6686747093 15.6312162530 18.6890840089 
Si 4.1170043177 6.7134511514 27.6832863815 
Si 5.5848962311 10.8761326295 29.0134894410 
Si 8.3800484866 10.8471527192 2.6693361739 
Si 6.9772351238 12.1641014912 1.3226338857 
Si 7.0224235842 9.5166506670 4.0401010489 
Si 5.6557577317 10.9100321198 5.3412254537 
Si 6.9896155239 12.2713059822 6.7138251918 
Si 6.9992429140 9.6089498079 9.4340751823 
Si 8.3720663866 10.9343530900 8.0611265003 
Si 15.3806108907 4.1552043680 12.2418228448 
Si 3.2213475295 12.6745649359 15.4995336101 
H 2.3693805217 6.0878011157 16.0303935305 
Si 0.1242304733 13.7936390762 13.5325661699 
Si 13.8422973066 5.1073711667 26.4742249974 
H 4.1620298781 13.3351081520 14.0702886527 
H 16.1304233075 13.0320326992 26.8864730852 
Si 13.2035012408 3.3004354802 21.7650822610 
Si 3.2979105302 12.4162869836 20.6025467245 
Si 11.1481593420 4.6267672923 18.9035390874 
Si 6.6406348507 9.4187966361 22.2113814535 
Si 14.1644320595 5.5299826406 21.9344654247 
Si 3.8064680448 12.1429570711 22.8993533452 
Si 6.7676316919 15.1957193890 14.7667805902 
Si 3.7221998740 10.3921404350 15.5361727151 
Si 7.3486634172 0.2646587454 22.6041468426 
Si 13.3667596222 1.9840079881 19.7289948585 
Si 5.5771421910 13.5935815843 2.5598404996 
Si 8.4392952172 13.4362690529 0.0322240928 
Si 6.9627207337 14.9241162165 3.9432400501 
Si 8.3355604962 13.6167785445 5.3407892739 
Si 5.6410967316 13.6406271048 8.0718565239 
Si 6.9983143840 15.0032204572 9.4364887106 
Si 8.3091055360 13.6875911752 10.8623605442 
Si 3.5191613122 1.1155131462 18.8145293253 
Si 3.2535854398 16.2581369087 26.1300500403 
Si 4.4855818610 2.6097557639 20.5493909437 
H 3.4759765218 7.8207476215 15.2065952426 
Si 5.7261142424 0.6740362232 18.2064655767 
Si 8.8596260910 12.7202746763 23.6792137857 
Si 2.6769357245 1.3586560594 21.2560894891 
Si 12.4406405338 4.2838302092 14.7391849469 
Si 5.5523651008 8.0903145440 13.3321560816 
Si 14.7309331047 12.2845008824 19.8499329834 
Si 0.8010314353 3.6481292434 13.8982593314 
Si 7.1210595351 14.7723422851 27.7592107489 
Si 9.6981864287 3.9789465664 1.2476923768 
Si 11.1354205618 16.1965932881 29.0024686309 
Si 11.0448318710 2.6889577446 2.6616797641 
Si 12.3890012333 1.2572100835 1.4007100736 
Si 9.7098500688 1.3419099393 4.0174487769 
Si 12.4096406635 4.0492704970 4.0223630695 
Si 9.7308804590 4.0765888273 6.7794847942 
Si 11.0785521713 0.0281277804 5.3877222226 
Si 12.4333589037 1.3807843956 6.7609907698 
Si 9.7106808588 1.4138156289 9.5511458461 
Si 11.0961290815 2.7272392449 8.1562427799 
Si 12.5106875344 4.0811988973 9.4758612091 
Si 16.0116203364 13.6427773848 21.2335244530 
Si 9.7826012095 1.4782165155 15.1701596883 
Si 12.5189954345 6.7679574919 12.0076815171 
Si 9.4976076569 9.2127770043 25.0375940617 
Si 9.8559713701 3.1114877685 20.0594737692 
Si 1.2489363924 15.5053922918 14.7549746564 
Si 2.1193615994 11.5475575656 18.7757674786 
Si 16.2307534184 7.8214318015 24.3092319186 
Si 0.5287571148 3.8490989752 19.7177123405 
Si 5.1157442268 16.1748787179 16.0801471087 
Si 14.0666757686 8.5867360085 23.9274873396 
Si 15.0977676181 15.0705307378 12.1435079132 
Si 11.1686032921 5.8756075737 15.9112001248 
Si 6.6464340908 12.5733551650 12.1553138470 
Si 0.7553282109 14.9314304266 16.9354375795 
Si 0.9694195379 3.0722125781 17.5671131957 
Si 5.2762170183 14.2035117699 13.2092406082 
Si 5.1940339675 3.0681726581 23.8345810378 
Si 11.1896988423 5.2211731078 29.0212243631 
Si 11.1080696516 8.0907380840 2.6633605104 
Si 12.4356232137 6.7108284614 1.2850322773 
Si 9.7397910891 6.7559680518 4.0320171829 
Si 11.0830482114 5.4117172395 5.3978997518 
Si 12.4382459038 6.7947219621 6.7156571471 
Si 9.7345782890 6.8528283927 9.4408505088 
Si 11.0902483914 8.1792579448 8.0470524315 
Si 11.0823477414 5.4350770997 10.7540134767 
Si 2.6523215343 5.2499575380 13.3857189636 
Si 2.7137674148 15.5322056321 22.1376089065 
Si 12.7081386262 6.7580531718 23.3427446721 
Si 10.9499914901 7.9042827423 26.3902167640 
Si 4.1269737977 14.2157781400 17.0143570484 
Si 9.6717966285 6.6743388610 27.8850050092 
Si 6.9230708733 6.5880833103 25.0951116407 
Si 15.1955076190 12.1521283411 27.6794189204 
Si 6.4170545987 14.6871781643 21.5549017448 
Si 16.0144710865 5.5265780305 23.4564422120 
H 9.0431166527 9.0108787424 11.8011649113 
Si 4.4299515105 9.3603806956 25.0645790532 
Si 5.7984092630 2.3453690615 26.0247271530 
Si 9.8107014597 9.5209512271 1.3411628045 
Si 11.1823846323 10.7552282484 28.9637067841 
Si 12.4644402240 12.1437389911 1.2869834550 
Si 12.4388975038 9.4882409068 4.0121564617 
Si 9.7057286988 12.2294243918 4.0211999234 
Si 9.7172620189 9.5356936772 6.7173727877 
Si 11.0790897413 10.8722881894 5.3552413653 
Si 12.4135665535 12.2534032721 6.7182742260 
Si 12.4883539442 9.5566100374 9.3344226326 
Si 9.6696300584 12.3895550933 9.3865025032 
Si 11.1840950823 11.0604376912 10.5485727812 
Si 1.8598944770 4.8277533142 22.7976943683 
Si 8.3230660661 8.1975353250 10.7657030959 
Si 11.0246648508 2.8073860457 13.6074437057 
Si 1.6161260278 9.2873200449 15.0570146428 
Si 12.4167593936 12.2708172822 12.1194017084 
Si 11.3774736741 8.2122614851 13.4202644054 
Si 4.8145747040 8.1607362146 21.4947961655 
Si 5.5975372712 10.8359940691 23.7157365760 
H 10.9264035699 9.2444773445 12.4548821478 
Si 9.7195100389 7.2337537562 14.7133631015 
Si 12.4547639639 1.4799448845 12.2652020831 
Si 11.1094217216 7.5829950694 21.8483926068 
H 8.7617394801 16.1116246474 17.2485274548 
Si 11.1748260722 13.3307424319 26.3732639083 
Si 15.1940578090 3.8816138155 24.9868518092 
Si 9.7725991494 14.8742688160 1.3093507562 
Si 11.1093239816 13.5165298836 2.6576029368 
Si 12.3873559433 14.8806056261 4.0783976372 
Si 9.6743867385 15.0055825072 6.7031824042 
Si 11.0695275112 13.6904582152 8.0353337336 
Si 12.4019517834 15.0258309774 9.4474513635 
Si 7.9838919730 8.0791721839 23.6557182327 
Si 7.0280110543 4.2759947191 14.8951628507 
Si 12.7590448767 10.3923522050 16.6835873511 
Si 1.5597512243 14.8268486256 26.9200007741 
Si 12.5747398150 14.6593874241 21.9230665921 
Si 15.2734389797 9.6332707781 11.9496696009 
H 12.1243701809 6.7895417421 16.6685827653 
Si 9.9454523410 13.7221911355 19.0016213897 
Si 4.5483472316 14.3737422715 22.9419244957 
Si 13.7160823854 0.6537649470 15.8476632643 
H 4.6224178623 12.8625026676 20.0196069336 
Si 13.9025377271 5.5651201709 13.4102613482 
Si 15.5165183619 12.7440906566 23.3378594581 
Si 13.7343923456 16.2228527684 2.7633794511 
Si 14.0434136484 2.4030682420 0.2522669255 
Si 15.1567048386 4.0376231469 1.4691932133 
Si 15.1408383785 1.3516904554 4.0182920579 
Si 13.7876932261 2.7135719348 5.3767886484 
Si 15.1546522986 4.0801563373 6.7127783603 
Si 13.8174061864 0.0594493781 8.1218427314 
Si 15.1870531089 1.4235212110 9.4905459297 
Si 9.4614601465 4.5144803213 23.3262570749 
Si 12.5456458747 1.0382806265 24.8911539566 
Si 7.0028755840 6.8071023623 12.0739226925 
Si 0.6059782315 7.5866928994 26.5165925973 
Si 4.2419486188 12.2323565919 27.5885190458 
H 14.1292782392 4.9080141449 18.6831519633 
Si 5.6481014317 7.9707459429 26.4560217596 
H 2.3001643110 11.5560772357 13.0658537618 
Si 11.4649998449 0.0964408734 16.3313576067 
Si 7.6183932397 3.4674079817 20.3038507834 
Si 9.9058187706 0.8362683346 19.9087881806 
Si 11.8344407582 0.3941153766 18.7584656790 
Si 1.8740830671 14.2316120202 20.4456092251 
Si 5.5926339811 10.9675684003 10.7730890742 
Si 6.3103713877 7.3046478368 17.6412056079 
Si 7.0358954143 0.6367972828 24.9449203891 
Si 13.7745634860 5.4347512997 2.7147802955 
Si 13.7980862462 8.0453378536 28.9796128083 
Si 15.1537074786 6.7934676321 4.0340526887 
Si 13.7999270162 8.1601986446 5.3753347157 
Si 13.7975812562 5.4408111798 8.0575207472 
Si 15.1611682987 6.8344044025 9.3455306787 
Si 13.8482268667 8.2113492451 10.7076039438 
Si 9.2563527547 8.8367223508 16.4823049033 
Si 13.2520291512 12.7157460563 16.3012321204 
Si 14.0909152889 2.2887450209 23.6788648419 
Si 9.5338040372 10.1500547428 19.8834897510 
Si 4.6319638024 7.3519214172 19.2558851464 
Si 0.0668261418 10.7153829080 19.4352132100 
Si 3.1670692490 6.0883223957 24.2164710101 
Si 8.3861735267 5.6320232015 13.5335548441 
Si 5.3509881189 5.3587421590 23.8640377150 
Si 3.9098443858 15.4366810712 11.7706323239 
Si 15.1540821486 6.6058394104 27.7282710603 
Si 10.3945187751 10.9040373997 23.7303631394 
Si 15.1292236084 9.4301181862 1.2685679430 
Si 13.8148486563 10.8125690489 2.6485798302 
Si 15.1540821486 12.2558956421 3.9377151057 
Si 15.1656317587 9.5628491075 6.6646822654 
Si 13.8366772565 10.9339784200 8.0267555305 
Si 15.1212740883 12.3435684229 9.4052291568 
Si 9.5127084870 11.3427271037 13.9531889102 
Si 5.5830554611 5.6640819218 16.1507210036 
Si 8.4120746269 5.3549628790 26.4459314664 
Si 6.8046425722 2.7712059553 18.1807018887 
Si 15.1887961389 0.5784318413 19.5929939905 
Si 7.8956653322 12.8912056479 21.5599032734 
Si 13.5636079840 10.1641618830 25.6424591582 
Si 13.8740139369 10.8691279294 13.3324759468 
Si 5.9372000643 9.8305752599 14.8602975437 
Si 3.3096230403 8.2451672854 23.3422212563 
Si 0.3948777486 2.4795172127 26.1842235740 
Si 9.6662906084 15.0195104574 12.2511280143 
Si 1.9984083483 5.4147797595 20.5524151238 
Si 0.3192888899 9.2626081147 21.2250044072 
Si 1.6037554017 7.3233487570 16.4251362681 
Si 9.7192656889 12.0532317502 27.6966044053 
Si 13.8352763165 13.5001910135 29.0441674217 
Si 15.0732511679 14.9967859072 1.2953435683 
Si 13.8023542262 13.5661329341 5.3647791641 
Si 15.1176902883 14.9901721671 6.6893700432 
Si 13.7526371458 13.6883242252 10.8032727178 
Si 15.4166280810 7.4541411682 18.5027189109 
Si 9.7663763693 1.1797446168 27.5899729785 
Si 13.1329655401 9.0924753532 14.7158929445 
Si 2.5105333730 15.2806554498 18.4151340029 
Si 7.4746502784 13.3060956617 15.9987268755 
Si 5.5682967209 5.9486356444 21.6131172115 
Si 2.6872147146 8.1052524741 18.3343825788 
Si 12.1922017415 11.8637790485 24.8549801101 
Si 11.5780687359 6.8519813127 19.6745886956 
Si 7.6908837403 5.7546869026 20.6913238574 
Si 14.9619741768 15.7136436537 17.5602506332 
Si 6.5032775695 15.0241205274 19.2473069433 
Si 6.0388659552 13.1619291604 17.8548755627 
Si 12.4874254142 14.7859118552 27.6727889871 

