&CONTROL
  dt          = 30.D0,
  prefix = 'aSiHcSi_merged-17',
  pseudo_dir = './',
  outdir = '/scratch/ztzhao/aSiHcSi_merged/aSiHcSi_merged-17',
  wf_collect=.true.,
  verbosity ="high",
/

&SYSTEM
  ibrav= 0, nat=  406, ntyp= 2,
  ecutwfc     = 42.D0,
  nbnd=1540,
  degauss     = 0.05D0,
  occupations = "smearing",
  smearing    = "methfessel-paxton",
/
&ELECTRONS
  electron_maxstep=200,
  conv_thr    = 1.D-8,
  mixing_beta = 0.3D0,
  scf_must_converge=.false.,
/
&IONS
/
ATOMIC_SPECIES
Si  28.08  Si.pbe-hgh.UPF
H  1.00784  H.pbe-hgh.UPF

K_POINTS {automatic}
1 1 1 0 0 0

CELL_PARAMETERS angstrom
16.29000014898320 0.00000000000000 0.00000000000000
0.00000000000000 16.29000014898320 0.00000000000000
0.00000000000000 0.00000000000000 29.41276510472980

ATOMIC_POSITIONS angstrom
Si 0.2797432856 14.4447666721 12.6979024744 
Si 2.4276987222 7.0408149944 19.7493776062 
Si 0.5232690138 16.0609464569 21.7286802211 
Si 12.3510944030 14.9191477664 18.9930577643 
Si 6.8635960828 14.7469787549 14.7497957937 
Si 5.2182571977 9.2077271042 18.0739970930 
Si 1.1539396276 6.3241853078 21.6631779932 
Si 3.6272128832 16.1432109576 16.6336539859 
Si 13.1424463202 13.6839259251 12.8748202565 
Si 9.4889087968 4.6403694424 25.6179007382 
Si 1.1558960566 10.4018655651 15.5875007566 
Si 1.3063016279 12.8253777573 18.7803740598 
Si 6.1795301065 15.3576419905 24.0608183663 
Si 10.4086259152 4.8382114942 21.8026827381 
Si 2.8454557760 1.9328410977 15.8206851584 
Si 6.9870254139 12.1341441810 11.8482559288 
Si 10.9635284803 8.6512606991 25.8154662814 
Si 11.3981619742 12.9358728283 26.2143033762 
Si 10.8726628594 8.1506689945 14.1606581086 
Si 15.1525020186 3.2537809198 12.5426324874 
Si 7.7023844804 9.2550332646 15.4379956716 
Si 3.1002476684 6.7505109017 27.3659307811 
Si 4.7878916838 8.4892566476 24.4627732142 
Si 5.0095334258 4.6184268122 21.6990027411 
Si 10.2344695236 12.2050219716 14.9705385958 
Si 9.5300573372 16.0652795969 25.4840432442 
Si 2.0309883486 9.3972449659 19.3322163587 
Si 7.7674304510 5.7288835424 24.2975617126 
Si 1.4933971667 1.0043029442 14.1713349423 
Si 2.7336412150 15.5937492526 24.4498021848 
Si 11.4198765444 12.1633358612 17.0358441359 
Si 2.7581739552 13.2430044911 24.2675901050 
Si 5.6613452018 11.6829600468 22.7993931092 
Si 4.4379010306 0.6093746966 23.5635955722 
Si 8.5734433684 7.7149440706 23.2647618787 
Si 6.7978822222 1.7960050964 26.3013651609 
Si 2.2827991709 11.0646242212 17.5393612617 
Si 8.4488574473 7.5768211593 16.9300170070 
Si 9.1606978738 8.7321568399 19.0066758745 
Si 8.3677821165 13.3201213518 15.8588335147 
Si 11.1784261622 10.7598546084 27.2114843515 
Si 3.8950856456 12.5940597552 16.7262159576 
Si 16.2168743383 8.1086245042 13.2256557187 
Si 4.7624304136 5.3460359589 16.7026857456 
Si 0.7618197760 4.0295270169 20.9688602602 
Si 13.2022794907 0.4143589598 14.1699231296 
Si 13.3776087623 0.4237794669 20.0536232484 
Si 5.9232069542 15.8985025754 16.6233006925 
Si 8.8512367410 14.3895435716 17.9126386637 
Si 2.7337878250 7.9065470523 25.3246848828 
Si 2.2465050505 0.0944469774 26.6346706151 
Si 12.1681251213 16.1327690675 22.9839582103 
Si 9.3724190057 13.7548200058 25.4928376609 
Si 15.3742415006 12.3341690928 19.3181276442 
Si 15.6913100635 5.6448923016 12.8188183518 
Si 3.6165592231 2.6864653746 24.5213340295 
Si 11.0899877514 6.1756205065 26.6506711593 
Si 0.5650023652 4.8518462244 24.7639599289 
Si 1.1893492009 5.5254377305 26.8777082931 
Si 4.8177023841 3.1927748692 15.6674446522 
Si 6.0646041555 7.4489446581 19.3487169199 
Si 16.1616023678 10.6088951770 24.5257753570 
Si 0.6728193602 3.8974639856 28.4151723507 
Si 2.1610151298 6.2209555769 23.7580727751 
Si 13.8733786269 10.5268750263 25.0307042956 
Si 4.1833860683 8.6231441589 22.1966667267 
Si 14.7728472751 14.8834726661 14.1473635388 
Si 1.1478325065 14.9388423766 28.0636898077 
Si 8.3766601666 5.5890501811 20.9060345939 
Si 12.5287694346 8.8821388712 23.9446673569 
Si 4.3512708098 2.8796973563 20.2698658975 
Si 11.3245148836 13.5079613435 20.5685525271 
Si 3.9164907058 4.5366510115 12.2177979096 
Si 0.2627609604 1.1323667804 25.9337938354 
Si 5.5079748504 3.3019504502 13.4429866401 
Si 0.0590193221 10.0281892517 22.2796107243 
Si 7.7699391111 12.8600102976 26.9029150328 
Si 5.6098525113 6.2564840672 25.0244687894 
Si 13.7745634860 7.0396258244 15.7832427084 
Si 15.5772474825 7.7957913413 21.8414193498 
Si 7.2134238360 4.3100896894 22.4693524720 
Si 10.1056482024 1.1895251329 27.2418089123 
Si 1.7155650757 10.1310606027 28.1118679169 
Si 1.0007859332 9.2602297747 26.0502683852 
Si 14.1565965695 2.5168864730 14.5934963599 
Si 8.0120736733 0.0580381754 13.4315450744 
Si 11.0270431908 4.8299687542 16.3824689719 
Si 9.0436542227 0.7889963832 20.9619188476 
Si 2.2945768410 15.1964687290 13.6132277245 
Si 2.5808898836 14.2756276006 15.7351234247 
Si 9.4868725468 10.0462385719 14.1256569181 
Si 4.7570710035 2.9782681472 26.5468440985 
Si 6.0474344953 8.2674845856 14.0591840690 
Si 6.6606715509 14.9273253465 18.6220745580 
Si 1.2378966593 12.3299174028 12.1065294192 
Si 7.8290718116 8.0105261233 20.9041815897 
Si 6.5213431796 16.0301420666 27.4982882241 
Si 12.8194644872 5.7659595827 17.5022717649 
Si 14.9971931572 15.6202205029 25.7017565315 
Si 15.5546532523 2.5596151434 16.5830640299 
Si 9.6690273284 6.4315201188 15.2749018891 
Si 0.9470159007 5.8145526532 16.5292680825 
Si 12.0209123899 14.6021280735 27.9313323647 
Si 3.6085934130 1.5323823950 27.9669806360 
Si 9.4103095461 4.1704029381 12.1088824404 
Si 7.7221605406 0.7889898672 24.3900060333 
Si 6.8333292625 6.9600980437 12.2705644102 
Si 15.2272731193 4.8362078242 19.7649369589 
Si 12.3669445731 5.9997699549 21.4651712585 
Si 13.5263690437 3.2297368795 27.3900786612 
Si 0.7898467212 14.6261232438 17.2021439098 
Si 3.2569411798 8.4614821974 16.9912249712 
Si 6.3619618182 1.8821954872 16.8197779634 
Si 4.4555756807 6.7392708016 20.8253847920 
Si 8.6838895694 10.3584364247 11.9851723504 
Si 13.7801509560 10.5461623865 14.1551285088 
Si 3.4108002312 12.2067161316 22.2018433734 
Si 6.8901324930 13.6719853550 22.5727383413 
Si 13.7461211457 7.0015072240 23.1060211854 
Si 5.9443350844 14.1825954097 26.1335359232 
Si 15.5645901523 2.1100274293 27.8104164874 
Si 6.3449061880 2.5429341833 19.0556775412 
Si 10.5955047969 15.9906388162 17.7403975112 
Si 13.8537491767 0.2607295974 16.7507756165 
Si 5.5035928403 10.7340349582 24.9516427830 
Si 1.4215550080 2.0528169488 17.7014550102 
Si 14.0696242587 3.7895590247 18.0206717499 
Si 13.3677533123 16.2858461989 27.1348640984 
Si 15.0905185680 13.6016614244 16.0910472952 
Si 4.0764096373 4.8799627646 23.7772498979 
Si 10.3157240443 3.4307391914 23.7074828191 
Si 7.4834794584 11.2895239633 16.5876818340 
Si 10.2335898636 15.1227890583 21.9429816277 
Si 5.0301402760 13.1259282600 18.7987570380 
Si 2.3595576516 10.1161226725 21.6232648710 
Si 2.1988405101 8.4932151177 12.7732579786 
Si 8.6039708287 2.9622876571 27.2050135432 
Si 1.2251790562 2.6071167838 24.3883295057 
Si 9.0559043028 9.5487419673 24.6953693606 
Si 12.5753425450 9.0060243224 15.5041155675 
Si 16.1472671677 0.1951167348 15.7682716109 
Si 15.5721487124 16.2216961784 19.7475834275 
Si 6.0456588853 9.8387691300 21.4261993448 
Si 16.0008363563 13.7272247455 26.6535536103 
Si 4.0726955172 14.7539182949 12.1378834268 
Si 2.4095679520 10.8050593588 13.6253163709 
Si 9.5598028774 10.9811868404 22.8350707933 
Si 4.2445224388 12.4979650443 25.9522944646 
Si 0.9626298658 8.1767004148 16.4528831315 
Si 12.6798754760 12.0751580904 22.0055131663 
Si 7.4839192884 10.5765595267 26.1685665264 
Si 14.9395917166 7.2209172360 19.6650806214 
Si 12.8108307872 14.0915343089 16.7513050463 
Si 6.7822438220 0.4476622361 20.1621269389 
Si 12.2309067819 2.0209211285 23.9608149649 
Si 12.1937004215 1.2874426948 12.1093530447 
Si 14.7913038453 9.6588949483 12.2259452456 
Si 13.4698590332 5.8940641439 13.7306434828 
Si 5.9939381348 10.9996597006 19.3990421610 
Si 0.4981482046 12.8727327877 24.5993660953 
Si 14.5413012130 6.7665728419 27.9833929589 
Si 16.1696170479 8.7994997005 18.4337740358 
Si 12.0076686198 7.1249202652 12.3262133618 
Si 3.1183621485 13.4800077033 20.2236584435 
Si 11.5741754259 10.0183012216 21.9674824610 
Si 6.6024185104 1.5509350762 12.2415928366 
Si 10.4371334155 1.6984442855 19.0893257444 
Si 9.6507010783 1.2108748071 14.6204972783 
Si 14.1937377698 3.1091257184 23.1623466306 
Si 14.7365694448 14.4067621018 18.4212736106 
Si 8.1915080249 5.5175207905 13.5589611729 
Si 13.8776954769 14.7238143747 23.8624292656 
Si 5.5754154510 13.3376982620 13.3430420642 
Si 0.7037133454 1.8076850265 12.1134414190 
Si 4.4028775303 11.7290607473 14.6113499083 
Si 3.4561190116 11.8352226782 28.0647486672 
Si 8.4790753975 2.2821638609 22.7473325150 
Si 15.0429843476 12.0088740798 21.5677629832 
Si 2.6797376045 15.7422326040 20.6425550441 
Si 6.8009447422 6.0132743650 17.6952195040 
Si 1.1699755037 5.1721564973 14.3080160618 
Si 8.2936137459 10.9130946398 18.7655500262 
Si 15.3127793300 11.3012690534 15.7543593730 
Si 4.9672608754 5.3136514386 27.1013335462 
Si 10.8210887190 2.7418025051 13.2801575724 
Si 15.7919171044 14.0025094581 22.7126254522 
Si 9.6639611384 3.4868419519 17.7881932545 
Si 9.1327605235 13.3455826221 23.2027597699 
Si 8.4626062074 2.5237119831 16.0943121121 
Si 16.0348661666 7.3097140269 26.3365428280 
Si 11.4378607046 9.1285414135 19.5479884035 
Si 14.7865960352 12.2486140120 28.0709253479 
Si 12.8882245779 12.6258415455 24.3621815575 
Si 12.6068962753 7.1025703850 19.4376022961 
Si 12.4412595538 10.1359638927 17.6066576683 
Si 13.4779714533 3.9963605765 21.1235714046 
Si 13.3521474921 5.3844151992 26.4606941095 
Si 4.5817580219 0.7330386037 21.2411048140 
Si 2.3172525212 3.5225496322 19.2782733475 
Si 9.4315191263 15.0263848374 12.1168532998 
Si 7.8640953119 4.3770253000 18.9586742419 
Si 2.7307090150 5.4618415700 18.0125244140 
Si 12.1526007511 1.7439422559 26.2901000719 
Si 11.2672229530 15.8777165352 15.3788171882 
Si 14.5324068729 5.1645001972 24.4015064245 
Si 4.3557994298 7.1594224855 15.2841963228 
Si 12.6521824757 2.5215128331 19.4716034525 
Si 9.9534833110 12.5846767151 18.8705241848 
Si 10.9608080502 14.0977245089 13.7273786659 
Si 0.0602933631 2.1719294299 22.4149682693 
Si 14.7237492147 10.5826845668 17.9123739488 
Si 12.3142790026 3.9708830163 14.5921433727 
Si 6.6352917307 9.3978965660 28.0202765664 
Si 13.4636688331 10.4051072752 27.3803724488 
Si 3.0059285675 6.3790337383 13.5559316581 
Si 2.1291030195 16.2351354285 18.4275973551 
H 5.3302998187 10.5709557667 14.8210335107 
H 10.8203719590 16.0809994471 24.6337790305 
H 7.9188297124 15.6246025129 27.9475093855 
H 5.4406645698 9.4132091661 13.3376595282 
H 8.4768925375 10.6417032373 21.8219186865 
H 15.9438050658 5.3240933287 17.1544069920 
H 11.3527291638 11.9179270090 11.7624883058 
H 10.0530803719 7.4021109077 23.0665492547 
H 6.0120200350 11.5360731155 16.7923946791 
H 7.7489250109 5.9948015048 27.9107434291 
H 1.5974821226 3.7367142642 14.0573310648 
H 15.1887146889 7.4885293585 16.0759879595 
H 5.6964827321 8.2464379054 27.6498816154 
H 4.6550467326 5.0379106061 0.4230938022 
H 0.1847090537 3.6165755131 15.8880109777 
H 5.9488962844 9.2326670944 16.7074800263 
H 8.1741591748 3.7802411446 15.2857257866 
H 6.8777846729 14.1481257694 21.1196006813 
H 4.4422015906 10.3651153248 11.6194834419 
H 6.8048054722 4.3015863093 13.6234633667 
H 15.9665296160 8.2683479556 14.7388542450 
H 13.3194045918 12.0868054405 13.2180966381 
H 9.7990866896 5.3374348388 0.2850441068 
H 13.1350832401 0.3409855411 21.6465303682 
H 1.5054859758 16.0814066971 23.6673932202 
H 15.9141735555 1.2701932136 19.0657072941 
H 10.5641139666 3.7048347339 20.7909130313 
H 9.1873646040 7.6194846697 28.6810049217 
Si 16.1240702075 0.2375652172 29.2835254149 
Si 16.0339050566 2.8576081161 2.6566933017 
Si 2.5992324238 16.3830160498 2.6425369379 
Si 2.4306797922 2.8513853361 0.0574119527 
Si 1.1582955736 1.4385454782 1.3877442593 
Si 1.1357355524 4.2302523987 3.9894298077 
Si 3.9062931657 1.5117478518 3.9968712373 
Si 3.8268957050 4.1822620582 1.3634816694 
Si 16.1350659576 0.1946606148 5.3718885932 
Si 2.5248685731 2.8725949163 5.3394169005 
Si 16.1366786676 2.8881681564 8.1528361211 
Si 2.5750906436 0.2129151889 8.1177172795 
Si 1.1938012579 1.5506728072 6.7559650807 
Si 1.2052449830 4.3132825294 9.4759399466 
Si 3.8372887251 1.5820815565 9.5879731688 
Si 3.9042894957 4.1965646784 6.7133459841 
Si 15.9950859863 16.0762916370 10.8903409949 
Si 2.4725288026 3.0091865675 10.9618434269 
Si 15.8719498752 5.5914285211 29.5327691864 
Si 16.1286639875 8.3167944161 2.6571697885 
Si 2.4784257827 5.6022939512 2.6337601688 
Si 2.5595499834 8.2071301351 29.2173466934 
Si 1.1310391453 6.9615315637 1.2456864864 
Si 3.8997120057 6.9039464131 3.9796647697 
Si 16.1212031674 5.5909886911 5.3961541244 
Si 2.5459967033 8.2922616758 5.3195632841 
Si 16.0488429868 8.3876233367 7.9817126537 
Si 2.5849135136 5.5760507610 8.0558328218 
Si 1.1953895329 6.9685199737 6.7316407240 
Si 3.9072054057 6.9730648838 9.4261735480 
Si 0.2669035074 6.1499148862 10.6424207978 
Si 2.0188522985 7.8883837021 10.5393290562 
Si 1.2023518790 9.6783614985 3.9851943696 
Si 3.9450470761 9.5085708270 1.2335801923 
Si 16.2899349890 11.0788779713 29.4087061431 
Si 2.6125413539 10.9598632302 2.6031885407 
Si 1.2335504873 12.4399400638 1.3979887254 
Si 3.9693517563 12.3852708233 3.9095741505 
Si 16.1144591074 11.0768905913 5.2902093445 
Si 1.1108395452 9.6958569587 9.3620831328 
Si 3.9014550357 9.6641566184 6.6429612372 
Si 2.5404743932 10.9872955905 8.0030957339 
Si 1.2183779811 12.3840164933 6.6526674497 
Si 3.9779528764 12.3443992129 9.2494616552 
Si 16.0889489671 11.0314414909 10.8117500866 
Si 16.1092137273 13.8390067266 2.6339425279 
Si 2.5878945837 13.6297453847 29.3466452088 
Si 1.2083612601 15.1105878482 4.0306959172 
Si 3.9624285062 15.0560000577 1.2009732009 
Si 2.6068561438 13.7333172056 5.3206221436 
Si 16.1814761680 13.7393119257 8.0345968054 
Si 1.2697647866 15.0506732276 9.4322031648 
Si 3.9208564259 15.1363912084 6.7049045205 
Si 2.6565732243 13.5748969542 10.6785396734 
Si 5.1288250969 0.3001660587 29.2662895345 
Si 5.2731544982 2.8848612864 2.6741997795 
Si 7.9573718528 0.1796265736 2.4424595445 
Si 7.6489207000 3.3596170507 29.3239385541 
Si 6.5543304299 1.6364445450 1.1523215462 
Si 6.6175519205 4.2356443887 4.0569321037 
Si 5.2954392184 0.1737491416 5.3317695816 
Si 7.9953438431 2.8838187264 5.4017425498 
Si 5.2354920179 2.8784104463 8.1545420615 
Si 7.9964026931 0.1968630228 8.0858632549 
Si 6.6075498604 1.5387192051 6.7497884001 
Si 6.6333206407 4.2682406790 9.4677337851 
Si 5.2011852776 0.1717878256 10.9166360069 
Si 7.9695893529 2.8542360861 10.8031027336 
Si 6.6126323405 5.4432709698 28.7721844935 
Si 5.3051643485 8.1919967249 2.5902175113 
Si 7.9825561930 5.6472543516 2.7765473782 
Si 8.1766841248 8.4180041870 29.4721788902 
Si 6.7984849522 6.9384323435 1.2199473757 
Si 5.2508534880 5.5792273110 5.3875067715 
Si 8.0016969432 8.3167618361 5.3718297677 
Si 5.2284873178 8.3003903859 8.0029780829 
Si 8.0177263033 5.6356070015 8.1396003768 
Si 6.6431598008 6.9321932734 6.7226110051 
Si 5.3504668389 5.7164542723 10.8234857798 
Si 7.9906197431 8.4028870669 10.8250152436 
Si 6.6015551404 9.6056429379 3.9958123778 
Si 5.2675018682 10.8669450694 29.2730838832 
Si 7.9203609724 11.0349112609 2.7027978110 
Si 6.6799752011 12.2755088023 1.1455183736 
Si 5.2769011983 11.0348461009 5.3167984842 
Si 6.6169654805 9.5987196878 9.3363175506 
Si 7.9844947030 11.0384787710 8.0278318694 
Si 6.6539926509 12.4122796435 6.6505203178 
Si 5.3279051887 11.0435449610 10.6127727306 
Si 5.3642807591 13.7117981154 2.5168503100 
Si 8.4886702076 13.0647430195 29.2048756810 
Si 6.6458639408 15.1315042084 3.8973090274 
Si 8.0010453432 13.7994383162 5.3071805100 
Si 5.3308373888 13.7988030062 8.0225963972 
Si 6.6026954404 15.1819869188 9.4713809680 
Si 8.0773639939 13.7881982161 10.6533917592 
Si 9.2671693148 1.5114774378 3.9430752899 
Si 9.1815653640 4.2173344286 1.4330016810 
Si 10.7212473081 16.2504317386 29.1413735211 
Si 10.6543279874 2.8579990761 2.6191714373 
Si 11.9184971590 1.5300382640 1.1342121067 
Si 12.0143149399 4.2992405493 3.9611641405 
Si 10.6701129976 0.2289803871 5.3228575138 
Si 9.3742760657 1.5380252511 9.4436447305 
Si 9.3683790857 4.2561697889 6.7795541183 
Si 10.7709969685 2.9430002969 8.1663071675 
Si 12.0294483500 1.6096035117 6.6764035511 
Si 12.1777850914 4.2396517288 9.6062384960 
Si 10.7347191382 0.1031168412 10.7337768463 
Si 9.4032396860 7.0033154141 4.0222838664 
Si 11.3167608435 5.5342669106 28.9976627508 
Si 10.7334973882 8.3329866762 2.5674196771 
Si 12.1577158112 7.1763640856 1.0789778751 
Si 10.7094207679 5.6196428014 5.4060074007 
Si 9.3999165260 7.0079417741 9.5151177497 
Si 10.7162788580 8.3626018965 8.1120994414 
Si 12.0780577105 6.9579477636 6.7919663052 
Si 10.7769102386 5.6587550918 10.9078415901 
Si 9.3962024059 9.8360649900 1.3788910170 
Si 12.0799473505 9.6441199182 3.9728998338 
Si 9.3425268554 12.4253930936 3.9687526339 
Si 10.3097781943 11.4291455545 -0.0676323003 
Si 12.0125393299 12.3700885431 1.3037031656 
Si 10.7119457180 11.0319953509 5.3009744165 
Si 9.3670270157 9.6904486786 6.6987572526 
Si 12.0176218099 9.7525461592 9.5062056818 
Si 9.3888556159 12.4720150741 9.2604326166 
Si 12.0902589206 12.3945887034 6.6357845225 
Si 10.5432790564 11.1173549517 10.7498950415 
Si 9.2638950247 14.9949614271 1.0563624000 
Si 10.6648350375 13.8156631564 2.5874438875 
Si 12.0264672800 15.1663322287 3.9522520727 
Si 9.3458988855 15.1495046586 6.6901393124 
Si 10.7809338686 13.7885403061 7.9566823906 
Si 12.1346165910 15.1294027984 9.3501709630 
Si 13.3518705621 0.2591299194 2.5672932022 
Si 12.7089205462 3.5377482024 0.1079319063 
Si 14.7149851946 1.5208425589 4.0259016365 
Si 14.5332376629 4.2637283490 1.4532582523 
Si 13.4018971526 2.9611636471 5.3375933091 
Si 13.4166884727 0.2143030970 7.9615060841 
Si 14.8270278156 1.3870153207 9.4153790632 
Si 14.7710227951 4.2431377888 6.7732009611 
Si 13.5627283240 2.7216680649 10.8612811830 
Si 13.3339026919 5.8023514431 2.6878090659 
Si 13.5435387039 8.5802037185 29.0567529959 
Si 14.7789071552 7.0065571241 4.0748738904 
Si 13.3985251225 8.3475825163 5.4134782431 
Si 13.4493987930 5.5995083612 8.1651894824 
Si 14.7505462649 7.0810838748 9.4467330708 
Si 13.3645116022 8.3968760568 10.8773993783 
Si 14.8721674060 9.6745659285 1.2271535031 
Si 13.4223899728 10.9796718704 2.5801465805 
Si 14.7521426849 12.4118886835 3.9077799718 
Si 14.7215989346 9.7923100496 6.6903157890 
Si 13.3904778625 11.1249460917 8.1300118154 
Si 14.8043358454 12.4829945342 9.4685573425 
Si 13.4831028033 13.6258683646 29.4271773596 
Si 14.7398274448 15.1910115789 1.2394774517 
Si 13.4141309427 13.7721851460 5.2735617195 
Si 14.7832891652 15.0843609480 6.6769035681 
Si 13.8953212571 14.2891808807 10.7008639621 

