&CONTROL
  dt          = 30.D0,
  prefix = 'aSiHcSi_merged-28',
  pseudo_dir = './',
  outdir = '/scratch/ztzhao/aSiHcSi_merged/aSiHcSi_merged-28',
  wf_collect=.true.,
  verbosity ="high",
/

&SYSTEM
  ibrav= 0, nat=  406, ntyp= 2,
  ecutwfc     = 42.D0,
  nbnd=1540,
  degauss     = 0.05D0,
  occupations = "smearing",
  smearing    = "methfessel-paxton",
/
&ELECTRONS
  electron_maxstep=200,
  conv_thr    = 1.D-8,
  mixing_beta = 0.3D0,
  scf_must_converge=.false.,
/
&IONS
/
ATOMIC_SPECIES
Si  28.08  Si.pbe-hgh.UPF
H  1.00784  H.pbe-hgh.UPF

K_POINTS {automatic}
1 1 1 0 0 0

CELL_PARAMETERS angstrom
16.29000014898320 0.00000000000000 0.00000000000000
0.00000000000000 16.29000014898320 0.00000000000000
0.00000000000000 0.00000000000000 29.16277083596932

ATOMIC_POSITIONS angstrom
Si 15.6194060029 0.4119741038 0.1956381565 
Si 0.0185655503 2.7114868148 2.7882962638 
Si 2.5991183938 16.2211911884 2.6462239931 
Si 2.4694988626 2.5645835935 28.9560359535 
Si 1.2049224410 1.3046856599 1.3185130276 
Si 3.8860772755 3.8819721955 1.2437338506 
Si 1.3477238403 4.0502641870 4.1388095998 
Si 4.0025507766 1.2893583988 3.9935206755 
Si 16.2650112888 16.2507249586 5.4669113465 
Si 2.7029997247 2.6443068542 5.4302829063 
Si 1.3364283542 1.3145720610 6.8119275002 
Si 4.0513230371 4.0189873868 6.7711287838 
Si 16.2456750586 2.6807801645 8.1380753412 
Si 2.6834354345 16.2402179085 8.1702127146 
Si 1.3169894970 4.0294944369 9.5030096674 
Si 4.0400666469 1.3152985950 9.5232777931 
Si 16.2474832486 16.2650927388 10.8892036535 
Si 2.6759094545 2.6783366645 10.8708894334 
Si 13.7897620561 15.2232169092 26.0308933876 
Si 8.2152751351 0.3153043559 19.2734419433 
Si 11.1189187917 10.3481900146 16.5464895680 
Si 12.3304061028 12.1707315213 19.4723028777 
H 0.4763798774 15.7613081941 26.5757705979 
Si 7.6176927697 12.2525236121 24.9125302888 
Si 14.7562640550 1.5056309568 20.3143487228 
Si 13.5858764143 5.5601191409 18.9667370824 
Si 16.1784950980 0.0758299507 16.3200114897 
Si 14.8763539361 4.0470224770 12.1841181670 
Si 14.8152501455 14.0840734888 24.1877187824 
Si 9.1796431440 1.8290737967 27.1765820026 
Si 14.2864930307 8.9210719716 24.9285114872 
Si 10.6972195578 16.1465015377 16.5014622498 
Si 1.9439834578 2.5634758734 24.1328927733 
H 3.9642692763 10.0440394219 26.0393797539 
H 1.6139105878 11.1927287824 27.0657634735 
Si 16.2586744787 5.5280115506 0.0718366534 
Si 16.2326919285 8.1316585644 2.6825899683 
Si 2.6762515445 5.3340465188 2.6876497091 
Si 2.7687135853 8.0801332939 29.1139231948 
Si 1.3859874217 6.8008470022 1.3821345284 
Si 4.0270672268 6.7138095314 4.0316364170 
Si 16.2056831082 5.4013079294 5.4112396169 
Si 2.6640666244 8.0527823836 5.4238379339 
Si 1.2920902318 6.7246260915 6.7840478913 
Si 16.2315190484 8.1033302541 8.1231148397 
Si 2.6673083344 5.3688256691 8.1232898164 
Si 4.0204860668 6.7415188217 9.4703765268 
Si 16.2520770286 5.4060157394 10.8470342869 
Si 2.6577949743 8.1218519843 10.8056231523 
Si 9.4420750464 9.4620954565 12.1125818901 
Si 1.3246539421 9.4932908068 15.0082992203 
Si 15.2281690693 4.3539912398 22.4425894128 
Si 10.7877593787 2.6375302141 13.6156019362 
H 11.3913527542 7.0872740748 20.7495155892 
H 1.9211611676 14.7457570049 27.2291333157 
Si 16.0738155570 16.0008200663 23.6849526132 
Si 5.3825092692 2.7401897951 13.6553799556 
Si 0.1493281508 0.4655193343 21.5408473758 
Si 6.5855746502 3.4419630015 19.5594995625 
Si 2.7157710848 0.0574013993 13.7025944816 
Si 6.6972100213 4.1353305678 15.0280715789 
Si 12.2671520322 6.8640847828 17.5032325908 
Si 9.4057320560 11.8818120787 16.6347944381 
Si 3.9302231759 9.4791999567 1.4269868700 
Si 15.6694000133 11.3185364535 0.0541850115 
Si 2.5175054930 10.7506181783 2.7929418932 
Si 1.2169004781 12.0965794406 1.3727907767 
Si 1.2304651613 9.4086805460 4.1667475343 
Si 3.9751347064 12.1551094112 4.0515837522 
Si 4.0015896666 9.4452841764 6.7706621794 
Si 16.2034676682 10.8255358890 5.4751060851 
Si 1.2961285229 12.1834051414 6.7984834628 
Si 1.2882425338 9.4736287766 9.4743718264 
Si 2.6539668243 10.8207792090 8.1267018605 
Si 3.9954157565 12.2172557617 9.4587697440 
Si 16.2652393488 10.8470061092 10.8580578143 
Si 11.3986343842 9.5637124775 22.1550444924 
Si 8.9684758720 12.5759289850 14.4928180830 
Si 9.4651091066 6.7750599320 14.8505577928 
Si 14.8312469256 1.3593728194 14.9089999856 
Si 10.9427750201 5.8077760131 21.4252461522 
Si 12.1870866815 12.1784366914 12.1859554215 
Si 14.8657002760 14.9260873065 12.2467306359 
Si 16.0395902667 3.3510485106 24.3672447997 
Si 4.0469573170 12.2564332121 15.0097281960 
Si 7.5387025589 7.2715628465 22.5840580142 
Si 9.3516818355 14.9304693165 18.1099640381 
Si 4.7600357835 11.4809314650 22.3936251206 
Si 0.0180996563 13.5608061040 2.7581915354 
Si 3.1025608484 13.0063596590 0.2969003373 
Si 4.0343162769 14.8538900258 1.3903263508 
Si 1.3415417853 14.9012450563 4.1218660300 
Si 2.6815783745 13.5226060537 5.4552462381 
Si 4.0417119370 14.9054641663 6.7782153371 
Si 16.2595215587 13.5437993439 8.1766576870 
Si 1.3258463701 14.8951688862 9.5484744271 
Si 2.7201856749 13.5722091041 10.9123880563 
Si 5.7390322125 8.5826797985 19.1410429637 
Si 16.1463386377 8.6052577387 26.3761514315 
Si 10.7100560780 7.9776366130 26.5751581797 
H 6.2231873069 16.0507652068 15.6718105823 
Si 5.4334480997 13.4948153134 13.5817439593 
Si 5.4058039694 7.5716898092 26.1687166426 
Si 9.8757311403 15.1905554589 25.2742361355 
Si 3.6496930834 3.8969915756 25.0540572157 
Si 1.3394094242 1.3178300611 12.2467597987 
Si 12.6703295359 14.2098648700 27.8441761526 
Si 8.1501965845 16.1815576180 13.6137646816 
Si 13.5502501839 5.3893836493 13.5828521446 
Si 10.9508059902 8.6579395992 18.1605322827 
Si 12.2098112317 4.2105089185 20.2927974351 
Si 2.4704111026 5.4472131498 26.4044393192 
Si 5.3525682490 16.1444652877 29.0956089747 
Si 5.3582697490 2.6095439939 2.5935764429 
Si 8.1618928046 16.2458542486 2.6206074152 
Si 8.0069097432 2.6858137746 29.0104536839 
Si 6.7465687217 1.2461687214 1.2364256602 
Si 6.7239419115 4.0051897566 3.9392195962 
Si 5.3781761292 16.2657932088 5.3897466548 
Si 8.0679809538 2.6709572944 5.3529724008 
Si 6.7292850315 1.3277930251 6.7502190771 
Si 5.3909474893 2.6609389443 8.1429163611 
Si 8.0710760538 16.2544553687 8.1255061869 
Si 6.7510647617 3.9936890165 9.5103586856 
Si 5.3941566193 16.2703381188 10.9123005680 
Si 8.0792373439 2.6350867141 10.9103174996 
Si 9.6018147878 1.7862799663 20.4808973070 
Si 11.9058398289 0.1397076025 25.2967497946 
Si 5.9940521648 12.9973838689 26.4688598800 
Si 13.5232902337 6.8135532023 24.3175222754 
H 8.8610596110 9.3063141851 16.5651245786 
Si 4.0586372471 14.9500010267 12.3211248643 
Si 5.0958704266 1.0672426178 21.5428887698 
Si 1.4139654969 11.5453258356 23.4273578584 
Si 1.9327107777 9.4253452162 22.4670861403 
Si 0.9330569995 7.3271606170 19.6521496854 
Si 12.0966608906 4.5329694715 27.0545358067 
Si 14.9001210463 9.4856182168 12.1921379289 
Si 15.5310001720 0.1649378805 27.0274144298 
Si 3.8714977254 1.0584199537 27.6955043469 
Si 5.2844597583 5.2713137282 29.1478978228 
Si 5.3650463891 8.0910313040 2.6747393504 
Si 8.1091294942 5.3507111889 2.5649327694 
Si 7.9236189725 8.1039166941 28.9811450992 
Si 6.6608507409 6.7115126414 1.2577261481 
Si 5.3986363694 5.3485283289 5.3642583931 
Si 8.0909172740 8.0563987637 5.3986121372 
Si 6.7355892616 6.6971611513 6.7507731697 
Si 5.3736800891 8.0697565638 8.0877403987 
Si 8.0904122840 5.3484142989 8.1236397696 
Si 5.3767588992 5.3724583391 10.8199420728 
Si 8.0892556940 8.0859162440 10.7841885157 
Si 11.3260950136 3.8719864254 24.8600373013 
H 14.1117339091 11.3028166034 26.8423474861 
Si 14.8921063662 7.0806766248 20.2073796793 
Si 1.3534676944 12.3139369126 17.7635103205 
Si 3.9956601065 15.1167128883 17.8053588967 
H 11.7872649178 6.9989822740 26.0970637146 
Si 13.4531780730 16.2679923588 19.1542536989 
Si 9.4914500368 4.1945121384 17.6009278731 
Si 8.6223785289 5.5057594104 21.3267634751 
Si 14.5944554835 10.5743440867 23.3165393293 
Si 6.4802272193 1.0959618880 25.0391550398 
Si 16.2136163383 2.6765447645 13.5325172021 
Si 2.7383653150 8.1210537743 16.2886906738 
Si 15.8607260651 11.9717491695 24.7736571741 
H 5.9894746748 3.7305566441 23.0552700653 
H 2.7932300355 13.3137519618 28.0183945456 
Si 4.8008748139 11.3595546739 0.3742166754 
Si 8.0281681934 10.7653117585 2.7100525496 
Si 6.6937728312 12.2464474420 1.4673014844 
Si 6.6983829013 9.4198880662 4.0833128469 
Si 5.3447327589 10.8070630288 5.4133393364 
Si 6.7187454014 12.1689070413 6.7617383716 
Si 6.7178168714 9.4338160163 9.4380641767 
Si 8.0828537239 10.8102395789 8.1134911254 
Si 5.3229530287 10.7984619088 10.7437397526 
Si 13.5864302743 10.8800748095 13.5507439339 
Si 1.7237915258 6.4390786789 17.5809513751 
H 8.4922540077 8.1807729148 20.2382630537 
Si 3.9595451762 9.5208371971 12.1655414819 
Si 10.8179773289 13.5742127741 13.4797034241 
Si 9.1050186533 9.1569511737 22.7877308057 
Si 8.0271745034 16.2157991983 26.4301608831 
Si 1.1556305296 1.5963841766 17.6090059606 
Si 13.6399755047 13.5751250142 16.2041478012 
Si 5.4897137602 7.7453249208 21.3736863734 
Si 9.4307372063 4.0045381566 12.2527381667 
Si 11.4685510649 5.8962632939 23.6752414105 
Si 2.7886036755 10.9215491499 19.0125517954 
Si 4.3459276897 4.0904027474 19.7305975390 
Si 5.3905891093 13.6054244144 2.8359861429 
Si 8.1245724143 13.5455423739 0.1327912189 
Si 6.8168600723 14.9406831466 4.0862582868 
Si 8.1096019042 13.5122944836 5.4226714231 
Si 5.3941729093 13.5511135539 8.1299389281 
Si 6.7254243015 14.9157594464 9.5083172917 
Si 8.0981989041 13.5533615740 10.8328903430 
Si 10.6639065075 13.8567954067 19.9084029527 
Si 15.3127141700 3.6892777837 26.5158994294 
H 9.5148750570 8.2024060350 18.0623412333 
Si 7.2124790160 14.1902028398 17.1690855626 
Si 12.8838099878 11.6652691067 17.3026802158 
Si 3.5223704422 4.7599543335 17.6157717235 
Si 12.1874287715 9.4069700960 14.7275783882 
Si 10.8938398596 2.8813915164 18.9192892543 
Si 1.9141401775 6.0660539655 21.3832809250 
Si 5.1188230368 2.5257156531 26.3464345680 
Si 12.1416375810 1.3080137070 17.7060888247 
Si 12.2295221318 15.2699203397 20.9618497236 
Si 9.9438233409 9.5335759772 24.9893741899 
Si 16.1897514881 13.6688250950 19.0825132827 
Si 2.7137022548 13.6707636050 16.3937932999 
Si 5.1608838172 10.9625836603 27.3332152448 
Si 9.4738242566 3.9727237863 1.1686251343 
Si 11.3896748842 15.8755499652 29.0710247589 
Si 10.8049616188 2.6152454939 2.6037425848 
Si 12.2674615422 1.1293612753 1.4814775073 
Si 9.4517350164 1.3144303380 4.0218377260 
Si 12.1370763810 3.9633244562 4.0217794004 
Si 9.4287824062 4.0087409767 6.7328380657 
Si 10.7773989386 16.2606618587 5.4409856432 
Si 12.1653232413 1.3061387279 6.7845436584 
Si 9.4253289262 1.3324389332 9.4770548013 
Si 10.7872869687 2.6725700044 8.1103415461 
Si 12.1463128111 4.0055481366 9.4878158638 
Si 10.8383398291 0.0037907482 10.7843926551 
Si 14.5312991529 12.6135425954 20.4208511619 
Si 6.7300669516 1.3003297139 12.3317984385 
Si 12.1545392612 1.3194655771 12.2207757699 
Si 4.0765725373 9.4737590966 17.6779175881 
H 16.2418469085 13.3877248524 27.8093849670 
Si 9.2867336049 13.1529370803 21.7642925260 
Si 12.2591536421 1.9281332876 23.6655885334 
Si 7.9670969829 5.3165347686 19.0173636526 
H 10.1167254025 13.1451178802 17.1435973009 
Si 1.2462110754 15.1479733985 20.3111991435 
Si 7.3229903770 14.2805471806 14.7853790000 
Si 9.1232797434 3.3149498703 25.3287705169 
Si 7.1885978757 11.8319972582 17.4934338998 
H 15.7897505344 1.5093238998 26.4096886180 
Si 13.0439081093 10.3995360951 26.2640789032 
Si 11.9759356995 9.3268395853 27.9844490803 
Si 1.2481039734 4.0905656474 14.8413423572 
Si 12.0731381304 14.8727375560 15.0066077795 
Si 1.2222843232 9.6395912982 20.2719168912 
Si 10.7603758884 5.3642318891 28.8910029745 
Si 10.7507810783 8.0302696034 2.6321062957 
Si 12.1025090007 6.6528523508 1.2485223776 
Si 9.4177052061 6.6834775511 4.0084228514 
Si 10.7939169987 5.3478930189 5.3747278278 
Si 12.1513790011 6.6945384612 6.7591428850 
Si 9.4579089265 6.7059414613 9.4697641086 
Si 10.8098974889 8.0722163538 8.1157366587 
Si 10.9581364902 0.6515283300 22.0423595459 
Si 10.7920436487 5.3457753189 10.8578536749 
Si 2.5184014430 0.2676430734 18.9116777711 
Si 2.6814643445 5.4233482996 13.5522020724 
Si 6.6522007508 12.1583511212 12.0695668031 
Si 1.0520749986 4.1115145876 27.7458976149 
Si 2.6838263945 10.8693234094 13.6470102404 
Si 4.2280369587 5.7255929624 21.4694277500 
Si 16.1213171974 2.9359630169 19.0330240606 
Si 6.6200931605 9.4459846464 14.7449302368 
Si 3.9751672864 1.5360460160 15.0953500912 
Si 5.3946941893 5.6204410114 16.3965637631 
H 9.6708192284 10.6354967473 20.5078145445 
Si 6.7485561017 6.7273628115 12.1483062844 
Si 4.8105673640 14.1790767697 19.8369250014 
Si 6.6101888405 6.3115116877 24.5868696269 
Si 9.1815490740 6.6081525904 27.6623171137 
Si 9.3086110751 9.3710832257 1.3116218648 
Si 10.7527847483 10.7721209785 0.1552710491 
Si 12.1699170213 12.0880597706 1.4932476016 
Si 12.0872615605 9.3630685456 4.0879497275 
Si 9.4290919162 12.1407742110 4.0330362300 
Si 9.4326920063 9.4293362662 6.7689999015 
Si 10.7822859386 10.7923531587 5.4161389624 
Si 12.1555003712 12.1280517209 6.7981626723 
Si 12.1583022512 9.4314213863 9.4912570707 
Si 9.4405437863 12.1807661614 9.4697349459 
Si 10.8197040690 10.8345279691 10.8140220303 
Si 1.7191000057 2.2256049804 21.8341956877 
Si 0.1092405781 10.9235853999 26.9500747616 
Si 6.8172836123 14.7666896551 27.8326860209 
Si 0.0282517473 10.9207020699 16.3696173629 
Si 7.9932750131 10.7802171086 13.3824747461 
Si 0.0400598797 13.6292566846 13.5482067728 
Si 4.0407671170 4.0401969670 12.2191426547 
Si 13.5227852437 2.9074555166 21.7616970394 
Si 14.0244195083 5.6661996218 26.3417976875 
Si 14.0860282888 9.2089814342 19.6632315383 
Si 6.7567499718 10.6967960178 19.5258457249 
Si 1.3333137062 6.7789369520 12.1855179800 
Si 9.6156938679 14.9320005766 1.2716222084 
Si 10.8195411690 13.5364036838 2.7382821118 
Si 12.1312119809 14.8136700155 4.2036676022 
Si 9.4396315463 14.8855903661 6.7919218394 
Si 10.8151102889 13.5312397538 8.1298806026 
Si 12.1852622014 14.8876429062 9.4812250776 
Si 5.3143356186 0.4356060070 16.6955988153 
Si 9.6544314883 13.1350506601 24.1119539038 
Si 3.0941552083 14.3494375912 21.4959950343 
Si 6.5196490196 3.9453240061 27.6724074324 
Si 1.3488641403 12.1993367616 12.2298162289 
H 9.2748093248 8.1568917746 20.4275002736 
Si 8.0384634735 3.2157763494 21.5236413410 
Si 8.0644623138 5.3950525693 13.5762905211 
Si 3.7511472043 8.7666427702 25.0569151672 
H 7.9759261629 13.2012695107 19.9682741213 
Si 14.8377466357 14.9842588970 17.6994980385 
Si 10.8599892393 5.4934278802 16.2292861096 
Si 14.8383982357 4.1803887082 17.5672740356 
Si 4.0609341371 6.8102300423 14.8702718259 
Si 5.4291475397 10.8060856288 16.2365768023 
Si 3.9933306365 6.5864217302 27.7568919795 
Si 8.0833261339 2.0658652389 23.6300682785 
Si 13.5344325938 16.1124228574 2.9063413276 
Si 14.0481051685 2.1889199000 0.4209091878 
Si 14.9672847169 4.0822088773 1.4438750306 
Si 14.9223080265 1.3059627959 4.0950362808 
Si 13.5158945736 2.6520283143 5.4118520351 
Si 14.8678179760 4.0192968968 6.7697289708 
Si 13.5403132838 16.2564101687 8.1447244529 
Si 14.8970911062 1.3230526351 9.5085505938 
Si 14.9870281971 6.7824067220 14.8567403002 
Si 13.2840552915 2.6172002939 27.4647393413 
H 12.3267734327 8.4630134574 22.6406337896 
Si 9.4474833264 1.2604289875 15.0285965088 
Si 14.4803440324 9.9092396706 17.4306172914 
Si 8.3500911764 10.9328055400 21.3063495355 
Si 4.7505061334 11.8376498883 20.0834379033 
Si 5.3223665887 8.0920738640 13.3995932926 
Si 10.8702682294 13.2878997315 26.6311215369 
H 6.8457096626 9.2307937444 24.2304714045 
Si 3.4225941913 1.9889764382 20.2825904653 
Si 15.0263848374 12.2364942519 14.8761335428 
Si 13.4557681831 5.3590842490 2.6865502726 
Si 13.4962162534 8.1238230743 0.0785720870 
Si 14.8475532158 6.7371693916 4.0058856903 
Si 13.5072608735 8.0592820937 5.4194343555 
Si 13.5125388336 5.3665613591 8.1404666884 
Si 14.8848084461 6.7400690116 9.4772297780 
Si 13.5430011339 8.0980197141 10.8454886600 
Si 0.6895964313 4.0878615074 20.9338243009 
Si 6.6795027911 9.1968779641 27.2414400050 
Si 9.4964510669 14.9559957468 12.1259967647 
Si 8.0266695134 8.1527052446 16.0769397948 
H 5.6837113720 2.0768772790 22.4759224599 
Si 0.0196024088 8.1741917548 13.5415284983 
Si 13.5163344036 2.6706640744 10.8551123744 
Si 0.0089630676 5.4571174699 16.2588863220 
Si 13.6112725245 8.1592701146 16.0969454556 
Si 6.8794136729 12.3545641730 22.7414786511 
Si 10.7888833887 8.0815179439 13.4296017838 
Si 12.1573248512 4.0335995169 14.9262351831 
Si 3.2674970999 12.9396521083 23.4293409268 
Si 11.3863517241 1.1553633736 27.3253996222 
Si 7.9239284825 5.1650540572 26.1903845813 
Si 14.8263599256 9.5333804972 1.3842721595 
Si 13.4877780334 10.7518887983 2.8561696966 
Si 14.8922692662 12.1861255715 4.0841585673 
Si 14.8421449357 9.4434596964 6.7862642618 
Si 13.5186312936 10.7994067288 8.1666548566 
Si 14.8858510061 12.1823137114 9.5068883159 
Si 14.6137102637 1.5242406529 24.0403593014 
Si 4.3310223396 14.0480725885 25.2404656468 
Si 11.8251717481 9.8906853605 19.9284086135 
Si 13.4578858831 16.2404459685 13.6220177458 
H 8.4858194576 11.1458135819 27.2762895161 
H 1.8535087970 8.9224566216 28.2519883400 
Si 1.3184327911 14.9912961771 15.0136943329 
Si 2.8760158163 15.5516884722 26.3854543554 
Si 6.4675210191 15.7061013836 20.5725267330 
Si 7.3456823472 14.7267465747 22.4900664038 
Si 6.8915334330 1.7084626356 17.9452818711 
Si 8.1504409345 2.7755879654 16.2899446730 
Si 9.3999002360 12.1174469308 27.9974556761 
Si 15.0595024077 7.0662762646 27.8735722256 
H 0.3519698882 14.0357899284 27.9866946137 
Si 12.4496326139 11.5816851159 23.0044393558 
Si 13.9274288474 13.0210532391 0.2601152931 
Si 14.8622793759 14.8371276157 1.4503783285 
Si 13.5459822039 13.4904333034 5.4996903009 
Si 14.9022224563 14.8905099462 6.8132981504 
Si 13.5424798539 13.5552349240 10.8620531139 
Si 7.7051212005 9.9537765310 25.2858137555 
Si 13.4966397934 2.6890066146 16.3130999130 
Si 15.3867848007 10.5218251262 21.0524584526 
H 7.6363122398 13.4411560529 19.2925727210 
Si 1.7285970758 7.4721416183 25.3364986512 
Si 0.9736076969 7.3597731973 23.1164243958 
H 0.8142263354 12.1847897914 22.1790746156 
Si 11.2986626533 11.5355681255 25.0577317248 
Si 5.1006596866 4.8593722044 23.4981942288 
H 10.4119164952 6.7898349621 24.2520226921 
Si 4.2560068889 9.2360554145 22.7988709841 
Si 1.9543764779 0.2523272153 24.4892618329 
Si 15.0593395077 6.6668291710 22.5604361698 
Si 9.0877349631 16.2248564384 23.2491150031 
Si 12.1927881815 6.7035305413 12.1703533391 
Si 2.5963328037 2.9533118670 16.3479494241 
Si 6.8417023226 6.9897947139 17.7670681786 
Si 3.6215113831 16.1343329076 22.8515097855 
Si 13.4504739330 13.6457747448 22.2614302804 
Si 5.5735258110 15.5284915120 23.9755012991 

