&CONTROL
  dt          = 30.D0,
  prefix = 'aSiHcSi_merged-8',
  pseudo_dir = './',
  outdir = '/scratch/ztzhao/aSiHcSi_merged/aSiHcSi_merged-8',
  wf_collect=.true.,
  verbosity ="high",
/

&SYSTEM
  ibrav= 0, nat=  406, ntyp= 2,
  ecutwfc     = 42.D0,
  nbnd=1540,
  degauss     = 0.05D0,
  occupations = "smearing",
  smearing    = "methfessel-paxton",
/
&ELECTRONS
  electron_maxstep=200,
  conv_thr    = 1.D-8,
  mixing_beta = 0.3D0,
  scf_must_converge=.false.,
/
&IONS
/
ATOMIC_SPECIES
Si  28.08  Si.pbe-hgh.UPF
H  1.00784  H.pbe-hgh.UPF

K_POINTS {automatic}
1 1 1 0 0 0

CELL_PARAMETERS angstrom
16.29000014898320 0.00000000000000 0.00000000000000
0.00000000000000 16.29000014898320 0.00000000000000
0.00000000000000 0.00000000000000 28.93363569536356

ATOMIC_POSITIONS angstrom
Si 0.5050388746 15.7661626142 0.1452173389 
Si 16.2738730488 2.7400431851 2.6067585478 
Si 2.7282492250 0.1219848968 2.8135703890 
Si 2.7855900255 2.6088272339 28.9187638066 
Si 1.3757605596 1.3272049561 1.3269457202 
Si 4.0615531571 4.0429662670 1.4016321140 
Si 1.3522752664 4.1149354876 3.9722120437 
Si 4.0659840372 1.4345023001 4.1849031997 
Si 0.0085058887 0.0726193546 5.3879927056 
Si 2.6986991647 2.8456512560 5.4262429719 
Si 1.3573479724 1.4480751282 6.7327412918 
Si 4.0878940874 4.1887291883 6.7598231748 
Si 0.0016631764 2.8212651258 8.0548637749 
Si 2.7557304552 0.1180559117 8.0607373029 
Si 1.3747945626 4.1717061382 9.3859846187 
Si 4.1067741976 1.4679310094 9.4313236258 
Si 6.8005700722 1.4713079265 12.1534290057 
Si 10.9380183400 5.9164954741 25.5324868194 
Si 0.0380645175 0.1440617566 10.7355940557 
Si 2.7380720950 2.8438919360 10.7528963698 
Si 8.2332430053 13.7480107857 16.2249123534 
Si 0.3821959835 8.2212861452 26.0964323127 
Si 7.0999965649 6.4235868887 17.4021351890 
Si 12.4079465035 1.5754596714 17.4121462269 
Si 4.5050647012 11.0037159106 25.1575937017 
Si 9.4304602762 5.2649280482 21.6175633743 
Si 10.6996630579 9.0160752525 23.6425417358 
Si 4.0559819771 9.6731161185 17.6146527432 
Si 9.5874307177 9.6116050779 12.2566063505 
Si 3.9381401160 0.9497868297 27.6320560936 
Si 2.8767488663 5.2313869378 26.2434441157 
H 8.0193878833 7.5774890493 24.1543777512 
H 2.5005150229 1.3975859018 25.8613754563 
Si 12.3299825628 3.7343359242 23.2825783741 
Si 0.1145450908 5.4501942198 28.8410191275 
Si 0.0294304917 8.2108768351 2.6348212811 
Si 2.7270437649 5.4943238302 2.6610727687 
Si 2.8863599664 8.0488239136 28.8457063765 
Si 1.3990780658 6.8465893226 1.2810859076 
Si 4.1351513778 6.8659907128 3.9773622309 
Si 0.0304994415 5.4983800403 5.3408019457 
Si 2.7666121753 8.2275740852 5.3345812141 
Si 1.3978123328 6.8681247028 6.6823967657 
Si 0.0439123018 8.2109419951 8.0553267130 
Si 2.7436432751 5.5577570908 8.0902785450 
Si 4.1023270275 6.8901650730 9.4706155031 
Si 2.7470967551 8.2543874255 16.3062158697 
Si 4.0366620369 6.9336593734 14.8595919522 
Si 10.5843624368 11.1589107421 17.0501864444 
Si 2.7322402750 9.6293774681 21.9866408313 
Si 0.0432540229 5.5144419804 10.7508999490 
Si 2.7255287949 8.2575313955 10.7948212079 
Si 0.3596946063 4.3605398199 18.4447876849 
Si 8.7397479799 12.5031452643 25.7304218212 
H 1.6531743751 9.3415983254 23.0148265093 
Si 2.5934331837 11.3274633736 26.3653704565 
Si 12.2118800617 12.3093594226 12.1452118531 
H 6.9010467931 0.8713488500 27.5619788280 
H 9.6834602686 6.7947708321 18.1732165803 
Si 12.6964098261 4.6288849923 19.6303144739 
Si 12.3374922528 6.9034577131 12.2407217846 
Si 6.0038424549 10.4214787253 20.5722200503 
Si 14.9696304769 4.2700977391 12.2000989600 
Si 9.5538733174 6.9391653935 14.9718833924 
Si 2.7050848447 14.5689453432 24.6588935568 
Si 6.0180636250 3.8625545153 20.6787536969 
Si 4.3412035897 0.3830609825 23.4787194904 
Si 6.5599667700 6.9442315835 19.5764689778 
Si 4.0472342470 9.5077726170 1.3261124315 
Si 0.1058739238 10.8572850993 28.8909007154 
Si 2.7340973350 10.9303457500 2.6619754982 
Si 1.3490791683 12.3001392825 1.3420259311 
Si 1.3688943245 9.5776241376 4.0079161502 
Si 4.0762956073 12.2562703121 4.0730457641 
Si 4.1193989477 9.5699352575 6.7224119838 
Si 0.0328067571 10.9192359699 5.4007235053 
Si 1.3753500516 12.2955617925 6.7509405486 
Si 1.4062505529 9.5735679276 9.3840171314 
Si 2.7774776054 10.9509688902 8.0715295490 
Si 4.1586578480 12.3088055626 9.4180141534 
Si 8.0653256838 10.6549470074 27.0449926253 
Si 0.0392406556 10.9138276898 10.7146461034 
Si 5.3695587191 0.0650490657 16.2240154107 
Si 4.6203164523 9.6204179680 23.3475343862 
Si 10.9749477704 8.2425120154 25.8955750137 
Si 14.4231009719 0.7105958705 22.5732413614 
Si 3.0720659681 1.8756631972 22.0815720900 
Si 1.3473491703 6.8912565030 12.1255659145 
Si 7.9667548929 2.8730347463 16.2420121321 
Si 6.8575850727 10.0789814722 22.7405067093 
Si 8.2413717154 10.9606288602 13.6496741084 
Si 12.5702600650 12.1393406910 24.7376219796 
Si 6.6803987411 4.1740356082 14.7846538358 
Si 4.0992482175 12.3419720029 14.7921476474 
Si 2.6959298647 5.5660975709 13.5072338198 
H 10.8906144396 6.0584791154 24.0091598336 
Si 16.2770007289 13.5720624941 2.7524017898 
Si 2.3737788217 14.1093555690 0.1680838805 
Si 4.0715226372 15.0278020674 1.5141174095 
Si 1.3543750474 14.9780524070 4.0557723836 
Si 2.7324357550 13.6432009248 5.4067995688 
Si 4.1042329575 15.0048820372 6.7461954324 
Si 0.0013945804 13.6689879950 8.0708930090 
Si 1.3806540756 15.0589648377 9.3835541933 
Si 10.9742798804 8.2414857454 13.6133334619 
H 7.4069490377 3.5684385626 23.3247346813 
Si 2.3539538915 11.7197917372 20.8401744505 
Si 2.8002184456 13.7288863256 10.6975463247 
Si 7.5047541986 0.4653189673 23.0681801336 
Si 1.3206514891 4.2615617790 14.8878311807 
Si 8.7352519399 12.8058134671 20.1909036655 
Si 14.9893902471 12.4380667138 14.6015039218 
Si 14.1508299094 6.0635941755 13.5649564231 
Si 1.3731948846 2.2419275605 18.1727825757 
Si 11.2142315826 15.3155975001 24.4800836882 
Si 14.6988255144 12.6937708461 19.0190624862 
Si 5.5766209110 16.2581694887 0.2086407363 
Si 5.3779480692 2.7990455656 2.8558192839 
Si 8.1863440949 0.2327238291 2.7126064673 
Si 7.5072302787 3.5167666822 0.2591336920 
Si 6.7446302117 1.5912902936 1.4301896124 
Si 6.7893625521 4.1731559482 4.1352820145 
Si 5.4817153701 0.0518158841 5.4091721269 
Si 8.1800398648 2.8277811259 5.4506050932 
Si 6.8136183623 1.4405996472 6.7534867086 
Si 5.4651973100 2.8256308458 8.0881374559 
Si 8.1775800748 0.0838772108 8.0813091179 
Si 6.8153613923 4.1834349383 9.4563801543 
Si 9.5056874969 0.8729534150 22.0049268890 
Si 5.3592471490 2.7792369254 13.4764484315 
Si 5.4749876001 0.1104909985 10.7750016675 
Si 8.1785574748 2.8456349660 10.8268507427 
Si 1.0654898137 0.9818569530 25.4186618965 
Si 8.1784108648 5.5682315609 13.5864830480 
H 10.2728324740 11.6807283168 27.9232442032 
Si 2.4786538427 5.1398697170 19.0690019414 
Si 14.5230401228 2.9689502672 23.0078245695 
Si 13.1065431599 0.6824304602 20.6316208044 
Si 3.1064867384 15.7653969842 19.5586747919 
Si 4.2371104888 3.8778508255 22.4010862290 
Si 15.0896063280 9.2273891344 24.6942793933 
Si 4.1197247477 15.0534099477 12.1314105089 
Si 15.8899991953 13.5961228243 26.0614226135 
Si 11.6070160662 4.0089527467 27.8060629787 
Si 0.6713288251 13.0813751096 19.3632570164 
Si 14.0954276189 7.3167187269 23.7019424898 
Si 15.0208625274 5.0594134063 20.0486080451 
Si 13.6311626147 13.1254395600 21.0159752210 
Si 13.5338624438 14.3347928811 17.8929653849 
Si 5.7231494623 5.1879089274 0.2299254761 
Si 5.5242485605 8.2383743553 2.6289969402 
Si 8.1678060747 5.5714244010 2.8784106666 
Si 8.8290497607 7.5755179593 0.1013122827 
Si 6.9294239734 6.8423702126 1.3521353434 
Si 5.4432546798 5.5590440008 5.4333606463 
Si 8.1833141548 8.2615387356 5.4082173169 
Si 6.8341600525 6.8996132731 6.7735666517 
Si 5.4709151000 8.2516344155 8.1251435760 
Si 8.1983986950 5.5601191409 8.1454260546 
Si 4.0522189871 4.1967275784 12.1491468276 
Si 14.9529495168 1.4767895115 14.6747638874 
Si 13.8623502968 0.1322966298 26.5039915051 
Si 14.9896997571 9.5798395776 12.1116777694 
Si 9.9691054212 7.9648815428 19.0959391562 
Si 5.4634054100 5.5344298106 10.8248832554 
Si 8.2104532951 8.2759879657 10.8665476908 
Si 1.0375117385 5.7634020527 23.0138138321 
Si 11.0570656611 13.4936098534 25.9294273675 
Si 6.9264917733 1.5819870745 26.2357188349 
Si 13.1349855001 8.9515831419 20.6053201295 
Si 5.8057234731 13.3239169219 22.5755560522 
Si 14.0668060887 2.4424900423 26.7289794563 
Si 8.3678146965 3.9102679258 20.0379894008 
Si 0.0728529532 2.8729695863 13.4633414945 
Si 7.6643147501 11.0482364810 19.0948975453 
Si 16.2553350287 0.3893326326 18.0207363201 
H 6.7419423617 1.6980533255 23.4569613964 
Si 5.1003338866 11.0158193807 28.8510590991 
Si 8.1928438049 10.8615530793 2.5470279503 
Si 6.6229113306 12.1220570009 1.3149498348 
Si 6.8529424227 9.5859971977 3.9993228604 
Si 5.4858856102 10.9198061199 5.3769111231 
Si 6.8391122125 12.3175207127 6.6949828972 
Si 6.8597679327 9.6095362479 9.4585791106 
Si 8.1840634948 10.9810728104 8.0848390214 
Si 11.3644416739 14.2659513405 18.6842135203 
Si 6.8117613023 15.0647803678 14.8720334156 
H 13.7883448261 8.1948800549 14.9304504261 
Si 10.7768450786 12.1217312009 19.2039773519 
H 6.6449354108 5.9508673744 22.1687491343 
Si 15.4610346214 13.6723111550 22.3667420034 
Si 2.1090663193 10.5426111664 18.7066370879 
Si 5.3944498393 10.9826855204 16.1736998183 
Si 8.7936190104 4.1027668575 23.5416790817 
Si 9.6417252882 12.2778708523 15.0791693135 
Si 0.0015934911 9.3455405055 18.8475728274 
H 9.6018962378 10.3694810448 21.4128868354 
H 5.7874135129 5.5624486109 20.0867425770 
Si 2.7407762351 0.1383565099 13.4599273255 
Si 1.3919088367 1.4919750496 12.1016667314 
Si 5.4372436697 13.5822274542 2.7273221144 
Si 7.5444366390 14.9058877063 28.7441493152 
Si 6.8232131724 15.0431961176 3.9673511929 
Si 8.1826136848 13.6637914850 5.3056186447 
Si 5.4970279703 13.6633353650 8.0677971100 
Si 6.8303970625 15.0200643174 9.4462244482 
Si 2.8265919559 5.5370850806 21.4392453776 
Si 8.1868002149 13.6874608552 10.8357623025 
Si 16.1989716282 5.4347024297 16.4233970943 
Si 9.5284609171 15.0229965174 12.2347035883 
Si 1.4303369471 12.3292820928 11.9398409070 
Si 11.8023168779 2.3753263717 19.5463490631 
Si 6.8919243930 12.2995365525 12.2129744279 
Si 4.0073400366 1.4652317564 14.9132349128 
Si 5.1469069971 2.6928836346 18.8695913242 
Si 2.6335554541 15.3595967905 26.9255256436 
Si 9.5052965369 12.7780878869 22.3792124004 
Si 9.4229831662 4.2440174488 1.4579890496 
Si 10.9540965702 0.1815194717 28.8177275508 
Si 10.8692908294 2.7840098955 2.6337044427 
Si 12.3050588625 1.4232719740 1.3150597826 
Si 9.5526026974 1.5035148858 4.0927785037 
Si 12.2273555618 4.1470430779 3.9914529114 
Si 9.5372900972 4.1904396383 6.7868182569 
Si 10.9020337297 0.0712874842 5.3611422916 
Si 12.2359241019 1.4458238502 6.7305712691 
Si 9.5009471069 1.4559757783 9.4472081918 
Si 10.8902560596 2.8046981957 8.1101848863 
Si 12.2419351120 4.2162755786 9.4244084869 
Si 4.1220705077 9.6118657179 12.0930445080 
Si 10.8313677091 0.0341765832 10.7499740726 
Si 0.8075327744 12.0589984103 22.6732070727 
Si 2.1243626294 7.3636013473 18.4780613659 
Si 10.9090058498 13.6345183547 13.5859622426 
Si 4.0731027673 14.9566147668 17.5997229871 
Si 7.6442291799 14.3892340616 26.4893800191 
Si 1.5755150574 9.5803771476 27.5529804673 
Si 4.1140069576 7.5983402495 24.3122107339 
Si 12.4931594943 5.9785929547 17.6733301563 
H 15.0127175273 2.9118863966 17.3293381616 
Si 4.7199298032 1.7423458359 25.4854407277 
Si 10.9559536302 0.2731344325 16.0973728873 
Si 10.5427251964 5.7951023930 0.1167116317 
Si 10.9964505706 8.2261894352 2.7125051995 
Si 12.2896648124 6.8414905526 1.3015911752 
Si 9.5983938878 6.9270130534 4.1061747770 
Si 10.9144141298 5.5005466103 5.4043402097 
Si 12.2522955521 6.8915823030 6.7328859599 
Si 9.5680781975 6.9260030733 9.4972344479 
Si 10.8819644495 8.2574662355 8.0694463273 
Si 13.6169903145 10.9573057002 13.4387768378 
H 7.1849652057 13.3231512918 0.2741302847 
H 0.9702715049 3.1452732288 21.5252940101 
Si 1.4437110372 3.9848272564 27.5896393837 
Si 14.1548861195 14.3220866810 15.7111667180 
Si 8.5606557183 7.2820047366 20.8433571504 
Si 12.2577852821 15.2031150490 14.6817079600 
Si 13.9402979475 2.8922732365 16.2369487459 
Si 15.9309522557 7.8524316718 13.4478330658 
Si 5.4763233801 7.7354043107 26.2140186082 
Si 8.1951244050 16.2566219387 25.2103397195 
Si 5.3341279688 14.0058977781 26.4931992590 
Si 0.8490787908 15.3491223204 19.7175493855 
Si 2.7576526752 13.6876074652 16.1357967555 
Si 12.5398792147 9.8790868804 17.0457306645 
Si 12.1655350113 1.5012000767 11.9568249511 
Si 8.1700703847 0.1635336825 13.5465835644 
H 15.7818824643 1.8643253571 20.2034319297 
Si 9.6433054182 9.4614275665 1.2831257289 
Si 11.0617408912 10.7602292784 28.8328309086 
Si 12.2288053718 12.2460401920 1.2807965712 
Si 12.2890457924 9.6067995279 4.0531972900 
Si 9.4990248869 12.3048796725 3.8929049483 
Si 9.5388702272 9.6386138982 6.7223251829 
Si 10.8633449794 10.9828972904 5.3108556328 
Si 12.2140466317 12.3101576326 6.6977026589 
Si 12.2285773118 9.6177138280 9.4181298879 
Si 9.5265224071 12.3286956528 9.4603729960 
Si 7.6055892996 7.0325233843 25.6871371022 
Si 12.7160066963 9.2725938848 14.8240903812 
Si 5.5211045905 10.9786781804 10.8076098749 
Si 10.8715062694 10.9462447901 10.8027779578 
Si 8.5941805386 4.6021042321 17.7284776660 
Si 1.3808870226 12.2699213322 17.3053521776 
Si 8.3254118261 3.2125183494 27.0750546728 
Si 3.8224485350 12.7142310863 27.8282261436 
Si 6.6576090309 1.4455061952 17.5566697372 
Si 7.6307573498 12.1747877313 23.5691949693 
Si 2.7992736256 11.0695438012 13.3283371503 
Si 8.9951588923 9.6293611781 17.8192135475 
Si 15.9375497058 4.3128264094 24.2939246762 
Si 5.9803196947 15.5129834319 21.9487956358 
Si 15.5002120718 6.6272281806 21.8520415580 
Si 5.5196384905 13.6654693550 18.8793419594 
Si 4.2896131592 6.4279851888 27.7125494681 
Si 5.4167345595 8.2533285755 13.4840869113 
Si 9.4384749563 15.2468374094 1.1985324582 
Si 10.7759002586 13.6921035052 2.4804053607 
Si 12.1793978014 14.9905305471 3.9167173304 
Si 9.5217983071 15.0126360773 6.7036340543 
Si 10.8733633294 13.6575524149 8.0659164237 
Si 12.2362336119 15.0075698873 9.4115908863 
Si 4.5934379520 13.2103593308 24.4695807785 
Si 0.1220288798 13.6859133052 13.2731317734 
Si 6.7444998917 9.5904606577 14.8592158150 
Si 1.7926982264 0.1190854397 23.3577479596 
Si 4.6851669428 12.3783149932 20.7084106735 
Si 3.0788263182 7.7878581112 20.6021374296 
Si 10.8754484495 2.7902815455 13.4017128505 
Si 4.9723596455 8.6282592189 19.5295386207 
Si 12.2047287516 7.6834880803 22.3880660929 
Si 4.0225548968 4.2089939485 17.5230488525 
Si 9.6317883881 15.2275500493 17.4505700951 
Si 8.0441486836 8.2188100652 16.2274295797 
Si 13.5523027239 0.2275028841 13.2800179787 
Si 8.5510609082 8.4717937675 22.8416297661 
Si 12.2706543822 14.9409926566 27.5534434054 
Si 14.4123332818 5.7436097025 25.4076960486 
Si 13.6376623247 0.0429702511 2.6466927518 
Si 13.4286127528 2.9889706773 28.9193135457 
Si 14.9702006269 4.1830276883 1.2693128112 
Si 14.9468081867 1.4198950570 4.0234245789 
Si 13.5814129542 2.7963251356 5.3572941181 
Si 14.9400641266 4.1719179082 6.6985996016 
Si 13.5961065343 0.1126218934 8.0977434230 
Si 14.9406831466 1.5109512708 9.4391067738 
Si 14.6261558238 10.7037518479 17.8140054931 
Si 9.5332664672 4.2476338288 12.1718018643 
Si 13.6074606644 2.9177833767 10.7914938398 
H 11.9834779696 3.4648178717 14.1571411448 
Si 5.4939654502 13.6947587752 13.4835371722 
Si 1.4138270319 14.9906445771 14.7191480846 
Si 15.7881052444 3.1293416086 21.0568584482 
Si 10.3167177344 0.9682792379 25.3341178130 
Si 15.5698844024 10.3012585242 22.6876160233 
Si 15.4687072115 8.7607620801 20.9269753576 
Si 8.7844314503 5.0306289760 25.6752743115 
Si 7.2584168164 14.7958976253 20.0041659807 
Si 12.6712417759 4.2188331086 25.6281992863 
Si 8.9069485415 8.4877742576 26.8866967045 
Si 13.6203786346 5.4913753402 2.6672877137 
Si 13.7160172254 8.0475532936 28.7657916747 
Si 14.9646294469 6.8700632128 4.0083790883 
Si 13.6259335246 8.2272319952 5.3837105275 
Si 13.6124616945 5.5432915707 8.0690991236 
Si 14.9644991269 6.8908981230 9.4315550949 
Si 9.4977868469 1.8660520971 19.9373292822 
Si 10.9527445002 5.5695021809 10.8495057794 
H 9.7825197595 9.6829389886 21.1034126680 
Si 4.3628529999 3.9966700866 24.8135438396 
Si 10.4091634852 2.3959332219 23.5155230750 
Si 2.6222827740 2.8589764761 16.2361964714 
Si 15.9074620755 15.9510215359 15.8343372052 
Si 5.8301421833 10.0453100419 26.8149991552 
Si 0.0370384104 15.7929922444 21.9054819831 
H 6.6702826510 6.0260945951 22.9569303043 
Si 10.3250582144 2.0190640685 27.4147355559 
Si 10.3577848247 14.9826950570 22.3554289518 
Si 0.1225102493 7.6186701697 17.2429423254 
Si 12.3634585131 9.3748625057 27.4132888741 
Si 15.2254812192 6.8241742824 27.3563764127 
Si 14.9543015868 9.5174814570 1.2433304064 
Si 13.6180165845 10.9075234598 2.6316096475 
Si 14.9192617964 12.2415278620 4.0751868531 
Si 14.9618438568 9.5784386376 6.7480182514 
Si 13.5836446842 10.9612153002 8.0546323058 
Si 14.9366920966 12.3022732725 9.4241770178 
Si 13.5869189743 8.2671587856 10.7627916732 
H 10.9790854304 4.3231053995 15.7407079601 
Si 3.1556988289 1.7507351860 19.7134408092 
H 8.1307626144 11.0596231911 28.5176278813 
H 3.8528782552 15.1384763285 20.7254815186 
Si 16.1227181375 11.0645427712 16.0551587128 
Si 14.3117751109 13.6669843250 24.3565370638 
Si 0.6195103347 8.9348533117 15.3742055967 
Si 12.2467080820 8.1375066744 18.6018683931 
Si 8.2451184154 0.2481700073 18.7724321755 
Si 13.4586840931 15.7959081545 24.3192994747 
Si 12.2934603824 11.1913767124 20.8891880293 
Si 14.9373599866 12.0859909405 27.5312513068 
H 1.8044270265 10.1743594231 14.0539348663 
Si 1.3528372714 12.6516611957 24.8988980649 
Si 14.0098725381 0.2402237452 18.5262648030 
Si 10.4842603859 5.4615972200 16.5917329868 
H 5.6344504115 4.7325056833 25.2368139962 
Si 13.6238809846 13.5380163938 28.8739745386 
Si 14.9715201169 14.8844500661 1.3386638426 
Si 13.5455260839 13.6740867651 5.3358253604 
Si 14.9140164164 15.0209439774 6.7205312975 
Si 6.8267969724 6.8960620531 12.1808580923 
Si 0.0058891934 2.9259609568 26.1012063626 
H 4.2718244791 6.4888772093 23.3077795708 
Si 11.7590017675 5.4442809498 21.6694413831 
Si 13.5862673743 13.6614457249 10.7847812364 
Si 12.0651397403 14.9044704763 20.7992044223 
Si 1.9257875276 6.9095827532 24.8802937372 
Si 9.4843313067 1.6086652077 14.8849088835 
H 4.6884901029 15.4076685809 26.4319178186 
Si 6.7562449818 12.3731673532 17.4359586091 
Si 11.2493854029 11.2512750429 22.9873395554 
Si 16.1598756278 15.7940022244 26.8281928931 
Si 14.9625117468 15.0776820479 12.0598576278 
Si 13.9401024675 5.2510815480 15.8563267683 
H 14.2334202102 11.0047096006 22.4535718441 
Si 13.7580780058 10.6383963673 26.0697844342 
Si 5.3643133391 5.5409621007 16.1681156266 

