&CONTROL
  dt          = 30.D0,
  prefix = 'aSiHcSi_merged-6',
  pseudo_dir = './',
  outdir = '/scratch/ztzhao/aSiHcSi_merged/aSiHcSi_merged-6',
  wf_collect=.true.,
  verbosity ="high",
/

&SYSTEM
  ibrav= 0, nat=  406, ntyp= 2,
  ecutwfc     = 42.D0,
  nbnd=1540,
  degauss     = 0.05D0,
  occupations = "smearing",
  smearing    = "methfessel-paxton",
/
&ELECTRONS
  electron_maxstep=200,
  conv_thr    = 1.D-8,
  mixing_beta = 0.3D0,
  scf_must_converge=.false.,
/
&IONS
/
ATOMIC_SPECIES
Si  28.08  Si.pbe-hgh.UPF
H  1.00784  H.pbe-hgh.UPF

K_POINTS {automatic}
1 1 1 0 0 0

CELL_PARAMETERS angstrom
16.29000014898320 0.00000000000000 0.00000000000000
0.00000000000000 16.29000014898320 0.00000000000000
0.00000000000000 0.00000000000000 28.97566389574794

ATOMIC_POSITIONS angstrom
Si 16.0031984064 0.5763939623 28.8511844437 
Si 16.1916411281 2.7183286149 2.6442756236 
Si 2.7107863448 0.0229965932 2.6778758035 
Si 2.8673658262 2.7190616649 0.0855066046 
Si 1.3751545716 1.4339679881 1.3381801881 
Si 4.1041352175 4.1182260677 1.4767186323 
Si 1.2425197614 4.0304555469 4.0901177885 
Si 4.0437970570 1.3775377986 4.0491751754 
Si 16.2702892488 16.2619487687 5.3571945950 
Si 2.6632847044 2.7064532048 5.4073224936 
Si 1.3133682300 1.3304059412 6.7391019575 
Si 4.0242816368 4.0580996771 6.7687730374 
Si 16.2587722187 2.6966954947 8.0996832314 
Si 2.6838589745 16.2812849989 8.0912223376 
Si 1.3159795170 4.0550208671 9.4702611094 
Si 4.0067373066 1.3645448945 9.4678561293 
Si 16.2273488084 16.2341906085 10.7333682499 
Si 2.6629100344 2.7125293748 10.8533564741 
Si 2.4227465622 7.8860053621 23.7225209098 
Si 4.0489446970 4.0831699873 12.2026951904 
Si 2.1053196193 0.1991859768 20.9990692845 
Si 6.9790433138 11.9685889095 19.5322052755 
Si 13.5752716242 16.1890673081 13.3954783947 
Si 3.1791564291 1.1102954592 17.0940770126 
Si 3.8021023248 2.8031180656 18.6405661461 
Si 12.3862482233 6.2992453176 24.8756074545 
Si 8.2031716650 1.2609160585 23.8424511826 
Si 2.9198522067 4.7483884334 25.9521982465 
Si 13.4495128230 2.0203509785 18.2365294887 
Si 7.9493408827 3.5130688521 23.2437560152 
Si 1.7197841857 3.5647896026 14.7063953806 
Si 10.5886955768 16.2387192285 26.9511342594 
Si 0.0969457005 5.4249935896 0.0189459117 
Si 0.0088935093 8.1401293644 2.6523134728 
Si 2.6573225643 5.3715786791 2.8202245475 
Si 3.3242351704 7.5465869190 0.1555946790 
Si 1.4456430312 6.7486212617 1.3818696942 
Si 4.0559331071 6.7545508218 4.1093286537 
Si 16.2355589685 5.4229247596 5.4457152482 
Si 2.6769520145 8.1214773143 5.4314592216 
Si 1.3191756151 6.7713295219 6.7889690751 
Si 16.2552047087 8.1384840744 8.1358448600 
Si 2.6808290345 5.4177608295 8.1326575369 
Si 4.0433898070 6.7796700020 9.4749841426 
Si 16.2367481385 5.4131018895 10.8107622482 
Si 1.3295458292 6.7634288719 12.1316468625 
Si 7.3379771771 0.7599741190 26.0186104682 
Si 0.4572032892 1.6344408749 20.0610401172 
Si 7.7656059710 5.8313476433 26.4535351833 
Si 10.8463545092 2.8630001062 13.4421002379 
Si 13.2450244511 5.4109190295 19.1443080629 
Si 14.3642126214 9.9801337513 19.4039879627 
Si 5.5189706005 6.2903998475 19.5348420609 
Si 2.9447270369 13.7306456456 23.2780342256 
Si 0.3603755283 8.3771977366 26.5674095424 
Si 6.9723481238 14.8468201658 14.8776705299 
Si 9.0820823331 1.8164816266 27.1045603997 
Si 0.8396517677 12.1175609608 26.0532653622 
Si 12.2552277521 14.8591191159 14.7962489144 
Si 16.0834592371 16.2369599085 16.2817732510 
Si 10.5448754764 12.2532729521 22.6564772594 
Si 4.1815941682 9.3631499956 1.3812901809 
Si 15.6619880632 11.1720079022 0.1461210857 
Si 2.7024132847 10.7114081480 2.6194434797 
Si 1.2982201589 11.9671228094 1.2156044372 
Si 1.3359103322 9.4620954565 4.0465094144 
Si 3.9741573063 12.1349586810 4.0309494829 
Si 4.0156316467 9.4922319568 6.7845937499 
Si 16.2655325688 10.8521374593 5.3630766548 
Si 1.3202589001 12.1935863915 6.7436801124 
Si 1.3162287540 9.4934048368 9.4981936494 
Si 2.6587235043 10.8560144793 8.1350335414 
Si 4.0013453166 12.2263944518 9.4971215498 
Si 16.2335552985 10.8639802894 10.8281766222 
Si 6.5388386398 0.1242646823 22.6756301732 
Si 2.3982464019 4.7128436531 21.8900419737 
Si 13.5012498635 13.4780691933 16.2844390121 
Si 3.1257578086 1.4897416906 22.6255602260 
Si 7.4074051577 10.7325851482 24.3157396767 
Si 0.1319406933 15.8941531454 26.5373328033 
Si 8.8366571908 4.2554530289 21.1681422834 
Si 2.4456177224 15.9000338354 26.7822640902 
Si 15.4868216916 13.7598210358 26.4580264112 
Si 13.5203091637 8.1278955743 10.8396220094 
H 14.7417333748 14.9593189068 23.8627341474 
Si 13.4199301827 3.0647843380 21.7634472981 
Si 1.3906512487 5.1738017873 18.3974603260 
Si 5.1003338866 3.8973825356 25.7409077054 
Si 12.1604362412 6.8038280722 22.5344897144 
Si 1.2607841095 14.9779872470 14.9102971275 
Si 7.3777410675 9.8190908098 27.9804657436 
Si 0.1650437655 13.5501198639 2.6379908021 
Si 2.4351106723 14.5154001128 28.6687536638 
Si 4.0963811775 14.9859204771 1.3029573711 
Si 1.4137048569 14.9182843964 4.0542748923 
Si 2.7080170448 13.5358824038 5.4212018366 
Si 4.0562100371 14.9202066165 6.7561975992 
Si 16.2625189187 13.5630052540 8.0745033795 
Si 1.3412436783 14.9063764063 9.4278117618 
Si 2.6681391244 13.6043004044 10.8649757153 
Si 10.0526242519 7.2354153362 19.4710086733 
H 1.7031683856 12.7529035466 16.8871617968 
H 7.7429302908 1.4967154397 17.1280944421 
Si 2.7045798547 8.1423773845 10.8293646244 
H 15.4625333014 3.9339698760 16.5209094051 
Si 1.4649108434 10.3903648250 20.0719349669 
H 5.9649582246 1.1346359774 16.9489668879 
Si 15.4706783015 1.5366031341 23.6389550951 
Si 5.4089968095 13.6492119348 26.2401004430 
Si 5.4234134596 13.6669517450 13.5318668446 
Si 3.7367305542 14.8730307760 25.1332300822 
Si 13.1475125102 16.0340516666 18.7312020228 
Si 16.2776197489 13.4298019228 18.9590086923 
Si 4.0154198767 12.3511106930 14.8469563262 
Si 1.2258192532 1.3136174670 12.0897770282 
Si 13.4766519633 10.9301502700 13.4395793551 
Si 5.2836289683 2.7313931950 13.7027363346 
Si 5.5661790209 16.1912990381 28.9135110967 
Si 5.4687974000 2.6845105746 2.7097490338 
Si 8.1139350442 16.2871331090 2.6553530199 
Si 7.9518495427 2.9032038266 28.8624559769 
Si 6.7983709222 1.3736917296 1.2666160934 
Si 6.7940377821 4.0355217369 4.0833374832 
Si 5.3924624593 0.0078956002 5.4006291152 
Si 8.1372134544 2.6762352545 5.4306768787 
Si 6.7448256917 1.3484845833 6.7726268007 
Si 5.3811409092 2.7068441648 8.1220524440 
Si 8.1089340142 0.0031148272 8.1240807404 
Si 6.7427568617 4.0604943071 9.4756216072 
Si 13.7363960156 13.4504087730 21.4304879443 
Si 6.4187324687 9.3692261657 25.9181808171 
Si 9.3759213557 4.1639358081 12.2012464072 
H 5.3408394488 8.5154509679 17.7793804394 
H 8.1156129142 13.8463046466 15.0024687143 
Si 9.5569521274 9.9851999413 17.3579294081 
Si 9.4127041761 9.4223478562 12.0622501475 
Si 9.6380437481 11.0857686414 24.4463329939 
Si 12.1915501415 12.2854131224 12.0398519593 
Si 15.1447153985 4.7085430931 21.9650599675 
Si 3.9564337862 1.1303174983 27.7147878813 
Si 1.5018011777 4.0191991568 27.7216261380 
Si 11.2640138230 0.4229910309 15.8227697592 
Si 3.8177733049 5.0987863366 18.2231427320 
Si 11.5791112959 10.1247237926 14.5474348885 
Si 5.2386359879 5.5516157608 16.3339004703 
H 11.4750670649 3.8151017449 26.3452241516 
Si 2.6480372642 5.4114728895 13.5391976876 
Si 5.0944531966 5.7740882928 0.1555045647 
Si 5.4876938002 8.1212981243 2.8387892554 
Si 8.1441529945 5.3807662392 2.7206438834 
Si 8.3056683460 7.9862866030 0.1282639636 
Si 6.7785948620 6.7767215120 1.4324003544 
Si 5.4200740096 5.3887157593 5.4353709362 
Si 8.1442507345 8.0995509741 5.4631006466 
Si 6.7604478018 6.7559680518 6.7936051813 
Si 5.3869401493 8.1312024444 8.1129830612 
Si 8.1266412443 5.3942217793 8.1299338245 
Si 5.3908823293 5.4178748596 10.8288140868 
Si 8.0359385235 8.0667592038 10.7873788874 
Si 12.3225217427 3.3690652508 19.7501891950 
Si 8.0569200437 2.7257731449 10.8827957486 
Si 4.1826693083 10.0403578818 26.1029876015 
Si 13.6132436145 5.4907074502 13.6353389404 
Si 6.2295892770 6.6323106607 23.1533809195 
Si 7.0128613541 4.5086973712 19.7264291506 
Si 4.6200395223 13.7975486762 21.5804659806 
H 0.1687448535 1.7720913762 25.8608959296 
Si 11.2283061427 10.6245661572 21.0956161966 
H 1.3807550736 13.9643745677 18.7108321310 
Si 3.9145684858 6.8265852024 14.9253065214 
Si 9.2398346945 14.0432018784 21.8955473498 
Si 6.6398040607 1.4111212629 12.2576620248 
Si 6.7002888313 6.7606595718 12.2430582902 
Si 5.5825830511 10.7851366886 0.1527156570 
Si 8.1164111242 10.8226851390 2.7792732417 
Si 6.7244631915 12.2566938521 1.5158531640 
Si 6.7877009721 9.4986990869 4.1751613621 
Si 5.3649323591 10.8573339693 5.4376889893 
Si 6.7105841114 12.2227454918 6.7953147455 
Si 6.7252451115 9.4944473968 9.4694787664 
Si 8.0896466540 10.8493518692 8.1201400501 
Si 6.6553610109 4.0371833169 15.1120546752 
Si 11.8039784580 10.2033067533 16.8200831348 
H 8.8795324712 14.7724563151 24.5766945058 
Si 8.9247698016 12.1555818212 16.6652951383 
H 2.6409185342 2.7993713656 19.6189004619 
Si 2.7013381447 10.9501218101 13.5123082715 
Si 16.2186173683 13.5119849736 13.6191125686 
Si 8.0968468341 0.0719869768 13.4975017072 
H 10.9579573002 2.6473693742 16.9971823926 
H 2.0631773889 1.5984269426 25.3440570127 
Si 4.3279435296 3.3956016611 21.9593227860 
Si 5.7981974930 4.3350459696 23.5256022979 
H 9.3949806559 2.8664535862 26.0670288026 
Si 3.3893300110 1.8208962167 14.8194004698 
Si 15.8600093051 5.5639147109 24.0874114452 
Si 5.3485609089 8.1524446046 13.5818498648 
H 5.7074621922 1.8302629667 17.2138334315 
Si 9.6220469680 6.6002682304 27.7003290250 
Si 15.1767741188 6.8469639926 27.6033185023 
Si 0.6699751261 4.0279143068 20.4733348388 
Si 5.2876688884 13.5692606141 2.7545483077 
Si 8.0709620238 13.5033675635 0.0801142336 
Si 6.7197228015 14.9437782467 4.0193012660 
Si 8.0444256136 13.5924412843 5.4372543544 
Si 5.3738266991 13.5824718042 8.1568232406 
Si 6.7365992416 14.9579831268 9.4839955741 
Si 8.1061810041 13.5807939342 10.7912036750 
Si 5.3697379091 0.0383924353 10.8335081443 
Si 5.3764982592 10.8619766193 10.8207878279 
Si 4.3907089002 11.9086091289 27.4604395036 
Si 8.1376044144 8.3219094761 16.3682366321 
Si 15.9995331563 10.4066385352 16.2084937970 
Si 8.0054762232 5.4121081995 13.6848873257 
Si 1.4287372691 2.1407503696 24.0576244627 
Si 5.1997680476 1.6434655350 25.8364404693 
Si 8.9896365822 11.5651181858 28.0907760960 
Si 12.9620997285 11.7394374774 19.9793866964 
Si 8.0888810240 10.8283703490 13.3741523060 
Si 8.5640277483 7.2731755565 23.1619287404 
Si 9.4516861464 4.0066721466 1.3461253152 
Si 11.2298862727 15.7109883837 0.1379221318 
Si 10.8006773488 2.5875687837 2.6529219617 
Si 12.2066021016 1.3464874293 1.1928759264 
Si 9.4625841565 1.2969055559 4.0667054521 
Si 12.1759931914 4.0019154666 3.9921510689 
Si 9.4842661467 4.0354239969 6.7826523804 
Si 10.8444485792 16.2466524586 5.3904876328 
Si 12.1625376512 1.3591691944 6.7424921102 
Si 9.4294665862 1.3750503156 9.5027718043 
Si 10.8232227090 2.6988457747 8.1532012826 
Si 12.1570642112 4.0725000372 9.5218667668 
Si 10.8222290190 0.0174966005 10.8052568720 
Si 10.0270163717 2.9611473571 19.6274482827 
H 1.1205581592 14.9181377864 0.3309252622 
Si 10.8284517990 13.6105720545 13.4228024457 
Si 5.5850428411 2.7098741048 20.0950865223 
Si 12.1464757111 9.2486475846 27.5990880554 
Si 6.4146762587 4.4072432503 27.6719618501 
Si 6.4071014086 7.1934360058 17.5392301371 
Si 4.0329804969 9.5215539571 12.2006668939 
H 7.5894621994 4.5781253519 18.3171108100 
Si 8.9512736319 5.1558339172 24.5631049194 
Si 6.6767823611 12.4786288141 17.2880401068 
Si 4.0217892668 15.0061363672 12.2134741374 
Si 10.8176352389 5.4945193103 16.2921175630 
Si 10.1830745731 13.5552186340 18.0534612442 
Si 7.0527555645 14.9232365565 27.3327727285 
Si 16.0512864868 15.6958386835 24.1586336271 
Si 11.0697881512 5.0834411565 0.0571976708 
Si 10.9240252299 8.0158855333 2.8278857130 
Si 12.2118311917 6.6778086311 1.3654665708 
Si 9.4833213267 6.7146891914 4.1137329546 
Si 10.8564705993 5.3490821889 5.4141897259 
Si 12.1914524015 6.7464058217 6.7593849223 
Si 9.4743129566 6.7592097618 9.4801707864 
Si 10.8403597891 8.1064742241 8.1317303157 
Si 8.5287110280 13.6909306252 19.7441622569 
Si 12.1575854912 12.3013284525 17.8321451234 
H 10.9034509597 16.1763611079 24.4631099033 
Si 5.9857931347 7.1528576154 25.4243485774 
Si 15.1880142189 8.4297818571 20.9423928860 
Si 12.7805150969 12.7095069862 23.4019341644 
Si 2.2074253402 12.3435358429 28.0108032637 
Si 9.8694757803 3.6516967534 17.3914542512 
Si 15.4099328909 9.5845148077 22.9570128453 
Si 5.4091271295 10.9454954501 16.0522280416 
Si 14.3388816711 5.4464149398 25.8879881754 
Si 10.6774923677 15.9230516056 21.4185789464 
Si 2.7104442548 8.4376173472 27.0684567225 
Si 16.2020341482 2.6573225643 13.4983709772 
Si 9.3734452757 6.8313418825 15.0025266657 
Si 9.5067626369 9.3250802653 1.5858815485 
Si 10.8119174489 10.5432301864 0.1339026278 
Si 11.9739320295 12.0719326704 1.4595157807 
Si 12.2009983416 9.4848525867 4.1336392357 
Si 9.4104561561 12.1596543212 4.1974436476 
Si 9.4707617366 9.4679761466 6.8197412302 
Si 10.8249331590 10.8192805289 5.4795008723 
Si 12.2130040717 12.2240649818 6.7413620593 
Si 12.1954434515 9.4878662368 9.4561209854 
Si 9.4647670166 12.2096483317 9.4460374543 
Si 10.8131066189 10.8372158191 10.7907110888 
Si 9.4243189462 14.9737355569 12.1377027763 
Si 6.8033393722 9.5228734471 14.8307299544 
Si 3.5923685729 6.9266383833 25.5567383857 
Si 13.9680886877 6.4690848592 21.0754201589 
Si 10.9555138002 15.7802860443 17.9053956017 
Si 14.8021204054 1.2699439766 14.8185311999 
Si 1.4091713499 9.5696420375 14.8650950918 
Si 10.0155970816 6.2671051473 21.5829868634 
H 14.7170377346 1.3737438576 0.1619907671 
Si 0.6351585088 3.6574471234 16.7843271656 
Si 11.8089794880 6.7657257619 18.0073030116 
Si 16.2165159583 11.1240664317 18.4388955254 
Si 1.1250281353 14.9080379863 22.4231941894 
Si 3.4460029215 9.9792866713 23.8835096984 
Si 9.4729934666 14.8304161356 1.4173967557 
Si 10.7312819481 13.4762121332 2.8342632567 
Si 12.2024155716 14.9157431564 3.9824731972 
Si 9.4587071365 14.9254845765 6.7586605307 
Si 10.8284029290 13.5646668341 8.0921785345 
Si 12.1686301113 14.9653624969 9.4181049144 
Si 1.9213566476 11.7485272974 23.9080520857 
Si 12.9276789582 2.1422001796 15.9730375522 
Si 0.0746430613 8.2161059251 13.4432592644 
Si 16.1345935476 2.4612724125 27.1854025019 
Si 1.5980799656 4.4225884304 24.0818770934 
Si 14.8620187359 9.5059318469 12.1742410885 
Si 9.1553710437 14.5668276432 26.0640153335 
Si 13.0777424396 15.6834582834 21.0354047671 
Si 6.3270686379 14.8506157358 17.1499131170 
Si 4.8397427543 7.5135996687 21.4216213911 
Si 6.0099023350 0.4421154910 20.4035614402 
Si 13.1939064307 8.6606274492 17.8059221476 
Si 13.4591890831 10.6240122972 26.2607311157 
Si 15.1751614088 8.1939189449 16.6947633885 
Si 12.5098567444 13.6577478949 28.8325820674 
Si 13.5826672842 16.2575015987 2.5730592369 
Si 12.9206090982 3.3382771505 28.9180313003 
Si 14.8314424056 4.0976517975 1.2499927551 
Si 14.8846618361 1.3101118590 4.0030459185 
Si 13.5402807038 2.6797376045 5.3728994049 
Si 14.8687627960 4.0452957370 6.7641369312 
Si 13.5370389938 0.0097851750 8.0656658020 
Si 14.8772010161 1.3553247544 9.4415752021 
Si 13.5513579039 2.7137674148 10.8331024850 
Si 14.8786508261 4.1021478375 12.2048973409 
Si 10.8271974690 5.4688462700 10.8967909943 
Si 4.1355260478 9.6089172279 17.4483914308 
Si 12.1907845115 4.1385885679 14.9235100302 
Si 13.3935240925 13.9847207779 25.2862505632 
Si 10.4685568257 0.8457979847 23.3672502947 
Si 16.0454057967 13.3521312021 21.3007638970 
Si 2.6962393747 13.6948565152 16.2507692906 
Si 6.1676058264 12.6582586458 24.2782161920 
Si 15.7244439238 10.4679052257 26.8890104360 
Si 7.2843667866 9.3900284959 22.4396813421 
Si 14.8388380657 12.0795401005 14.9583387782 
Si 4.9892035056 9.7803368994 22.0709949947 
H 13.6719853550 16.0407631467 27.3210665603 
Si 13.5418282538 1.8339607968 25.0210652873 
Si 11.9360089092 2.6796072845 23.5638501743 
Si 13.5976703744 5.4035396594 2.7385334583 
Si 13.5759883842 7.9889092931 28.9441383734 
Si 14.9431918067 6.7897046421 4.0511165449 
Si 13.5754833942 8.1127458742 5.4316620512 
Si 13.5209281837 5.3971376894 8.1381049618 
Si 14.8763539361 6.7768029620 9.4733904811 
Si 14.8387077457 14.8041403654 17.6525249829 
Si 12.8023274071 16.1391384576 26.0605382539 
Si 13.4023044026 10.4424113755 23.8908984927 
H 8.7559402401 6.8946611131 18.7431979476 
Si 6.8872165830 14.1444116494 22.6284288167 
Si 11.7940415579 9.0926545432 22.8142787250 
H 14.8889461062 2.3790079118 18.4684796782 
Si 8.2044911550 2.6070353338 16.2209823081 
Si 15.2301564493 6.7404111016 14.8405816801 
Si 10.7115873380 8.1666331947 13.5696221347 
Si 9.8505630901 9.5177746770 19.5947637338 
Si 14.7383450548 1.1522959665 21.4402237674 
Si 10.0461082519 12.4138109035 26.2531684674 
H 4.8919033347 12.0926046806 23.6761888232 
Si 14.7587401350 9.4283425762 1.3962097502 
Si 13.5127343136 10.8490423592 2.7515956876 
Si 14.9644665469 12.2487769120 3.9763883077 
Si 14.9282050065 9.4930301668 6.7500837342 
Si 13.5495985839 10.8382420891 8.0859777424 
Si 14.9152544564 12.1941239615 9.4139903701 
Si 9.6770908785 0.6116813606 19.5037801492 
Si 14.9423935967 14.8344886357 12.1083794044 
Si 11.0208041208 7.7549360209 26.2001140268 
Si 2.6064814738 8.2218725852 16.3494024505 
Si 9.5091735570 1.4477428122 14.7042801572 
H 3.1811112291 12.4290746337 18.4430390453 
Si 4.0176516067 15.4773246216 19.9929473071 
Si 0.5451644030 11.2685750231 22.0807887691 
Si 1.0882583470 8.1139839142 20.1142394362 
Si 2.5673691835 0.0438805363 13.5114679772 
Si 9.8484779701 11.8143063180 14.5378149681 
Si 12.2848429724 12.6137869454 26.7670228910 
H 6.8014823122 9.0835158531 19.2875927209 
Si 7.7029383404 9.8851467604 20.2055997044 
Si 12.1809942214 1.3636847825 12.1724156216 
Si 14.7959464953 13.3780323024 28.7041039737 
Si 15.2106898991 15.0387978175 1.3045829058 
Si 13.5701402741 13.5695701241 5.3482700905 
Si 14.9021247163 14.9269180965 6.7266424221 
Si 13.5579716440 13.5881570143 10.6986843802 
Si 4.6281519423 0.3867017975 23.9802014888 
Si 1.2800454057 12.2395567719 12.1841797412 
Si 0.8811244791 7.4226037279 17.8681618736 
Si 13.9937780180 3.2852857800 26.7926663535 
Si 4.9830947556 11.6948517470 20.6936947627 
Si 6.7160738414 12.2658162522 12.1450915706 
Si 12.1913709515 6.8306902825 12.2886370095 
Si 7.6107043596 15.7637842742 19.0062390244 
Si 4.0100441767 15.1948397290 17.6149145712 
Si 0.1745196586 7.8983043122 24.2722182295 
Si 11.1338730118 4.3719591100 24.9679528953 
Si 3.4400082015 11.1029383015 19.1095952176 
Si 2.5939055937 6.9993732340 21.5854787705 
Si 10.0363179618 8.7962742804 24.3505684247 
H 14.4103459018 5.1126491268 18.2400355441 
H 0.0120255876 5.7379244925 15.2216406360 
Si 0.9057891683 1.4602665644 17.6774730295 

