&CONTROL
  dt          = 30.D0,
  prefix = 'aSiHcSi_merged-19',
  pseudo_dir = './',
  outdir = '/scratch/ztzhao/aSiHcSi_merged/aSiHcSi_merged-19',
  wf_collect=.true.,
  verbosity ="high",
/

&SYSTEM
  ibrav= 0, nat=  406, ntyp= 2,
  ecutwfc     = 42.D0,
  nbnd=1540,
  degauss     = 0.05D0,
  occupations = "smearing",
  smearing    = "methfessel-paxton",
/
&ELECTRONS
  electron_maxstep=200,
  conv_thr    = 1.D-8,
  mixing_beta = 0.3D0,
  scf_must_converge=.false.,
/
&IONS
/
ATOMIC_SPECIES
Si  28.08  Si.pbe-hgh.UPF
H  1.00784  H.pbe-hgh.UPF

K_POINTS {automatic}
1 1 1 0 0 0

CELL_PARAMETERS angstrom
16.29000014898320 0.00000000000000 0.00000000000000
0.00000000000000 16.29000014898320 0.00000000000000
0.00000000000000 0.00000000000000 29.44278799521780

ATOMIC_POSITIONS angstrom
Si 10.5630876966 2.0841589091 17.6487137512 
Si 12.4571423039 15.8715426252 20.7586965616 
Si 7.7805113212 11.4820066050 15.7631976080 
Si 2.0380582086 6.1708801164 17.1237782841 
Si 1.8661824171 3.1284619486 27.1446900638 
Si 12.4203594836 14.4230195219 22.5694869089 
Si 10.8816386495 15.3601669405 24.1471492608 
Si 6.8516392227 7.0185139842 19.2711880265 
Si 4.2072834985 4.5192858713 19.6794417249 
Si 13.4616162931 13.7073183654 27.7549212878 
Si 4.2319465587 7.4099138178 23.0554401247 
Si 10.8452956592 10.8561936693 27.4905544944 
Si 16.2206861983 0.4878464085 16.3912122760 
Si 13.4738337932 4.5170867213 20.8840050673 
Si 11.0335103209 7.5232433488 26.4239600565 
Si 5.5914122311 8.0956902440 21.1339448946 
Si 2.6603525043 13.9996098380 20.7016953240 
Si 15.0134994473 1.1738362337 28.0312712959 
Si 12.5125283044 10.7471321183 23.1283699106 
Si 9.8589850202 13.6655833850 25.3853068244 
Si 1.9817273881 9.6510431683 25.8436427051 
Si 1.5939276446 3.8672786154 17.2969902059 
Si 1.1330574764 14.3049007308 25.9013800124 
Si 3.6585874235 5.1737040473 23.6026048969 
Si 1.8058931265 0.3905478666 23.2618929542 
Si 15.9592642760 0.5184455447 20.6536446940 
Si 4.7198809332 14.6860867343 19.9028241574 
Si 6.9357607834 9.3471532155 28.0309179825 
Si 2.9547290970 9.0664276429 15.8144575019 
Si 3.5532074125 15.8523204250 16.6581111491 
Si 15.2721357797 11.2725660731 26.0434709072 
Si 15.3247199002 4.0948336275 12.3418573146 
Si 5.3132604786 3.2154668394 15.6736326470 
Si 1.6329421949 1.5290217680 11.9686405340 
Si 10.4260887954 15.9920397563 17.4562168033 
Si 2.5504927433 10.3972066251 21.7404368845 
Si 6.5078713495 3.1425527987 23.4123161580 
Si 12.7632151167 8.9491233518 17.4997921296 
Si 6.9181838733 9.2752328648 22.7138154556 
Si 10.9236342699 5.1027773867 12.8873438478 
Si 14.6904198744 13.5536873740 18.5986558631 
Si 0.1725925516 8.5179433379 19.2831417984 
Si 3.9705735063 6.6847318811 28.0946027329 
Si 0.6027071995 13.6471919748 17.7504974693 
Si 9.4332295763 0.6122938646 23.0869439079 
Si 2.1499053497 8.2055011350 22.3791981701 
Si 10.2349745136 9.1237847334 19.9081238592 
Si 6.8922664830 12.2986731825 12.0754295261 
Si 9.0684801829 1.9660564080 14.4273783167 
Si 8.3946931968 12.7023393862 23.7941596755 
Si 1.5330388820 15.9116160255 17.8902034984 
Si 5.5362054206 13.4923555234 26.4022901645 
Si 14.4247136819 3.3851923510 19.0718014662 
Si 1.7394462159 5.8829380738 24.7449850711 
Si 7.1667529855 6.9351743434 12.2589758664 
Si 14.5080533227 6.0127693750 16.0844773106 
Si 5.4508783999 7.9353966426 26.7545731229 
Si 7.4449373181 14.1579486395 22.2047790940 
Si 7.0644843646 0.7421561168 17.7033595658 
Si 12.7354080865 6.7295945415 12.7113054184 
Si 0.1419984652 2.3759291017 13.5859917641 
Si 3.9029211357 12.1272860909 17.5622697257 
Si 16.2422704485 7.7445592908 13.3440603752 
Si 2.0026437483 10.0622842220 19.4931277624 
Si 7.9164025024 10.7651651485 13.5041408135 
Si 4.6369648324 11.5021736252 22.1951513023 
Si 5.4025133894 10.4613403557 18.2716053741 
Si 1.6470167551 6.7951292121 12.0977766021 
Si 4.1607918381 1.6029327567 28.4649341203 
Si 2.8865391564 5.4470013798 13.5218064863 
Si 6.6748112710 15.2861777598 27.4372630481 
Si 6.9680638537 11.8779676386 25.4290293646 
Si 12.4435890238 9.0707119130 27.4339654559 
Si 15.2905923498 9.9437093109 20.7768922046 
Si 13.4507345730 12.0772920805 24.8202408372 
Si 8.7463454300 10.7514652583 22.5169609751 
Si 7.2663174665 7.6480410399 16.9250983507 
Si 8.3414574763 15.2520827895 16.4277213331 
Si 4.1389306579 15.0810377879 12.8571649901 
Si 11.2502324829 2.9106157766 13.9222578458 
Si 7.8537511618 7.5734165493 24.0007302761 
Si 0.4073037607 16.1049783273 14.1987845107 
Si 15.1473055085 9.4274140462 12.1120269115 
Si 5.5592069008 10.5309475263 24.1138200248 
Si 5.1079087367 0.3632930673 21.1279091231 
Si 1.2197626312 9.3052879151 28.1420645072 
Si 9.0226889925 7.0899945048 20.0367594000 
Si 15.1513128486 4.3905948702 22.4650827827 
Si 5.3858161393 4.4152253504 25.0053770881 
Si 11.7987167879 12.6661430058 26.3702269684 
Si 12.2515787920 15.7436335440 15.9467733912 
Si 1.6097370897 12.4728295741 12.2229673367 
Si 2.7877077255 15.8631206951 25.2024671109 
Si 5.9312867942 15.6746779734 23.1283993534 
Si 10.6675880476 9.8761872603 17.7627751119 
Si 12.4479384538 1.4998366037 12.3886713475 
Si 3.0764479781 3.9177287458 21.7082264745 
Si 0.8842912551 15.1447153985 21.7060477081 
Si 9.7010697587 6.6256317606 28.1150065850 
Si 12.5672789949 6.2380274971 19.7362663057 
Si 8.7129509297 9.4862535268 16.5519993412 
Si 3.3680226908 1.5848980975 26.2870805351 
Si 3.5738794227 6.6318545407 15.3971648677 
Si 12.4048676935 7.0379805344 16.2704379596 
Si 6.7764608720 4.0236789068 28.2376652398 
Si 10.6850346377 12.8140236272 19.8370195262 
Si 11.6392376864 3.2273911195 21.5515025140 
Si 8.1618113546 16.0881507571 14.0762141843 
Si 7.1073270650 13.3196489418 17.2054820208 
Si 6.3101270377 8.8228269807 13.4448724813 
Si 14.2687206405 10.6202818871 17.0143099983 
Si 10.4787869458 15.1670652787 19.7045564230 
Si 14.4628322823 9.0655642729 26.1877405684 
Si 10.2067928133 3.2220154195 19.6720810279 
Si 1.3862366587 6.9641216737 20.5504771649 
Si 14.2521374203 5.6201803714 24.4181406815 
Si 4.1679105681 8.9083494815 25.0400312496 
Si 14.7360155848 4.5547329117 26.5033083701 
Si 8.4492809873 2.3634183816 16.6987421966 
Si 5.1994422476 13.1203896600 13.4547358153 
Si 4.4741137009 14.4835694525 24.5115920906 
Si 3.0483477279 1.5473170672 21.6019674526 
Si 0.9366717506 8.0812898839 24.3654380910 
Si 3.2931212701 13.2597831913 22.8615888086 
Si 12.1430222311 8.1121268542 20.9800474418 
Si 1.3393703282 11.9679373095 23.0214337046 
Si 10.3519204247 11.1183649317 13.0032601041 
Si 7.8960562922 3.3035305802 12.9458172248 
Si 0.8851090131 4.7814082637 21.2272490898 
Si 15.5757325125 7.9531201627 27.9420007627 
Si 14.1642691595 3.7957980947 16.7437896622 
Si 0.1831582457 13.7744168760 13.6517669525 
Si 12.0065283198 10.3053961842 14.4345623570 
Si 13.9319085974 15.7911677644 26.7932315035 
Si 10.3837022150 16.0802989771 27.7929319271 
Si 9.5501591973 13.0393143293 15.9742435124 
Si 10.2512482238 3.0034687775 25.7757476360 
Si 14.7249709647 5.9608694345 13.7137440213 
Si 5.5201271905 2.6873776146 26.7132648913 
Si 0.7497749499 12.5966009952 15.6271719275 
Si 0.6496012229 8.7347306599 15.3250005943 
Si 9.0935179132 11.1585523621 20.2877297248 
Si 2.2307363304 5.4538594699 26.9501321208 
Si 7.0839509148 4.2331845987 16.8499897985 
Si 15.4562453614 15.3973895908 25.1117538811 
Si 7.3114733469 1.0001066401 24.0510480008 
Si 12.8473203875 1.3687737785 22.1913531827 
Si 13.8417271566 9.0035156623 22.3087710212 
Si 4.3518572498 4.1400220879 12.2200525007 
Si 2.8350627559 11.4708805349 15.6006145327 
Si 8.1958411650 5.3150035086 26.9332614032 
Si 4.4287949205 9.6559138783 12.2579748116 
Si 4.8643732345 1.4446216482 17.1117361838 
Si 11.0211299208 12.1979521116 17.6294876107 
Si 5.3928371293 8.0935725440 15.4956509935 
Si 14.2939375607 15.7447575540 19.3538339324 
Si 14.3587391813 13.9256043674 23.7176967551 
Si 12.7548909267 4.1263710677 27.8780804700 
Si 7.1480683554 1.0202915793 26.3503825293 
Si 16.1521704577 1.2172230201 24.3141781971 
Si 0.9103829483 14.2905981107 28.2035410485 
Si 4.1024410575 8.8857063813 19.4550287948 
Si 11.8397024283 0.1170372980 25.9974223868 
Si 9.6138530979 14.9686693669 12.5354436457 
Si 9.1175782434 1.7140012357 27.4420916654 
Si 5.7136849723 2.6583162543 13.4507021533 
Si 8.6211079088 5.5157777604 13.5005782362 
Si 10.6920067578 5.4754600101 16.7129336204 
Si 15.8966943854 13.2348269110 22.1403877166 
Si 14.2125853000 13.2383781311 13.1040427675 
Si 10.9989429406 7.3228926370 22.8221943582 
Si 8.4709955575 5.8497390535 15.8771117548 
Si 8.5059864778 10.4715541858 26.6759314362 
Si 2.7721344854 16.1793421780 14.4820830168 
Si 16.2642619487 7.3752975675 17.0925983716 
Si 3.2247195595 6.6378981307 19.1053368017 
Si 11.8514638084 3.4366850414 16.1700674953 
Si 6.5150063696 4.6737476527 19.1418164161 
Si 4.9132921049 14.2108259800 17.6059333803 
Si 6.0089738050 12.9138487481 20.8294181384 
Si 9.3931398859 8.7917619504 25.3152035462 
Si 7.1571418855 1.0354510535 20.0813946666 
Si 3.4718551518 11.5175676753 13.3765063276 
Si 10.5135498062 9.5699026775 23.4691407389 
Si 8.3934714468 4.0980264675 22.4784792512 
Si 3.3535571707 2.7186707049 18.3871388742 
Si 7.9684001829 3.2381913896 20.3464386441 
Si 13.1999337307 12.6854303660 16.9507724618 
Si 1.6636814252 1.3820745636 19.6226171440 
Si 15.4986645217 12.5545076348 28.0340683608 
Si 7.1434745753 11.8229563081 19.1046007320 
Si 2.0775125890 12.3655762131 19.0460684695 
Si 11.9293300091 6.1980518367 24.6535357716 
Si 10.1477089828 2.8440548360 23.3519289999 
Si 4.3005111693 12.2638288722 28.0136645087 
Si 15.7170156837 10.7076288679 15.2682937846 
Si 0.4516174481 3.4807820718 19.3187381291 
Si 15.0949657381 1.9805870881 22.3846156431 
Si 5.9779087747 0.3211736429 13.0034367609 
Si 11.6958454370 8.0277283634 14.2963284673 
Si 14.5704440233 12.1864839515 20.4981867734 
Si 14.8894999662 7.8959422622 24.1731177998 
Si 8.9231570916 6.3855497384 22.2938140849 
Si -0.0299664327 2.8178279358 15.9305504150 
Si 12.3803838232 12.3717501231 21.4080866936 
Si 10.4615847057 5.4827905101 19.0444196734 
Si 1.1213026123 11.8468537383 25.2959774056 
Si 10.6164537371 13.2914346616 13.8915784608 
Si 6.6594823809 6.3333565779 25.5563399798 
Si 8.8392310108 14.3130946009 27.5078079682 
Si 14.0339165783 0.2888836046 17.1909961691 
Si 14.1139493491 10.9188287199 13.5795143508 
Si 16.0068147864 2.5286315631 26.3419913347 
Si 0.0336305424 5.7895637929 27.7070767573 
Si 8.7074123296 15.8553177850 21.0951981856 
Si 12.7226367264 13.7356303856 14.8583029618 
H 4.1176233377 4.1509200980 15.6292329227 
H 5.7592969727 13.1810536205 14.8568308224 
H 0.1068250969 10.2425330737 21.7832761410 
H 13.9580051777 1.9907031782 19.4875925183 
H 13.4364482429 0.6013958545 13.1078114443 
H 15.2210666292 10.6743321076 18.1833064529 
H 13.3949901925 6.4156373687 18.4958710902 
H 13.4965420534 1.6839950554 17.2674885323 
H 15.7332568139 15.5245167520 11.6262503524 
H 11.1254510817 4.9248417150 24.7553489324 
H 3.0929497483 1.3669574435 14.3132875132 
H 5.8887861839 9.7437984291 17.0263226558 
H 10.2184238735 7.7579170910 14.0854592197 
H 9.6089823879 3.9775782064 10.3989277348 
H 2.9652198571 8.9011655914 17.3300544568 
H 0.5736181462 4.9420765352 24.4159030296 
H 9.4482489564 8.9291192317 11.4798608105 
H 13.2723753614 8.6840687594 18.8916704893 
H 12.4544055839 1.0066258982 23.6220371369 
H 5.5234666405 2.9285999368 22.2703481829 
H 9.3728262557 9.1226933034 15.2482726888 
H 2.6539179543 0.4256430429 12.3002546552 
H 9.1761570839 4.4346919006 25.9131276848 
H 3.5019264920 11.3059442834 27.1649172592 
H 11.7623575076 3.4709917817 26.6601206590 
H 11.5876635460 1.6362001950 25.7213373638 
H 11.9527713193 0.5422745570 14.9545808785 
H 1.9490659378 4.4474795507 14.1609799709 
Si 0.0875892131 16.1666522679 29.4085460328 
Si 0.1191750347 2.6160599939 2.8017168200 
Si 2.8946027065 16.2863511889 2.6688061865 
Si 2.4011460220 3.0148717776 29.5175726767 
Si 1.4269518851 1.2817916937 1.3490302703 
Si 1.4921689006 4.0722719772 4.0695821567 
Si 4.2399286588 1.3693748795 4.0416703937 
Si 4.1078004676 4.0788368473 1.3833958925 
Si 0.2094665959 -0.0254712071 5.5454313477 
Si 2.8769443463 2.7365408350 5.4025160548 
Si 0.1723742656 2.7445880951 8.1344534673 
Si 2.9912024074 16.3652599497 8.1617763746 
Si 1.5784309674 1.3894506757 6.8235427746 
Si 1.5840347275 4.1456584279 9.3772041058 
Si 4.3682287000 1.4603675624 9.5061635172 
Si 4.2398797888 4.1426936479 6.6985581396 
Si 0.2435110672 0.1493675726 10.7255954676 
Si 3.0148554876 2.9248369467 10.7410529313 
Si 0.6058658305 4.9013678248 0.3292675310 
Si 0.0716285968 8.1994086750 2.6732667689 
Si 2.8918171164 5.4830511501 2.8232512752 
Si 2.7770703554 8.1493983745 0.0383077170 
Si 1.5037706388 6.7665891319 1.4551303011 
Si 4.2525696989 6.8609245227 4.1148062791 
Si 0.1814445377 5.4710454200 5.4383773706 
Si 2.8709007563 8.2192498952 5.4556602871 
Si 0.1981369008 8.1983172450 8.2285231750 
Si 2.9620921771 5.5379647406 8.1077488586 
Si 1.5258370730 6.8551904427 6.8087036095 
Si 4.3182509795 6.8740705529 9.5380794994 
Si 0.2739424165 5.4141607395 10.8086830153 
Si 3.0167614176 8.2823573557 10.9152953507 
Si 1.4918219236 9.5118939870 4.0538302651 
Si 4.2315555987 9.5358728672 1.2990099178 
Si 16.4157589501 10.9430519501 0.0465902677 
Si 2.9113814066 10.8511600592 2.7470032871 
Si 1.5485420752 12.1971050316 1.4162010468 
Si 4.2655202490 12.2456981020 4.0715548235 
Si 0.1743991126 10.8792928895 5.4544236901 
Si 1.5923002736 9.5933928577 9.5619576005 
Si 4.2303827187 9.5826088776 6.8279297500 
Si 2.9020309465 10.9790528504 8.1958416803 
Si 1.5128946678 12.2631284022 6.8129139282 
Si 4.2267663387 12.3970810734 9.5617515010 
Si 0.2596202484 10.9402663601 10.9468580194 
Si 16.4335150503 13.5796047642 2.7332829479 
Si 2.8118169257 13.4995068335 29.3765417222 
Si 1.5206568529 14.9594329368 4.0681689029 
Si 4.1882079083 14.8977427063 1.2595212505 
Si 2.8886242764 13.6085520945 5.4340787235 
Si 0.1786296256 13.5778943142 8.2626179235 
Si 1.6059382617 15.0260590374 9.4809016051 
Si 4.2741702391 14.9782641770 6.7755804730 
Si 3.0000478774 13.8969502571 10.9800694843 
Si 5.5722389010 16.2367970085 29.3496898996 
Si 5.5758064110 2.6792651945 2.6193246370 
Si 8.2902254258 -0.0144440336 2.7224450577 
Si 8.2744241257 2.7044006647 29.4117552967 
Si 6.9561232836 1.2772647027 1.2896559440 
Si 6.9654737437 4.0524959171 3.9743641803 
Si 5.6159449714 0.0344970075 5.4098767518 
Si 8.3178858461 2.7336575050 5.3941837458 
Si 5.5961363312 2.8149608957 8.0472439293 
Si 8.4101524069 0.0434211583 8.1315975169 
Si 6.9897947139 1.3883706487 6.7838833392 
Si 6.9214744533 4.1425959079 9.4602327680 
Si 6.2610126873 0.6569007720 10.7126700837 
Si 7.8988581722 2.4125001521 10.7315134680 
Si 5.4254659996 5.4537128599 29.4825357590 
Si 5.5802698710 8.1788995648 2.6925429622 
Si 8.3510848664 5.4113099895 2.6287551620 
Si 8.3264869662 8.0764843339 -0.0188096134 
Si 6.9132642932 6.7685928019 1.3426470739 
Si 5.6405265816 5.4430591998 5.3491657230 
Si 8.3377922263 8.1639942147 5.4028988111 
Si 5.6368776216 8.1771565348 8.0971788977 
Si 8.3126567560 5.4290172197 8.0725058414 
Si 6.9676077337 6.7920992721 6.7280598132 
Si 5.7085047522 5.5682478509 10.9216255501 
Si 8.3992381068 8.1522654146 10.7245355273 
Si 6.9031156231 9.5125944570 4.1200470953 
Si 5.6464561416 10.8446440592 29.3480116607 
Si 8.2478877154 10.8395289991 2.7670155501 
Si 6.9951541240 12.2012101116 1.2848508810 
Si 5.6087285013 10.9249537599 5.4874290554 
Si 7.0125681341 9.5389028072 9.4355008260 
Si 8.3860594967 10.9425469601 8.1822096694 
Si 6.9523602936 12.2841262123 6.8820455944 
Si 5.6230637014 10.9203273999 10.7093136059 
Si 5.5944421712 13.5745222841 2.6253986841 
Si 8.8694489611 13.1321673301 29.5852910891 
Si 6.9208554333 14.9227315665 4.0476178369 
Si 8.2626138756 13.6040397644 5.4709116513 
Si 5.6260773515 13.7036205353 8.2145378507 
Si 7.0538144145 15.0623205778 9.5376378576 
Si 8.3660553765 13.7155448154 10.9490367857 
Si 9.6648407984 1.3559144524 4.0604843352 
Si 9.7409313891 4.0512741671 1.2509916749 
Si 11.3975266642 15.8513918950 0.4210789768 
Si 11.0069576207 2.7364756750 2.7219945830 
Si 12.4198382036 1.3712628905 1.4652939516 
Si 12.3847169633 4.0931068874 4.0678155894 
Si 11.0325003409 0.0527365949 5.4624615712 
Si 9.7038227687 1.3519576114 9.6256129081 
Si 9.7005973487 4.0568942171 6.7739905624 
Si 11.0350578709 2.7100858748 8.2080309945 
Si 12.3756271432 1.3437800313 6.8766870070 
Si 12.4643913540 4.0732493773 9.4774862417 
Si 11.0106228707 0.0465835360 11.1375884000 
Si 9.6873209986 6.8031276022 4.0104610384 
Si 11.2123908125 5.3315215688 29.3223081067 
Si 11.0751312713 8.1492517645 2.6368430958 
Si 12.4644076440 6.7732191619 1.2622270427 
Si 11.0350578709 5.4659629400 5.4236265338 
Si 9.6824339986 6.7639990219 9.3966363459 
Si 11.0535796011 8.1879893849 8.1683715591 
Si 12.3978304134 6.8277092124 6.7930106035 
Si 10.6782905777 5.0282995060 10.5961649716 
Si 9.6040790978 9.5120894670 1.3756023865 
Si 12.3676450431 9.5051499269 4.0862762175 
Si 9.5872841077 12.1411163010 4.2219780274 
Si 10.4999476560 11.3909617942 0.2646962582 
Si 12.2268994418 12.2847126524 1.5684055394 
Si 11.0518854411 10.8491400992 5.5094228180 
Si 9.6694345784 9.5117147970 6.8230128044 
Si 12.3449204929 9.5342112872 9.6125991958 
Si 9.7173108889 12.3318396228 9.5683466855 
Si 12.3996386034 12.2247491618 6.8911139731 
Si 11.4273210745 11.3577953539 10.8709839547 
Si 9.6924523486 14.8030000654 1.5908792195 
Si 10.9856340105 13.5601219240 3.0573979910 
Si 12.4357861137 14.9666331169 4.2213891716 
Si 9.6897319186 14.9529983868 6.7590630689 
Si 11.0415087110 13.6727509850 8.1858900179 
Si 12.3409946029 14.9488607267 9.7209192129 
Si 13.7839628161 0.0889319978 2.9025465918 
Si 13.7270618455 2.5954205637 -0.0602484826 
Si 15.1183093083 1.3770442116 4.2893136835 
Si 15.0704004178 3.9196835458 1.3994274905 
Si 13.7000204453 2.7612364753 5.5214060327 
Si 13.7144370954 16.2968419490 8.3012468613 
Si 15.0552832977 1.4815608525 9.5502982564 
Si 15.1100828582 4.1309648478 6.8027856091 
Si 13.7829365461 2.8615991662 10.9940548086 
Si 13.7744657460 5.4171906795 2.6856798483 
Si 13.6794787551 8.2933693958 -0.0828099022 
Si 15.0961549081 6.7945101921 4.0602487929 
Si 13.7571006058 8.1567777446 5.4258936285 
Si 13.7737815660 5.4979402103 8.1575071703 
Si 15.1094801282 6.8098716623 9.5701132528 
Si 13.6498146648 8.0821043839 10.9217138785 
Si 14.9722857469 9.6319349981 1.3500872664 
Si 13.6932438052 10.9355422600 2.7923451806 
Si 15.0888895680 12.2609618321 4.1433068978 
Si 15.1219093983 9.4973307269 6.8073786840 
Si 13.7687968259 10.8079915588 8.2037617903 
Si 15.0595675677 12.1944823415 9.6027358619 
Si 13.0509453894 14.1666149196 0.4921244242 
Si 15.0140695973 14.9991968272 1.4846408075 
Si 13.7821057560 13.6006025744 5.5703105036 
Si 15.1177065783 14.9597913168 6.9467313996 
Si 13.2532509012 13.0702653295 10.9106139474 

