&CONTROL
  dt          = 30.D0,
  prefix = 'aSiHcSi_merged-25',
  pseudo_dir = './',
  outdir = '/scratch/ztzhao/aSiHcSi_merged/aSiHcSi_merged-25',
  wf_collect=.true.,
  verbosity ="high",
/

&SYSTEM
  ibrav= 0, nat=  406, ntyp= 2,
  ecutwfc     = 42.D0,
  nbnd=1540,
  degauss     = 0.05D0,
  occupations = "smearing",
  smearing    = "methfessel-paxton",
/
&ELECTRONS
  electron_maxstep=200,
  conv_thr    = 1.D-8,
  mixing_beta = 0.3D0,
  scf_must_converge=.false.,
/
&IONS
/
ATOMIC_SPECIES
Si  28.08  Si.pbe-hgh.UPF
H  1.00784  H.pbe-hgh.UPF

K_POINTS {automatic}
1 1 1 0 0 0

CELL_PARAMETERS angstrom
16.29000014898320 0.00000000000000 0.00000000000000
0.00000000000000 16.29000014898320 0.00000000000000
0.00000000000000 0.00000000000000 28.96881123518865

ATOMIC_POSITIONS angstrom
Si 16.0470836668 0.0595647113 28.8668410196 
Si 0.1031767884 2.5203399531 2.8188652180 
Si 2.7547204752 16.2330503085 2.5304807021 
Si 2.1136926793 3.2288083495 0.0652438464 
Si 1.3055050469 1.2965895299 1.2219450142 
Si 4.0743245173 3.9525567661 1.2179473183 
Si 1.4780536155 3.9796796164 4.0432638905 
Si 4.1757786382 1.2576613165 3.8850941812 
Si 0.1091034163 16.1779086580 5.4440217890 
Si 2.8590579261 2.5955834637 5.3321732088 
Si 1.4883212026 1.2790533447 6.7273111579 
Si 4.1641964481 3.9559125062 6.7302370078 
Si 0.1085946796 2.6083059539 8.0800967050 
Si 2.8050402857 16.2169069183 8.1185672863 
Si 1.4291477771 3.9413492460 9.4838673598 
Si 4.1735469082 1.2792488247 9.4771465956 
Si 0.0734372755 16.2266320484 10.8555695406 
Si 2.8062294557 2.6139911639 10.8534548174 
Si 5.2165141677 1.0881492040 23.8084230770 
Si 4.7188872432 3.3452655606 23.5045112783 
Si 7.7649543710 1.0271496694 21.5432937889 
Si 15.0657740578 14.6442377239 17.5150357426 
Si 7.2737131265 14.0912247989 22.9461953794 
Si 5.5935625112 16.2537874787 10.8106099456 
Si 15.9952000163 2.1141325093 18.6189212635 
Si 10.9422537401 13.1237942700 23.5427501092 
Si 12.0208309399 15.0391724875 14.7764691725 
Si 3.8249409050 13.2702250814 21.7455250601 
Si 6.0995136258 14.0809620988 18.8440958332 
Si 12.1733379213 6.7156991714 12.1086154706 
Si 11.4140773044 3.1371933887 13.4462792982 
Si 13.6935044452 11.1556527420 18.7495416334 
Si 12.3999969834 6.4310965788 25.4019394454 
Si 0.4226456829 4.9753570055 0.2238159325 
Si 0.1138760605 8.0679646638 2.6844702120 
Si 2.8535519061 5.3573575090 2.7079841961 
Si 2.7949730656 8.2326891453 0.0083509841 
Si 1.5097702458 6.7275582915 1.3490022203 
Si 4.1578270580 6.7076844913 4.0649615301 
Si 0.1043604199 5.3084549285 5.4165593559 
Si 2.7836189355 8.0079685932 5.4463392939 
Si 1.4341781291 6.6503111108 6.7913032619 
Si 0.0497141483 8.0342769435 8.0875996271 
Si 2.7939956656 5.2837267083 8.1129763057 
Si 4.1824575383 6.6679206010 9.3958311425 
Si 0.0307587783 5.2914970384 10.8144627975 
Si 12.3251281427 1.3415499303 12.1759679567 
Si 8.2158778651 10.7973867687 13.4490023664 
Si 4.8306203542 2.0322263886 28.1064676623 
Si 3.4661699417 10.5085161961 25.6615289629 
Si 14.9402596066 1.9151338675 27.8336104293 
Si 1.5913831466 14.7047713645 14.7892154494 
Si 8.8135091006 12.3494328229 22.8266700642 
H 0.4782972104 3.4597516816 21.2330957582 
H 15.1814656388 9.2021396342 26.5889944234 
Si 0.0558693248 7.9682698629 13.2788685380 
Si 0.3424060291 5.2107963777 16.7313714611 
H 1.5925299626 5.7458414325 22.1362563861 
Si 14.8432037858 9.2742391748 24.1011818833 
Si 5.9881063148 6.3745539883 22.8421394094 
Si 4.0888063274 9.5233132771 1.4344689041 
Si 15.7921614544 11.2927656733 0.3230920486 
Si 2.7041888947 10.7295552081 2.8543404242 
Si 1.3895989147 12.1072331007 1.5086638234 
Si 1.3862741257 9.3605435956 4.1582990399 
Si 4.1523699080 12.1639711712 4.0129335452 
Si 4.1351350878 9.4100326161 6.7422590645 
Si 0.0123562746 10.7882643687 5.3902267065 
Si 1.4147506749 12.1399597110 6.7102195593 
Si 1.4172625930 9.3941824459 9.4219899790 
Si 2.7612038953 10.7684557285 8.0670607399 
Si 4.1415044779 12.1313260109 9.3885889396 
Si 12.3437639029 12.1068421407 12.1500698395 
Si 6.8991245731 12.1116802708 12.0201157523 
Si 2.8204017558 8.0314099035 10.7262527672 
Si 1.7508980860 13.1694388504 27.2187184420 
Si 1.4142049599 9.3912176659 14.4952109842 
Si 13.6191894646 10.7396387182 13.5510594884 
H 9.8055701097 1.7975200664 19.4462415436 
Si 4.2188168186 1.2827332557 14.8346675142 
Si 1.4307670031 3.9908545565 14.9859716153 
H 14.9867838471 8.5520057282 15.3831919550 
Si 2.1968694201 11.6754340668 17.2158458601 
Si 2.8426213160 8.2240554452 15.8387554805 
Si 5.6119539213 2.6590493043 13.5567373754 
Si 6.2418719371 8.6104868287 27.4607238911 
Si 5.5350814106 8.0927580440 13.4646744933 
Si 5.7208688623 -0.0000130047 16.0965779005 
Si 9.4188780861 6.8899533030 14.8001077224 
Si 0.0335991027 2.6409022442 13.6388349865 
Si 0.0507467714 13.5792789642 2.7013764103 
Si 3.1069102784 12.9883592088 0.1537716644 
Si 4.1140721176 14.8404344857 1.1982195578 
Si 1.4518886173 14.9083149163 4.0109346972 
Si 2.7787645154 13.5075378035 5.3610551136 
Si 4.1206369877 14.8554538659 6.7341477974 
Si 0.0818570878 13.4767497033 8.1065162608 
Si 1.3997883098 14.8845315161 9.4411673320 
Si 2.7837981255 13.5105840336 10.7120580497 
Si 6.5279243397 9.1905900241 23.8855959901 
Si 0.3804790175 10.7329923982 16.0465487635 
Si 5.9520891244 9.6389722782 20.3022119780 
Si 5.4762745101 5.3718556091 16.2295447440 
Si 8.5556221082 2.9688036572 16.3338614333 
Si 12.5419480447 7.3719581174 19.5808885782 
H 12.0360295101 10.9152612098 23.8375367323 
Si 13.2690196214 5.2526942580 18.8740785529 
Si 7.7618755610 10.6805548877 19.0949078009 
Si 0.7155235955 15.2656034896 27.0484397696 
Si 13.0667629795 4.9209321150 13.3389208837 
Si 3.2877944401 16.2218753684 24.2582507779 
Si 4.4297886105 7.1166123651 27.7364200676 
Si 10.8856948596 8.1542039246 13.4955262773 
Si 10.4467608055 3.6272454632 21.2344283235 
Si 5.4633239600 16.1811666580 28.7359599305 
Si 5.5726461510 2.5412074432 2.4618304133 
Si 8.2049309850 16.0569228269 2.7781032037 
Si 8.8902350013 1.4480083392 28.8423334053 
Si 6.9773328638 0.9858642930 1.2136425529 
Si 6.8267969724 3.8906384756 3.9534895445 
Si 5.4547228399 16.2346304385 5.3832162542 
Si 8.1860997449 2.5965934437 5.3693691624 
Si 6.8414905526 1.2673359476 6.7472417000 
Si 5.5195081705 2.6355754141 8.1195522259 
Si 8.2281442353 16.2094460982 8.0827908044 
Si 6.8844309930 3.9659634363 9.4974537323 
Si 12.0673226004 1.9922018582 17.5172953099 
Si 8.2810541557 2.6206049040 10.8506448427 
Si 10.1004191124 0.0945844650 15.0778896534 
Si 9.2442004145 11.5980239861 20.6541250968 
Si 9.0200825925 15.3948320608 16.8981159385 
H 7.5067904487 3.3396618005 28.6312376779 
H 7.3066515068 14.9781990170 18.6449352560 
Si 6.3791640583 15.4555286014 26.6530154962 
Si 0.2182713410 7.6172692297 24.1592643499 
Si 1.0797060969 7.3386939371 26.2752042601 
Si 13.3603576522 15.9685332860 20.3643211092 
Si 4.1874259883 3.9706223763 12.1953480914 
Si 6.4228212587 3.6460929933 27.6271786805 
Si 2.8580805261 7.0460929544 19.0679088688 
Si 2.1498890597 14.3476294012 20.3510533937 
Si 9.5604544774 9.4506924564 12.0934068447 
Si 10.6734687376 2.2774071808 15.5496177755 
Si 4.8493049844 8.3232941261 18.6647209541 
Si 16.2356729985 9.1559086137 17.7461199498 
Si 5.4332200397 5.3763027792 28.8841353999 
Si 5.4838330702 8.0487750436 2.6656752473 
Si 8.2300827453 5.1393158570 2.5607733880 
Si 7.9501553827 8.0962766840 0.0482125029 
Si 6.8200366224 6.5739598801 1.3722641757 
Si 5.5121125104 5.2856489283 5.3374745013 
Si 8.2506733055 7.9503671527 5.2910374969 
Si 6.8784851429 6.6378981307 6.6739216388 
Si 5.5283047706 8.0178240433 8.0228833028 
Si 8.1927623549 5.2985994785 8.0721592507 
Si 5.5074209904 5.3443580889 10.8100885070 
Si 8.2287143853 8.0569037537 10.7544973582 
Si 0.6110981786 4.2705538591 18.8653010031 
Si 5.4987058403 13.5014127635 13.2443087462 
Si 2.8294915759 10.8110214989 13.3251896672 
Si 14.2619765804 5.0974016866 25.8939747043 
Si 10.7183151080 13.1387973602 19.7352633733 
Si 4.1837444483 9.3986621960 12.0568482049 
Si 0.6544328370 1.7608024061 24.5448971650 
Si 14.9266248765 9.3961209559 12.1153362348 
Si 11.2807110732 9.6296543981 23.4569444903 
Si 13.2691662314 15.2835061998 26.0580540511 
Si 8.3882749367 16.0920603572 23.3798295148 
H 11.5361545655 2.0255800685 27.8676487825 
Si 1.1754245088 3.9952854365 24.2321788477 
Si 15.6471804531 5.4546739699 24.0550925047 
Si 1.4927569697 6.6261367506 12.0538354485 
H 10.7522797583 13.4597266531 26.6905011380 
Si 15.2009973490 11.4028697843 25.4059661102 
Si 9.6460747182 4.5574044717 17.7116760333 
H 15.5061416318 6.9852823839 14.0543056772 
Si 4.1963366184 6.6809851811 14.7706464414 
Si 4.8895901547 11.3760564440 0.2109905707 
Si 8.1032813841 10.7388405082 2.7487606948 
Si 6.8129016023 12.1471598911 1.3713342769 
Si 6.8148238223 9.3530664855 4.0846313530 
Si 5.4778872201 10.7738314285 5.3852151022 
Si 6.8619507928 12.0991043907 6.7407526863 
Si 6.8698025728 9.3770942358 9.3815495185 
Si 8.2356865053 10.7162788580 8.0376284277 
Si 5.5195896205 10.7543485884 10.7006733069 
Si 5.5758064110 0.3160422929 21.6191920743 
Si 3.2480468397 6.4344848988 25.8219292707 
Si 11.5054316252 2.1150121693 26.3402392413 
Si 9.5628328175 12.1025090007 14.8508900485 
Si 9.3377864654 9.4343698763 17.7822150886 
Si 13.6953615053 13.0104158690 26.5486408694 
Si 4.3964266902 14.9929740471 17.5116753605 
Si 13.6627977950 8.1335807844 16.0015312308 
Si 3.1039454984 13.5325429538 16.1392199906 
Si 10.3911793250 8.2719969157 19.5662013909 
H 4.9696392155 6.2857083275 19.8461559827 
Si 10.7713390585 10.8278653590 16.4239254674 
H 15.8215649047 12.2065206516 21.1227245874 
Si 15.5587746223 7.9771153330 20.1983587897 
Si 5.7712375428 14.3247745310 21.1618904202 
H 11.0339012809 7.2140265660 17.2894266407 
Si 5.5015728803 13.5880104043 2.6751741205 
Si 8.6875873995 12.9952010089 0.1885866715 
Si 6.8253471624 14.8111450655 4.1524473401 
Si 8.2371851853 13.4469552930 5.4165593559 
Si 5.5048960403 13.4955972334 8.0556180595 
Si 6.8610548427 14.8554701559 9.4104603921 
Si 8.2450532554 13.4558170531 10.6709223378 
Si 12.1490984011 9.5355633572 14.9436481821 
Si 5.5315464806 10.9578921402 16.1043125731 
Si 15.3573650605 12.8465547575 19.0542066211 
Si 10.8693396994 6.0147404650 16.3640759034 
Si 3.8139288649 9.8584963202 17.1857472653 
Si 15.5972516026 6.2651829273 27.5584646602 
Si 11.5559957857 12.5376800647 25.7958863094 
Si 10.8079752688 9.9109989906 21.1671337750 
Si 2.8785733463 4.7051221930 19.2639987521 
Si 10.9444854701 13.4198161527 13.4733071991 
Si 9.4287824062 3.5791248027 1.1214753831 
Si 10.7475882383 0.0500909360 0.3536715257 
Si 10.9101298598 2.6605642743 2.7393313467 
Si 12.3127966126 1.2642978626 1.5646952981 
Si 9.5575059874 1.2398661203 4.0394400074 
Si 12.2898440024 3.9917993765 4.1004772927 
Si 9.5587603174 3.9567921662 6.7195475165 
Si 10.9290262600 16.1916574181 5.4023936073 
Si 12.2858855324 1.2439207014 6.7689972773 
Si 9.5894180977 1.2643320716 9.4569553342 
Si 10.9328707000 2.6244167640 8.0960295511 
Si 12.2880683924 3.9823674664 9.4600839658 
Si 14.2202253101 2.7125945348 22.0435561901 
Si 6.9854615739 1.2582559015 12.2419878775 
Si 14.8455006758 9.6609800684 21.7914985636 
Si 9.6658833584 7.0496604645 27.8871737613 
H 16.1443349677 2.8205320758 27.7739057094 
Si 8.3425977763 16.0572812069 13.4955552461 
Si 8.0981826141 13.4289059728 16.0759231380 
Si 1.8878155373 7.1791985457 22.5687897066 
Si 6.9555694236 4.0467292570 14.9384917337 
Si 8.9597444319 6.8677500328 20.7485634215 
Si 6.8334270025 9.5117636670 14.8258899644 
Si 0.1203293441 13.4454891930 13.4760302673 
Si 1.4230031890 12.1447815511 12.0369756004 
Si 7.2111921060 8.2017544350 21.7813015420 
Si 13.7561720758 2.7581739552 25.9724512139 
Si 0.4351775800 11.1858869823 27.2167195941 
Si 13.0426537793 5.8930867439 15.4634065933 
Si 12.1850830114 4.7943751038 28.7902185139 
Si 10.9166132798 7.9955881931 2.4763148189 
Si 12.5111273644 6.5957884803 1.3071828444 
Si 9.5902814677 6.5956907403 3.8632227287 
Si 10.8993132997 5.3502061989 5.3819416265 
Si 12.2885896724 6.6715206910 6.7338001716 
Si 9.5382349172 6.7043124613 9.3608947561 
Si 10.9305249400 8.0467062136 8.0541406501 
Si 10.8655604194 5.3757814992 10.7221391960 
Si 2.8437290360 16.2085664382 13.4899932343 
Si 7.2357737162 0.8888052141 25.1648876631 
Si 9.6058872879 14.7413587048 12.0549072945 
Si 3.7579238444 13.9702878378 23.9722996422 
Si 10.9895924805 10.5269076063 26.8385027946 
Si 1.5902819425 8.2779264757 20.5643507508 
Si 4.2741050791 9.6162477279 23.6538744691 
H 10.8564543093 7.8881230621 28.3241393100 
Si 15.5313748420 14.4198755519 22.8729622246 
Si 2.9732019572 16.1311726475 18.9704867567 
Si 2.0094040984 0.6274761447 26.0668316009 
H 14.3323819611 12.8488353575 15.7706498052 
H 12.1527962311 9.5779336476 26.9198472165 
H 6.1679479164 6.2771560774 25.4969571463 
Si 10.3967993751 5.5831694911 24.5777767658 
Si 9.4000142660 9.4586256865 1.2974435301 
Si 10.3383834346 11.2170497526 0.0410916794 
Si 12.2268017018 12.0144289699 1.2612614848 
Si 12.2015847816 9.2978270950 3.9993182039 
Si 9.5576037274 12.0832053505 4.0273600132 
Si 9.5601612574 9.3425594354 6.6714013522 
Si 10.9154729798 10.7161648280 5.3612289265 
Si 12.2817967423 12.0848343505 6.7232844931 
Si 12.2634542022 9.3899959159 9.4364454158 
Si 9.6093896379 12.0889394306 9.3629805105 
Si 10.9516204902 10.7885412987 10.7795553799 
Si 0.0438554497 10.7365924882 10.7724580212 
Si 14.9517603467 3.9644321763 12.2305162283 
Si 9.9855257413 4.7366107633 28.1249207951 
Si 0.3065370778 12.5628155349 23.9288464253 
Si 9.6236108080 4.0264807868 12.1771267091 
Si 6.8928692130 4.2775911391 23.5730225169 
Si 2.3859637418 12.5500604648 25.0952466409 
Si 0.5531465031 15.7315626539 21.4872970768 
Si 0.2056987189 15.9291766457 16.1408712128 
Si 14.4897270725 5.0353042061 22.0847208709 
Si 1.6703440353 3.1753771490 22.1220037309 
Si 12.8985198580 8.0141750833 23.7909259150 
Si 4.2094500685 10.8712944994 21.6129058423 
Si 6.9370476934 3.9698567463 19.8986184998 
Si 2.7726557654 5.3070539885 13.5308971958 
Si 9.6226496980 14.6833337243 1.5238898306 
Si 11.0517877011 13.3899240025 2.7720052689 
Si 12.3161360626 14.7976080753 4.1217114314 
Si 9.5819735676 14.8334949457 6.7502544564 
Si 10.9701585103 13.4895373534 8.0785323892 
Si 12.3097829626 14.8447350458 9.4746842466 
Si 1.4736357675 0.9957034531 17.5601112129 
H 13.0305014392 5.2879295284 27.6290037156 
Si 8.1325382244 3.2821906800 21.7625007835 
Si 11.9466788593 2.3947277619 22.4898207272 
H 15.1512476886 8.9377529317 27.3371139736 
Si 2.0778220990 10.5552684965 20.7254463101 
Si 6.8009773222 14.7625845750 14.6755997717 
Si 5.3967141494 10.7497548083 27.0294362294 
Si 2.9301149068 2.5470392633 26.9677326615 
Si 9.2105778542 7.2878854267 25.6333423096 
Si 10.5743603767 15.4385707112 23.6568003190 
Si 8.9123731115 16.2249378884 26.8717589899 
Si 12.0791980105 16.1088879273 18.4052183430 
Si 8.0722326438 8.1643200147 16.2501126000 
Si 8.2220843552 5.3767914792 13.4956421525 
Si 12.2637148422 12.9262617282 21.5540122491 
Si 13.6701282950 16.0867823971 2.7253799672 
Si 13.4700545132 2.8847635464 0.3887093029 
Si 15.0892968180 3.9996348666 1.6218536596 
Si 14.9997832672 1.1766234528 4.1019836709 
Si 13.6404479148 2.5797332936 5.4066520225 
Si 15.0102251573 3.9483213661 6.7404919670 
Si 13.6632376250 16.1709691179 8.0951025492 
Si 15.0375434875 1.2468252084 9.4215264780 
Si 13.6939931452 2.6100326939 10.7654475688 
Si 1.9075264374 9.3692587457 27.0829126550 
Si 3.7555943743 3.5086868421 21.1773018277 
Si 8.0324361735 10.8662608894 24.4344101190 
Si 12.9609594285 10.7813085386 20.9396127316 
Si 4.3239850595 1.4613482204 20.0702876752 
Si 11.9180899090 12.3706912731 17.8146601572 
Si 6.5479284599 6.9624275137 17.5816640084 
Si 15.1369613584 11.9997842597 14.8235724595 
Si 15.0840025680 1.1718781757 15.0257457931 
Si 11.0733882413 16.1466970177 25.8190034208 
Si 4.2127569385 3.8355131151 17.4957135455 
H 11.9067031989 7.1511634554 26.6278126305 
Si 3.9291480359 7.2777856266 23.7030345417 
H 11.4705384449 15.6632098133 28.1700542030 
H 11.8448826483 2.8403895860 23.9405208562 
Si 2.7757182854 2.4949927128 16.2208251318 
Si 3.2589774298 4.1502847880 25.2636133718 
Si 13.7226798355 5.3888297893 2.8795259087 
Si 14.1075473790 7.6362470798 28.9199698194 
Si 15.0858270480 6.7573527018 4.1259119090 
Si 13.6283607346 8.0611228637 5.4050297691 
Si 13.6446507348 5.3109798786 8.0825300851 
Si 14.9905142571 6.6657866110 9.4443539013 
Si 13.6049194244 8.0122691533 10.7748914013 
Si 12.2347838019 0.1012319253 22.3834182835 
Si 1.3678827155 12.3351953628 19.2907659337 
Si 8.0503551736 5.7303822224 18.9321899882 
Si 15.0058431472 14.8739104360 12.2295602575 
Si 1.4139948189 1.3094830650 12.2312983862 
Si 0.2798198486 11.2205683926 22.0323742290 
H 8.4864058976 8.9222448516 22.2902835554 
Si 6.8278558224 12.2178096217 17.6240743481 
Si 12.7339582765 6.6464340908 21.8613423674 
Si 9.7405892991 9.5009796869 25.1768228133 
Si 13.9605464177 8.8266062607 18.2867359051 
Si 7.5971347895 3.2400484496 25.5924093793 
Si 5.3281006687 5.2647325681 20.9112232966 
Si 14.3007304908 2.3711072617 16.9321542917 
Si 8.1333527244 13.8879255970 27.0921247369 
Si 12.7983200670 14.4216185819 16.9251438394 
Si 14.9808868670 9.3318731953 1.3110704589 
Si 13.5467478339 10.6316034372 2.6549220246 
Si 14.9609804868 12.0846225805 3.9374697919 
Si 14.9727255769 9.4256547262 6.7607701349 
Si 13.6248746746 10.7681787985 8.1186252239 
Si 14.9975352472 12.1337206410 9.4507270397 
Si 11.4190783344 3.7286832941 19.0351451433 
Si 7.4451653781 1.1326762904 17.4019125347 
Si 14.2823553706 13.8952723871 20.9442477414 
Si 6.8795765729 6.7199508615 12.1239110029 
Si 13.6329056447 16.2629261687 13.5824327110 
Si 4.1270878277 14.9058225463 12.0270972358 
Si 15.2406634994 1.0691127098 20.5880182696 
Si 8.7150849197 0.7321084447 19.4612184190 
Si 1.3292265452 7.2820861866 17.2971902821 
Si 5.7897104030 2.4503255324 18.5560010055 
H 15.0150307073 15.7290051239 18.5832896257 
Si 14.3543245913 4.7008542130 16.8641644918 
Si 10.5578911866 5.7562996126 22.1891824042 
Si 14.0201189482 12.8988130780 28.9504160401 
Si 14.9161992764 14.7655982250 1.2229531289 
Si 13.6833720651 13.4138377227 5.4000471335 
Si 15.0181258074 14.7996280354 6.7483425149 
Si 13.6829485251 13.5099975936 10.8336691193 
Si 10.9578106902 16.2242537084 10.8301059555 
Si 4.2301546587 12.1847083414 14.6348985920 
H 0.4355261860 10.0689305421 18.8590147710 
H 15.8916933553 15.1524694386 26.0169762768 
Si 13.9948205780 15.8492253250 23.9164767429 
Si 5.9009548140 13.9282596374 24.8588901100 
Si 6.9410061635 7.5812194593 25.5159606864 
Si 15.3234167001 5.6012351012 20.0222863550 
Si 1.8445330069 0.9127580303 22.6781759378 
Si 14.7139426346 1.7516962960 24.1245886828 
Si 10.0447561819 15.2232983592 18.9581460431 
Si 9.8569487701 3.7498277143 25.9711765862 
Si 6.9153982832 12.1695097713 25.9790850717 

