&CONTROL
  dt          = 30.D0,
  prefix = 'aSiHcSi_merged-11',
  pseudo_dir = './',
  outdir = '/scratch/ztzhao/aSiHcSi_merged/aSiHcSi_merged-11',
  wf_collect=.true.,
  verbosity ="high",
/

&SYSTEM
  ibrav= 0, nat=  406, ntyp= 2,
  ecutwfc     = 42.D0,
  nbnd=1540,
  degauss     = 0.05D0,
  occupations = "smearing",
  smearing    = "methfessel-paxton",
/
&ELECTRONS
  electron_maxstep=200,
  conv_thr    = 1.D-8,
  mixing_beta = 0.3D0,
  scf_must_converge=.false.,
/
&IONS
/
ATOMIC_SPECIES
Si  28.08  Si.pbe-hgh.UPF
H  1.00784  H.pbe-hgh.UPF

K_POINTS {automatic}
1 1 1 0 0 0

CELL_PARAMETERS angstrom
16.29000014898320 0.00000000000000 0.00000000000000
0.00000000000000 16.29000014898320 0.00000000000000
0.00000000000000 0.00000000000000 29.12504688101490

ATOMIC_POSITIONS angstrom
Si 1.4183605390 1.1116100622 1.3207626260 
Si 0.0345450630 2.4787515827 2.6405553879 
Si 2.7982636456 2.4492178124 5.4375006275 
Si 1.4632003934 1.0459906836 6.7626611355 
Si 1.4063482929 3.7724871045 4.0593034090 
Si 0.1154638469 2.4323413722 8.0624828527 
Si 1.5121518438 3.7387993842 9.4153995305 
Si 2.8845843564 2.4553428525 10.8244401735 
Si 2.5505090333 0.6951464344 12.3628833999 
Si 0.3376493491 0.0470950420 12.5682441054 
Si 3.8119903549 1.0578481747 14.3535803542 
Si 4.0727932572 3.9183314758 12.1833566109 
Si 2.4730989526 1.8861050872 16.1486152436 
Si 1.4621643494 3.8008479948 15.1886828234 
Si 1.6016409596 3.7831896346 19.1925612682 
H 1.0392466235 1.6231926298 20.9294334390 
Si 1.2742282467 1.6014536246 18.2819958025 
Si 2.8598724262 2.1629047698 23.2073616056 
Si 0.7319781247 2.5617002634 21.9705082397 
Si 1.8057790965 0.6762223412 24.7320286848 
H 0.6933056643 3.6341687132 25.1532933629 
Si 3.9190319458 3.5010142520 24.8834498035 
Si 2.8636354162 2.3603232816 29.0694180415 
H 1.0396457285 1.5377108541 25.5806743008 
H 15.8488995249 1.8230139167 26.8077707760 
Si 2.7671986153 5.1062308667 2.7020034118 
Si 1.3208762911 6.4996611894 1.4588211732 
Si 16.2630076187 7.9036311423 2.7305255702 
Si 1.4121964029 6.5061771895 6.7593408801 
Si 2.7676058653 7.8213503515 5.3680082656 
Si 0.0493269350 5.1582774172 5.3870269212 
Si 2.8577547261 5.2209287577 8.1521879971 
Si 0.3814075475 5.4343277597 10.5540432383 
Si 16.2364386285 7.8985486622 7.9877479824 
Si 1.8772433272 7.3116362469 10.5780422769 
Si 2.7354819850 5.1508328871 13.7807780572 
Si 1.6364445450 7.2714651065 14.3095141583 
Si 1.4357843231 5.0343593860 17.2152618355 
Si 3.7074085539 5.5710823110 16.9648446824 
Si 4.0279143068 7.7463674808 17.6766608282 
Si 3.7033197639 4.6258224723 20.0197417247 
Si 3.7438329942 6.5591848500 21.4637032990 
Si 1.8735454971 6.6507672308 22.8801417039 
Si 1.8751744971 6.5881810503 25.1941849287 
Si 2.6937144246 7.8410938317 0.1410426995 
Si 0.0300900738 5.2114479777 29.0821456870 
Si 3.6520714234 6.0533151854 28.1070099923 
Si 1.9668057480 4.3132010794 28.0238871085 
Si 1.8248058167 4.2865506392 25.6991258665 
Si 0.1890731447 7.8123419814 26.3478862858 
Si 4.0868841074 6.9432541835 25.9959392193 
Si 2.7870398355 10.5535743365 2.7367816302 
Si 1.3659914465 11.9261045891 1.4555067429 
Si 4.1526305480 9.1520315937 1.4056213626 
Si 1.3924561807 9.2074013042 4.0591869089 
Si 1.4218400830 11.8982649788 6.6795091266 
Si 4.1209790777 9.1474052337 6.7361282178 
Si 0.0093172936 10.5832872968 5.3612512547 
Si 1.2421532364 9.2509118946 9.3800999736 
Si 2.7284609950 10.4788195258 8.0290181739 
Si 0.4380511360 11.0599164112 10.6735141806 
Si 4.0405553470 11.7943347779 9.4583589746 
H 2.0403225187 9.9807039013 12.7615761666 
Si 1.5904269235 11.4705221549 13.8179707420 
Si 2.2789547308 8.6017390987 12.5269156639 
Si 0.5679948382 8.7342582499 17.5984018272 
Si 2.5026815929 10.9040862697 15.8595782783 
Si 2.3752286317 8.5804154885 16.1841186757 
Si 1.4764506795 9.3249336553 19.6669791569 
Si 1.7608512761 11.6358982364 19.5810020185 
Si 3.6281414132 8.3679613065 19.9222893178 
Si 3.9591867962 12.1305440909 20.1183882585 
Si 2.2324630704 11.0027385106 23.3173960328 
H 2.5006453429 11.7772139877 22.1617724226 
Si 0.1181984492 10.0130069716 23.0827646551 
Si 1.3596367174 9.1683704639 27.8728154904 
Si 2.8498052061 10.5348408363 26.7686267130 
Si 4.0009869366 11.9060190189 28.2236849301 
Si 2.7625070953 16.0677556770 2.7427318773 
Si 0.0470541541 16.0586984369 29.0916113272 
Si 2.6756325245 13.3908851125 0.2089459988 
Si 4.1454792379 14.6830242143 1.4628462547 
Si 2.7854759955 13.3076595017 5.4117249610 
Si 1.4125612989 14.6738692342 4.0700796764 
Si 0.0523749569 16.0568087969 5.3837940410 
Si 1.3638183605 14.5626411132 9.4172344084 
Si 2.7842705355 15.9790729161 8.1820994203 
Si 2.2415203105 12.7409629765 10.6627961633 
Si 2.8117354757 13.2301516810 12.9021336429 
H 3.0199868376 15.8025544745 11.7162199840 
Si 1.1375241944 14.6180271137 13.9387814365 
H 3.4141233912 13.1242666800 15.6023167392 
Si 3.7145761540 14.0582049686 16.6202080027 
Si 1.7189371057 14.6608372341 17.5905963146 
Si 1.1151303312 16.0778391870 15.8568987740 
Si 1.2250699132 12.3303572328 17.4024776368 
Si 1.9809454681 15.9850350562 19.5245576776 
Si 0.3618611763 15.2728688297 21.1088146027 
Si 0.5025676816 12.9423562484 21.0653017827 
Si 3.7613610344 13.8574307167 21.7140330769 
Si 0.1327547046 15.9261141257 23.4585360099 
H 2.4609466125 13.9032219072 22.2820297412 
Si 2.1763603099 12.2653112622 25.3084716127 
Si 4.0673198172 13.7880841861 25.3581298176 
Si 1.4464721922 14.6796847643 27.8187885284 
Si 2.9766065672 15.6861787135 26.3204796167 
Si 0.2565072293 13.2968266516 26.3428767777 
Si 6.8636449528 1.0272995374 1.3484721956 
Si 5.5366778306 2.3782748618 2.7387155334 
Si 4.1657114181 3.7063822839 1.4056446626 
Si 6.9127593032 1.0591285687 6.8272604895 
Si 6.8881125330 3.7787424646 4.0514396464 
Si 4.1617366581 1.0722273578 4.1160390004 
Si 4.1798837182 3.7942016747 6.8043973277 
Si 5.5433893107 2.4195537221 8.1575761308 
Si 4.2069251185 1.0323184864 9.4961341604 
Si 6.9087682532 3.7462439143 9.5392683548 
Si 6.8941561231 1.0889246080 12.2858767759 
Si 5.4511553299 2.4959049528 13.4763339421 
Si 7.8201774715 1.6899083255 17.5133275653 
Si 5.7488713726 0.5799973103 17.5882663109 
Si 6.5982156903 3.6952725038 17.0643649676 
H 4.7270974032 1.4545438873 18.0317825248 
Si 4.2449785588 3.2774828700 17.3409655378 
Si 5.4464800998 3.1359064787 20.6373965939 
H 6.0583813754 2.6290919940 19.4582981960 
Si 7.0621874746 0.9619261378 25.0273566602 
H 6.5019254995 3.1815836391 23.7501068543 
H 6.3565698281 2.7430731251 23.1679845423 
Si 4.6093532822 1.3326604772 21.8860164787 
Si 6.2449018771 0.0093081550 23.0118742910 
Si 8.1718948647 2.3663017116 29.0468170051 
Si 4.1709567981 0.8572303068 27.7342967674 
Si 5.3919737593 2.1871280000 26.2701515356 
Si 6.6751370710 3.6208109131 27.7250058774 
Si 5.5338107906 7.7987398313 2.7083614095 
Si 6.8702912728 6.5108849995 1.2443734530 
Si 8.2011191250 5.1498391971 2.6491909643 
Si 6.8525514627 6.4509215090 6.7997664452 
Si 5.5172438605 5.1189207768 5.4063659523 
Si 4.1462448679 6.4535767790 4.0418866310 
Si 5.4666471200 7.8216109915 8.1114420566 
Si 4.1138114776 6.6864423312 9.7246201532 
Si 5.5446436407 5.1452128371 10.8528370942 
Si 8.2181910452 7.8300492116 10.7542488105 
Si 7.0216579542 6.4190419787 12.1515229347 
Si 5.5115912304 7.5334734689 13.5278270250 
Si 4.7434851434 5.7329234624 14.8257847393 
Si 7.3541368573 5.9393829243 17.6561567952 
Si 6.4914184494 4.1459190679 14.7694860236 
Si 6.2649222873 8.0437088536 17.0772673634 
Si 7.0182207642 4.6384309324 21.5727474745 
H 4.3160681195 5.2132235877 18.8662442430 
Si 8.1695653947 5.8112294931 19.8718738617 
Si 5.3639712491 5.4121896495 24.7350285646 
Si 5.8103824131 6.3647636982 22.6487432065 
Si 5.4941446402 5.0620523863 0.0120793511 
Si 7.3739292074 4.6141914122 25.7027956224 
Si 6.8506781127 11.9154835090 1.5553998286 
Si 5.5765557510 10.5512122865 0.1891403844 
Si 8.3343876162 7.8370864917 29.0695345417 
Si 6.8313581725 11.9306657891 6.8281342409 
Si 6.8204112924 9.1479590937 4.1455135478 
Si 5.4850711102 10.5556920365 5.4610627904 
Si 4.1351187978 11.9158093090 4.1012143515 
Si 6.8765303429 9.1745117939 9.3982740029 
Si 5.3957530393 10.3796460049 10.7439094189 
Si 4.4244943605 8.3950841568 11.6224373330 
Si 6.6325387207 11.7279204473 12.1795121047 
Si 7.9133725624 10.3213766744 13.5841257406 
Si 6.1241278160 11.6136949662 17.1975246819 
Si 4.8104696240 11.0935878415 15.3240560413 
Si 6.2557998872 9.1882442640 14.9250428990 
Si 5.1982693675 10.1193480925 20.2707122537 
Si 6.8026714822 9.8114833797 18.5314809541 
H 7.4316446780 11.7871997578 19.7789940872 
Si 6.1011914958 10.2713175039 22.4047918138 
Si 4.2116003485 9.8124444897 23.6730419802 
Si 7.2900845767 8.2658067156 22.7066729247 
Si 6.3123913477 10.4528695556 26.9757640464 
Si 4.5831589619 9.2261836744 25.8697112661 
Si 5.4876449302 13.3203494118 2.8115864007 
Si 5.5704958709 15.8682683351 0.0217224211 
Si 6.8689554928 14.6711813842 4.1347664055 
Si 5.5090011204 16.0087532964 5.4943235939 
Si 4.1371713378 14.6274264438 6.8191346014 
Si 5.4428148498 13.2498300012 8.2107002163 
Si 6.8593932627 14.5937061435 9.5498407469 
Si 5.5636540709 16.0006734563 10.9048544280 
Si 8.0863886540 13.1649753904 10.9704440335 
H 4.8178001241 15.1452692585 11.7629365592 
Si 5.0722987964 12.7663427968 13.6200077984 
Si 8.0043685032 15.8831573953 13.7266928451 
Si 7.6526674000 12.9662699686 16.1423242334 
Si 4.9414249352 15.7928782144 15.6868958753 
Si 6.4672603791 14.3815126015 14.6639951038 
Si 6.1639894464 15.1825896489 19.1464854441 
Si 7.5631049792 15.8832714253 21.0036440584 
Si 4.9931782657 13.2383781311 18.3844577175 
Si 4.1309159778 15.8066595546 20.4415015286 
Si 5.3568850990 14.0754886587 23.3994995399 
Si 7.0301613343 12.4072460335 23.0005446477 
Si 6.9959849140 14.3712824814 27.9502881151 
Si 5.6465050116 12.8391753874 26.8319445649 
Si 10.9059107497 2.4597900225 2.6342731152 
Si 9.5196317371 3.7856331346 1.2533497924 
Si 9.5978888978 3.7714282545 6.8016595733 
Si 8.2341715353 2.4337748923 5.4386947544 
Si 9.5819572776 1.1118299772 4.0514396464 
Si 12.2582576921 3.8236377050 3.9985776863 
Si 9.6481924182 1.0052396192 9.6399245169 
Si 10.9343368000 2.4101381020 8.2073508359 
Si 8.2909096058 2.4131517521 10.9538136318 
Si 11.4289174945 2.8579013361 13.4982651024 
Si 9.6248651380 3.8047575948 12.3033226790 
Si 11.1558808020 1.3494114843 15.2317878928 
Si 11.6598608266 2.1377530096 17.3505476782 
Si 8.9839839522 0.5720038072 15.6727702276 
H 8.9145071015 3.5886055828 16.7077578936 
Si 10.1843777731 3.9397202460 17.2176792144 
Si 10.1283075926 2.8666653562 20.8789014826 
Si 8.8722508411 1.1972400769 19.7210934940 
Si 10.8814920395 0.4121858738 18.7461907997 
Si 8.6270537589 2.7623441953 24.8363546027 
H 11.7545545975 0.6233775807 23.9576519383 
Si 8.9301129217 3.7430184942 22.6964791583 
H 9.6585039883 0.0750446098 23.1233067203 
Si 9.5064205469 0.9237228294 27.7385490242 
Si 10.6305771672 2.3742838117 26.2514241305 
Si 12.1096603108 3.8422408851 27.5476634670 
Si 12.2297664818 6.5739273001 1.2639979096 
Si 10.8654789694 7.9218922325 2.6475337491 
Si 10.9062691297 5.1516962571 5.3971333125 
Si 9.5524723774 6.5118135296 4.0258096051 
Si 8.2220680652 7.8214806715 5.4675285508 
Si 12.2513344420 6.5265722697 6.7507489913 
Si 9.6065063079 6.4852608293 9.4677372397 
Si 10.9626814003 7.8887420821 8.1733327812 
Si 8.2314673953 5.1135450768 8.1525083727 
Si 10.9306063900 5.1385176470 10.8456723327 
Si 10.9203111099 7.9915645631 13.4156082194 
Si 8.3074602460 5.2219061578 13.7021695556 
Si 9.4968908969 6.9114723932 14.9782543597 
Si 11.1651986821 5.6113023213 15.9459631674 
H 8.5388434081 5.9922928448 16.8604022643 
Si 10.1653836330 4.6872194829 19.4079992400 
Si 8.7973820005 7.7875160212 20.9318216928 
Si 10.4652499557 5.3359524488 23.5657744326 
Si 10.6834382177 7.3111312569 22.2270416527 
Si 10.8711804694 5.1684423773 29.0430889991 
Si 9.8045601297 6.7009567213 27.6242623403 
Si 11.6228010763 7.5366825989 26.2796754260 
Si 9.0898037931 6.1345697061 25.4403206999 
Si 9.4396967063 9.3167072052 1.3767933911 
Si 10.1394173727 11.3394202337 0.3647912122 
Si 8.1626421447 10.5559363865 2.8932705071 
Si 9.5765327076 9.2124186243 6.8108339630 
Si 10.9150820198 10.5788238368 5.4599560386 
Si 9.5602915774 11.9608674494 4.1505521809 
Si 9.5644618175 11.9396578692 9.5827229248 
Si 8.2375272753 10.5953256069 8.1558868781 
Si 10.9438175801 10.6203307571 10.9678227793 
Si 9.4272022762 9.2246524144 12.1386205389 
Si 12.0810550705 11.6490116865 12.8342722836 
Si 9.1817771340 11.6097853662 15.0400868342 
Si 10.8154035089 10.2119078734 15.9718553340 
Si 11.9148970690 11.0372407309 17.8242665658 
Si 10.1166113725 8.2070649751 17.0164833905 
Si 10.3274528445 11.0053612007 19.5364698218 
Si 9.0248881425 9.1317016735 19.0154518581 
Si 11.4425522246 11.4246983845 21.5393992958 
Si 10.7566128984 10.9994968006 23.7454759718 
Si 11.0205760608 8.6507719991 24.1789149195 
Si 8.6532806591 8.3264706762 24.6521386812 
Si 8.7306418698 11.9747302395 24.5511621437 
Si 10.5046065961 10.8648436594 27.2930523072 
Si 8.4806066576 10.2037791633 26.1193420429 
Si 9.6341178581 14.7136005446 1.4522680376 
Si 10.9321376500 13.3536298821 2.8293672418 
Si 8.2125872851 16.0219644865 2.7535227072 
Si 9.5917964377 14.6569927940 6.8331728740 
Si 10.9021966297 16.0406654067 5.4346463729 
Si 8.2019499150 13.3092722117 5.5019834812 
Si 10.9305575200 13.2691010714 8.1933416884 
Si 8.2480994854 15.9894333562 8.2294276215 
Si 9.3953716159 14.4662694723 12.4417540268 
Si 10.8052711288 15.6766327734 10.9826474282 
Si 10.6010759770 13.0859200197 13.9402668139 
Si 9.9681606012 15.2612540596 17.1466141000 
Si 11.5742080059 14.1041753490 15.8623451578 
Si 8.1818317648 14.1176308891 18.0888093666 
Si 8.6230789989 12.5743325650 19.7586356794 
H 10.6394389273 14.0767429887 20.0338673724 
Si 11.7831435478 13.6299571547 20.7325189970 
Si 8.5388922781 13.8325233065 21.7366341133 
H 11.8114881480 16.1741130879 19.6626103998 
Si 10.0918017023 15.0123591473 23.1624799084 
Si 9.4909939168 14.1146986891 25.2550271517 
Si 8.4217183070 13.0961990098 0.2967026776 
Si 10.9540965702 15.9778837461 -0.0224981667 
Si 11.1560437020 13.0633094995 26.5031810357 
Si 8.2144117651 15.6958549735 26.4426591883 
Si 14.9489747567 3.8106545749 1.2428560381 
Si 12.2919291224 1.1321615264 1.2608873546 
Si 14.9998321372 3.7947555347 6.7407591002 
Si 14.9869793271 1.1243846803 4.0192273445 
Si 13.6146608445 2.4723170326 5.3732507740 
Si 12.2453071420 1.1364686024 6.7455647330 
Si 14.9968673572 1.1045336861 9.3619841945 
Si 13.9736924478 2.7347000650 10.6815526935 
Si 12.3073394626 3.8318804450 9.4713196205 
Si 13.2000640507 1.6759477953 12.5463711952 
Si 15.1280670184 1.2715013006 13.8194852445 
Si 15.7563071641 3.4545388816 14.1331328743 
Si 13.8707070669 2.8201736958 17.5999163296 
Si 15.2625898396 0.9359012336 17.8666143839 
Si 12.4823103542 2.8286607859 21.3019136635 
Si 13.4775153333 0.6666030961 21.6033287737 
Si 13.8729550869 3.9507811561 19.6671247821 
Si 13.8978787871 2.8454069060 24.5532882721 
Si 15.1525997586 1.5691212324 23.0245145613 
Si 12.3254213627 1.1947428199 25.1223334381 
Si 13.5764119242 2.5113152930 28.9321808206 
Si 14.9974863772 1.0898140420 27.6798038047 
H 14.6248200438 3.4118102112 25.6260219988 
Si 13.5963508843 5.1867360474 2.6185368524 
Si 14.9340368266 6.5057536495 4.0472456396 
Si 13.5674524241 7.8833989621 5.3706586449 
Si 13.6248258046 5.1647445472 8.0684826124 
Si 14.9466452867 6.5533693199 9.3989438790 
Si 13.6449113748 7.7732948511 10.9437654906 
H 14.1763074697 5.3015153885 12.2579458560 
H 15.0795065279 6.5023164595 13.1410755275 
Si 12.2512855720 6.3975554685 12.3304089726 
Si 15.1920541389 4.3379130097 12.0010338174 
Si 15.5195971719 7.2300885061 14.2759912293 
Si 12.4553341139 4.8183865641 14.1834318303 
Si 14.4614150523 6.4141386887 16.2483102790 
Si 12.3999644034 7.1289601852 17.3488293005 
Si 14.1985921899 4.1854386083 15.6733818536 
Si 16.1103377373 6.5684375701 17.8376058372 
H 15.6391983530 6.3140529277 19.1463689439 
Si 12.6512702357 7.1305240252 21.0011101794 
Si 16.0743042570 4.3259072796 20.6104850506 
Si 12.2985102825 5.7047580522 19.2689562662 
Si 13.9563761776 6.3200965178 22.7759031611 
Si 12.6828891260 4.3590574299 23.2070994802 
H 13.6947099052 5.3251195987 25.1473809784 
Si 16.1209099474 6.3171480278 21.8438142858 
Si 14.9699725669 6.5966029803 27.7167052391 
Si 13.1820310206 5.6900156020 26.4154855196 
Si 14.9269018065 9.2833778649 1.3675520138 
Si 13.5386191238 10.6268956272 2.6864477242 
Si 0.0453992530 10.5966450969 0.0445030716 
Si 12.2099741317 12.0400368501 1.3554855069 
Si 14.8940774562 9.2751188348 6.7049935427 
Si 14.9239044465 11.9568601094 4.0500125191 
Si 12.2686507122 11.9367093792 6.8096689612 
Si 12.2120429617 9.2469045546 4.0331491169 
Si 13.6226755246 10.5981274869 8.1885360556 
Si 15.0489790676 12.0409328001 9.3635860721 
Si 12.3087404026 9.2309077744 9.6058773371 
Si 15.8014956245 10.9394029900 12.8879206200 
H 14.4754896124 8.5748931784 11.7743535775 
Si 14.6725660342 9.4092506961 14.3285619389 
Si 12.3182700527 9.7265147390 14.1973827278 
Si 15.1262425383 9.9499972510 16.5749185548 
Si 13.4031514826 9.2466764946 17.9973567194 
Si 14.0042199081 8.8648714711 20.2097244055 
Si 14.8332668857 12.0488008702 19.9576471247 
Si 16.1593054778 8.5975362786 21.1640065666 
Si 15.2160655992 9.1961937841 24.9499422856 
Si 13.3853790924 8.4825288776 23.6277816574 
Si 15.0292030075 11.8479125884 22.4277423507 
Si 12.5217484445 12.0144126799 24.9422532732 
Si 13.3791563124 10.2242719835 21.9638677291 
Si 13.5816410142 8.0130022033 29.0661851613 
Si 13.9214992873 10.6592638575 26.2360461057 
Si 12.4020169434 9.3728588357 27.4580165727 
Si 15.1346155984 11.9835757096 27.7193847434 
Si 0.0157177650 13.3267513819 2.7460666952 
Si 14.9977307272 14.6836758143 1.3384124044 
Si 13.6261290046 16.0613211269 2.6649621771 
Si 14.9513042267 14.7149200346 6.7039741660 
Si 13.5958947643 13.3089464117 5.4268991104 
Si 12.3010026525 14.7277076847 4.0927972130 
Si 12.3149794726 14.6328021438 9.5017261694 
Si 15.8520597850 15.5622443923 10.5543636138 
Si 13.5682506341 16.0518403468 8.0646963563 
Si 0.0640705254 13.3152669318 7.9207894997 
Si 14.2210723901 13.8168034564 10.6798051907 
Si 14.1946988798 12.7334207065 12.7800123213 
Si 12.5855726651 15.7655435942 12.5015477481 
Si 13.0884612597 12.9633866386 17.2531535215 
Si 12.6488756057 15.8650103351 14.8609969209 
Si 14.9175676364 16.1076010173 15.6999438964 
Si 15.2789612897 13.7836858861 14.6801595049 
Si 15.2799223997 12.3018660225 16.5294834816 
Si 13.5963997543 13.8934316171 19.3170999687 
Si 14.7044944345 15.9279874757 19.8078570086 
Si 15.1765297688 14.6747326042 25.0116582599 
Si 13.7839302361 13.4483562330 23.6481109401 
Si 12.3778588732 15.0027317572 22.5138359893 
Si 13.6936347652 13.2733364714 29.1050670989 
Si 13.6691997650 15.9638091860 26.3551092974 
Si 12.3388280328 14.6183203337 27.7668585698 

