&CONTROL
  dt          = 30.D0,
  prefix = 'aSiHcSi_merged-2',
  pseudo_dir = './',
  outdir='./',
 wf_collect=.true.,
 verbosity ="high",
/

&SYSTEM
    ibrav= 0, nat=  398, ntyp= 2,
  ecutwfc     = 42.D0,
  nbnd=1478,
  degauss     = 0.05D0,
  occupations = "smearing",
  smearing    = "methfessel-paxton",
/
&ELECTRONS
  electron_maxstep=200,
  conv_thr    = 1.D-8,
  mixing_beta = 0.3D0,
  scf_must_converge=.false.,
/
&IONS
/
ATOMIC_SPECIES
Si  28.08  Si.pbe-hgh.UPF
H  1.00784  H.pbe-hgh.UPF

K_POINTS {automatic}
2 2 2 0 0 0

CELL_PARAMETERS angstrom
16.29000014898320 0.00000000000000 0.00000000000000
0.00000000000000 16.29000014898320 0.00000000000000
0.00000000000000 0.00000000000000 29.48377614791191

ATOMIC_POSITIONS angstrom
Si 14.9478670367 3.7922794547 27.6565486049 
Si 0.1387282477 2.8219493058 2.6515172663 
Si 2.7352213450 0.2207979200 2.5766638554 
Si 2.6175749639 3.1003291184 29.2096949648 
Si 1.3633883045 1.5228413419 1.0316579661 
Si 4.0591911071 4.2347973087 1.2360896247 
Si 1.4821179706 4.2317184987 4.0424910639 
Si 4.1195455577 1.5384895161 4.0334100608 
Si 0.1567443362 0.1818012887 5.4891125406 
Si 2.8311857359 2.9001250165 5.5056529390 
Si 1.4618809034 1.5487961992 6.9684020412 
Si 4.2274993887 4.3414153597 6.8002560659 
Si 0.1593507363 2.8104811457 8.5313664986 
Si 2.7665307253 0.1248643172 8.3633089746 
Si 3.9758025964 3.4340134814 10.7564481169 
Si 4.5095118712 1.3632465815 9.3884598712 
H 3.1008992684 15.9638580560 11.7671224795 
Si 1.8937125173 0.5666281072 14.4974675697 
H 11.2971965533 4.9740049355 10.5418357104 
Si 2.7937187356 2.4498042524 15.6639931730 
Si 2.0510902088 2.1093106693 17.8293996284 
Si 0.4387320580 0.4698736513 17.8373897317 
Si 0.7725076451 3.7688218545 18.7369987096 
Si 1.5235678759 1.2742885197 23.3456667268 
Si 0.8581034508 1.7782978663 25.5580703214 
H 2.5352941732 2.3423879914 22.9524416043 
Si 2.0658978189 3.7381966542 25.9688088069 
Si 4.9682871454 14.8523424758 26.5643810851 
Si 3.8303328950 2.5614396234 27.1021946458 
Si 0.3517434572 6.6036728404 28.7663179391 
Si 0.1755345256 8.2349860353 2.8181861045 
Si 2.8155962058 5.6622900218 2.6246870300 
Si 2.4732292726 9.0032387323 0.0742242271 
Si 1.5712649964 7.1555943354 1.2428473062 
Si 4.2044327485 7.0544985945 3.9681919480 
Si 0.0747939067 5.4924667702 5.4927095613 
Si 2.8410411860 8.3079815260 5.4746949740 
Si 1.3575304204 6.9542988036 6.8188013611 
Si 0.0749730967 8.3384926963 8.3307588857 
Si 2.7953477356 5.6799972519 8.1416204617 
Si 3.7579727144 7.4233204879 9.4202138981 
Si 4.5487707716 5.8785560638 11.0838654511 
H 2.6537387643 6.6422475607 13.6713321620 
H 2.9249835568 5.0160331359 13.9522830649 
H 2.0667937689 7.0287278143 13.3017235442 
H 1.1723000867 4.3005437493 14.5150104165 
Si 14.1533874394 6.7210911615 11.8457851943 
Si 3.2813598900 4.7559469935 15.3797990547 
Si 2.0753134390 6.2831670875 16.8349413427 
Si 2.3386738714 5.4696933500 19.0720818255 
Si 3.9537296462 7.9256878025 20.5396957508 
Si 1.0218635643 6.5384639698 20.7208735552 
Si 0.3845189375 5.1823377474 22.5248973664 
Si 2.0202043685 7.4454260181 25.0687575724 
Si 2.2075556602 5.2693100582 24.0810510715 
Si 0.2990958057 7.8366629517 26.7071120454 
Si 0.9557554857 4.4064124603 27.9962311899 
Si 4.2324841287 9.9440676909 1.2702023537 
Si 0.5577125901 10.4322627054 0.0887402694 
Si 2.8752338963 11.0934901015 2.7931484818 
Si 1.4621985584 12.2862276224 1.3111906993 
Si 1.5343323080 9.6782800485 4.1057632475 
Si 4.2611871090 12.4580056739 4.1217434541 
Si 4.2495397589 9.7538004892 6.7168759469 
Si 0.2040762349 11.0913235314 5.4142237491 
Si 1.5611277293 12.3907605533 6.8987318782 
Si 1.9945801982 9.2042247542 9.5077807133 
Si 3.0250041577 11.0347483609 8.2967640918 
Si 4.8293823142 12.0885484706 9.6561725587 
Si 1.8059582865 10.2495540637 11.6267207375 
Si 0.6145793516 9.0505937628 13.4494077790 
Si 2.2049981302 9.6586180183 15.0918604968 
H 1.1280059473 8.7988969705 18.0401201765 
Si 2.3578634916 8.5690450684 17.1508894879 
Si 4.0080405067 9.2878576149 18.6167049029 
Si 1.8391898868 8.6672411893 21.2285252129 
Si 3.4658115617 11.6129456262 19.0090160283 
Si 1.8394505268 9.2510259246 23.5044663451 
Si 3.7025704239 10.5762011467 24.0953507029 
Si 3.5851032328 9.5126270370 27.5833403887 
Si 3.2229276595 11.3818393941 26.2322168630 
Si 4.0984500075 7.8930589322 26.0406312856 
Si 0.0906646022 13.7590716958 2.5428666028 
Si 4.2168457286 15.0808423079 1.4210295590 
Si 1.4704885394 16.2784016689 27.1305875222 
Si 1.4513689663 15.1109625182 4.0137443821 
Si 2.8499681061 13.7847284461 5.4619579827 
Si 4.1573383580 15.1177065783 6.9169233681 
Si 0.1182895103 13.7594952358 8.1842834858 
Si 2.7990944356 13.2582519313 13.1459017873 
Si 1.1589813826 12.6637320858 11.5497975655 
Si 1.4368773821 14.8967327262 9.7880829731 
Si 3.3431478606 15.5793163125 13.2140977615 
Si 2.2616058807 12.0699452904 15.2029848491 
Si 3.5615967626 14.8918131462 17.3470155668 
Si 1.5140936118 15.3910364908 16.3237516318 
Si 0.4179118088 13.3323551419 16.0382307436 
Si 3.8241264050 12.6262162155 16.8981840425 
Si 3.8069730348 15.6979238036 19.5881953269 
Si 0.1950320268 15.9494739859 20.0140589896 
Si 1.4895543556 12.6137706554 20.0055676621 
Si 2.0542504688 14.8103305655 20.8656388961 
Si 0.3049536898 12.3677427831 22.1010386005 
Si 1.1027173511 14.6769643342 25.4029856588 
Si 2.3392603114 15.3603624205 23.3456667268 
H 0.9467177937 13.3544606721 23.0507699978 
H 3.4829975119 13.3742856023 22.9644415012 
Si 16.2804216289 0.1622503563 28.9957312013 
Si 1.2751160517 12.5869736051 26.3649528232 
Si 12.4913675942 15.5722627424 27.9844966470 
Si 5.4733423101 2.9330308168 2.6610818033 
Si 8.2526281055 0.1847546657 2.5802343407 
Si 8.3306246262 2.9174575767 29.4769064281 
Si 6.8295174025 1.5816124045 1.2698780322 
Si 6.8542293327 4.2873325592 4.0621862263 
Si 5.4995040503 0.1805762807 5.4380761240 
Si 8.3073136360 2.9404427669 5.3634232028 
Si 6.9519693336 1.5675834563 6.6819671560 
Si 5.6641959518 2.9360444669 8.0779355052 
Si 8.2359308553 0.3745624894 8.2885970858 
Si 7.3811293875 3.6752683836 9.5994457733 
Si 6.1651460364 3.0046579475 11.7011083047 
Si 6.6984317713 3.4968114320 14.0707783613 
Si 6.6497246708 0.6012476155 11.8143849727 
Si 9.5816314776 14.7583980450 12.0783237368 
Si 6.4664784591 1.3199331001 15.2229748494 
Si 6.0991878258 1.3804129836 17.5945023838 
H 4.1973140184 1.9442929678 15.6927988223 
Si 7.2284920861 3.1913576392 18.6160562598 
H 4.2954123993 2.7601287552 19.8034858604 
H 4.5150830513 1.2562766665 21.8481857362 
Si 7.4928136285 1.7354388759 20.4830869006 
Si 4.0762467373 1.6094145477 18.8447324276 
Si 5.9374769943 1.5096757638 22.2737250774 
Si 5.6839557220 3.2804150700 23.8641094466 
H 4.4969522811 0.8740643930 24.6860581580 
Si 7.5115634187 0.7490223519 26.0884834543 
Si 6.0707780655 2.7581739552 26.2615237365 
Si 7.0627087546 4.1708916381 28.0095283730 
Si 5.5263336805 5.4693186800 29.3802880936 
Si 5.5860202411 8.4155443970 2.5207537707 
Si 8.2194779552 5.6155214314 2.6975856665 
Si 8.6713462693 7.6803929802 29.1653513655 
Si 6.9268175734 6.9102343532 1.1887770092 
Si 5.5353583406 5.7129519222 5.4054375839 
Si 8.2462098454 8.3441290363 5.3789611529 
Si 6.8836653630 7.0095544841 6.8675380430 
Si 5.5266594805 8.4762246475 8.1950450641 
Si 8.2056477450 5.5736072610 8.2621796224 
Si 6.5847927302 6.9822035739 11.6322931712 
Si 5.0477008962 6.8774262929 13.4214866429 
Si 6.5474397599 6.5428622698 17.0732881891 
Si 5.5697791109 5.3581557190 15.1550442291 
Si 6.4433303689 5.3272210087 19.2016925054 
Si 4.3254511596 5.5582457908 20.3770042740 
Si 8.0054273532 6.0349074852 20.9519084251 
Si 7.7484688909 4.2787314391 23.8817702285 
H 7.8202589215 7.3446234972 24.2458948639 
Si 8.2564236755 6.1777056265 25.1133075582 
Si 4.2791875591 5.0067315458 22.8330912785 
H 7.6735837602 5.1723356873 22.3757684266 
H 5.0916513166 6.2351604570 23.2539721830 
Si 5.1921769075 6.2027107767 27.1498993956 
Si 7.5762347193 6.4230818987 27.3125613886 
H 5.0257908460 4.9929502057 26.2155585295 
Si 5.0544612462 11.7684662576 29.3417233144 
Si 8.3086819960 11.0384624810 2.3307750591 
Si 6.8763837329 12.5710256950 1.1274831869 
Si 6.9858199539 9.7532466292 3.9055684074 
Si 5.6873114620 11.1133150316 5.4182040589 
Si 7.0066222841 12.5430557647 6.8690122318 
Si 6.4861567793 10.2705355839 9.4760266864 
Si 8.3284091862 11.0737629113 8.2104355952 
Si 4.2491325089 10.1948196632 12.2308433108 
Si 7.6963571804 9.7081070388 13.7289434606 
Si 4.2847424492 9.0099990824 14.2250374781 
Si 6.4655173491 9.3537017955 11.6559686434 
Si 6.0629262854 10.0077290115 15.4202213118 
Si 5.9912991548 8.8078076006 17.4760365713 
Si 7.5506919991 9.3567806056 19.1540172394 
Si 8.0588422637 11.9554754593 21.8283726387 
H 5.5230593905 10.2490816537 21.7044523275 
Si 7.1311267552 11.5817665659 19.6800078059 
Si 7.5627303092 8.2878796658 21.2386971157 
Si 5.4787505901 8.7570968301 22.0656285853 
Si 5.4014708294 8.9961525823 24.4166943791 
Si 7.5220215988 9.9260672408 24.9695446657 
H 2.7593794152 13.8576587767 28.3097321817 
Si 5.6488507717 13.7958219362 2.7474132482 
Si 5.3557447990 0.2329144221 29.4470983304 
Si 6.9599025637 15.1750962488 4.0896356219 
Si 8.3496513464 13.7929386061 5.3855655187 
Si 5.6514897517 13.9322018174 8.3651664525 
Si 6.3316787079 15.9974643263 9.5889200653 
Si 4.7869142838 12.4866923642 12.1277975131 
Si 6.2948795976 13.5647157041 13.8563133736 
Si 5.6170852714 15.8884353553 13.7090713955 
Si 5.9348217243 12.3329636328 15.9266051671 
Si 7.7047302405 12.4989913143 17.5435544186 
H 4.6764355028 15.5469155022 16.5471207199 
Si 7.2404652362 16.0545607768 19.0514726659 
Si 5.1108246467 12.5000501643 20.3936626075 
Si 5.7687125928 14.8157225555 20.4858583755 
Si 6.6165093605 13.0104484490 23.4411351939 
Si 4.4764920409 15.6753947334 24.3622673284 
Si 6.9903159939 12.1432177111 25.6504429920 
Si 6.2144721568 15.4144289310 22.8084133578 
Si 4.5071661112 12.2707684122 22.6873824567 
Si 13.6257869146 3.0415710878 0.0105378554 
Si 3.7483290343 0.2980630197 27.6618851684 
Si 3.2387452496 13.3227277518 0.1799321149 
Si 9.6442339482 4.3159866695 1.3499264844 
Si 11.7613801076 3.5674122926 28.2080131540 
Si 11.0523415611 2.9183698167 2.7080877876 
Si 12.4663461540 1.5364516371 1.4127829468 
Si 9.6332219081 1.5323677340 3.9899509748 
Si 12.3406036429 4.1928016883 4.2107549743 
Si 9.6192125080 4.3368378697 6.8031749597 
Si 10.9760717804 0.1501390670 5.3999536015 
Si 12.3092942626 1.4593021963 6.8821914798 
H 9.1266191935 12.7750090768 10.7539419960 
Si 9.9326158208 2.4052348120 11.9112391773 
Si 11.0280857509 2.9943952474 8.1898264357 
Si 12.5098241644 4.1722274182 9.6610373817 
Si 8.8341974008 0.5563132791 12.7289717088 
Si 13.7478641757 2.7528308352 11.2223212639 
Si 8.7377931799 0.7816056101 15.0965189335 
H 10.8312048091 1.0546830276 17.3766467619 
Si 9.4223315662 3.6925032038 17.8462348646 
Si 12.0502181002 3.0123631176 15.0854920012 
Si 10.2738587440 2.0635520589 16.3675055556 
Si 10.6292250972 0.2601464154 21.0250871575 
Si 9.5870723377 2.2746215908 21.4142140351 
Si 10.5969708969 3.8005059048 19.8801141946 
Si 9.6523626583 2.9220676467 23.7227642237 
H 12.0551051003 1.9469319478 24.5321233628 
Si 9.7340570090 1.4747239395 25.8600726405 
Si 6.8254123224 15.5699821424 27.8659718669 
Si 10.5296606163 6.0788253256 29.4581547464 
Si 11.0035855906 8.4141760370 2.5476577164 
Si 12.3382415928 6.9086053532 1.3053027892 
Si 9.6320001581 7.0350646243 3.9620888063 
Si 10.9355096800 5.6541613117 5.3780471558 
Si 12.3366940428 6.9448831835 6.7340649884 
Si 9.5381860472 7.2044969159 9.3577672603 
Si 11.0224331208 8.3925917868 8.0033415516 
Si 8.5427041381 6.2185772369 12.6752227849 
Si 12.0246753800 6.5809645802 12.9107686725 
Si 8.9828925222 4.0525936571 13.4488181034 
Si 10.4106621652 6.2736211474 11.2770136686 
Si 9.0861222531 7.8883837021 14.2882506941 
Si 10.9644407203 4.9870369356 14.5673441192 
Si 8.7635313801 7.2567226564 16.5259513687 
Si 10.3722829249 5.6033528012 16.7910400000 
Si 10.3441500946 5.7829826329 21.2048202569 
Si 11.4211797445 7.9527292027 21.1048702558 
Si 10.9988614906 4.8267759141 23.3255882752 
Si 10.5796383368 6.1470967162 25.2012281787 
Si 11.5090317153 5.6587876718 27.3394211087 
Si 9.7393838391 9.6112304079 0.9095538555 
Si 11.4486446847 10.7238537081 29.0053723961 
Si 12.4238292536 12.3351790728 0.9714491468 
Si 12.3745845832 9.7120980888 3.9682214317 
Si 9.6196523380 12.4174272836 3.8275248520 
Si 9.6027433178 9.7414852491 6.7062028199 
Si 10.9427750201 11.0790408713 5.2737335558 
Si 12.2816827123 12.4042649634 6.7023699290 
Si 12.6806411060 9.4091040861 9.3329419207 
Si 9.9299442608 12.1422403110 9.6152490774 
H 1.2136359621 5.0532232062 10.7775585007 
Si 11.3870359041 8.5486011182 14.0017568413 
Si 11.1996683224 10.6544094374 13.0266693966 
Si 9.2851046049 11.3728961840 14.1614999405 
Si 9.4890879868 11.2078784825 16.5736266347 
Si 9.4417981164 9.1402865036 17.7882107931 
Si 11.5459611456 8.6118714788 18.7530378838 
Si 8.4484339073 9.8207686798 22.7719124429 
Si 10.9496168201 8.4195191570 25.0225270114 
Si 10.6997445079 9.3558032056 22.8935919871 
Si 11.5584555757 11.5336784855 22.9570115896 
Si 10.4583918656 11.4437413947 26.9321617087 
Si 9.3250802653 9.3724841657 26.4466228831 
H 15.7919333944 5.1292649269 0.6688188233 
Si 9.6113281479 15.1478919485 1.0923355774 
Si 11.0186375508 13.7243088355 2.4124215320 
Si 12.3348695628 15.0661324378 3.9304821983 
Si 9.5955431378 15.1663810987 6.8963142085 
Si 10.9665421303 13.7258075155 8.1971384122 
Si 12.4366331937 14.8794164561 9.5979715845 
Si 11.8836528487 14.8914547662 11.8998289560 
H 11.7375152573 13.1293654501 14.2005069763 
Si 8.6871638595 13.6137323145 13.9033989641 
H 8.5482264482 8.2570426955 9.8482003927 
Si 11.7780121977 15.4382123312 15.9629291793 
Si 11.5528518157 12.1466223211 17.3256398291 
Si 8.8028880205 14.5001038026 18.0496434362 
Si 9.4254755362 14.9744360270 15.8155102986 
Si 10.6502880674 13.4509952130 19.2146948507 
H 9.8477123401 16.0176639265 19.8508073211 
H 11.7562487575 14.4449947321 19.5090608718 
Si 10.1575970129 12.9396521083 21.5638441991 
Si 8.1628213347 15.6932974435 24.0712919416 
Si 11.9555080393 12.4062360535 25.2123730460 
H 8.2725833557 14.4152980618 24.8980465085 
Si 11.7453344574 14.5831176434 24.3022973277 
Si 10.1070817224 15.0303595975 22.7285123245 
Si 8.6938753395 12.9726067786 27.0659885687 
Si 11.2063146425 15.9232307956 26.0691715809 
Si 5.0872693065 12.5144342345 27.0087900430 
Si 13.8340871465 0.0658089942 2.6019137613 
Si 11.0605191412 0.3568780653 29.4687394221 
Si 14.9183658464 4.2380715988 1.5377351901 
Si 15.0818034179 1.4948062517 4.0845349287 
Si 13.7450297157 2.8412040860 5.5860551965 
Si 15.0929783580 4.2153307586 7.0608041957 
Si 13.6956221453 0.0898242011 8.2678405074 
Si 14.9990339272 1.2864506338 9.8088395515 
Si 15.5558098423 3.0975272383 12.6834782422 
Si 0.0057893357 0.9158205504 13.1679556519 
Si 12.1188804508 2.0585510288 12.8398896747 
Si 12.5620987749 16.2258827084 13.7433020596 
Si 13.6064995544 2.9818356573 16.9603948102 
Si 14.6225068637 0.8350710196 16.8367398530 
Si 12.6722517559 2.8697115862 19.2319723435 
Si 16.1501993677 3.4780779318 20.9145819645 
Si 16.1412561576 1.2787112547 21.6905949527 
Si 12.7668314968 0.7176364086 20.1943227970 
Si 13.9703855778 0.7406215988 22.3223733080 
Si 13.4598406831 2.2608728307 24.0519505844 
Si 14.8536293858 2.1499867997 25.9621749573 
Si 10.0398203118 2.0224523885 28.1619889794 
Si 8.1157269442 13.9799152279 29.1035238869 
Si 14.5416270130 0.2071436419 27.2310092638 
Si 13.5786436542 5.6055682413 2.8303923878 
Si 14.1336602493 7.6103133996 29.3390402908 
Si 15.0481808576 6.8929017930 4.1324460649 
Si 13.7258075155 8.3433145363 5.4107151798 
Si 13.6650783950 5.7354809925 8.2890983100 
Si 14.3789876515 7.6154936196 9.6271310391 
Si 16.0428645567 6.7843289420 13.1421868315 
Si 16.0028074464 4.6950061029 14.3595719486 
Si 1.8304258667 4.1469290479 9.7248107895 
H 13.8385994766 6.0442579453 14.9663775455 
Si 12.3282884028 6.5488895699 17.8722395551 
Si 15.9645096560 6.5227278297 17.0430968023 
Si 13.8854658070 7.0317740443 16.1226427947 
Si 15.6054617627 4.2509081189 16.7636200882 
Si 15.6459261231 7.1950650058 19.2428813407 
Si 13.6209162046 7.5424003890 21.8543773292 
Si 13.9094283972 4.0788368473 20.7395662693 
Si 13.6761393051 6.2044212267 19.8554657577 
Si 13.2276918910 4.3042415794 22.9847558230 
Si 14.6368094839 7.0975041949 25.5884091270 
Si 14.6461273639 6.0878662757 23.4391597809 
Si 13.8504748867 5.9029421940 27.4401082042 
Si 15.1278226684 9.4286846662 1.3599568651 
Si 13.7454532557 11.0044978306 2.5075332454 
Si 15.0783173579 12.3698279031 3.9593468151 
Si 15.1774257188 9.6707051984 6.7296129382 
Si 13.7186073355 10.9892178105 7.9389784682 
Si 15.1173156183 12.2033603916 9.3447354312 
Si 11.7931944779 11.1353065318 10.7725757425 
H 12.3246394427 11.3555147539 13.7329237704 
Si 14.8983128563 10.1308651227 14.0729896445 
H 14.3711358714 10.5246432963 12.7190356762 
H 15.1908486789 11.4621490948 14.7292690178 
Si 15.2009973490 10.6097585470 18.1703794995 
Si 12.9056222980 10.2278883635 17.6215095228 
H 15.8333751548 10.0837218622 16.8960612107 
Si 13.2187649709 9.1531230237 15.4478770938 
Si 13.3063725917 11.4566756548 21.4568475754 
Si 14.7095606245 9.6323259581 21.8457090990 
Si 16.1138400874 9.3641436856 19.9914449333 
H 12.6800546660 11.4563172748 20.0750609225 
Si 16.1502319477 10.5098031061 23.5082107847 
H 13.6261290046 9.9962282714 24.8823021721 
Si 13.0965410998 8.8628515111 25.7621570199 
Si 15.7044235136 11.3736455240 25.7474740993 
Si 13.3480749921 9.4394523563 28.0359458364 
Si 15.6872538535 9.9193883407 27.5518811996 
Si 13.6474851948 13.6825249851 28.8920662444 
Si 15.0750267779 14.9807239670 0.9541510153 
Si 13.6953615053 13.7260029955 5.3438754593 
Si 15.0335198575 15.0872768580 6.7803545170 
Si 15.3437466203 13.7098596054 12.1619692097 
Si 13.4433552029 13.0335313792 10.8114353595 
Si 16.0853488771 15.8993170754 11.1950782547 
Si 9.2775623348 2.1850428800 9.5532741799 
Si 14.7300208647 16.2298085984 14.6229210372 
Si 14.8698705160 13.8591085868 14.5985084705 
Si 13.2270891610 15.7454091540 18.1770723167 
Si 16.0646279969 12.7945244970 18.3007272739 
Si 12.6015531552 13.3360855520 15.4426289817 
Si 14.7752744851 14.4094336618 19.4430466970 
Si 14.5243759028 13.4387940029 21.6221631083 
Si 13.8826802170 14.9565658968 23.3787475236 
Si 15.0152424773 14.8739104360 25.4901102173 
Si 14.0233932383 12.9191592882 26.4148393725 

