&CONTROL
  dt          = 30.D0,
  prefix = 'aSiHcSi_merged-5',
  pseudo_dir = './',
  outdir='./',
 wf_collect=.true.,
 verbosity ="high",
/

&SYSTEM
    ibrav= 0, nat=  398, ntyp= 2,
  ecutwfc     = 42.D0,
  nbnd=1478,
  degauss     = 0.05D0,
  occupations = "smearing",
  smearing    = "methfessel-paxton",
/
&ELECTRONS
  electron_maxstep=200,
  conv_thr    = 1.D-8,
  mixing_beta = 0.3D0,
  scf_must_converge=.false.,
/
&IONS
/
ATOMIC_SPECIES
Si  28.08  Si.pbe-hgh.UPF
H  1.00784  H.pbe-hgh.UPF

K_POINTS {automatic}
2 2 2 0 0 0

CELL_PARAMETERS angstrom
16.29000014898320 0.00000000000000 0.00000000000000
0.00000000000000 16.29000014898320 0.00000000000000
0.00000000000000 0.00000000000000 29.40185373716267

ATOMIC_POSITIONS angstrom
Si 0.0975134070 0.1773704086 29.2444362123 
Si 0.0542220800 2.7833908755 2.6681064996 
Si 2.7093202448 16.1541089677 2.7592787079 
Si 3.2741597099 2.2395492205 0.2407020979 
Si 1.4374312421 1.3386242462 1.4141762414 
Si 4.2057848185 4.0537013771 1.4458655594 
Si 1.3848780727 4.1230967777 4.0742442742 
Si 4.0946544374 1.2979562609 4.0961780571 
Si 0.0451228117 0.0375440520 5.4143513657 
Si 2.6979986947 2.6773918445 5.4229955107 
Si 1.3915716337 1.3343839592 6.8894129658 
Si 4.0387960269 4.0646971272 6.7528119534 
Si 16.2021318882 2.7241930149 8.1261431396 
Si 2.8106603357 16.2295642484 8.2660665615 
Si 0.8029243333 4.6078708921 9.2373862016 
Si 4.2939951693 1.3274867731 9.4980630368 
Si 1.3761352296 3.9925975865 11.3600824340 
H 3.4984241420 0.3855924485 12.3812382161 
Si 1.2110882061 1.0326410284 13.8809091679 
H 15.8277062348 0.6943694014 10.5465919448 
Si 3.2671550099 2.4982344228 11.1737040831 
Si 3.0030289475 1.1990303480 16.9711616030 
Si 0.2441496352 3.6038530230 16.4419282358 
Si 2.1229616894 2.6244819240 15.3252752327 
Si 3.3862512010 2.1690298098 19.0852430923 
Si 0.5897273274 0.1713463666 20.8352708286 
Si 1.3282572901 2.3416549414 20.2692851442 
Si 2.0306136786 3.5700349827 22.1831694113 
Si 3.8508257152 0.3024564328 22.4123862631 
Si 1.1548339486 0.7159552805 24.8758499803 
Si 2.9087098466 2.0195690585 23.7841297492 
H 15.7813937643 3.7053723039 26.7813841210 
Si 1.3969375598 0.1469302627 27.2239114216 
Si 2.3754729817 2.3950372719 27.4854409106 
Si 0.0413497219 5.5244440405 29.2065078209 
Si 0.1531154129 8.0700660738 2.6667834162 
Si 2.7502244352 5.4718273400 2.6563575188 
Si 3.1656194390 7.8996563822 29.0380646009 
Si 1.5365151681 6.8224312524 1.0946045530 
Si 4.0721090772 6.7884340221 4.1524238033 
Si 0.0497718149 5.4548531599 5.5239908783 
Si 2.8045678756 8.2261568552 5.5463068853 
Si 1.4211249520 6.8991897331 6.8836208007 
Si 0.0869827364 8.1594330146 8.4209555270 
Si 2.7580110552 5.4550486399 8.1866815564 
Si 4.1453814979 6.5664013201 9.7806148512 
Si 2.1763928899 5.7144668923 12.7382943279 
Si 0.8814844881 6.5704086601 14.4957901351 
Si 3.4575525316 4.2097269985 14.1275613189 
H 16.1654630978 15.6866674135 11.5916220322 
Si 2.7665795953 7.6867786603 11.3100698808 
Si 0.9243320755 5.7869573929 16.6829940346 
Si 3.2029235393 5.9368905543 17.4445902519 
Si 3.1561712389 8.0620025237 18.5170228670 
Si 2.6464082642 7.4736402984 20.8721113513 
Si 0.3571908333 8.0188503133 21.5090731107 
Si 3.4207371313 5.2135493877 21.1058854904 
Si 0.3523771382 4.6078708921 23.4120492901 
Si 2.1104183893 7.8586218719 24.8010222625 
Si 3.7255719041 5.2495339980 25.9032389554 
Si 1.4572089313 5.5970322812 25.3467500697 
Si 0.7995588193 4.2829505492 27.2820976901 
Si 4.1516694380 9.3841966758 1.3184996692 
Si 0.0610264131 10.7510254283 0.1002920752 
Si 2.8059851057 10.8036421288 2.6983668875 
Si 1.5174069979 12.1593936812 1.2547770316 
Si 1.4193460840 9.4838426067 4.1012351759 
Si 4.1736283582 12.1756836814 4.1109965914 
Si 4.1117915176 9.5136044370 7.1091036170 
Si 0.0249973310 10.8091807289 5.5085255032 
Si 1.4050125128 12.0657424703 6.9456587120 
Si 1.3618342385 9.3420381554 10.1021829256 
Si 2.6899514346 10.8043914688 8.5724044756 
Si 3.7848675046 12.6711766159 9.6764734853 
Si 2.2412596705 11.6558046166 12.8167678755 
Si 3.0533324679 10.1132230525 14.3364908915 
Si 0.3096875638 10.6540347674 11.9383874951 
Si 1.2552732025 8.7907356804 15.0791229132 
Si 1.1422043114 8.8441343009 17.4432671685 
Si 0.5124671147 11.0858826714 17.6952998587 
H 2.2350857604 10.5064962361 19.4216591028 
Si 2.9499724170 11.4486283947 20.3569614720 
H 4.0312863369 11.9972755997 19.4535307122 
Si 0.3618139353 8.9788688921 23.6700799585 
Si 3.1870244991 11.6391725264 24.3172147593 
Si 0.8265220276 11.3128838235 23.9523377544 
Si 3.6889031137 8.3263729362 22.8911072456 
Si 3.9722513763 10.6488382574 22.3222695814 
Si 0.3813700805 12.2798419423 26.2464173922 
Si 10.4964127260 7.4818993284 27.6760237265 
Si 0.4193958278 10.0787697022 27.2994153820 
Si 4.0548579671 10.5035803261 26.2220432555 
Si 2.4480286424 8.9495957619 26.9526793209 
Si 0.1005283602 13.5572060140 2.5874689755 
Si 2.0527192088 14.0299743983 27.1569928025 
Si 4.0692094572 14.8803938561 1.2738911767 
Si 1.3752523116 14.8281029556 4.1538350923 
Si 2.7696909853 13.4728075232 5.5428962702 
Si 4.1599773380 14.9362848466 6.8232881968 
Si 0.0760001812 13.5970676444 8.1520461727 
Si 0.7136388425 14.4299264820 11.4994766226 
Si 1.9300229277 14.3746219315 9.5054135002 
Si 2.0920758491 13.9354109474 13.3259197767 
Si 3.8962748156 15.2724452897 12.7759287007 
Si 2.3398141714 12.4598301540 16.9478753349 
Si 1.2504497334 15.8741327352 17.0510758415 
Si 1.3161440460 14.0502228685 15.5337343757 
H 3.6605910935 14.6789680042 16.0172478604 
Si 0.5365600249 14.8849061861 19.0908588464 
Si 1.6582079852 13.3906244725 20.7601196904 
Si 2.8525256361 13.9197562573 18.6977854638 
Si 2.0315096286 15.2091260591 22.1080182732 
Si 3.2994580802 13.8522667867 25.1142402104 
Si 1.2809690487 14.7616397550 24.2540007737 
Si 4.7070769930 11.8390345383 28.1050555762 
Si 14.8695121360 1.2065937950 27.8247971064 
Si 3.0498301179 13.2507096612 29.1910718477 
Si 4.9746728255 0.5160395117 0.2317962764 
Si 5.4975166703 2.7639080353 2.8976938147 
Si 8.1504735145 0.0979108830 2.6600268702 
Si 7.5043306586 3.2904822901 29.1401772389 
Si 6.7754834720 1.5787681704 1.3326360805 
Si 6.9046957531 4.1566704680 4.1517181588 
Si 5.5105649604 16.2855203989 5.4592479964 
Si 8.2578246155 2.7130506548 5.4568958481 
Si 6.9210834933 1.3025402669 6.8461628390 
Si 5.4527354599 2.7341624950 8.0392018581 
Si 8.2864298558 16.1833006480 8.2817965533 
Si 7.8994120322 2.5553634534 10.5477680189 
Si 4.9179836250 3.2865238201 12.5652350168 
Si 6.3052889077 1.3132770060 13.0426623178 
Si 5.5945236212 5.1511098171 11.1171055147 
Si 7.7606701010 1.2422558634 17.1724172919 
H 6.3148674278 1.3238606191 16.7205990055 
H 6.5157068396 3.1972383292 15.7027362310 
Si 7.9298254625 2.5941825237 19.0498138586 
Si 4.8490443443 0.6837271443 20.2614642511 
Si 7.0209249042 1.4247511060 20.8737578551 
Si 6.7246423815 2.9483597070 22.6514821376 
Si 7.3354196471 1.8509349769 24.7110231882 
H 5.2127511777 3.1383825587 22.7367475135 
Si 3.9688630563 2.9060545766 25.8119756014 
Si 6.0972493158 2.2673725407 26.6670991155 
Si 5.8058537931 0.1347590262 27.5142841291 
Si 5.8535997835 5.0966360566 0.1154804848 
Si 5.4376509197 8.1312838944 2.8291639740 
Si 8.2638519156 5.5060526304 2.6876058090 
Si 8.3667232665 8.4565951973 27.4866757884 
Si 6.8205579024 6.8669355328 1.4104480864 
Si 5.4685367600 5.4694978700 5.5062027568 
Si 8.1535034546 8.1978774150 5.5176988816 
Si 6.7708571119 6.8769375929 6.8972632608 
Si 5.4727721601 8.0881479740 8.4878741461 
Si 8.2087102651 5.4858367402 8.1163229204 
H 12.6372119656 1.7736063462 11.8079020683 
Si 6.9583713036 6.4965172194 12.5293059516 
Si 5.4097135695 7.3400948771 14.1367640991 
Si 4.5827842919 5.6561161117 15.5183572062 
H 7.4846197585 7.5937627595 16.5529790373 
Si 6.6786557111 4.6787323928 15.9768497134 
Si 4.2145162585 4.3950420402 18.9885109935 
H 6.5013716395 7.1401514153 20.1630856485 
Si 7.5104556987 6.0268439351 19.8498088969 
Si 6.5698059301 4.4442541306 18.4055898413 
Si 7.9143988324 4.9086494549 21.9486014222 
H 4.5851952119 5.4539572099 22.0317792664 
H 4.5443398916 5.9604621845 24.8386860372 
H 6.3826012484 4.4221486004 25.2888284179 
Si 7.7307616607 6.7352145916 23.4096383381 
Si 7.3211333170 5.6192192614 25.4543902563 
Si 4.6443604925 6.3231753278 27.8983605445 
Si 6.4264213488 7.3639271473 26.7256676082 
Si 5.8998308040 10.5431324464 0.2782312120 
Si 8.2080260851 11.0257725708 2.8441677400 
Si 6.9829203339 12.3636865731 1.3144128115 
Si 6.8014334422 9.5890108477 4.1596566593 
Si 5.4732771501 10.8834142595 5.6651197762 
Si 6.8698025728 12.2369666619 7.0590616619 
Si 6.9215396133 9.3517632855 9.9463236989 
Si 8.2039372950 10.7833610786 8.4627355612 
Si 5.2437347580 12.2994225225 11.6463388820 
Si 4.2105089185 8.8061786005 12.8042132840 
Si 6.0407230152 10.1131578925 12.0810158876 
Si 9.5277767371 6.6523636508 9.6685643866 
Si 7.2032425859 10.0533247219 14.3743016754 
Si 7.3153340769 12.0059418798 17.6577536915 
Si 5.0231355759 9.4173956961 17.7110592523 
Si 6.3052400377 11.9598411794 15.4979523197 
Si 4.1680734681 11.1079556216 16.1741361519 
Si 6.3780563383 8.4775604275 15.9565918361 
Si 6.7906983321 10.2357890136 19.2569499181 
Si 6.2869789475 10.3927268750 21.7032135509 
Si 7.5824574993 12.1713179613 22.5890031985 
Si 5.9260414142 9.2730337148 25.3987031453 
Si 6.0854227757 8.4710118475 23.1673082596 
Si 7.9177545724 10.2958176642 26.0847660004 
H 5.6570772217 12.9082938581 27.6710842151 
Si 5.4954967103 13.6051474844 2.6827956657 
Si 8.3838603467 13.7625577559 29.2249133814 
Si 6.8586602127 14.9528680668 4.0746559002 
Si 8.1809683948 13.5790671942 5.5418084016 
Si 5.4728047401 13.6938954052 8.3457749870 
Si 6.9505358136 14.9304693165 9.8280106395 
Si 7.3732776074 13.4560125331 11.7737665161 
Si 6.9413319635 13.8630018968 14.1462314960 
H 4.5200677913 12.6969148161 12.9193803451 
Si 5.5533750808 15.7439430540 14.2953871000 
Si 4.5545211417 15.8431002849 16.4286679997 
Si 4.9181791050 15.1307548684 18.6975796508 
H 5.6310132215 13.2552708612 20.9973338464 
H 4.8807283946 13.1935969207 21.1219683044 
Si 6.9684711037 13.9879136179 18.8465588437 
H 6.6959231112 13.1110717799 23.3903213202 
Si 4.8208137741 15.4642111714 24.1981666535 
H 4.6167978122 0.0974156670 25.4027017974 
Si 7.1496973554 15.8607097751 24.0345159356 
H 6.5698059301 13.3500460821 25.7211238734 
Si 7.9599782528 15.4792305516 27.5814967667 
Si 7.7664530510 14.2642083105 25.6001058434 
Si 9.4434759864 4.2341457087 1.0260041478 
Si 10.8572036493 0.0955392219 29.2581080742 
Si 10.8251123490 2.8212977058 2.4606940626 
Si 12.2920268624 1.5258533630 1.0718386976 
Si 9.5864533177 1.4238193180 3.9819224535 
Si 12.1885690715 4.0803681073 3.9937714005 
Si 9.6050239178 4.0659840372 6.8467508761 
Si 10.9257193899 0.0034247282 5.3901242382 
Si 12.2612713421 1.3244372851 6.8352841531 
Si 9.6144721179 1.3232839531 9.5896792131 
Si 10.9695720703 2.7116008448 8.2476904029 
Si 12.2277953918 4.0773870373 9.6926151030 
Si 9.9987858014 0.3538790762 11.7468638199 
Si 8.6501692691 1.6007759606 13.3078082348 
Si 11.7383134674 16.0863425671 13.3433550760 
Si 9.0085655624 3.7387830942 12.3678015690 
Si 6.2412203371 0.7186903716 10.7428199166 
Si 11.4836518950 1.2342346673 15.5053615868 
Si 9.2699060348 2.0447208187 15.5374978130 
H 9.3532945455 3.5577523225 15.7070289016 
Si 10.0414981818 3.6469889434 19.4603813441 
Si 11.3396482937 0.2565968243 20.4149419276 
H 11.0621807212 1.7097332556 20.0247499266 
Si 10.7080198279 2.3903946219 23.5178077580 
Si 9.4435411464 2.4448195124 25.5404494822 
Si 10.4011488051 0.1653744525 22.6043215643 
Si 9.9627849011 0.5752113083 27.0665821022 
Si 11.0029991506 5.6883703120 29.2073604747 
Si 10.8285658290 8.2301316153 2.7959045971 
Si 12.1848223714 6.8069883323 1.5165799578 
Si 9.5324030972 6.8252331324 4.1738577547 
Si 10.9571102202 5.4759487101 5.5075258402 
Si 12.2863416524 6.8551252827 6.9640936743 
Si 10.5633157566 5.0597554963 11.0642115798 
Si 10.9193337099 8.1725627547 8.4526213235 
Si 11.1920283124 6.7808754620 12.4862616377 
Si 8.2359471453 5.2907802784 14.0880746293 
Si 6.7622559918 4.1517345980 9.3509655626 
Si 9.9915041714 6.9021870931 14.5378641878 
H 9.5251051771 6.7817225420 17.6707199090 
Si 11.7095290371 4.3546428398 17.7299352424 
Si 11.7122820471 6.0663308955 16.0235986608 
H 9.3261716953 4.9878677256 19.1260234634 
Si 10.1788065931 4.1352328278 21.8962955244 
Si 11.5871585560 6.8170881323 20.1885476538 
Si 9.4651742666 7.1134358151 19.1489275075 
Si 11.4246495145 6.1528307963 22.4036833144 
Si 9.9983459714 7.4535058582 23.7133300854 
Si 10.7368857082 6.3390580780 25.6649957346 
Si 7.6141578396 8.8188522207 0.2379483202 
Si 9.2381731145 4.6748390828 26.4168893402 
Si 9.4813013667 9.6881192086 1.4125738404 
Si 10.8386004691 10.9882404105 29.3206752190 
Si 12.3534401630 12.2134764817 1.2651441252 
Si 12.2704751922 9.5153148870 4.1662132727 
Si 9.6216397180 12.2967020925 4.1798263310 
Si 9.5193548071 9.4612157965 6.9796766568 
Si 10.8746665295 10.8236299590 5.5357516198 
Si 12.3309599628 12.2000209416 6.7332009169 
Si 11.8328606282 9.9950228114 9.7819085328 
Si 10.0913455823 11.7139273371 9.5816819088 
Si 9.6739469085 12.5629621449 11.7545671056 
Si 10.6378099273 10.9726020104 13.4929223059 
Si 9.4441112964 9.3055159751 14.8115660442 
Si 9.9951368414 9.7495325092 17.1759161125 
Si 9.6856105486 12.0566852303 17.3960183895 
Si 9.0806325230 9.4033700060 19.3327184952 
Si 10.9367640100 10.0673178321 20.9113628261 
Si 10.7225505081 9.6729206385 23.2911782694 
Si 9.1029172433 11.1913930024 24.2196300067 
Si 12.9398964583 4.9138133849 27.9282916316 
Si 9.5905095277 15.0516832077 1.3623613546 
Si 10.9748337404 13.6065321344 2.6759773758 
Si 12.3537496730 15.0068857072 3.9790410718 
Si 9.6214279480 14.8947290562 6.8435166722 
Si 10.9889083005 13.4500666830 8.1623662234 
Si 12.6174847754 14.4805395124 9.5290525907 
Si 11.0970739015 14.5159213928 11.4389088039 
Si 10.9859761005 14.3946260516 14.9016827259 
Si 8.3898061967 15.3671716405 17.5869540277 
Si 11.2527248529 12.1769217214 15.4968350492 
Si 11.8732109586 15.5270091220 16.7069859472 
Si 8.7375976999 14.7756491551 15.3122502115 
H 8.7141889697 16.1641761878 14.6393887887 
Si 10.5118067761 15.2950720999 18.6135785547 
Si 8.2200643952 13.7459908257 20.8658487565 
Si 11.8461043983 12.2345394519 20.7224265140 
Si 10.1374462827 13.1817866706 19.5053073766 
Si 8.1977470950 15.9084068955 21.9205520537 
Si 9.7690805093 13.0746147596 25.4327504919 
H 12.1297621709 12.0481818502 23.7579915012 
Si 11.0586457911 14.6671903341 24.0946427265 
Si 10.1064789924 12.7989879571 27.8965964332 
Si 11.8589409185 15.6548693332 26.0705061013 
Si 13.6821828951 13.4858069433 29.1022194457 
Si 13.6575361249 0.0327380133 2.4409948206 
Si 13.6840236651 2.8903347264 29.0602630004 
Si 15.0290401075 4.1039234475 1.2111240993 
Si 14.9751039170 1.3409960703 3.9449643233 
Si 13.5368435138 2.6443883042 5.3177074725 
Si 14.8460871158 4.0153547167 6.7085915654 
Si 1.1856318228 1.7108409756 11.7180794051 
Si 13.5991853444 16.2874751990 8.2982321895 
Si 13.5376254338 2.7881149755 11.1128716478 
Si 14.8755557260 1.4888880946 9.6343994326 
Si 14.0092372281 15.9924144263 12.9001221309 
Si 15.2307428893 1.0611387547 14.4045855848 
Si 12.9611223285 2.6939587746 16.6423900746 
Si 15.3984158608 0.4209433778 16.6559737310 
Si 14.6228489537 3.2432087097 15.0222891299 
Si 15.9966986963 3.3024717302 18.7777291041 
H 14.4680776623 2.9236803567 21.9410157439 
Si 13.6410343548 0.1258843971 20.0931386384 
Si 14.3356562511 1.6829687854 18.3335552997 
Si 14.8273699056 3.0491948079 23.4104615900 
Si 12.7458336866 3.1027889084 24.5620145935 
Si 15.2315410993 0.8792087750 24.0662993395 
H 12.9069254980 2.2228519703 25.8035372694 
Si 14.2074539499 16.1425593576 25.9551626291 
Si 13.6634493950 5.4089968095 2.7119123215 
Si 11.9775646995 9.3179126652 28.1625362003 
Si 15.0210580074 6.7902096321 4.0998238870 
Si 13.6681409150 8.1643688847 5.5433372980 
Si 8.2864787258 7.9162396024 11.1846709746 
Si 13.6139115045 5.3728330091 8.2330482798 
Si 15.4105519109 6.2803000474 9.4286158583 
H 15.6840121434 4.4781699110 12.3284618887 
H 15.7168364937 6.4430860189 14.1235920686 
Si 14.2808566906 4.2589065090 12.8476104201 
Si 13.4801054433 6.4909460394 12.5751728434 
H 12.2497217320 5.1847323774 14.9268507127 
Si 15.5295177820 7.3176146769 17.8327829268 
Si 13.4523309930 7.7127775005 16.2366738948 
Si 15.2880673998 5.4864720502 19.5174209404 
Si 15.4891022917 6.0147078850 21.9087619104 
Si 13.0072556090 5.0932314466 19.5152746051 
H 12.9881637288 4.0381118469 20.6056423509 
Si 13.6048379744 6.3344968779 23.4286319356 
Si 12.7697474068 5.2163512677 25.5092247135 
Si 14.5537467731 6.7287800415 28.2053747012 
Si 14.9866861071 9.4953270568 1.4891362675 
Si 13.6125757245 10.8967883497 2.7845525413 
Si 15.0502333976 12.2422446220 4.0704220332 
Si 14.9728721869 9.5135718570 7.0300420323 
Si 13.5235182937 10.9292217400 8.3332203955 
Si 14.4455485921 12.8389147474 9.4042417215 
Si 15.6772029234 9.7753358694 14.0258309049 
Si 12.4420903438 9.9499972510 12.2599849713 
Si 13.7166688254 8.4261491871 13.8558881903 
H 13.5350190338 11.0452717010 12.2411971868 
Si 15.1968922690 11.2292346727 15.9124890555 
Si 12.2886548324 9.3112826352 17.5138022156 
Si 13.0752500696 11.4235255045 16.9068009452 
Si 12.6458782457 8.8271438307 19.8101751980 
Si 15.5343070421 11.1163612617 19.7612505134 
Si 15.0421209776 8.8044844405 19.8918829496 
H 13.8109227663 10.9232270199 23.4124903179 
Si 14.5283343729 8.2693416456 24.4114771024 
Si 12.9540035985 9.9783255613 24.2103390209 
Si 13.3092885017 10.3496072447 26.5110634777 
Si 13.4874359434 8.2258636352 0.2239971406 
Si 14.9296059465 8.5822888385 26.7024695456 
Si 11.7837625678 14.4943371426 28.1375740265 
Si 15.0659858278 14.9009518363 1.0711653952 
Si 13.6919894752 13.6408877448 5.4144101694 
Si 15.0164153573 15.0252445374 6.8410469164 
Si 15.4406232512 12.6658009158 11.4934198407 
H 12.9096947981 13.0445922893 13.5062707475 
Si 14.2763280706 13.6817267751 13.2547084870 
Si 14.1099745890 14.8215706656 16.7883996802 
Si 15.3385664003 13.4575112131 15.3071636908 
Si 13.5955038043 12.2738146423 19.1349322251 
Si 16.1923253081 12.2298968019 21.8641004946 
Si 14.4588249422 14.4515921822 19.0378179022 
Si 14.9169649064 16.0139335165 22.0386593002 
Si 15.2870248398 14.1010476690 25.1641645580 
Si 12.3933995333 13.2148390809 22.8176320131 
Si 14.6678908041 13.7887357861 22.8495036226 
Si 14.3639519814 12.4719499141 26.9872264990 

