&CONTROL
  dt          = 30.D0,
  prefix = 'aSiHcSi_merged-7',
  pseudo_dir = './',
  outdir='./',
 wf_collect=.true.,
 verbosity ="high",
/

&SYSTEM
    ibrav= 0, nat=  398, ntyp= 2,
  ecutwfc     = 42.D0,
  nbnd=1478,
  degauss     = 0.05D0,
  occupations = "smearing",
  smearing    = "methfessel-paxton",
/
&ELECTRONS
  electron_maxstep=200,
  conv_thr    = 1.D-8,
  mixing_beta = 0.3D0,
  scf_must_converge=.false.,
/
&IONS
/
ATOMIC_SPECIES
Si  28.08  Si.pbe-hgh.UPF
H  1.00784  H.pbe-hgh.UPF

K_POINTS {automatic}
2 2 2 0 0 0

CELL_PARAMETERS angstrom
16.29000014898320 0.00000000000000 0.00000000000000
0.00000000000000 16.29000014898320 0.00000000000000
0.00000000000000 0.00000000000000 29.50140192807311

ATOMIC_POSITIONS angstrom
Si 0.6070370816 0.0800744731 29.0137142528 
Si 0.4505895491 2.7786504854 2.4946680484 
Si 3.1247315386 0.1220552696 2.4723885897 
Si 2.9912675674 3.1200074385 28.9690786317 
Si 1.8254085467 1.5430686351 0.9443605267 
Si 4.4322484005 4.1550414680 1.1107218823 
Si 1.7551171961 4.1054547075 3.9949028407 
Si 4.4555268107 1.3882077487 4.0127806903 
Si 0.4638382062 0.0607908597 5.4065154215 
Si 3.1192743885 2.7495891251 5.4185814949 
Si 1.9036982874 1.2916715788 6.8660382791 
Si 4.4759870509 4.1709730881 6.7782126056 
Si 0.4577261982 0.2317366551 10.8491995619 
Si 3.2974544102 2.7868280655 10.8835096923 
Si 0.4904674695 2.7218635449 8.0950076807 
Si 3.2711134799 16.2363734685 8.4289930519 
Si 1.8565387370 4.0442043070 9.5101014269 
Si 4.7985453439 1.4183572810 9.6884374016 
Si 0.8703975140 2.6999046247 14.0198332327 
Si 3.3038075102 16.1425756476 13.1293039141 
Si 1.8788723272 1.4768660745 12.2489525791 
Si 15.9680445860 0.0631043655 17.1714975020 
Si 1.6376500050 3.6370520433 17.5328896757 
H 1.1653084187 2.2058615002 17.8525963684 
Si 3.6081698730 0.3285693030 18.0823237852 
Si 2.6818715945 3.2042593193 15.4505922234 
Si 3.4939443920 1.7734760262 20.0309503853 
Si 1.7537977060 1.4050630119 21.5939641609 
Si 2.3776069717 1.4281475711 23.9104732431 
Si 0.3906863316 2.1718642699 25.0269242976 
H 2.1431775796 3.6515175634 22.4243401209 
Si 0.3418814911 5.7437237325 29.4406585415 
Si 0.3387375211 8.2708891956 2.7592366209 
Si 3.1424713487 5.4877426702 2.6251852007 
Si 3.8509560352 9.5880171577 28.4225356596 
Si 1.7064100956 6.9222075033 1.4158755334 
Si 4.4924888211 6.8376786925 4.0263808365 
Si 0.4274870709 5.4615809299 5.4658427408 
Si 3.1284945286 8.1940818449 5.4026212365 
Si 1.8044758965 6.8400407426 6.8154433748 
Si 0.4245907089 8.1475413145 8.2192675856 
Si 3.1784396691 5.5472826207 8.2385615024 
Si 4.4962681011 6.9483692435 9.6875818609 
Si 3.0919886383 8.2858597058 11.1004039993 
Si 1.9229530676 6.2575754972 13.6001462888 
Si 0.1326976896 4.8311090542 13.1388328669 
Si 3.6659830835 4.8110723540 14.0241994402 
Si 1.7412544059 7.5494050890 15.5549091806 
Si 3.1405654187 4.0646808372 19.3361038657 
Si 0.0025967238 4.7226013632 20.4126690249 
Si 2.1849614300 4.7729863337 21.3847697198 
Si 3.8163072049 7.8223929115 20.4899036951 
Si 3.6042439830 6.3314995179 22.4472922116 
Si 3.1432043987 7.5269411788 24.4584322825 
Si 16.1298694475 6.0070841649 24.2014750717 
H 3.0991562383 4.5767895719 25.3791415353 
H 1.2877570918 5.9357013843 23.7180355983 
Si 16.2587722187 4.2541335389 26.0693858362 
Si 3.1701806390 5.7988165130 26.3101172759 
Si 1.6159566118 4.7211026832 27.7847743527 
Si 4.4902408011 9.6988217387 1.2776732660 
Si 0.4318609359 10.9318118500 0.0093912698 
Si 3.0769529681 10.9398754001 2.7123706938 
Si 1.8285850967 12.3155007526 1.2691621115 
Si 1.7310405758 9.6020591378 4.1110203587 
Si 4.4448568607 12.2831976823 4.0995148119 
Si 4.4665714308 9.5404992273 6.8056784108 
Si 0.4003104637 10.9713639703 5.5165851521 
Si 1.7793404263 12.3285816228 6.9030920400 
Si 1.7192140357 9.5477645673 9.6367214440 
Si 3.1505837688 10.8816060695 8.2417181524 
Si 4.9195148850 11.7816448678 9.5991366580 
Si 1.8605623670 13.0117190690 11.4804705603 
Si 1.6990795955 9.6547735783 14.3521960268 
Si 15.9808159462 9.9245359808 12.9973146418 
Si 3.6229123231 9.8361464400 12.8506041701 
Si 1.7921932364 11.4378769946 15.9374243580 
H 16.1547279877 9.7640794793 16.9846651236 
Si 1.4523626563 10.8663749194 18.2983625515 
Si 1.8305561867 9.1232797434 20.0053431685 
H 0.6695027161 8.1471014845 19.9763432904 
Si 3.4668378317 12.0093301998 21.5620436440 
Si 1.5776506764 10.5981763569 21.9131398283 
H 3.5788804527 11.8822844887 24.9970688789 
Si 1.5561690532 9.3258947653 23.9621596993 
Si 1.6405170450 10.9690507903 25.6418810208 
Si 1.5383152131 9.8867431804 27.7183961983 
H 5.5407503307 10.7936237787 1.1548117275 
Si 0.4423272610 13.7078885154 2.5972149215 
Si 3.3081569403 13.4542857930 29.2682523486 
Si 4.5374003515 14.9143585064 1.2475700354 
Si 1.8245451767 15.0443852876 3.9753729126 
Si 3.1367209787 13.6913378752 5.4825405343 
Si 4.5655820518 14.9531938668 6.9264276489 
Si 0.3193116959 13.6469639148 8.2463793739 
Si 1.7153207257 14.8402064257 9.7415399251 
Si 0.4817620934 11.0718244013 10.9882396691 
Si 0.8345383366 13.9494366376 13.4331388525 
Si 2.4915392328 14.8245191556 14.8630128012 
H 1.6764202053 14.1561730295 17.7075084737 
Si 1.8269723867 15.4982084017 17.0452315018 
Si 16.2081266082 12.7254223164 15.1988862621 
Si 3.7289928041 12.8819855078 15.5557057184 
Si 3.1533530688 12.2267365418 19.2284532501 
H 1.1890462069 15.2082626891 19.7299180801 
Si 1.4039797268 15.4186154610 21.2196503732 
H 2.4016347220 13.4949782134 19.4978010497 
Si 3.2828259900 14.3465379712 22.1222457652 
Si 1.5694665804 14.4040579617 25.7104422789 
H 1.8353617368 12.7701057868 25.6951605527 
Si 3.1210337085 15.4315171411 24.2665256629 
Si 2.3570978616 15.1466864885 27.8798278697 
Si 6.1438061362 15.9990281663 29.3643974175 
Si 5.7224327023 2.7809636654 2.5971441182 
Si 8.5868826185 0.1872160847 2.5180007072 
Si 7.5291403289 0.8486324448 26.6285259069 
Si 7.1113344050 1.5054485088 1.1717366818 
Si 7.1556920754 4.1317141878 3.9934277706 
Si 5.8535020435 0.0335785773 5.4216201393 
Si 8.5094399578 2.7391798151 5.3689011341 
Si 7.2246802261 1.3672783565 6.8270079244 
Si 5.8667621037 2.8222262358 8.1271052059 
Si 8.6168887988 16.2208490984 8.1926868224 
Si 7.2536438463 4.2390164188 9.4419236871 
Si 5.1395439170 0.6939898443 14.2061935887 
Si 6.2427353071 2.4242778222 13.0917486294 
Si 4.2908674892 1.6136303998 16.2089552613 
Si 7.5986171795 1.6388554650 18.2293292710 
Si 5.8782465538 2.8998480865 17.2951378775 
H 5.1043575167 3.4410670515 18.4924817762 
Si 5.3314889888 1.0902864520 21.4181653068 
H 4.8832370547 3.7397930742 20.5825380972 
Si 7.2783231966 2.0790927190 20.5422686835 
Si 5.8674951537 1.2674483486 23.8079558714 
Si 4.2422092588 2.7543946752 24.6538200675 
Si 8.0068771632 3.4044308411 0.0040121317 
Si 4.5348916915 0.0406253056 27.5315048171 
Si 8.2240228652 12.9746267387 27.6146692692 
H 13.3684700723 5.6574193117 26.0898598091 
Si 6.2235619769 5.1044389667 29.3686751208 
Si 5.7826405429 8.1790135948 2.5840454957 
Si 8.5767502384 5.5478853507 2.7151998783 
Si 8.6537856491 8.1087874042 0.0475550799 
Si 7.1834013657 6.7921970121 1.2671619165 
Si 5.8863915538 5.5422164307 5.4537471660 
Si 8.5036081378 8.2947540459 5.4638071441 
Si 7.2042688559 6.9625578337 6.9089628189 
Si 5.8403397234 8.3458394863 8.3264166774 
Si 8.6584771692 5.5473314907 8.1395547976 
Si 0.1394391433 4.9465562852 10.7949759851 
H 7.7154816406 7.2280848361 14.9301874934 
Si 6.5128886696 7.5069044787 14.0577130327 
Si 4.8119683040 4.0438947970 12.1763791304 
Si 6.0524029454 5.6738885019 10.9039246624 
Si 3.8478446452 7.1324462452 16.7654697073 
Si 6.7753368620 4.6723792927 16.1231061817 
Si 5.1705763673 6.0214356551 15.1922484467 
Si 4.3202220695 6.1510388963 18.9118737060 
Si 6.2498377472 4.0948824975 21.1849272231 
Si 6.6020764204 5.9184014041 19.7618385969 
Si 7.3043383268 7.5852267994 21.3510201160 
Si 7.0151419542 7.2632060764 23.7482450339 
Si 6.5710602601 5.3592634390 25.0819739136 
Si 5.1822562974 4.5691984318 23.3089691592 
Si 5.4213772096 5.9413703043 27.1743903468 
Si 6.7712806519 11.5153848153 28.6602579563 
Si 8.5393321081 11.0141903807 2.6620737537 
Si 7.3089321068 12.5124957244 1.2545677680 
Si 7.1533137354 9.5835699876 3.9719212486 
Si 5.8138033132 10.9037604697 5.4073119594 
Si 7.1834991057 12.3297219228 6.6869057666 
Si 6.7686742519 10.1912032832 9.6079575771 
Si 8.4595762674 11.0422417610 8.1546005125 
Si 6.9543639636 11.2729244531 13.8390781431 
Si 5.4614506099 9.5475690873 14.3903708409 
Si 4.8750757646 9.2259393244 16.6642503973 
Si 6.6456195908 9.5020059569 18.1828350615 
Si 7.0832015748 11.7735161577 17.8236259917 
H 3.8224322450 10.2356098236 17.0522528355 
Si 5.7979857230 9.1297468735 20.4336445216 
Si 5.5402616307 10.9507571202 21.8841399502 
Si 5.0167498959 12.0708738204 25.4896242855 
Si 6.0832399156 10.4911999259 24.1335038417 
Si 5.2962374284 8.4595925574 24.8498273819 
Si 4.5848042519 11.8108039680 27.8972336968 
Si 7.5346952189 9.3607716556 27.9339039394 
Si 5.5219353805 8.3217954461 27.1905276136 
Si 5.8079877831 13.6169740245 2.7090930881 
Si 9.9658474211 15.2365747093 1.0142758991 
Si 7.2375819062 15.0575476077 3.9430983789 
Si 8.5807901585 13.7076767454 5.3574250887 
Si 6.8879496330 1.2612939865 11.1824178966 
Si 5.9303419742 13.5372996338 8.3061787157 
Si 7.7701020111 14.4143858218 9.5705202981 
Si 3.9738966663 12.0299044700 11.8183501166 
Si 5.2119203877 12.8747201677 13.6487350978 
Si 6.3000109476 14.9715038269 13.7578607835 
Si 7.4070793577 15.6065369027 17.8415923454 
Si 4.8777799046 12.8822787278 17.7222886760 
Si 5.2772269983 15.0169040573 18.6170956979 
Si 5.1763756073 15.1260144783 20.9772963564 
Si 7.3545278173 12.3253887827 21.5145168855 
Si 6.9068460332 14.4087657718 22.3365734502 
Si 5.2608392581 15.8480850249 25.3268945524 
Si 6.2554740872 13.9054210572 24.5843147645 
Si 8.0218150934 14.4125287618 29.4396849952 
Si 9.8863522204 4.2039277584 1.2789742778 
Si 8.7187338797 2.8303386559 27.3666804846 
Si 11.2265468227 2.7352865050 2.5833640133 
Si 12.6605392458 1.5118879458 1.0942955017 
Si 9.9145990807 1.4198070910 4.0194185057 
Si 12.6091280053 4.0821111373 4.0160848473 
Si 9.8721799203 4.0901583974 6.7256116060 
Si 11.3382799337 0.0815198848 5.3527638672 
Si 12.6842249060 1.4328912191 6.7838473734 
Si 10.0094394615 1.3307724662 9.4966782891 
Si 11.2592408530 2.7807356054 8.1297898335 
Si 11.9731501095 4.5053090512 9.6025883220 
Si 11.3191554735 0.1345453014 11.1122045600 
Si 11.5493005956 3.1088324984 13.6599456305 
Si 7.9013994123 3.4514926516 14.4374550784 
H 2.2793294008 7.1905038058 12.2239353903 
Si 8.6598781092 2.8194406458 10.6689164947 
Si 9.7670116793 2.0793044890 15.0351829828 
Si 9.6924360586 2.3289813213 17.3942625880 
Si 11.2698456431 1.3267846741 18.8475606498 
Si 9.0235360725 1.3165675860 21.8415399259 
Si 11.1792732422 1.9217801876 21.1647777656 
H 11.0929199515 2.9617175071 23.5039439245 
Si 8.2337317053 1.5076167078 24.0569182022 
H 8.5445611981 3.1273216486 24.4653651119 
H 10.7822370686 2.3928869919 23.9410071941 
Si 9.5824133976 0.2644648944 25.6106095348 
Si 10.7348983282 1.6174275988 27.1732692935 
Si 4.3205804495 2.3560878815 27.1178656607 
Si 13.7808351360 8.1575922446 0.1414397513 
Si 11.2262698927 8.2104370051 2.7796368404 
Si 12.5552732648 6.7436691017 1.4966090700 
Si 9.8696712603 6.8810263829 4.1594911620 
Si 11.2768992131 5.4662235800 5.4207941001 
Si 12.6198794054 6.8494074926 6.8088645622 
Si 7.5529074391 7.3291479970 11.9792212613 
Si 10.3856244350 6.3670931682 9.5591917597 
Si 11.2448242028 8.1480951745 8.2410101188 
H 8.5936918386 4.5259973514 13.6027719136 
Si 10.6793331377 7.2700315865 14.2688545663 
Si 9.7951282196 6.4564926890 12.0123808371 
Si 10.4123237452 4.1386863079 11.7796737787 
Si 11.2641115630 5.7984581330 16.1399809836 
Si 7.8866569621 5.9206168441 17.7648001962 
Si 9.8074923297 4.6288198323 17.7140872863 
H 10.2624394539 4.7397058633 19.1697749616 
Si 9.6524278183 7.9485589627 21.3823506049 
Si 11.7761877177 4.2644451090 21.5723691347 
Si 10.2264874235 5.9219363342 22.5088616375 
Si 10.4454901855 5.9983853049 24.9282126068 
H 8.9868184122 5.1042597767 22.1495935648 
Si 8.6927024595 4.4726150209 25.6214070479 
Si 12.3398054329 9.1894171440 28.1252205309 
Si 9.8790054304 9.5605196374 1.3898198953 
Si 11.2544841729 10.8132206489 29.4598639542 
Si 12.6188042654 12.3225869027 1.2266004389 
Si 12.6140150054 9.6129408579 4.1031434844 
Si 9.9445563909 12.3483413929 4.0078539561 
Si 9.8627968802 9.5925946477 6.9040655862 
Si 11.2305052927 10.9626976903 5.4866707306 
Si 12.6080691553 12.2874982424 6.8884888460 
Si 12.6902522061 9.3196556952 9.6586999884 
Si 9.4969397669 12.6524105357 9.5187748391 
Si 7.8082206114 9.9784233013 11.8205037189 
Si 11.8014372179 10.0539600320 11.7140626608 
H 8.3493581264 9.5702447675 14.7316725598 
Si 8.5453594082 8.1943261949 17.5921874935 
H 10.4219022653 9.9890769614 15.6760419369 
Si 9.4422542364 8.8626560311 15.4919236875 
Si 11.7802602177 10.1862348332 19.0218844338 
Si 10.5458528764 11.2954698133 20.7261804232 
Si 10.3843863950 8.2801419157 19.0960804596 
Si 10.0869147023 9.9501601510 22.7143094005 
Si 8.4559435973 10.8095065289 24.4010225543 
H 8.4226142570 7.6733068302 24.1900285277 
Si 11.8961309888 9.6452927982 24.3160290154 
H 8.3633838165 11.9294603291 22.5827626493 
Si 11.0610241312 8.2607893956 26.0814814110 
Si 10.1664261930 11.7386881374 27.6298329898 
Si 9.3135632352 9.8378406000 26.4075309051 
Si 11.4604060648 0.1804964597 28.9892870920 
Si 11.2052720825 13.7362005356 2.5003293675 
Si 12.6613211658 15.0363054475 3.8846561017 
Si 10.0098955815 15.0019172572 6.7484456910 
Si 11.2751236031 13.6794461751 8.2835216390 
Si 12.6427994356 15.0484740776 9.6995299287 
Si 7.6225308997 15.3649887805 11.7637725230 
Si 10.6621471875 12.9087988481 13.1993992451 
Si 9.8749166403 15.1600442886 12.5858880906 
Si 9.6461072982 16.0000544363 14.7849815931 
Si 7.7678214110 14.7651095250 15.5996923087 
Si 10.5046228861 12.6286760055 15.6456849943 
Si 8.1342486744 12.3771258232 15.7436591501 
Si 11.2071780125 14.8554538659 16.1110401083 
Si 11.1649869121 15.2671021696 18.4855194453 
Si 8.6384404690 12.3709844931 19.5786053896 
Si 8.9865903522 15.2897452698 21.5738147034 
Si 9.0524508228 14.6653658541 19.2880460820 
Si 10.9819850504 14.6073408736 22.6948384752 
Si 8.3117608060 13.0897481697 25.2620504710 
Si 10.2324006936 14.3798347315 24.9291861531 
Si 11.5840634559 13.2476960112 26.5088387193 
Si 14.0658612686 0.1305105942 2.4835106182 
Si 13.5593888740 3.4453839015 29.4719300275 
Si 15.3374912603 4.2839279492 1.3006548581 
Si 15.4209938010 1.4242444870 3.9498837013 
Si 14.0287526483 2.7400757651 5.3519968308 
Si 15.3159233001 4.0803029473 6.8039083267 
Si 13.9913345180 0.0553237727 8.2028943075 
Si 15.3604764505 1.4718552705 9.4536062422 
Si 12.7321337964 1.5276713270 12.4066670738 
Si 14.1580300895 0.3487737902 13.8331188599 
Si 14.3411296912 3.3311747105 16.6230664402 
Si 13.4077615526 1.6842719854 18.0146475692 
Si 15.4898353417 1.6338218549 15.3488123867 
H 13.4920134334 0.5145880727 17.0423698658 
Si 15.1168757883 0.8572987248 19.4004759247 
Si 15.9662852660 2.4010157020 21.0593102537 
H 12.5728664650 4.0445138170 18.4231534817 
Si 12.3958593234 0.2243540271 22.3630657091 
Si 13.3601458822 1.0388165675 24.3543513365 
Si 14.9853340371 2.4175337621 23.3110342573 
Si 12.5440983247 2.6245145040 25.9434443513 
Si 15.7659671342 1.0175401983 27.0165283451 
Si 14.4618874623 2.9743096772 27.2903308564 
Si 14.0392434084 5.5253562805 2.8234670732 
Si 15.1488693485 7.0253394943 28.1865834469 
Si 15.3562899204 6.8956222231 4.1836823116 
Si 13.9764780378 8.2684619856 5.5023359750 
Si 13.9742463078 7.7339219207 10.7455021341 
Si 13.8534233767 5.3775571092 8.1945454108 
Si 15.4286501011 6.5633713800 9.4613061081 
Si 14.4630603423 7.9944804731 12.9746575652 
H 12.7992648871 11.1750541322 11.9116040481 
Si 14.7734500051 6.0102281350 14.3493048894 
Si 15.9159328756 4.8457374743 17.8351315384 
H 13.1920656607 7.7143413406 17.8208528599 
Si 11.9722541595 6.8458888526 18.1311781068 
Si 15.8812025952 6.8127061223 16.3674662939 
Si 12.9600634785 4.5319920714 15.0920321843 
Si 12.6683421559 5.0658642463 19.5205761320 
Si 13.9553824876 7.9719839829 21.2171132527 
H 12.4804858741 7.6234920097 20.9887429003 
H 14.1414142893 5.2342051079 19.7306851165 
Si 15.0114957773 5.9335348143 22.0214394748 
Si 12.5086187044 4.8720295346 25.1059290520 
Si 13.5983871344 4.3823847101 23.0616884082 
Si 11.7159798772 5.0865036765 0.0518785103 
H 14.3540965313 6.1883918666 27.2030952109 
H 2.5506230633 7.7913278813 0.5121089358 
Si 15.2681935996 9.5863881577 1.3363840059 
Si 13.9496321176 10.9960921906 2.6983162259 
Si 15.3712278506 12.3333057228 4.0437276609 
Si 15.3282385402 9.5925946477 6.9245100578 
Si 13.9150484473 10.8999974797 8.3305173722 
Si 15.2277943993 12.2999438025 9.7093243942 
Si 9.8407565100 11.3444538438 11.5589147880 
Si 12.3893596133 8.8303203808 13.7364132643 
Si 14.5771229233 11.4414607946 14.1565132278 
Si 13.3786187424 10.0107589516 15.5692468619 
Si 14.8912755762 8.8860484713 17.0596281859 
Si 12.1684346313 11.4452889447 17.0092692928 
Si 15.5542785823 11.4653745149 19.1970932598 
Si 16.0309891466 12.1390963410 21.4020575413 
Si 14.1305488592 9.4985687669 19.2898161661 
Si 13.9323321374 9.2545608546 23.1865973440 
Si 15.7564537741 8.3599303365 24.5579405112 
H 15.9585800960 11.2317596227 25.0596708538 
Si 14.0562990386 11.5388587055 22.4632819715 
Si 12.8198717372 11.5123060053 25.5247014524 
Si 15.8627297351 8.8251075807 26.8727385121 
Si 14.0743320687 10.4222606453 27.1712041954 
Si 14.0051810181 13.6988638553 29.3649284428 
Si 15.4799961816 15.0880261980 1.0830584177 
Si 13.9377567075 13.6554998749 5.3955704014 
Si 15.3274240402 14.9972094472 6.7690376696 
Si 14.0719700187 13.8335658665 11.1602033410 
Si 13.0612732495 13.0837371597 13.2055650381 
Si 15.4967911717 15.3132028700 12.3795257841 
Si 13.2434117411 14.7769849351 14.9280633924 
Si 13.9573861576 12.8236184373 18.0314338668 
Si 14.9550835068 14.2881220307 16.4735828366 
Si 14.1094044390 15.6130040328 20.9276159955 
Si 12.1058158707 12.8144797472 21.5629876889 
Si 12.8557260276 14.0617073186 19.6953719384 
Si 15.8150000346 14.4462490621 22.1729586751 
Si 15.6783432234 14.3843796416 24.6452351595 
Si 14.7928676853 12.2120592517 24.5621592117 
Si 14.2674011505 15.8152280946 25.9610861897 
Si 12.8131439672 14.8857532661 27.7152100469 
H 16.0916042372 12.8873449179 27.1050915537 
Si 15.2724452897 12.1637594012 28.1795916147 

