&CONTROL
  dt          = 30.D0,
  prefix = 'aSiHcSi_merged-10',
  pseudo_dir = './',
  outdir='./',
 wf_collect=.true.,
 verbosity ="high",
/

&SYSTEM
    ibrav= 0, nat=  398, ntyp= 2,
  ecutwfc     = 42.D0,
  nbnd=1478,
  degauss     = 0.05D0,
  occupations = "smearing",
  smearing    = "methfessel-paxton",
/
&ELECTRONS
  electron_maxstep=200,
  conv_thr    = 1.D-8,
  mixing_beta = 0.3D0,
  scf_must_converge=.false.,
/
&IONS
/
ATOMIC_SPECIES
Si  28.08  Si.pbe-hgh.UPF
H  1.00784  H.pbe-hgh.UPF

K_POINTS {automatic}
2 2 2 0 0 0

CELL_PARAMETERS angstrom
16.29000014898320 0.00000000000000 0.00000000000000
0.00000000000000 16.29000014898320 0.00000000000000
0.00000000000000 0.00000000000000 29.29437231617968

ATOMIC_POSITIONS angstrom
Si 0.1473743281 0.2754182905 29.0090158354 
Si 0.3362418931 2.9642261671 2.4582811945 
Si 3.1076433284 0.2760519715 2.3618616974 
Si 2.9417948369 3.1407771887 28.9331141168 
Si 1.6785379054 1.6228326208 0.9947402124 
Si 4.3574610099 4.4820306410 1.0294657614 
Si 1.6347829650 4.3587967899 3.8801274964 
Si 4.4138407004 1.6585174952 3.8111099552 
Si 0.3485310692 0.2977714287 5.0880809389 
Si 3.0651264280 3.0368795678 5.1900839433 
Si 1.6758989253 1.6821705754 6.4828738879 
Si 4.3844698301 4.3820426201 6.6444323513 
Si 0.3741308044 2.9915770774 7.9500239367 
Si 2.8932017665 0.2761627435 7.9348494518 
Si 15.8410803249 1.1790245988 9.2295142363 
Si 15.4159276110 4.1819199682 11.9399174461 
Si 12.5252345046 9.5099066070 11.4804938051 
Si 1.5445787181 1.4755726485 14.5790181537 
Si 1.8953415173 15.2643980296 11.5093780562 
Si 6.6282055806 1.4486403912 12.3952398750 
H 2.1395123296 3.0069548375 14.9537517644 
Si 2.4124187021 0.4602071652 16.6143032591 
H 0.0317640342 2.2868228009 16.6561649172 
Si 3.5524580725 3.3547463407 15.7880554879 
Si 1.3876294537 1.6295212949 18.4402800743 
H 16.1214638074 2.4883301028 21.3019594228 
Si 2.7335923450 1.0619907217 20.2874074264 
Si 2.1826156700 1.6669882952 22.4905199908 
Si 0.4698036043 0.5002300666 23.5948592383 
Si 3.6496279234 0.8229447435 26.0130217899 
Si 1.5551378962 4.3518572498 27.4352342715 
Si 1.2974056589 0.9854391240 25.7373324521 
Si 0.3330213600 5.7040738722 28.9681794804 
Si 0.3597125253 8.4610260774 2.4245985252 
Si 2.9887751973 5.7282645224 2.5187359906 
Si 3.5026595420 7.9890559031 29.0081370043 
Si 1.7237263658 7.0647450046 1.0310886696 
Si 4.3403565097 7.1097705650 3.8980849466 
Si 0.3312424920 5.7144994723 5.3418287919 
Si 3.0515731479 8.4562205273 5.3597276533 
Si 1.7507514760 7.0491717645 6.7440625115 
Si 0.3553891593 8.4413151772 8.0505036337 
Si 5.5616504009 0.3081921418 10.6536894408 
Si 1.4950668917 9.9874153813 9.4400528901 
Si 14.7771804151 9.0377735327 10.9974003112 
H 1.2805601697 4.7669753236 14.3919149977 
Si 16.0902358772 4.9945140457 14.0597754044 
H 3.8743158954 3.7829615746 11.5217988700 
Si 3.1792378791 5.7530741926 8.1868689368 
Si 2.6191550940 4.7596936935 17.4022339913 
Si 2.3342267013 6.9817637439 16.6850491683 
Si 0.2157235850 7.9042664523 16.2303712155 
Si 0.9094821113 3.9648720063 18.7690508148 
Si 1.5270262430 7.2087160259 20.8637742017 
Si 0.9221247804 4.9247602650 21.0976311759 
Si 2.9237292267 7.5667539392 18.9171045725 
Si 2.5181896730 4.0117709167 22.5855802289 
Si 2.0111145484 7.1123443850 25.1348058023 
Si 2.5823722736 4.8221984241 25.1858658932 
Si 16.0352897067 7.7314458407 25.5441360666 
Si 2.6305580941 7.7180065906 22.9081112681 
H 6.8785177229 1.2078204320 29.2745986149 
Si 4.3111159594 9.7951770896 1.0883064376 
Si 16.1198348074 11.6934833869 28.8118647098 
Si 2.9068527866 11.1259886518 2.4352206646 
Si 1.6514965051 12.5334446646 0.9171482085 
Si 1.6586803952 9.7718335194 3.9265590765 
Si 4.4176036904 12.4391092738 3.8039035396 
Si 4.3969316802 9.8066941197 6.8227764899 
Si 0.2895009956 11.1283018318 5.3035117529 
Si 1.7238403958 12.5202171845 6.5795453166 
Si 15.9773624661 11.1323906218 10.5660699732 
Si 1.8157485766 7.1650914055 12.1719874636 
Si 2.9674352971 11.2380312728 8.1002161835 
Si 4.3668440499 12.5564298548 9.4863965871 
H 2.5574648634 9.9409888809 13.6108977374 
Si 3.7848023446 9.8951814005 14.4967009675 
Si 2.8785733463 10.7489891783 16.4976237742 
Si 0.5718392782 10.2616738239 16.2867335879 
Si 3.7700436045 9.7276713290 18.4695451523 
Si 0.7934598433 11.7780610677 20.1029700583 
Si 2.9775188072 10.8849292296 20.4186755087 
Si 2.7674266753 10.0516468519 22.7561906533 
Si 0.8886846681 10.9285375599 23.9274089529 
H 2.6809104845 9.8622430202 26.4966425825 
Si 15.9767271561 10.0974543323 25.9089095907 
H 9.1213575234 3.5587948825 0.1882763956 
H 5.7123491922 1.7623988261 28.1061925750 
Si 12.3848309933 9.7016561987 27.8215977480 
Si 3.2871917101 8.4634369974 26.6433195047 
Si 0.3449831072 13.8731016969 2.4047252230 
Si 3.6206480131 13.4380609529 29.0624194762 
Si 4.5722283718 15.1085353082 1.1535772286 
Si 1.7348687259 15.2230214292 3.7450804400 
Si 3.0515242779 13.8421669866 5.1415431683 
Si 4.2993382893 15.2007041290 6.6052950699 
Si 0.3125252819 13.8942786971 7.8615549323 
Si 2.9325095368 2.8558813761 10.7760227396 
Si 5.8807226338 13.2090724208 12.6977628579 
Si 3.0372542378 13.8172595764 14.1089020668 
Si 0.8003554003 14.1793862797 13.4125455425 
H 4.6186385822 15.6234622129 11.3667144630 
Si 2.9616523471 8.6283243789 10.7085285058 
Si 14.0337862583 0.6596782170 12.5600793081 
Si 3.6000248729 12.9722321086 16.2760411420 
H 1.2231851602 13.8765551769 17.6127726451 
Si 2.5629057234 14.6033172436 17.6167859742 
H 0.3841849925 15.7081702137 16.3687871247 
Si 0.7040505484 14.0559895286 20.6390863660 
Si 2.7418513751 15.0293170375 19.9596912833 
Si 0.3694734934 14.4905089925 22.9416826188 
Si 3.7358834742 13.5787739742 25.0941452135 
Si 1.4256503140 13.1023077598 24.5819038192 
Si 1.1526592335 15.4408024412 27.2396943363 
Si 3.4156546512 14.8451260058 27.0540558989 
Si 0.0492438560 13.5410952038 26.4896998163 
Si 9.6664209284 14.9021572963 1.1881885295 
Si 5.7430721325 3.0617869780 2.4223721529 
Si 8.4588269274 0.1136506069 2.6079900842 
Si 9.8195957998 4.3555550798 1.2585975533 
Si 7.2589055164 1.6442800350 1.3497001218 
Si 7.0785752147 4.3456833397 3.8950969206 
Si 5.7146460823 0.2733462025 5.2825955710 
Si 8.4238360070 2.9493208170 5.3178367009 
Si 7.1319249652 1.5415943901 6.7172874552 
Si 5.6799972519 2.9214160467 7.9446630665 
Si 8.4894684176 0.2363092582 8.2483285299 
Si 6.9727879538 4.2472917388 9.3365265784 
Si 7.6111767696 3.4890573919 11.4530156839 
H 7.9080946023 0.6251434167 12.3979056629 
Si 4.5428737915 7.2109803359 9.6541654574 
Si 3.7544703643 13.6311951947 11.6088031558 
Si 5.9867379548 0.6535320000 14.6457507338 
Si 7.6651455401 2.1119985193 15.4644112626 
Si 4.5617701917 1.3102258890 16.4798420902 
Si 5.8742555037 1.1727757547 18.5096491480 
Si 4.8871303647 2.0955619092 20.4359591884 
Si 7.9697033829 0.4977816796 22.7288590039 
Si 5.9600549345 1.7753005062 22.5719583458 
Si 4.0662446772 0.9104187863 23.6871658055 
Si 4.5731569018 2.4523780724 27.3748878645 
Si 7.6762227402 0.2284102371 26.3470362231 
Si 7.4515347681 2.5486031033 25.7847893352 
H 6.7231762815 0.1322487372 27.5327845313 
Si 5.2949505184 6.3392698480 29.0748402900 
Si 5.6767881219 8.5582122183 2.5883804314 
Si 8.3546849564 5.7503211826 2.4817987166 
Si 8.5009202877 8.6187621488 29.2081296841 
Si 6.9997967740 7.2646395964 1.1624739294 
Si 5.7123003222 5.7222209323 5.2394156662 
Si 8.4045812269 8.3706491566 5.3139112550 
Si 7.0458811844 7.0006927240 6.6758945071 
Si 5.8633249136 8.4360860872 8.1634041446 
Si 8.3897899067 5.6330168915 8.0779231662 
Si 5.8704925137 7.0451807144 11.8053390997 
Si 4.0347723969 6.3728598283 13.2086860055 
Si 4.8184191441 4.3086072994 14.1187742703 
Si 4.0888714874 7.6551109000 15.1631772321 
Si 6.1323705561 5.5682804309 17.6036035066 
Si 6.1134089959 7.5859598494 16.3846353802 
Si 6.6906614412 4.2970088193 15.5799189726 
Si 4.1878495283 5.5260893305 18.9506173345 
Si 4.3894708601 4.3317716796 21.0096601758 
H 5.0275175860 7.6685501501 21.0369332364 
Si 7.8827799421 6.4058633686 21.3004068211 
Si 6.0548138654 5.3146125486 22.3541546876 
Si 6.2001043767 3.6033969030 24.0251349789 
Si 4.8661488445 7.2980992567 22.5212497873 
Si 4.8453465143 4.2822337892 25.8337402314 
Si 6.0250846151 6.1870235066 26.7832001325 
Si 5.2709553482 11.5524771457 29.0799668052 
Si 8.3873952767 11.0870881314 2.5992662201 
Si 7.2038616059 12.4000295634 1.0068710120 
Si 7.0350157543 9.7941182396 4.0276246610 
Si 5.7016303721 11.1642375721 5.3942657183 
Si 7.0926823549 12.4395816838 6.8516900354 
Si 7.6099061496 9.2189672043 9.6464317431 
Si 8.4731132575 11.0361330109 8.2836868373 
Si 7.0650545146 9.1525040037 12.1239153986 
Si 5.7708628728 10.8153546389 13.4631076291 
H 3.7585917344 9.5592001474 11.6085102121 
Si 1.7748769662 1.2763638657 12.2001686498 
Si 6.7577110818 11.0268802908 15.6636129943 
Si 6.0100326550 9.5721181175 17.6077340131 
Si 6.8814499229 11.9854816396 20.0083785300 
Si 7.6194520897 8.7496197200 21.7594789296 
Si 7.3560264973 9.7766879394 19.5361532483 
Si 6.0596845754 8.9359936117 23.5916368574 
Si 4.9031108548 10.9408690901 23.2386982597 
Si 5.5758227010 8.4588432174 25.9715409587 
Si 6.0419284753 10.6201841471 26.9993926002 
Si 5.9442210544 13.7835066961 2.5419898634 
Si 8.2650247956 10.5605627466 27.7447879038 
Si 7.1339775052 15.1154096882 4.0698378515 
Si 8.5034126578 13.7877420961 5.4843166188 
Si 1.7200122457 4.3244737596 9.3792084788 
Si 5.6496001117 13.9014625871 8.0356513869 
Si 6.9721037738 15.1828828689 9.4640449811 
Si 7.5515390791 13.5973445744 11.0750889866 
H 3.6221629831 15.2286251893 14.3362263960 
Si 6.6016691704 14.6133030136 14.5420486558 
Si 5.9239074242 13.1454925502 16.2639718606 
Si 6.9990474340 13.6042189544 18.2755871132 
Si 6.2801697274 15.3646629805 19.6432241791 
Si 4.8549739044 12.1104911008 21.1515914097 
Si 4.6670524627 14.4419810821 21.1761693881 
Si 4.7445765734 15.0209602674 23.5093782599 
Si 5.6274782915 12.0860561005 25.1478417979 
Si 7.6274016098 13.1251789200 24.1818012821 
Si 6.9831809739 15.3500671404 24.3170533991 
Si 12.5705532850 4.4858913710 27.9219309732 
Si 12.9702447286 13.1437658102 27.0563994487 
Si 11.0979698515 2.9368263869 2.6328492885 
Si 12.3288748428 1.6054251267 1.1464997082 
Si 9.7919679596 1.5265228820 3.9986818212 
Si 12.5177899745 4.3127123794 3.9663994229 
Si 9.8140571998 4.2021684384 6.7907577410 
Si 11.1802180623 0.1970780508 5.3879381339 
Si 12.5975621052 1.5331594280 6.7094072691 
Si 10.1251962026 1.1651552927 9.7465013189 
Si 11.1812769123 2.7185240949 8.1456517550 
Si 12.6046971253 4.1177210777 9.3398661368 
Si 9.7840673095 2.6469621242 11.6526861256 
Si 9.6661114184 2.1491234297 14.1045079109 
Si 10.4870459759 16.2630401987 14.4392254090 
Si 8.0296017134 1.8343354668 17.8005788661 
Si 11.7815308378 0.2901265317 18.2496030049 
H 11.1823683423 1.8563595470 20.4678021711 
H 9.5702447675 3.1671832790 20.1754150410 
Si 8.9588973519 3.6905158238 18.8911790530 
Si 9.4395338063 0.0867519071 18.5413163645 
Si 11.3733034340 2.0263945685 21.9653890726 
Si 10.2200040035 0.7243055346 23.5375594461 
Si 9.2607021847 3.9351590460 25.5997953740 
H 9.4717554266 3.9992439066 24.0683148837 
Si 11.4047757143 1.0148230263 25.6697210408 
Si 11.3884531342 3.3005983802 26.2623168983 
Si 10.5516846965 13.7141927454 26.9633605222 
Si 0.0385009267 2.9519597970 26.3279362923 
Si 11.2204706526 8.3125915960 2.7299894271 
Si 12.5875600451 7.0828757748 1.2670812035 
Si 9.7697646894 6.9560744136 3.9899228038 
Si 11.1407799719 5.6161404514 5.4092351426 
Si 12.4655968140 7.0545963345 6.7758176111 
Si 9.3002868851 7.4423309181 9.3456664225 
Si 11.0246648508 8.4599020674 8.0660882398 
Si 15.8123121846 1.8320874468 11.5198947358 
Si 9.9087021006 6.4797710993 11.3992019219 
Si 11.1266076718 8.0295365534 12.7721705636 
Si 7.8447265017 5.6574844717 12.3347762906 
Si 8.4984442077 5.4441994998 14.6145229330 
Si 10.7711109985 4.1380509978 17.5023621559 
Si 9.3855813258 7.3695146174 17.7740967535 
Si 11.4602431648 6.3420065680 18.0155409701 
Si 8.3603864565 7.5410808990 15.5676153363 
Si 10.4307151554 4.1079307876 15.1615074528 
Si 8.0068120032 5.8477353835 18.9890515509 
H 10.3562372747 5.0293257760 22.2292141897 
H 9.1515754737 5.8889490839 21.9049840769 
Si 11.4376489346 7.9526151727 21.7253802802 
H 10.2528772238 7.2803594466 22.3569669474 
H 8.5544818082 6.7101605714 25.0214072870 
Si 8.3560370264 5.9720443746 26.3322718594 
Si 11.6090848962 4.2463957888 22.5263470081 
Si 9.6567935383 6.9831158139 28.0111323369 
Si 9.8868246304 9.6975022487 1.4347123902 
Si 11.1190002417 11.1163612617 0.0432607573 
Si 12.5823146651 12.4082723035 1.3180211876 
Si 12.5457273247 9.7225725589 4.0362372065 
Si 9.7477406091 12.4681706340 3.9538907259 
Si 9.7063314288 9.7850772895 6.6675456110 
Si 11.0949724915 11.0992730515 5.2846168827 
Si 12.4911395342 12.5056865044 6.5204585676 
Si 11.9635715894 10.2403827937 9.3326597212 
Si 10.3247487044 12.0171493999 9.4406094832 
Si 15.3094724600 7.1801107857 9.5224872538 
Si 9.0287325826 8.9184329916 13.6998354518 
H 5.4588116299 15.9034873154 0.1772034158 
Si 9.0681055129 10.8824042795 14.9733496995 
Si 10.3833601250 10.7327806282 16.9465307356 
Si 9.5213096071 9.5030973869 18.7271012737 
Si 10.8177981389 9.9044667006 20.6617895046 
Si 9.2429297945 10.4306499954 22.2639280209 
H 8.1669101247 9.0707607830 25.2877224258 
Si 10.4552316056 10.9514575902 24.2076682128 
Si 10.9768211204 8.2328520453 26.6347069592 
Si 9.3975218959 9.7262052290 25.8663155734 
H 12.1934397815 15.3781673906 28.8224985669 
Si 9.2690752448 12.5666762649 28.7198510863 
Si 11.1583080121 13.7834089561 2.5981003041 
Si 12.4861873742 15.2095007291 3.9005749683 
Si 9.8732061903 15.1561672686 6.8686514770 
Si 11.3217618735 13.7880678961 8.1879528286 
Si 13.1276061301 15.1197591183 11.4313085540 
Si 9.8118580497 13.2872644215 11.4336813981 
H 10.9631212303 15.9364094057 13.0158997413 
Si 10.0444303819 12.7253408664 13.7941047419 
H 5.0395721861 3.1591523089 13.1504780877 
Si 8.9579688219 14.5433863330 14.9398662319 
Si 10.8271323090 12.9230037282 17.5836833334 
Si 9.0278040526 14.3839886816 17.3180419653 
Si 8.3902948967 15.7970810345 20.6016481582 
Si 9.7112510088 13.9748816178 21.2305397431 
Si 11.4273699445 13.2674720713 19.7728810710 
Si 8.1341835144 12.4493719739 21.9326965531 
Si 10.7961813087 14.7591473850 23.1440481428 
Si 9.9555195611 13.1646495904 24.7539203734 
Si 10.0080385215 16.0562223568 27.0666817734 
H 13.5626957440 7.0490088645 26.0225131666 
H 13.9786934778 5.6273968415 27.6310964448 
Si 13.7795808060 0.2470574003 2.4497125906 
Si 14.9495123267 1.5846211675 27.6806332284 
Si 15.2642514196 4.3217696195 1.1073712151 
Si 15.1952469790 1.6352716650 3.7996558556 
Si 13.9063170072 2.9647637371 5.3275917269 
Si 15.1878187389 4.4021933503 6.7347469011 
Si 14.0911107689 0.1837039607 7.9785273609 
Si 10.9486231301 15.2726570597 10.5587170858 
Si 13.3754421923 14.5637977032 9.1831119506 
H 11.9632294994 2.0426194087 13.5773263867 
H 12.5987675652 1.8556427870 13.0997402349 
H 5.4069279795 11.5539269557 9.9213887217 
Si 0.4644930642 5.7491971726 10.7500679258 
Si 14.2863301307 0.2114751529 14.8558499721 
Si 12.3764579332 2.5330461532 17.9566299874 
H 14.5646936532 0.8185953135 17.7662165673 
H 13.1155515300 2.4948623928 16.6260210080 
Si 15.6401431730 2.0760627790 15.3109380460 
Si 15.6379766030 0.5529607971 18.7969390573 
Si 14.9495937767 1.8664267671 20.5590834352 
Si 13.8537491767 3.5532237025 19.4027466768 
Si 13.4632615831 1.1005768451 22.1722073412 
Si 14.8698705160 3.7690336245 24.4970966113 
Si 14.6671903341 1.4811307965 24.0555718318 
Si 13.7473591857 0.4144632158 25.9307338981 
Si 13.9278035174 5.6435402316 2.5687971435 
Si 11.1783284222 5.7378267525 29.2718742382 
Si 15.2973364099 7.0654454746 3.8868066133 
Si 13.8928940471 8.3254444061 5.3510565191 
Si 13.8490413667 5.7723615528 8.2095134866 
Si 13.1757919505 4.8239903241 12.2796149875 
Si 11.1948627724 4.5148061213 11.1201144368 
Si 12.6165073754 4.7272765932 14.5230366082 
Si 12.8345490274 7.0260399643 14.2943647379 
Si 15.2902176798 7.1873924157 14.2803327336 
Si 14.6263187238 4.1321377278 15.6378632411 
Si 14.9221939965 7.0890822648 17.7155665976 
Si 15.1613963587 4.7641897336 17.8739905631 
Si 12.8651579377 7.5199364788 16.5969024020 
Si 12.5702600650 6.8462798126 20.0687249370 
Si 13.3469672721 4.9518505353 21.1616686738 
Si 15.2863243698 5.1117368868 22.5422831467 
Si 12.5561040548 4.5362926315 24.6692596374 
Si 12.2752318723 6.8615272528 25.2327075945 
Si 15.0889058580 7.3435972272 23.3462086061 
Si 11.0304803809 0.0022996430 29.2090671040 
Si 13.8912161770 8.4072039169 29.0820760000 
Si 13.7678031359 2.9579056471 29.1556048745 
Si 15.2848419798 9.8643444302 1.0431315861 
Si 13.9203101173 11.0084074307 2.6125980890 
Si 15.3069638000 12.4730250541 3.8324948470 
Si 15.2170104192 9.7312877090 6.6814604379 
Si 4.2483668789 1.6252272509 9.2930830242 
Si 13.7214092155 11.0981164615 7.9120291358 
Si 14.9840797070 12.6911970261 9.0366400890 
Si 16.2272999384 8.6607088992 12.7979203169 
H 12.9654391786 9.4634963966 13.8430556380 
Si 15.8023101245 10.5590640666 14.2037279500 
Si 13.4898957334 10.5379033564 14.7954449764 
Si 15.8091845046 11.4511044747 18.0467687710 
Si 12.5806856651 9.8387528400 16.8439125493 
Si 13.8433724466 10.3785382849 18.7685821049 
Si 15.8975251754 8.4563997173 21.4194884445 
Si 12.6030518353 11.4072680843 20.4843534914 
Si 14.3831741815 8.2633795056 19.6404119194 
Si 15.9590199260 10.7509113983 21.9265154406 
Si 12.9246653082 8.2179629852 23.4903076235 
Si 12.7612440267 10.4567628656 24.1690875245 
Si 13.8664553768 11.6585739166 22.4819660341 
Si 13.6881776152 10.9258008399 26.2633129070 
Si 14.2076657199 13.2714957014 29.1221214070 
Si 15.1341106084 15.1277900884 1.0632568198 
Si 13.8948325571 13.8229936564 5.1532902116 
Si 15.3044062700 15.2016326590 6.4254862126 
Si 1.1504698575 15.6269482729 9.2491707601 
Si 15.8696855651 12.3119658226 12.6527667021 
Si 12.3852219533 12.5469002047 14.2826762834 
Si 13.6391610047 13.0799415896 12.4375116543 
Si 12.6771713359 13.6386723047 16.3148561853 
Si 14.9380115866 13.4597429431 17.1026990344 
Si 12.2680642722 15.9206895556 15.9773264275 
Si 15.8694249251 14.8495894658 15.4065255829 
Si 15.1796085788 14.6310754038 19.1749243433 
Si 12.9144677681 15.0440106176 19.7813178502 
Si 14.4305292120 13.8338102165 23.2926584935 
Si 12.9181004381 15.1546197186 22.1557439039 
Si 14.2854993407 14.3878168316 25.6140324390 
Si 15.0995920981 6.9000693931 27.6681245314 

