&CONTROL
  dt          = 30.D0,
  prefix = 'aSiHcSi_merged-14',
  pseudo_dir = './',
  outdir='./',
 wf_collect=.true.,
 verbosity ="high",
/

&SYSTEM
    ibrav= 0, nat=  398, ntyp= 2,
  ecutwfc     = 42.D0,
  nbnd=1478,
  degauss     = 0.05D0,
  occupations = "smearing",
  smearing    = "methfessel-paxton",
/
&ELECTRONS
  electron_maxstep=200,
  conv_thr    = 1.D-8,
  mixing_beta = 0.3D0,
  scf_must_converge=.false.,
/
&IONS
/
ATOMIC_SPECIES
Si  28.08  Si.pbe-hgh.UPF
H  1.00784  H.pbe-hgh.UPF

K_POINTS {automatic}
2 2 2 0 0 0

CELL_PARAMETERS angstrom
16.29000014898320 0.00000000000000 0.00000000000000
0.00000000000000 16.29000014898320 0.00000000000000
0.00000000000000 0.00000000000000 29.41874646731717

ATOMIC_POSITIONS angstrom
Si 15.8412432249 0.2303748111 29.2570316180 
Si 16.2377906985 2.5907290437 2.7333016180 
Si 2.6921017146 16.2055527882 2.5526558053 
Si 2.5586377434 2.6366505541 29.3397865518 
Si 1.2174380481 1.2397846703 1.2306685372 
Si 4.0054015266 3.9774315964 1.2838340958 
Si 1.2799867617 3.9661426263 4.1255084921 
Si 3.9862607765 1.2916096768 4.0100987497 
Si 0.0402631789 16.2229342184 5.4287883793 
Si 2.6867585946 2.6493567542 5.4963338212 
Si 1.3311878612 1.3153621260 6.9170827631 
Si 4.0759209373 3.9812434564 6.8935477660 
H 13.5087269735 2.6276096040 10.1344051330 
Si 16.2151150183 2.6411628842 8.3464219790 
Si 2.8245719958 0.0586264073 8.2827009741 
Si 6.2890477775 10.8710990194 10.6408488535 
Si 2.8781335163 2.5741946935 11.0846306439 
Si 1.7692732062 0.9279777775 12.4132106531 
Si 1.2192152872 2.8877934864 13.6815999071 
Si 3.4426471815 3.5448343524 13.2389360290 
H 0.2968657047 3.8187669949 12.9319514096 
Si 0.7624339090 2.7817781654 15.9830872807 
Si 2.6294340840 16.2656954688 17.8816849215 
Si 2.3096613811 3.9026279157 17.5691989965 
Si 3.6981721238 1.8944455673 16.9735576368 
Si 2.4149110721 3.2033633693 19.9035471099 
Si 1.0362883595 0.4731935533 21.5878880202 
Si 1.2047595410 1.2511730094 19.4120775314 
H 0.6832693952 1.7118183757 22.3922848048 
Si 4.1751270382 4.0965277875 24.4888117718 
Si 0.5910468174 2.9241527667 25.0334410252 
Si 1.5579837592 0.9712407599 25.9011175335 
Si 5.0152186359 5.7786494928 0.0831270810 
Si 1.2276974902 4.1243022377 28.1180554298 
Si 3.3445162206 1.6496557351 27.3722313693 
Si 16.0623962669 5.2528897380 0.0671003363 
Si 0.1132816384 8.0904122840 2.5650881676 
Si 2.6535269943 5.2716883982 2.7365523895 
Si 3.0199705476 7.0271802643 28.9160095089 
Si 1.3675096745 6.5639089500 1.2318099846 
Si 4.0316935869 6.6912804612 4.0862933031 
Si 16.2077356482 5.3694772691 5.4533824514 
Si 2.7278582649 8.0942567240 5.4694745057 
Si 1.3787285976 6.6708202210 6.7755197551 
Si 16.2888924290 8.0793025039 8.0148727063 
Si 2.7148751348 5.3551909390 8.2877904173 
Si 3.1575721789 8.3840395367 10.7517575276 
H 5.9975545149 7.6715149302 12.8839988529 
H 0.4234487799 6.4586429691 14.3995055771 
Si 2.0012590983 7.2262766461 14.5147682258 
Si 3.7533789343 5.6319580415 14.3039829073 
Si 2.0887201091 7.8939711722 16.8101659189 
Si 1.3793541336 6.1412323162 18.3442358722 
Si 2.1671238798 6.8705356228 20.4937754203 
Si 1.5787437354 4.7609317335 21.5213428157 
Si 1.9482351478 4.4027797903 23.8428937744 
Si 1.3184034691 6.3189725078 25.1043990416 
Si 4.1362265178 3.8098889448 26.7676761294 
Si 3.0330514177 9.3755629757 28.7172270391 
Si 4.1400709579 9.6515644483 1.3750733961 
Si 0.8626874569 10.4152396553 29.1340906765 
Si 2.7658628353 10.9320562000 2.7683893569 
Si 1.5024413747 12.1589864312 1.2089280836 
Si 1.4104484859 9.4502526264 4.0248963792 
Si 4.0762793173 12.2093551117 4.2221196555 
Si 4.0470061870 9.4409021663 6.9341162173 
Si 0.0172211366 10.8407018791 5.3431209896 
Si 1.3287313292 12.1518351211 6.8505963961 
Si 14.8492473758 6.8564610627 9.3378631537 
Si 15.5310327520 11.5667471858 11.8782895861 
Si 2.6787602045 10.8183357089 8.3440390605 
Si 4.1680571781 11.9712115995 9.8934361807 
Si 14.8112916755 12.4730576341 9.7487547856 
Si 3.2560615198 10.9003232797 13.7569118980 
Si 2.1409784296 8.9077141715 12.8563158124 
Si 2.4570370125 11.7689386676 15.8950369725 
Si 1.4342905301 10.1287311326 17.3059894718 
Si 2.0727559090 10.8190361789 19.5466388778 
Si 0.8610323929 8.2601052155 21.9883359971 
Si 0.9543903837 10.5825868268 21.6419890949 
H 0.2083865689 8.3909302067 18.4918885607 
Si 1.9223014676 11.9005781588 23.4405629977 
Si 2.1471197596 10.2688414239 25.1754453144 
Si 2.0618416089 8.2355724753 24.0027258239 
Si 0.4367381620 10.4318717454 26.7718830102 
Si 3.9099258358 10.5787423867 26.7152813420 
Si 0.8558749788 12.6572812458 27.2944187849 
H 2.5061024929 13.6832906151 9.8310978570 
Si 16.2443718586 13.5021783935 2.4175325609 
Si 2.8389397760 13.5331293938 29.3469058884 
Si 4.1940397284 14.8524727958 1.2672095622 
Si 1.3022731109 14.8443277958 3.9176356296 
Si 2.6213216640 13.5774544842 5.4594721319 
Si 4.0155013267 14.9093900564 6.8360046979 
Si 16.2525983086 13.5459822039 8.1977984718 
Si 1.5181107259 14.7891535653 9.4499485777 
Si 3.1555196389 12.6672833059 12.1290255623 
Si 3.1692846890 16.1945896181 14.0027055248 
Si 0.8478407508 13.2417175811 12.7369051205 
Si 1.7797639663 15.4293342811 15.8007793088 
H 1.9042032774 13.7339850956 18.2223540056 
Si 0.8138923904 13.3457943921 15.2095507611 
Si 3.3358010705 14.0584167386 20.9506779717 
Si 1.6664018552 13.1237291100 19.5882958228 
Si 4.0856134874 12.5701623250 22.6384314565 
Si 2.3609423016 15.4774549416 24.5486495021 
Si 0.6177966267 13.9074573072 24.0536202553 
Si 3.0627643780 15.9818747962 22.3530696158 
Si 4.1599447580 14.6068358836 25.7997405331 
H 0.5438041880 3.4414091415 26.7847684211 
H 11.6299360964 1.5127708638 26.2166924268 
H 9.4333110263 1.4389006002 29.0095905414 
Si 3.2508812997 12.8567197176 27.1670356127 
Si 5.9465831044 15.6575897632 29.3155455047 
Si 5.3959810993 2.5836754736 2.5916415282 
Si 8.1720740547 16.2472226086 2.6748612782 
Si 8.3730763666 2.3992726719 0.1147993034 
Si 6.7564893318 1.1614183666 1.2355491073 
Si 6.7574015718 4.0008077466 3.9460541386 
Si 5.3745434592 16.2495683686 5.4030469762 
Si 8.1136255342 2.7516579552 5.4680624059 
Si 6.7269392715 1.3300882862 6.7709304307 
Si 4.2319139787 6.5970591003 9.6462892916 
Si 5.5199642905 2.6860255446 8.2839071427 
Si 9.5464613673 12.9396358183 11.2622316164 
Si 6.8743149029 4.2164058986 9.5627400517 
Si 1.3407061083 9.2709485948 9.5262019686 
Si 7.3869774976 1.2298689472 12.3811148007 
Si 4.3144228295 1.8782858872 14.6610970707 
Si 7.5598795591 3.5753455227 15.7330279357 
Si 6.6438928508 1.7119486957 14.5990529344 
Si 5.5383394107 2.2653362907 18.3896584167 
H 7.1683656956 2.0697748389 20.5757948855 
Si 4.6416074825 2.6114499239 20.5047486127 
Si 6.9629487937 0.4385935930 18.3141699133 
Si 5.0261166460 0.9864979740 22.2611654518 
Si 5.7268798724 2.3786984018 24.0397346070 
Si 7.0989540049 3.9238374959 22.9258526095 
H 7.2542628663 2.5260577431 26.7611745864 
Si 6.6445444508 1.2311069873 25.9133557320 
Si 12.0572065103 8.4544449173 28.8098960904 
Si 5.3369461388 8.1047311941 2.7099813777 
Si 8.0927254640 5.4122873895 2.5403675949 
Si 7.5435895590 8.7260155098 29.2912456201 
Si 6.7042310113 6.9116352932 1.2324483714 
Si 5.4279909496 5.3098884486 5.4220220677 
Si 8.1012125541 8.1219497243 5.2882550275 
Si 6.8227081824 6.7294316415 6.7265963798 
Si 7.2537578763 9.1498976037 9.2850270850 
Si 8.2536380855 5.6486552917 8.2862312237 
Si 5.4873517102 7.9972660631 8.1788527991 
Si 5.7991911830 6.7878475821 14.1082011496 
Si 7.6454020599 5.3434621389 14.1669798050 
H 7.9376609526 4.7568103635 12.8009203128 
Si 6.0525332654 8.0118944833 16.1571874223 
Si 4.2410526688 7.3299624970 17.4302836757 
Si 6.1266038960 4.2958522293 17.4118381216 
Si 4.0907774174 5.1429973970 16.6226802477 
Si 8.0920738640 7.3805755275 17.1290357118 
Si 7.4308464680 5.7719868828 18.7465666489 
Si 5.4186567796 4.6070238121 21.4653589411 
Si 4.2885054392 7.7620873310 19.7279171935 
Si 6.1990455267 6.6342165907 20.5843851594 
Si 7.4436015381 7.5272506888 22.4941030863 
Si 8.0879036240 5.7749027928 23.9966067247 
Si 4.7201578632 6.2768139874 25.2089532666 
Si 4.2565281689 7.7977787213 23.5362033425 
H 4.4097193303 7.1560178754 22.1777633056 
H 4.1239927277 4.8648130645 22.2480446909 
Si 6.8926085730 6.4770669592 25.9813130363 
Si 8.0267346734 3.7485733843 27.7169602404 
Si 6.0694259955 4.9395027152 27.5882532246 
Si 5.9962024448 10.5121651561 0.2695801542 
Si 8.1755764048 10.8951593496 2.7359581308 
Si 6.8592303627 12.3132853126 1.4173363673 
Si 6.7050292213 9.5240789071 4.0216308983 
Si 5.4211491496 10.8020294188 5.5564657390 
Si 6.7544530818 12.2137859917 6.9037266522 
Si 10.0945547123 11.7269593373 9.3152989751 
Si 13.3419173720 10.9740681104 12.8410474830 
Si 4.3137223595 1.2682123496 9.7760259636 
Si 5.5422490107 11.0259354708 14.2519705636 
Si 10.9368454600 13.4862956433 8.0010753142 
Si 6.4200193787 10.2980493942 16.2517392734 
Si 5.5685899409 11.4373394246 18.1438353712 
Si 7.5920523094 11.6832695569 21.1997959168 
Si 5.4440691798 10.8755461895 21.7889945710 
Si 4.3589759799 10.1584115129 19.7914616859 
H 6.9054450932 8.9060363015 20.0507585173 
Si 6.0081755949 9.2949274750 23.4622446138 
Si 6.1536290063 10.3131828043 25.6767701729 
Si 7.4877637285 8.6456895191 26.8220125541 
Si 5.3942380693 13.5212865637 2.7855904980 
Si 7.6860619003 13.9128492972 29.2962762258 
Si 6.7962206422 14.9060831863 4.0681713552 
Si 8.1074516241 13.5314026538 5.4672092622 
Si 8.3121354760 10.8087734789 8.0013400829 
Si 5.2622239081 13.4870775633 8.2946449852 
Si 8.0189480533 16.2076216182 8.1436091408 
Si 4.5167120513 14.5581776531 12.9330399032 
Si 5.6645054618 16.1402461776 11.2785001831 
Si 5.5920638311 13.3383335720 14.7521775098 
Si 7.6290143198 14.2100277700 15.5305975413 
Si 4.3163776295 13.0110348890 16.8921265465 
H 5.0632741363 15.8427419049 15.9946782668 
Si 6.5357435398 16.1745366279 16.0966730608 
Si 4.2004579884 14.6595503241 18.7924010559 
Si 6.3530837681 14.9990013472 19.8286469814 
Si 7.1836131357 12.8835167678 19.2312699157 
Si 6.5002802094 15.3695825606 22.3301524123 
Si 7.2915343867 12.4342874337 25.1224327332 
Si 5.5777286310 13.7963432162 24.0451476563 
Si 5.0768599964 0.0291413442 27.2057212643 
H 5.5488627507 11.0867134614 28.3535524952 
Si 9.5490026073 3.9098769658 1.4146739707 
Si 11.1237732117 15.6598703632 29.1419160631 
Si 10.8687043894 2.5464365333 2.7565100671 
Si 12.0908942306 1.1958065569 1.1639732971 
Si 9.4457077164 1.3101542130 4.1334515536 
Si 12.2105117017 4.0834794973 4.0161884302 
Si 9.4944636868 4.1540314880 6.8628345946 
Si 10.8178958789 16.1742434079 5.3733634610 
Si 12.1600941512 1.3339148072 6.6478423955 
Si 9.2655728947 1.4573864923 9.3739305369 
Si 10.8326709091 2.6380514941 8.0864779352 
Si 12.1805381014 3.7307847041 9.6938005672 
Si 10.4850911759 7.8562598219 11.7230468610 
H 9.4846896867 3.1156417185 14.1292649721 
H 12.4518806339 0.3747954364 12.6452657253 
Si 10.6125441371 2.3459880815 13.4262451877 
Si 9.5461355673 0.3079803718 12.7793563717 
Si 12.1016130507 2.4162142721 15.2396755575 
Si 9.3275074753 3.2102377494 17.3072838967 
Si 9.2007224041 0.9074393453 17.9553788814 
H 11.4401087246 2.9524484970 19.2588058624 
Si 8.2761019957 2.8870930164 21.2055031536 
Si 10.2802770040 0.3478420022 19.9541179351 
Si 12.0845737105 1.5732214254 19.2497448884 
Si 9.6333359381 1.1713943627 22.0149011251 
Si 11.2170497526 2.0961646392 23.4385036854 
Si 8.8194875307 0.4232614449 25.5383843895 
Si 10.4076973852 2.2202292803 25.6609134686 
Si 14.2049289999 5.9706108546 28.2707975614 
Si 11.2213340226 4.6369322524 29.3425224952 
Si 10.7196020180 8.0139470233 2.5067390259 
Si 12.0037427298 6.6656237110 1.0061829085 
Si 9.4421564964 6.7133208314 3.9736489228 
Si 10.8204859890 5.4229736296 5.3972220644 
Si 12.1482676111 6.7902422121 6.8127933069 
Si 1.4168748910 3.9075637857 9.7103927402 
Si 10.8027950488 8.3091055360 8.0562060451 
Si 9.1633205638 7.5496331490 9.6092805086 
H 5.8296371933 5.2137611577 10.1771505717 
H 14.6937756144 5.0210504559 11.9379213852 
Si 10.7051202079 3.9225668759 11.6118145806 
Si 11.2000918624 6.2373596070 15.0743716211 
Si 11.2401489728 4.2434798788 16.3960970624 
Si 9.0275271226 7.0243620942 14.9774368515 
Si 9.0907160331 4.2762064891 19.4558820449 
Si 11.1554572620 5.1795521574 20.2633383792 
Si 11.2898660533 7.5721947993 20.4918632018 
Si 11.7579266275 4.1989593084 22.4118776900 
Si 10.5162376562 5.7034711422 23.7838797690 
H 10.7809664486 7.0116558941 23.0604433746 
Si 11.5319354555 5.8456991335 25.8558715014 
Si 11.4184267344 8.0832935539 26.5800139457 
Si 10.2928854641 4.2247626686 27.0922825779 
Si 9.3499225155 9.4982266769 1.2452013980 
Si 10.9432800101 10.5438980764 29.2878330455 
Si 12.1895138915 12.1650951813 1.0840984586 
Si 12.2792066323 9.3993626660 3.7389461635 
Si 9.5320121372 12.2164412617 4.0890586652 
Si 9.5570661574 9.5110306170 6.4964535261 
Si 11.0264078808 10.8107608589 5.2046175313 
Si 12.3472336729 12.2299619619 6.5935942270 
Si 11.8386435783 10.0719930621 9.2413696653 
Si 12.4328702037 9.3052553351 11.3506643682 
H 9.8940736805 14.4783892324 10.8431615729 
Si 10.1675176230 10.7528824883 14.5315074925 
H 8.0313610335 11.5412044656 12.9681070490 
Si 9.1076902133 8.8873190913 13.4180667762 
Si 8.7092368097 10.8880569096 16.4104534106 
Si 9.1462975136 9.2800221249 18.0274253915 
Si 11.3942197942 8.8330408108 18.3409115538 
Si 9.4458543264 8.5098634978 21.7532213753 
Si 8.2184028152 9.6775958685 20.1496643429 
Si 9.9843528613 9.9509746510 23.5913340733 
Si 8.8609944510 12.0465039802 23.2765240674 
Si 9.5612201074 9.3552819256 25.9328015234 
Si 10.0518586219 11.3117435235 27.2350223358 
Si 9.4456914264 14.8521958658 1.2093075854 
Si 10.8038050288 13.4549211031 2.5553299694 
Si 12.1661866113 14.8707827560 3.9056033623 
Si 9.4645063766 14.8767448961 6.8162058815 
Si 10.4019633051 16.1641598978 10.6001627271 
Si 6.6707713510 14.8532221358 9.5785379185 
Si 7.3301905570 12.9862252188 10.7776460245 
Si 10.4129916352 12.8903911479 13.4401308361 
H 4.2452880688 9.4714133366 10.7796464993 
Si 9.6207600580 14.9106932564 14.4724346496 
Si 10.8122432489 13.7045490653 17.5704934213 
Si 8.5963308186 13.0050075889 17.3697398954 
H 11.4948757051 12.9998762389 16.4092766608 
Si 10.5299701263 15.7874373544 16.5736980348 
Si 12.1978543716 13.8001713662 21.6572868431 
H 10.4620896957 15.1485435485 19.9969810487 
Si 10.3618573248 13.9204730173 23.2697871745 
Si 11.6374457864 14.6802060443 25.2532284800 
Si 8.7190270997 15.7344134039 23.2756120863 
Si 8.6009571787 13.2240918009 27.1291736860 
Si 10.0093580115 15.1837788189 26.9170351052 
Si 13.5511624239 16.2542761787 2.5842544809 
Si 13.0474430393 3.1155928485 0.1513270900 
Si 14.7810085652 3.9904473065 1.5118234972 
Si 14.8861605161 1.2602041855 4.0970899830 
Si 13.5796210542 2.7421934651 5.4158147122 
Si 14.8635662859 4.0573340471 6.9312037614 
Si 13.4907102334 0.0430847698 8.0617073507 
Si 14.7970216353 16.1134002574 11.4806069714 
Si 14.6323460238 1.3848487507 9.6574684153 
Si 14.0904754589 2.5342190332 14.1560948688 
H 12.3019800525 15.9126911655 12.7995082130 
Si 14.8052806654 0.2948946147 13.8405493942 
Si 16.2143982583 0.5280533868 15.7568865391 
Si 14.5319018829 3.8669202354 18.0971772393 
Si 14.6243150537 0.1241371316 17.4968877177 
Si 15.0651550378 3.9308096159 15.7917183349 
Si 12.4355254737 0.8277372616 16.9752639241 
Si 15.2139316091 1.7693383662 19.0489325251 
Si 13.7921892661 1.5540839332 20.9235244687 
Si 14.0248919183 3.5052007821 22.4433557487 
Si 14.5708838533 3.2353243496 24.8297750434 
Si 12.6514168457 0.2407010422 24.1459951192 
Si 14.0373374784 1.1393242394 25.7852959286 
Si 13.4861653233 5.5723040610 2.6489845488 
Si 14.3458700812 8.3152142860 28.5037940334 
Si 14.9489910467 6.8335410325 4.0284560475 
Si 13.5354425738 8.1680341347 5.3900733090 
Si 13.3958698525 5.3707315991 8.3063242276 
Si 13.9781884878 6.1318818561 12.6936301445 
Si 11.5459774356 5.9110709041 12.7268439092 
Si 15.0911864580 6.0957180557 14.8215174952 
H 12.8248076073 6.3188096078 17.9815027282 
Si 12.2581436621 8.1265109243 16.1433311927 
Si 14.5580310431 7.8053372814 16.3838294451 
Si 12.4380830038 4.8865276347 18.2967540154 
Si 15.5520631422 5.6378224416 19.2445377703 
Si 15.5237837020 5.1383384570 21.5491729498 
Si 15.0814287479 7.8867058321 18.7038800477 
Si 15.0795391079 7.2173171460 22.6279583828 
Si 15.3086579600 6.9234129633 25.0140540712 
Si 13.8780538569 5.3033072885 25.9752527746 
H 13.7087518854 2.9310271468 28.2271107229 
H 14.7114176845 1.2374861513 29.3923578517 
Si 2.6146753439 5.7054096522 26.9973188643 
Si 15.3009853699 9.4481512164 0.9549501616 
Si 13.7110813554 10.7743689985 2.3277553724 
Si 14.9662095769 12.1349586810 3.8493547190 
Si 14.9207116065 9.5522931874 6.7559857075 
Si 13.6601262349 11.0383484510 8.1573771142 
Si 14.4528628022 8.0086039032 11.3264233211 
Si 0.1409361943 9.4266809962 11.5807483844 
H 16.0189671265 10.1074238124 14.7080493901 
Si 0.6442190069 15.3363020903 11.5525358065 
Si 7.1964333658 10.2793647640 12.7827101088 
Si 13.5365502938 14.1537783994 10.9131487708 
Si 12.4204409336 10.2021338733 14.9365153751 
Si 13.7859339061 11.2354085828 16.5522223499 
Si 15.6523118032 9.8740532703 16.1601881344 
Si 12.6883788560 10.8459309692 18.6389822930 
Si 13.1530999803 8.3995150368 21.7518386942 
Si 15.1558251786 11.4819577350 21.1480189230 
Si 14.1446885794 9.6797950185 20.0294299261 
Si 13.4307956128 12.0041988498 22.6847659822 
Si 12.3534564530 9.9945504014 23.3158275127 
Si 12.9322890283 9.6208740880 25.5528878315 
Si 15.0036765772 8.9192800716 26.3191579208 
Si 12.2510738020 11.5721391758 26.5938113378 
Si 12.9471292184 14.0070380781 29.1059663549 
Si 14.7524033249 14.8543624359 1.0771526925 
Si 13.6509549648 13.5743268041 5.2139432739 
Si 14.9151730064 14.8948430862 6.7651643564 
Si 12.0619306103 15.0250164774 9.3696648186 
Si 8.3575031264 3.0007809274 10.9564531656 
H 0.6522059940 4.7004958330 10.7748806624 
Si 12.6900404361 13.2471421512 12.9435423957 
Si 13.6999552853 14.5953677235 14.6131150952 
H 12.4830922742 15.2638767496 15.1916053258 
Si 14.8735194760 13.2933894616 16.2219086645 
Si 14.3765441515 14.2016547099 18.3877167795 
Si 15.7672866242 13.5598449940 20.2047656550 
Si 12.3370850028 13.1668487404 19.2843413343 
Si 13.6251841846 15.7438778940 22.1333115797 
Si 15.8646030851 14.9766025970 22.1261922430 
H 14.0001148280 12.4129475335 24.0467656874 
Si 15.6734073533 14.0546374585 26.1318781808 
Si 13.3286736019 13.6152798645 26.6854507330 
Si 15.8823917653 0.0194846321 26.8512253694 

