&CONTROL
  dt          = 30.D0,
  prefix = 'aSiHcSi_merged-1',
  pseudo_dir = './',
  outdir='./',
 wf_collect=.true.,
 verbosity ="high",
/

&SYSTEM
    ibrav= 0, nat=  398, ntyp= 2,
  ecutwfc     = 42.D0,
  nbnd=1478,
  degauss     = 0.05D0,
  occupations = "smearing",
  smearing    = "methfessel-paxton",
/
&ELECTRONS
  electron_maxstep=200,
  conv_thr    = 1.D-8,
  mixing_beta = 0.3D0,
  scf_must_converge=.false.,
/
&IONS
/
ATOMIC_SPECIES
Si  28.08  Si.pbe-hgh.UPF
H  1.00784  H.pbe-hgh.UPF

K_POINTS {automatic}
2 2 2 0 0 0

CELL_PARAMETERS angstrom
16.29000014898320 0.00000000000000 0.00000000000000
0.00000000000000 16.29000014898320 0.00000000000000
0.00000000000000 0.00000000000000 29.41385946727247

ATOMIC_POSITIONS angstrom
Si 16.1593054778 0.5497484090 0.2568091715 
Si 0.2779513855 2.9611310671 2.7751799924 
Si 2.8188542058 0.1735161946 2.8957091644 
Si 3.4252494613 2.2588528707 29.3285298610 
Si 1.6324046249 1.5498599362 1.4178833301 
Si 4.1798837182 4.0586372471 1.3766421577 
Si 1.5180178729 4.3143902495 4.2148295785 
Si 4.2407920288 1.5330600590 4.1954164313 
Si 0.0330828726 0.1977296508 5.5401298445 
Si 2.8414321460 2.8978118365 5.5226874259 
Si 1.3954177028 1.5669220823 6.8788134166 
Si 4.2246160586 4.3663227699 6.7217139932 
Si 0.2012662098 2.9296424968 8.4124226354 
Si 2.6845268646 0.2294430231 8.3043267018 
Si 7.0287603943 9.7652197793 10.1453401659 
Si 3.6705931536 2.0710454589 9.3994635175 
Si 12.1037144607 9.7530837292 9.6856897840 
H 0.2425971982 1.4297896031 13.9225503432 
Si 1.2513049584 3.4168601112 13.0732839788 
Si 15.8289116948 15.8788079652 10.8210059317 
Si 4.0071771366 15.6492981531 12.4356503333 
Si 3.5161639522 1.7631318761 15.6151414724 
Si 3.3146403603 1.3164323790 17.9347478439 
Si 1.8844272172 3.5322747623 15.3361216015 
H 1.6834249054 3.2917040401 19.2626071156 
H 3.5589740725 2.0220777185 21.7398717738 
Si 0.7518502959 0.9783089909 21.1211512399 
Si 1.1418622214 0.8637006949 18.7081264508 
Si 0.6195803817 3.2330926196 22.0070084455 
H 1.3400691693 2.2910093310 23.9760310260 
H 1.1077623641 1.6443289050 24.3704414676 
Si 3.9482399161 1.0834332489 25.5636440907 
Si 3.2252082595 2.9447107469 26.9836569842 
Si 0.2608990134 5.7804739729 0.0293024692 
Si 0.1092399265 8.3783054566 2.8307604213 
Si 2.8940651365 5.5630513409 2.7675647442 
Si 2.9913001474 8.3604190365 0.2647879750 
Si 1.5383705991 7.0476405045 1.5212112770 
Si 4.2702117691 7.0175202942 4.0849085612 
Si 0.1230004154 5.6513757217 5.5800150380 
Si 2.9240713167 8.3585293964 5.5460714441 
Si 1.5152518309 7.0285160443 6.9197280951 
Si 0.2298763371 8.3975113668 8.3576834429 
Si 2.9653013071 5.6663788118 8.2028783005 
Si 2.1459305896 5.0840764665 11.6974801161 
Si 0.0959116113 6.3671583282 11.6846556734 
Si 3.8057349948 5.9238748442 13.4019838584 
Si 6.2104973968 0.2373958012 11.9086716271 
H 1.1683611647 6.5773807802 14.8252911041 
H 0.7150446695 6.1465265662 15.3006484870 
Si 2.7463474151 7.0933502449 17.2749361483 
Si 3.2027769293 5.4105280695 15.6561738064 
Si 2.3570652816 6.2523789872 19.5497746256 
Si 0.8833920471 4.4108922103 19.9317135908 
Si 3.4736144718 4.9571610753 22.9020133614 
Si 1.3049625899 4.6336742524 23.7941945468 
Si 5.5665536909 11.2790820732 29.3194703922 
Si 0.7706473270 7.7863757212 26.8967096156 
Si 1.1231140603 3.8992395957 26.2165141155 
Si 4.3351274196 9.8493413401 1.4111093182 
Si 0.2040175909 10.9091850398 0.0331488313 
Si 2.8741261763 11.1163775517 2.7950814097 
Si 1.4346277331 12.4056170335 1.4132359403 
Si 1.5171935989 9.7280622890 4.1772386661 
Si 4.2094989385 12.4388649238 4.2220065602 
Si 4.3074018394 9.6758365485 7.0168526591 
Si 0.0749111947 11.0588738511 5.5057450428 
Si 1.4948860727 12.3600539030 6.8658124907 
Si 1.8386197368 9.5502895173 9.7294576069 
Si 2.8872884964 11.0982630715 8.3074445709 
Si 4.1941700484 12.3839187533 9.8187580842 
Si 2.9234522967 13.9055350872 11.1392933050 
Si 0.7065331445 8.3807000866 13.0079557969 
Si 3.0360813578 8.0900376140 13.1824976390 
Si 0.8060894804 8.4681285174 16.9438243323 
Si 1.0990911971 10.6389502273 17.8350054464 
Si 4.0586372471 9.4672268066 14.8078486855 
Si 2.2877839109 11.5943098660 15.9874915194 
H 2.4943085328 10.2500590537 15.0575429385 
Si 1.9098884875 8.1983172450 20.8418078166 
Si 1.7399512059 11.6956499570 21.4023477365 
Si 2.4835734227 10.2398452237 19.6890786641 
Si 2.4636344625 8.4757685275 23.1816803372 
Si 0.6294977338 8.1404388744 24.5853391248 
Si 2.3462650115 12.0237305600 25.2569457781 
Si 2.7548670852 10.7742060985 23.2975121158 
Si 1.6751821653 9.5368502672 28.1864485256 
Si 0.1956298698 12.8345816074 25.9572603581 
H 11.7819543778 3.7093470639 27.8836328423 
Si 0.1121543704 13.7724294960 2.8099471743 
Si 2.5539625134 14.0162419282 0.1024649443 
Si 4.1272995977 15.1555482486 1.4828791353 
Si 1.4527308103 15.1116629882 4.2497438297 
Si 2.8752827663 13.7992428362 5.6225768926 
Si 4.1915147783 15.1405451585 7.0986231884 
Si 0.1622829363 13.6784850651 8.2563232832 
Si 1.4421374232 15.0664745278 9.7027204086 
Si 4.6176774722 6.6936750912 9.5997130728 
Si 0.9102966113 12.9449789384 14.6404544112 
H 0.0212346668 13.2433954511 11.8862582662 
Si 6.1585485863 2.9979301774 11.4832883915 
Si 14.9589279468 10.8097182989 11.2596842318 
Si 3.4309509614 15.8729924352 14.7188423467 
Si 1.0139238183 14.9483068667 17.8226516254 
Si 1.3422650613 15.1054890782 15.4553065601 
H 3.1478307588 12.6486475457 18.4421369197 
Si 2.7119918048 13.8100105263 21.3207242764 
Si 2.8345740559 14.0294042483 18.9885876008 
Si 1.5935513456 15.5150685519 22.4815128264 
Si 3.8195163349 13.8831689170 24.9254515819 
Si 2.4023189020 15.7607543341 24.7276727908 
H 0.3101404258 14.8230367656 22.9271622112 
Si 0.4950417015 15.1684499287 26.0212649163 
Si 1.2197056162 15.5825743125 28.2304810732 
H 8.1421981945 7.8510307318 27.9842282417 
Si 5.2146082377 0.4983534586 0.1557813884 
Si 5.6310620915 2.8943583565 2.8118296613 
Si 8.2042468050 0.1802048686 2.8616185012 
Si 8.8089641906 2.3584336416 29.4069766242 
Si 6.9718431338 1.5321201260 1.3797306130 
Si 6.9578663136 4.2929526093 4.1604433523 
Si 5.5210720105 0.1970829378 5.6666976818 
Si 8.2773400357 2.9048491166 5.5054509042 
Si 6.8934393630 1.6199867578 6.9627311577 
Si 5.4625094600 3.0743954381 8.1929070022 
Si 8.2042630950 0.2673710304 8.3862737143 
Si 6.2981538876 4.6970097730 9.7059853470 
Si 4.2569842889 1.6434329550 11.5986495483 
Si 7.1090049350 0.5966701255 14.2034527011 
Si 6.8396334926 3.7211898940 13.5761139064 
Si 8.6329833190 14.1377327493 11.1609124917 
Si 5.8347685434 2.4233981622 15.4210394138 
Si 6.5450777099 2.3537421215 17.7408222684 
Si 4.5099842812 3.1503394188 18.8065746385 
Si 4.9156541550 2.1451486696 21.0382629840 
Si 5.6545196917 -0.0130722690 20.3084463029 
Si 7.4669288183 0.5060846926 18.9412901148 
Si 6.3200802278 2.8006582756 22.8833943883 
Si 5.9139868141 0.8104209914 24.1971055937 
H 4.1228361377 3.7981927247 23.6232706094 
Si 7.3650837374 0.4012960087 26.1034178258 
H 4.4848162310 0.2456450572 26.7113140594 
Si 3.1841248791 10.8665215294 27.0531913480 
Si 1.7684587062 5.7251857124 27.5805524344 
Si 5.6471240316 8.3734347466 2.6960067069 
Si 8.2861692158 5.5473314907 2.6785025191 
Si 4.1329848078 5.2440768480 27.4303358541 
Si 6.9133946132 6.8897252430 1.2942127579 
Si 5.6708911419 5.7394231725 5.5053332488 
Si 8.3319441162 8.3315531562 5.5101277079 
Si 7.0810350048 6.9981514840 7.0073813963 
Si 5.8009667931 8.3781425566 8.4368067249 
Si 8.2776495457 5.5461423207 8.5314899385 
H 16.0685864670 16.2488678986 12.2618438377 
Si 6.1876425266 5.9288432942 13.2642681683 
H 1.8278357567 2.1478853896 12.4847126509 
Si 4.9898876856 4.4608210608 16.7879602909 
Si 7.6929851504 6.7915291221 14.8752358375 
H 6.0314865852 5.5336316006 17.1472799982 
H 5.0888168565 7.2137007660 19.0858004064 
Si 5.9079432240 7.6403195799 22.0691599306 
Si 7.7833457812 5.6005997912 19.5075951511 
Si 3.9573948962 4.8315977542 20.5146374577 
Si 5.6760713619 6.3172131878 20.1679362962 
Si 4.2534330689 7.0606725046 23.6423602042 
Si 6.7750762220 4.6617907926 24.3111431269 
H 5.6883051520 5.0045486858 25.3353042997 
Si 4.7424914534 7.0847817048 25.9810561704 
Si 7.6981490804 6.4928682594 23.1169992602 
Si 6.7702869619 8.3445688663 26.3198744176 
H 3.7843136446 8.1537315146 26.4741501105 
Si 6.9055591232 12.5330048346 1.3687033570 
Si 8.2439455354 11.0174972508 2.6388938160 
Si 8.0545417037 14.0307726083 29.3198233586 
Si 6.9531259236 9.7116908388 4.1534134399 
Si 5.5905977311 11.0670025612 5.5830446655 
Si 6.8959806031 12.4515385439 7.0206470469 
Si 3.6815074537 8.5537813382 10.9343669461 
Si 8.1735727348 11.0640866512 8.4625144380 
Si 2.1122428693 3.9182011558 9.5441208784 
Si 7.6412155299 11.1993099424 13.9101671084 
Si 5.2836289683 11.1783121322 13.6913279940 
Si 5.0382201161 10.5835479368 11.2000623387 
Si 4.5984552721 8.5909876986 17.0336248452 
Si 6.0057809649 11.6112514662 17.5673687391 
Si 6.9188517633 8.2499891255 16.5700035923 
Si 7.6899063403 10.5100311661 16.2618640005 
Si 4.7639453836 10.1032698624 18.9585560503 
Si 5.9438463844 9.8544726901 21.1212688954 
Si 5.0171897259 11.2411263728 22.8473329966 
H 5.8905780839 9.4849340367 25.3670418540 
Si 6.4957515894 10.8849943896 24.6954057870 
Si 6.8442761426 11.9047646889 26.8921504674 
Si 3.9851693464 12.6333349455 28.2892793783 
Si 5.5388444007 13.7984934962 2.8226039580 
Si 10.5861054668 0.7064077115 0.3249613780 
Si 6.8660721628 15.1338010984 4.2693334601 
Si 8.2802233657 13.7425210557 5.5585429205 
Si 5.5894085611 13.8071109063 8.5288426911 
Si 1.3406376903 12.6204658454 12.3634098944 
H 13.5930928843 6.0574039754 12.1603071948 
Si 8.3023614759 13.4818973433 13.6204700065 
Si 7.1809904457 14.8622467959 15.3506814619 
Si 4.9365542251 14.6858586743 16.0795863134 
Si 4.5386221015 12.3766208332 15.8303332683 
Si 7.1691639056 13.2376939511 18.8384886760 
H 6.0877359557 13.9913019380 19.6123379047 
Si 4.4513239907 15.5716437224 18.3262168995 
Si 7.9565573528 13.7776097160 22.5235158178 
Si 6.0942030857 15.2745955697 22.4388921441 
Si 4.5894794820 13.5367131938 22.7170295992 
H 7.5078167187 12.7393176865 23.5895329126 
Si 6.4800154493 15.4681207715 27.9749040483 
Si 5.3584978090 13.7697579359 26.7760833780 
Si 9.6888685486 4.2505171589 1.2196603897 
Si 13.9572069676 13.8090657063 29.1969028398 
Si 11.1271126618 3.0165333576 2.6917946422 
Si 12.5346664146 1.6756057053 1.2827766494 
Si 9.6694997384 1.6194052048 4.0617304400 
Si 12.4063500835 4.3506192098 4.1489719472 
Si 9.5458097673 4.2669374790 6.9276110095 
Si 10.9282117599 0.2351363782 5.5183047608 
Si 12.3445295329 1.6143667078 6.8245154320 
Si 10.8474459392 15.9864685762 13.2377368671 
Si 10.9752572804 2.9282741368 8.2333216451 
Si 11.8596739685 4.7777104337 9.4004047610 
Si 6.9389210435 15.2512357095 9.9495615173 
H 12.0843293605 1.8678114171 13.3618633541 
Si 9.1412476136 3.5023337420 14.0916212074 
Si 11.9935614797 3.4216493713 11.2663611779 
Si 9.3860211558 1.1905383709 14.5001503016 
Si 8.1917523749 3.9773827264 17.8610072982 
Si 10.4414828455 1.1745872027 16.6851882660 
Si 10.0233022517 2.7020549047 18.5448207031 
H 10.9846403205 3.2465318697 21.8597332512 
Si 10.6632060375 0.0674453247 21.4912658336 
Si 9.1349922535 1.4466432372 20.3184470151 
Si 8.4966848877 3.0254276977 21.9728883685 
Si 11.9464670893 2.4053325520 24.7235548505 
Si 11.6785291668 2.0105932684 22.4118019795 
H 9.2525408946 2.5721095735 23.2045937337 
H 8.3900016767 0.4498222901 23.3609872245 
H 8.0245843934 0.5648199172 22.6661142085 
Si 10.5266306763 1.1690453447 26.1047414495 
Si 8.6132398388 2.2620620007 26.9644497340 
Si 11.3854069041 16.1037239973 27.7561237616 
Si 10.6149713471 6.0269416751 29.3079401593 
Si 11.0166990408 8.3651431365 2.6874060944 
Si 12.3297056328 7.0069317941 1.2473682454 
Si 9.6602795983 6.9685688437 4.0684073861 
Si 10.9859598105 5.6533631017 5.5581605404 
Si 12.3924384233 7.0545963345 6.8892847506 
Si 10.1807451031 6.4452851689 9.8010509408 
Si 10.9422863201 8.2248699452 8.3554185757 
Si 11.0813051813 4.4261070705 13.1591136207 
Si 10.6835196677 6.6442186508 12.2863161688 
Si 11.3141870235 5.2471230780 16.7555168040 
H 9.4664123066 7.0289232943 17.3970624928 
Si 9.0476941427 5.0046627158 15.9133097658 
Si 8.3481526663 7.5049170986 18.3073332017 
Si 11.2132867626 5.9428852744 21.0724713025 
Si 8.9798625821 5.3159483286 21.5023548586 
Si 11.5530635857 4.4481637307 19.0556217866 
Si 12.0085808598 6.0567686654 23.4534349848 
Si 8.4348480471 8.0476347436 24.6686685887 
H 9.7498420192 7.9495526527 25.3969263353 
Si 10.9773098204 4.5777018119 25.0670793152 
Si 8.6928490695 4.2219444986 25.6456793448 
Si 5.5891153411 5.3103608586 -0.0006806485 
Si 11.7140250771 5.1181225668 27.2770602324 
Si 8.7720184702 7.7003156504 -0.0040140800 
Si 9.6071741979 9.6299150381 1.2132746408 
Si 10.7566943484 11.1634719421 29.2066094135 
Si 12.2986243125 12.5201357345 1.1097584452 
Si 12.3270340727 9.7425115191 4.0963505526 
Si 9.5985730778 12.3848472833 4.0542593197 
Si 9.5630608775 9.6730998285 7.0285005474 
Si 10.8852713196 11.0077721207 5.5030977955 
Si 12.2475225820 12.4330982637 6.7665407150 
Si 0.8768695310 10.3718105149 11.7139518774 
Si 9.5713524875 12.4982908443 9.7021909591 
Si 10.5635763966 10.9396310501 11.1395286159 
Si 9.3144754752 8.0408092335 13.6426774704 
Si 11.7045280070 11.9640602894 12.9199789433 
Si 8.6345797390 9.8291743199 12.1427765346 
Si 10.6968123078 8.9108744315 15.4612187458 
Si 9.8187161398 10.2474363637 17.2946140203 
Si 11.4815504850 11.8363629783 17.8448885032 
Si 11.4996486752 8.2181421752 20.2420003943 
Si 8.2585413755 10.3409246746 21.2130401369 
Si 9.4722115466 9.1738113239 19.4607094592 
Si 12.1531709011 11.8993726988 22.0204211654 
Si 9.9247803308 11.3272516036 25.1660275384 
Si 8.5091956078 10.1598124529 23.6846573341 
Si 11.5338576755 9.7247717089 25.7559813178 
Si 12.2603591021 9.8242058698 27.9484315748 
Si 9.5271577171 15.1824430389 1.4205570499 
Si 10.9854548205 13.7823663960 2.6695077609 
Si 12.2736191623 15.1560695286 4.1337061541 
Si 9.5729326176 15.1803904988 6.9564660056 
Si 10.9693603003 13.7416576857 8.2425281831 
Si 14.0776552287 14.2144423600 10.8400955265 
Si 10.3573775747 15.8446152549 10.9727520327 
Si 10.6118762471 13.7289026156 14.1055045491 
Si 11.5261036354 13.6835838351 16.3111028013 
Si 8.1524283146 14.9610130668 17.5627213493 
Si 10.4709351658 15.3107919500 17.6240786602 
Si 8.6431808590 12.5707813450 20.5785831882 
Si 11.0280531709 12.7694378968 20.0668996889 
Si 11.5868490460 15.0598933677 19.7202573551 
Si 9.9458107210 14.7868240952 23.2048290446 
Si 9.3294459853 15.5975122426 25.3197443680 
Si 11.1757383122 12.8958971679 23.9371164899 
Si 10.3369824945 14.1772522897 26.8834733789 
Si 9.1030801433 12.4157331236 27.7802431263 
Si 13.6419303048 0.2186476400 2.7657528505 
Si 14.5602301932 2.3694456817 29.2877622517 
Si 15.2603418196 4.1952288984 1.2657224937 
Si 15.0860388180 1.5875273035 4.0767609222 
Si 13.7766648960 2.9729087372 5.5136573710 
Si 15.0999504781 4.2888801092 7.0230883973 
Si 13.5717204041 0.2619041064 8.2928552966 
Si 15.0422187176 1.5139323408 9.7011614741 
Si 12.9975630589 0.7396311668 12.8897414957 
Si 14.0959651889 2.5494664733 11.5986201344 
Si 13.9209291373 0.0707917794 14.9129149915 
Si 13.7899575361 1.4509047013 18.0609921287 
Si 15.9119255355 1.7857261063 17.1552217403 
Si 12.6225835454 1.7014742256 16.0612320651 
Si 12.4741490641 3.9333834360 15.1388134322 
Si 16.0783767570 4.0155827767 16.4864682314 
Si 16.1602991678 0.6059554255 15.1390781569 
Si 13.6054732844 3.3611646007 19.3919692696 
Si 14.7995140054 0.2486326433 21.2651909098 
Si 13.7591694358 2.3236382013 21.4997958529 
Si 14.8923344262 3.2587982398 23.2830699108 
Si 14.2665052005 2.0240650985 25.2229139427 
Si 15.0791481479 3.2909058301 27.0365136897 
Si 13.7445084357 5.5781033010 2.5914933814 
Si 13.6708613450 8.3898224867 29.2534362777 
Si 15.0428051576 6.9380576735 4.1054100213 
Si 13.7254328455 8.3752266466 5.4674481978 
Si 13.7526534358 5.7444242025 8.3400939549 
Si 15.1273176783 7.1368608353 9.7736372238 
Si 15.4141194210 4.3225678295 12.6617840849 
Si 12.9532216785 7.3731961574 12.6646372292 
H 8.9791784021 2.4285132222 10.7021151117 
Si 14.6150623337 4.8392703443 14.8162316354 
H 16.0656705569 7.6364425598 18.0033703780 
Si 12.2346534819 7.3796958675 16.4120805808 
Si 13.9693104378 7.0959892249 14.8252028626 
Si 15.3081041000 4.7798281337 18.6051485288 
Si 15.9393741858 7.6036507895 21.1735373237 
Si 14.9490724967 7.0398864644 19.1143318501 
Si 16.0870919071 6.4127377486 23.3072481033 
Si 14.1737662296 5.3685976091 24.1424546428 
Si 14.0117133081 5.3812223592 26.6207193723 
Si 15.1093172282 6.9977116540 27.9701684169 
Si 15.0128641373 9.6622506884 1.3633912140 
Si 13.6074117944 11.1273081418 2.6174746435 
Si 14.9825158670 12.4130452735 4.1030274987 
Si 15.0466984676 9.7091333088 6.9524363068 
Si 13.4815063833 11.0592648111 8.1928481744 
Si 12.2279257118 15.1301195584 9.6632470092 
Si 14.8748389660 12.4140552535 9.4834106724 
Si 12.2772192523 10.0976986824 14.2133945856 
Si 13.8066873663 8.7446838500 10.9273370337 
Si 15.7171785837 8.6825863694 15.0189519549 
Si 13.5411603638 10.5757287367 17.7506464975 
Si 14.2234670201 10.4930895660 15.4498355822 
Si 15.3798289707 11.7848702878 18.6747711342 
Si 15.6913100635 11.6710357667 21.0442339974 
Si 14.8583697759 9.5795789376 21.7303416834 
Si 13.0643031895 8.3049678760 18.4317832411 
Si 12.5061752044 9.5368176872 21.9455334792 
Si 14.8299600156 11.7662508176 24.6676979314 
Si 15.2522131095 9.5950707278 24.0060919904 
H 13.9186485373 8.6124090488 24.5422772346 
Si 12.3145722226 8.3876559167 23.9972384187 
Si 13.4668942532 11.4003122543 26.6161308102 
H 8.5480309682 5.2980293285 26.7145495840 
Si 15.2913905599 12.2664515622 27.9757276363 
Si 15.0426422576 15.1495209486 1.4430557110 
Si 13.6723600250 13.8122096763 5.4972150236 
Si 15.0022430572 15.1267475283 6.9831737900 
Si 13.9267446674 12.5454178147 12.5043905229 
Si 9.7084165488 1.5124955628 9.7347521016 
Si 14.8720696660 12.6073035253 14.6659856413 
Si 15.0884823180 14.0966982389 18.0027232731 
Si 13.8031198562 14.2358800002 15.9769319439 
Si 13.8424113366 15.6806889834 19.2893149000 
Si 14.1599848895 15.1604026687 23.0963801448 
Si 14.7008128944 15.9894822262 25.3320687751 
Si 14.2779570706 12.8082243871 22.5801963250 
H 12.6518892557 15.4419590312 23.0051089388 
Si 12.3354722928 13.3442305520 25.9701142147 
H 6.6936262212 4.2964223793 29.1167206589 
Si 13.4098792526 15.0766883579 27.1838182979 

