&CONTROL
  dt          = 30.D0,
  prefix = 'aSiHcSi_merged-3',
  pseudo_dir = './',
  outdir='./',
 wf_collect=.true.,
 verbosity ="high",
/

&SYSTEM
    ibrav= 0, nat=  398, ntyp= 2,
  ecutwfc     = 42.D0,
  nbnd=1478,
  degauss     = 0.05D0,
  occupations = "smearing",
  smearing    = "methfessel-paxton",
/
&ELECTRONS
  electron_maxstep=200,
  conv_thr    = 1.D-8,
  mixing_beta = 0.3D0,
  scf_must_converge=.false.,
/
&IONS
/
ATOMIC_SPECIES
Si  28.08  Si.pbe-hgh.UPF
H  1.00784  H.pbe-hgh.UPF

K_POINTS {automatic}
2 2 2 0 0 0

CELL_PARAMETERS angstrom
16.29000014898320 0.00000000000000 0.00000000000000
0.00000000000000 16.29000014898320 0.00000000000000
0.00000000000000 0.00000000000000 29.41887678731836

ATOMIC_POSITIONS angstrom
Si 15.5637919423 0.4867875585 29.1347786942 
Si 16.2317145285 2.5877316837 2.7436397518 
Si 2.5878620037 16.1788046080 2.5421910511 
Si 1.5477813322 2.0910007091 26.8115994132 
Si 1.1423949044 1.2474197934 1.1973629947 
Si 4.1854386083 4.0088550067 1.3422450791 
Si 1.3276871401 3.8690868054 4.1816285654 
Si 3.9335137560 1.2413843484 4.0022616737 
Si 16.1825187280 16.1090182473 5.4921512697 
Si 2.6645553244 2.5182711230 5.5852620147 
Si 1.2712618376 1.1652400007 6.9431491106 
Si 3.8944177556 3.8671645854 7.1323419072 
Si 16.1563569878 2.5968703738 8.2857383905 
Si 2.7239812449 15.9527319859 8.0983989831 
Si 0.4957356555 4.4369725006 9.7244097220 
Si 5.4268017796 2.4964099428 8.3705824312 
Si 3.9779854564 0.0139487525 11.6123955588 
Si 2.4890305728 1.0461486966 13.1262027016 
Si 3.6949629938 2.1979934301 14.7341208313 
H 3.5800044627 3.2620725298 17.5789850544 
Si 2.6631706744 1.1995972400 16.6019547374 
Si 0.4260340029 2.0591048888 16.7105692305 
Si 3.1885394692 2.1688180398 21.4529804252 
Si 1.2829808637 0.8749766330 20.5430251473 
Si 3.3958460111 1.3883625037 23.6564542966 
Si 1.8524988169 2.7934743855 24.6443990169 
Si 0.0152354018 2.6871984246 23.2207607314 
Si 16.2576319187 5.2319245078 29.3808970174 
Si 6.8505640827 15.3373772303 27.2749173037 
Si 2.7106886048 7.7659969310 0.0127582608 
Si 16.2021807582 7.9311123725 2.6651825493 
Si 2.7156570548 5.2061863076 2.7889624734 
Si 0.9701086049 8.8147960106 28.2617735255 
Si 1.3230705541 6.4987652394 1.4077197313 
Si 4.0554444071 6.5816976302 4.1490618688 
Si 16.2188617183 5.2550074381 5.5126562268 
Si 2.6145613139 7.9446167827 5.4318425723 
Si 1.3078622100 6.6206307306 6.9023745473 
Si 16.2258989984 8.0013385632 8.2361970020 
Si 2.4217202921 5.2504462380 8.5207069594 
Si 5.6419601016 5.5270993105 10.9287891188 
Si 3.7384898742 6.5804921702 9.9676744142 
Si 3.4217959813 4.3560926498 14.0204188804 
Si 1.4094564249 7.1312407852 13.8970361112 
Si 1.1729484287 4.8384884243 13.9076857446 
Si 2.7580599252 7.7210365306 11.9622742604 
Si 2.6996114047 7.3393129571 15.9872178880 
Si 0.1870906517 5.4977936003 17.9546346921 
Si 2.2426769005 6.5959839603 18.2502649849 
Si 1.8462271669 8.0433993436 21.8324839358 
Si 2.8252887558 4.5164025413 21.7858550161 
Si 0.4430179571 4.6019250421 21.9205934718 
Si 3.7038247539 5.4186730696 19.7272985318 
H 1.1869806349 6.7087107614 22.1483838347 
Si 0.3987987516 6.6341840107 25.5022240451 
H 2.2955868210 4.2373385488 24.5929454014 
Si 3.9131512558 5.7252345824 23.6788420618 
Si 2.9061034466 6.6497572508 25.6463471225 
Si 4.1675033181 6.6921275412 27.8765039151 
Si 5.3788440192 0.0213565160 29.0428447042 
Si 3.9473113861 9.2519381646 1.3531889012 
Si 16.2368621685 10.5699457867 0.0291216285 
Si 2.6189596140 10.6664640376 2.6843665989 
Si 1.3234940941 12.0598943603 1.2662590622 
Si 1.2464195874 9.3020624951 4.0483316347 
Si 4.0482930970 12.0221830100 3.9713424342 
Si 3.9432551761 9.3052553351 6.8097933421 
Si 16.1290875275 10.6684839976 5.3675034887 
Si 1.2226785412 12.1273838309 6.5297550540 
Si 0.9396593366 9.8812371604 9.3035138519 
Si 2.5574485734 10.8325405891 7.8938201140 
Si 3.6489274534 12.4380178438 9.2217882121 
Si 2.2249533803 9.9245196908 11.3125877854 
H 14.7005685444 13.5803866842 11.8576313157 
Si 0.6493959689 11.2670600530 12.5397373928 
Si 3.3481000206 9.5619857375 16.2188032861 
Si 1.1127161532 10.3706702148 16.2090362190 
H 1.1976473270 11.8869922987 16.1073645808 
Si 0.2788440776 9.9556335911 18.4232185615 
Si 3.1281361486 10.4898315659 20.0054245929 
Si 1.2533493535 11.8272568682 19.5148354036 
Si 1.8121159066 8.5346405881 19.5520502827 
Si 1.6240608869 11.6192661463 23.0821978217 
Si 1.6852819654 11.9609651894 25.4618319273 
Si 3.8050833948 11.2648283230 22.1731545290 
Si 0.3508475072 9.6155635479 22.7645916279 
Si 3.6536841334 8.9456698718 25.5915397550 
Si 1.5697940094 9.7611798593 26.2010106254 
Si 16.0971917072 13.5078798935 2.4489008510 
Si 4.6053785221 12.2643827322 28.2087901284 
Si 2.8983494065 13.3590218722 0.0211564381 
Si 1.1742532577 14.8359873157 3.8857629216 
Si 2.5832356436 13.4347052129 5.1441553762 
Si 3.9541694762 14.7472882649 6.5176050578 
Si 16.2742151388 13.2877857015 8.1770356408 
Si 1.8976546974 14.0892211289 9.3201649361 
Si 1.6529788951 14.9326847566 11.4702435461 
Si 3.4611689117 13.3116505517 14.3000747232 
H 2.0286588786 16.0100890764 13.6931338762 
H 4.0602499571 14.6898334343 14.0558980458 
Si 1.2945500218 13.4045035526 13.3519631621 
Si 3.6870786337 13.3934752225 16.6633519332 
Si 1.8970356773 13.6745265951 18.2468523952 
H 0.2001568608 16.0560594568 17.2582016219 
H 2.2895106509 16.1192157874 16.0655603569 
Si 0.3481954952 12.8214681573 21.4754270282 
Si 3.6062965230 14.9384351266 21.7798241463 
Si 2.6874916446 15.4172471010 19.6323343975 
H 0.7322078137 14.2738682805 21.3240963260 
H 16.2743617488 13.5966441044 23.4853246903 
Si 2.4193093721 15.5323848221 23.8619451510 
Si 0.1206123014 16.0847624371 24.5000111696 
Si 3.5284791923 14.6532460940 25.7074795485 
Si 4.1510015480 14.8960811262 1.2335423294 
Si 16.1586212978 13.0416600893 26.5109090735 
Si 3.8801477155 1.5206438209 27.7547686030 
Si 5.4082148895 2.5729892335 2.7095285642 
Si 8.0182150033 16.0622170769 2.6887706047 
Si 5.5992640112 5.1502301571 29.1364849890 
Si 6.7125877814 1.1661913367 1.2821187787 
Si 6.6309585906 3.9601479062 4.1850705740 
Si 5.3570317090 16.1679717579 5.3133727554 
Si 8.0625726737 2.5439930333 5.3675034887 
Si 6.6967376112 1.2535008505 6.7617817352 
Si 6.8598982527 4.0163321167 9.6025861533 
Si 8.0116827133 16.1080245573 8.0890437803 
Si 8.3883075167 1.1898786259 11.6610837998 
Si 6.3858918284 4.2457930588 12.8643158604 
Si 5.9140031041 2.2214836103 14.0495435684 
Si 6.2631303873 0.2960560917 12.6990406106 
Si 4.5226416114 0.5061954646 9.3929472373 
Si 7.0779236147 2.1315139395 16.1038637345 
Si 6.5996817904 4.0155339067 17.4349208147 
Si 4.2373385488 0.3906749286 18.2310544584 
Si 5.0698390064 1.7192954857 19.9980992926 
Si 7.3392640871 0.5617020111 20.4174359623 
Si 4.6491171725 3.5988357029 18.6103226179 
H 6.6211357206 2.6880617946 22.1673884291 
Si 5.5140347304 1.2484802724 24.7175931823 
H 6.6626915109 1.5099999348 23.7617444566 
Si 2.8066041257 2.5610812434 0.1558923932 
Si 8.8499824109 4.4111528503 26.3814660157 
Si 7.6688433701 6.1949567367 25.3496871690 
Si 5.3930977693 7.9182432724 2.6704455864 
Si 7.9644580028 5.3078521985 2.7797661325 
Si 8.6919042495 7.6042698095 0.0321639522 
Si 6.7885806321 6.6371813707 1.1763873355 
Si 5.2805338683 5.2455266580 5.7059676662 
Si 7.9652887928 7.9813507330 5.6174462659 
Si 6.6024022204 6.7037911813 7.0706211037 
Si 5.0552757462 7.9976244431 8.4520138821 
Si 8.1550998746 5.2928165284 8.1856259528 
Si 6.4729618792 7.6885705603 11.5280810579 
Si 7.7186093206 5.6217767914 14.2054930343 
Si 4.7689627036 7.8398069217 13.1746555917 
Si 8.3718057466 7.4091970578 12.8125680562 
Si 4.4518778507 6.2187238469 14.9286678635 
Si 7.3513512672 7.8297722816 17.1540587981 
Si 6.4453991989 5.9606902445 16.1081000528 
Si 8.0602106237 4.1387188879 19.2801021857 
Si 5.3676690791 6.8559072027 20.5240499718 
Si 7.2960141367 5.5569263008 21.1331972346 
Si 7.1394672353 3.9331879560 22.8525540695 
Si 5.8290344633 4.7210701032 24.6501356978 
Si 4.1719179082 7.6777702902 22.3963555472 
Si 7.0689804047 8.3804231566 26.0127592329 
Si 8.7612833601 9.0865457931 27.4002417188 
Si 8.1218194043 10.5720634867 2.8263832847 
Si 6.7882059621 11.7709912077 1.3412389535 
Si 6.6894559812 9.2659964347 4.1320283392 
Si 5.3533827490 10.6775249477 5.4764415895 
Si 6.7543879218 11.9475259393 6.9199670357 
Si 4.3737510100 11.0332822609 10.9847732414 
Si 6.0891857657 9.5044983269 9.9767648471 
Si 7.9063515723 10.5820981268 8.6584755594 
Si 4.9655178454 11.8189815481 13.2202254318 
Si 4.9308038551 9.7907950795 14.4671739433 
Si 7.2917135767 11.8739440086 16.1105124007 
Si 4.5304282314 10.0973565923 18.2040185106 
Si 5.4390029897 12.1769217214 17.6286146995 
Si 7.0191981642 9.6207111880 15.5739709258 
Si 6.0719509455 8.4884747276 18.9797354537 
Si 8.1131857042 11.8569046684 19.5967081377 
H 6.5663524501 10.0660797921 21.5585647740 
Si 7.4047010177 9.8129983497 20.3242957984 
Si 4.7615344635 9.6058384179 23.5706982708 
Si 7.0327188643 9.8672929202 24.1434543829 
H 4.9467680552 11.9810833396 24.9569157450 
Si 7.9964352731 12.0391083201 24.4602074293 
H 7.9337839326 9.2288226544 23.1047915191 
Si 5.2235025778 8.7364411099 27.3752062547 
Si 7.1802085257 3.5771048427 27.8937139580 
Si 5.4476692698 13.3584680122 2.5725013199 
Si 8.4116185069 13.0299801592 0.1802697571 
Si 6.7289755215 14.6776648042 4.0788390099 
Si 8.0754580639 13.3101192917 5.4772947369 
Si 5.3206235587 13.4818484733 7.9663376452 
Si 6.2597909373 15.1529744286 9.3003366132 
H 15.7882681444 11.5439248956 11.3841639126 
Si 7.0242643542 12.9056874580 13.9033905886 
Si 6.8931298530 15.2007367090 14.5764944895 
H 4.4111691403 14.7328390347 16.6915352172 
Si 6.3174901178 16.2274628384 16.8446604709 
Si 7.3830190275 15.1849842789 18.7318519979 
H 4.5637412817 16.1228484575 21.7803831050 
Si 5.1882347274 13.2207197709 21.8059775278 
Si 6.2441688271 13.2738251714 19.5800570534 
Si 6.7601545818 13.9807785979 23.5166263752 
Si 5.6887612720 15.2702624297 25.2555173444 
Si 5.3821020192 10.3385137546 29.2646041974 
Si 6.8302178725 13.0854313197 27.8827112981 
Si 3.8935706756 12.4034504634 25.9818694123 
Si 9.3534574455 3.9480281461 1.4343761755 
Si 10.2863857541 0.4057382917 29.2888747708 
Si 10.7944545687 2.6040705538 2.7160624967 
Si 12.0457872202 1.1946564829 1.3070365673 
Si 9.4106353461 1.1704430267 4.0071157883 
Si 12.1465897411 3.9422940661 4.0648356246 
Si 9.3751883057 3.8355131151 6.8009088413 
Si 10.7504064083 16.1186782174 5.4507294912 
Si 12.1094159607 1.2347592053 6.8026151362 
Si 9.6169156180 0.7564717689 9.5526329005 
Si 10.6767104476 2.4955791528 8.2363440964 
Si 11.7272199773 4.2424698988 9.4450186492 
Si 8.1928112249 3.5092407021 11.5083409916 
Si 12.0105682398 1.5082780818 13.0219422023 
Si 9.7352461790 1.3553068354 13.6126438293 
Si 9.3329809154 2.6154246839 15.5712349703 
Si 10.2727998940 1.5383429061 17.4562789193 
Si 12.2238532118 4.1554650080 18.2795661862 
H 10.1850782431 2.2202129903 20.5709142425 
Si 9.0603840529 1.9936516682 19.5559629934 
Si 10.9860086805 4.0555421471 23.0053851344 
Si 8.9860202022 0.9006675922 24.1825226513 
Si 9.0361608226 3.2780693100 24.1662540124 
H 10.4872088759 0.7310137567 24.0370757245 
Si 8.4163100270 2.2366333105 0.0635762521 
Si 10.9523209602 15.7771746543 27.1026697801 
Si 5.4495426198 2.8982027965 26.4108260547 
Si 10.3099410943 5.7322229924 0.1778653523 
Si 10.7808035486 7.9686608229 3.0193181624 
Si 12.0330158601 6.7473180617 1.4554283237 
Si 9.3400181954 6.5924979003 4.2601181287 
Si 10.7953179387 5.2146082377 5.5147743859 
Si 12.2409577120 6.6065561704 6.7657532835 
Si 10.0704943821 6.0805194856 9.3544967653 
Si 10.8469409492 7.9063515723 8.0978988622 
Si 10.2675382239 6.7639338619 11.5826236554 
Si 10.2463449337 4.5618027717 12.3972029348 
Si 9.8025075897 4.7713899136 14.7002597041 
Si 9.5730303576 7.0458323144 17.7097519617 
Si 10.8546786993 6.6207773406 15.7929944635 
Si 10.1223780326 5.1021746567 18.9456683944 
Si 10.6721981176 5.5576593508 21.1795908032 
Si 9.0498770028 7.0245901542 21.8980880310 
Si 9.6120286179 7.0037063741 24.1913188955 
Si 11.7385578174 5.9035286340 24.2823409003 
Si 12.9145817981 8.5539605282 0.1907567041 
Si 1.5154196179 3.9240003959 28.2505355146 
Si 9.5232806971 9.2193907443 1.5281400196 
Si 13.7086378554 7.7909369213 27.5390988172 
Si 12.2098763917 12.0294972200 1.3526828966 
Si 12.1183591708 9.4216310962 4.2866245367 
Si 9.4899513568 12.0399065301 4.0841049889 
Si 9.2919626950 9.3506718555 7.0174023556 
Si 10.7327643382 10.7633406684 5.6866394641 
Si 12.1208352509 12.1223990909 7.0995398596 
Si 11.9399510892 9.3134492052 9.6077932945 
Si 9.0820171731 12.3816381532 9.8445564148 
Si 9.7537841992 10.6171867871 12.5219683913 
Si 11.8612215185 9.7909091095 13.3197494920 
Si 8.7872170404 9.2449171746 14.1311515327 
Si 10.8324754291 8.9723203121 15.2762224738 
Si 9.1913393641 12.0332276301 17.5151460917 
Si 11.0044000906 10.4270173254 17.2550832209 
Si 10.7271768681 8.7103119497 18.8351416743 
Si 10.9348417900 10.5715747867 21.9876390920 
H 9.1706999339 12.3025502025 20.6166311770 
H 11.6140207662 11.3309494336 20.8390967233 
Si 9.5342275772 9.0599605129 20.8523940556 
Si 10.1284379126 12.3543361130 23.4146605483 
Si 11.8740091686 12.4299380037 25.0497617201 
Si 13.4032980926 13.1380806002 29.0073655388 
Si 10.5114158161 8.5307961480 25.8447774464 
Si 8.2807935157 11.4815016150 26.8240730169 
H 2.1720760399 14.2454422303 28.4651462208 
Si 9.4347119663 14.8683718360 1.2568391379 
Si 10.8046521088 13.4552306131 2.6488138863 
Si 12.1482839011 14.7374491048 4.1189369390 
Si 9.3943290559 14.7110918845 6.8152652532 
Si 10.6572601875 13.5278188537 8.4471891863 
Si 11.4787323150 15.4665243515 9.5940546790 
Si 12.0849972505 15.5648182124 11.9029363859 
Si 10.5174431162 14.2513880803 13.1740966330 
Si 8.8966369714 12.7920321270 12.2518148457 
Si 9.2421804545 15.5948406826 14.5797305659 
Si 11.7617547776 13.1482292702 14.8193473173 
Si 9.5432033673 14.2753995406 18.1768943062 
H 10.6809132677 12.4429862938 15.6463119438 
Si 10.4757407158 15.6790762734 16.5710354979 
Si 11.0685664012 14.2753506706 19.9678566873 
H 11.7003577670 15.6267690829 19.7623658329 
Si 10.2628629939 14.4860944025 22.2251082654 
H 8.9528700519 14.5634719032 25.0960964511 
Si 8.1952710150 15.6972233336 22.4812878445 
Si 8.8557164910 15.7614873841 26.0542104303 
H 0.1917333018 14.2609177304 27.3238114769 
H 2.4481100924 4.8754993046 27.5224771519 
Si 10.0859535922 12.0063002598 28.2505355146 
Si 13.4273747128 16.0225183465 2.5923649455 
Si 13.7866995361 2.2072950202 0.0834928316 
Si 14.8482862658 3.9012106857 1.3342166676 
Si 14.8313120856 1.1228517913 4.0012320130 
Si 13.4793561033 2.5164303530 5.3731813319 
Si 14.8112428055 3.8377448451 6.8022326908 
Si 13.3684049123 16.1658214778 8.2630564365 
Si 14.8603245759 1.1325590024 9.5854643670 
Si 0.2487059483 1.7260884158 12.8586380172 
Si 0.0102990594 3.9283498259 12.0735658713 
Si 12.2479624120 3.5469846324 11.7139495214 
Si 15.4006313008 1.1948535919 14.8991313112 
Si 12.5607955749 1.9723280580 17.5082032368 
Si 0.0079783534 4.2629627190 15.9302041048 
Si 13.2485105112 2.1509804897 15.1142421383 
Si 14.0622937586 4.3709002600 15.0186896264 
Si 16.0268840666 1.8605460770 18.9986517915 
Si 13.5741964841 0.7213130616 21.6194912678 
Si 15.8184535147 4.1172649577 19.7638956145 
Si 13.9002082571 0.7069159595 19.1576608205 
Si 15.8991704654 0.5933257884 22.2870644199 
Si 12.5917791552 0.0731688163 25.4002876370 
Si 14.3033043108 3.5346205223 24.0099809390 
Si 12.9326962783 2.9605446271 22.1718012607 
Si 13.8186605164 2.1220331594 25.8696363973 
Si 10.9729115204 4.8248211141 27.5220358687 
Si 15.8138108646 0.9232439034 26.6677705246 
Si 13.4747786132 5.2934681284 2.6520558465 
Si 11.1284321518 10.3061455243 0.1995817788 
Si 14.8823975261 6.5840759702 4.0551862330 
Si 13.5619301140 7.9722120429 5.4222814373 
Si 13.5205860937 5.2436370180 8.2149271541 
Si 15.2009810590 6.3104528377 9.5916717500 
Si 14.1115547191 4.7409764834 12.6426446238 
Si 14.3212884710 6.9596907937 11.7859963507 
Si 15.5082593318 7.9600271228 13.6683043442 
H 13.3383987320 7.0164288642 17.7142236310 
H 15.5523563622 6.6977638813 17.8724089314 
H 14.6935638444 7.3844036775 14.8031080974 
Si 12.8431990175 5.6804533720 16.5753012350 
Si 12.9293894082 7.8793916221 19.0939689523 
Si 13.5433106439 4.2652433190 20.2469535713 
H 15.6259871629 6.8162410523 20.2561028420 
H 15.6083125127 7.4048964977 20.7689915399 
Si 12.8435248175 6.3695855383 20.8834015518 
Si 15.3398370203 5.6773419819 23.7067605759 
Si 13.3927747525 7.0249648242 23.0453065502 
Si 12.8679761077 3.3239256604 27.6343277214 
Si 15.8515710850 6.8957362531 27.7339106193 
Si 11.8928566988 6.6961348812 26.4904041164 
Si 14.7645067950 9.3907452559 1.4485119458 
Si 13.4771080833 10.7642691984 2.8629862512 
Si 14.8494102758 12.1830304714 4.0761913110 
Si 14.8098581554 9.3246730153 6.8661304911 
Si 13.5058925135 10.6391294173 8.3814674156 
Si 15.4452496113 11.4908194951 9.4675829277 
Si 12.2534358521 8.1451629745 11.6529641898 
Si 13.1879931606 11.6408666865 13.7711233185 
H 13.9692778578 2.0359567986 10.4314924256 
Si 15.9166659256 10.1855669432 14.3547349962 
Si 13.2195631809 11.2781046731 17.7950372855 
Si 14.5566463931 11.6519438866 15.6322203018 
Si 14.3573871113 9.7153072189 19.2069080203 
Si 14.5725943033 10.1485886428 21.5854536274 
Si 12.7765729169 9.3694216457 22.9533137225 
Si 12.2856086024 10.0893419123 25.1804992086 
H 15.4027490009 11.6260102063 24.4406732951 
H 15.3339889102 11.4159995244 23.7093494371 
Si 16.1018832273 8.8906259613 24.9677418916 
Si 14.8707827560 11.5975027061 27.8514096132 
Si 14.2856785307 9.7504284592 26.3584604540 
Si 11.6626464167 13.4920134334 27.3087784309 
Si 14.6815092443 14.8073006254 0.9083548910 
Si 13.4688816332 13.4093905526 5.5836439765 
Si 14.8201697255 14.7669340051 6.9655662947 
Si 15.9755542761 0.0159720031 11.3556864399 
Si 14.4780308524 15.3207940101 14.6181810379 
Si 14.3118565609 14.9698096669 12.3074459417 
Si 9.8660548802 10.2025411233 10.2522137905 
Si 15.9297956657 13.6179840045 15.1976152351 
Si 14.0365066884 14.7849996152 18.1943397001 
Si 12.7026000262 14.8686324760 16.1629368391 
Si 16.2337344885 14.5495765331 17.3154801750 
Si 13.0789153196 13.0502449194 19.4624403840 
Si 14.2732981305 12.4925241843 21.4917545048 
Si 12.2803795123 15.5338997921 23.0874049629 
Si 15.3248990902 14.0494898185 24.5952694926 
Si 13.3918462225 13.4801380233 23.4974452676 
H 13.7496723658 15.4294808911 25.7639049541 

