&CONTROL
  dt          = 30.D0,
  prefix = 'aSiHcSi_merged-12',
  pseudo_dir = './',
  outdir='./',
 wf_collect=.true.,
 verbosity ="high",
/

&SYSTEM
    ibrav= 0, nat=  398, ntyp= 2,
  ecutwfc     = 42.D0,
  nbnd=1478,
  degauss     = 0.05D0,
  occupations = "smearing",
  smearing    = "methfessel-paxton",
/
&ELECTRONS
  electron_maxstep=200,
  conv_thr    = 1.D-8,
  mixing_beta = 0.3D0,
  scf_must_converge=.false.,
/
&IONS
/
ATOMIC_SPECIES
Si  28.08  Si.pbe-hgh.UPF
H  1.00784  H.pbe-hgh.UPF

K_POINTS {automatic}
2 2 2 0 0 0

CELL_PARAMETERS angstrom
16.29000014898320 0.00000000000000 0.00000000000000
0.00000000000000 16.29000014898320 0.00000000000000
0.00000000000000 0.00000000000000 29.53925988841934

ATOMIC_POSITIONS angstrom
Si 0.5521414100 12.4532327039 28.7946046859 
Si 16.2803401789 2.4675114826 2.7785189097 
Si 2.7233296449 16.0573463669 2.9756373449 
Si 2.7481230251 2.2391256805 29.5144173709 
Si 1.4154446289 1.0402207655 1.5033031525 
Si 4.0104677167 3.7022283339 1.3720454511 
Si 1.3471699803 3.8132283949 4.1817844046 
Si 4.0760838373 1.1336439164 4.3363928909 
Si 0.0210642734 16.1366949576 5.7818374950 
Si 2.6571759543 2.4652960425 5.6781546928 
Si 1.3900420027 1.1615780086 7.2542514434 
Si 4.0504922470 3.8393412651 6.9884571829 
Si 16.2383934285 2.6360966941 8.4603394246 
Si 2.7587929752 16.0467741568 8.7048949573 
Si 0.9577949938 4.5193999013 9.6197258360 
Si 4.4004829002 0.9522954897 10.0492562140 
Si 3.6230752231 1.6095807057 12.3289781352 
Si 3.7353784842 3.9477023461 12.8214862153 
Si 1.9595566979 0.2771173375 13.4903732162 
H 7.8329814116 2.8772864363 10.2615253356 
Si 3.3490937106 3.9916527665 15.2888710545 
Si 3.2786720400 1.9872171182 16.6592268600 
Si 1.3608014524 0.9508603407 15.7287697128 
Si 3.0622105180 1.4854411306 19.0371668203 
H 3.9768125764 3.5892083128 21.4595929060 
Si 1.1453450235 2.0935908191 20.4659217426 
H 3.3545834407 3.5367870923 19.0840751650 
Si 0.7116009635 2.3485293215 23.0000062306 
Si 2.9282741368 2.1964947501 23.7772136975 
Si 3.6388928133 3.8429250651 25.3000511626 
H 3.6053679930 2.6702079544 22.5001133355 
Si 0.9447597356 3.2657214899 28.4409606665 
Si 2.0758672990 4.6193716322 26.8983318974 
Si 16.2384748785 5.0403866861 0.0990805855 
Si 16.2169394983 7.8629875919 2.7814492043 
Si 2.6722116244 5.1414987170 2.7181406625 
Si 2.4696454726 7.9209148324 29.3962307920 
Si 1.2835673037 6.5200725596 1.3758973706 
Si 4.0403924470 6.5676230701 4.0187867686 
Si 16.2867258590 5.1793403874 5.5418014691 
Si 2.7043680847 8.0008987332 5.3326930484 
Si 1.3731802236 6.6692889610 6.7257940840 
Si 4.1200342577 11.7178206472 9.8179933484 
Si 2.6606131443 5.3323197788 8.1468983380 
Si 4.1913518783 6.6254851506 9.3680808810 
Si 2.8076303957 7.4589304282 11.0602078445 
H 2.0571826688 6.9310041034 14.1405618656 
Si 0.9873027000 5.9539624745 13.6715374971 
Si 2.0250262085 5.2582328581 11.6947406861 
Si 1.0572959437 4.5000148012 15.5156734920 
Si 2.7094016948 6.8126572523 17.9548483380 
Si 0.8253361155 5.4249772996 17.6848299633 
Si 1.5219046669 7.2332813462 21.5738212239 
Si 3.3159598503 6.5673624301 20.2278648471 
Si 4.0416467770 4.3775302900 20.1696429659 
Si 0.1220249702 4.1943818184 19.6405062035 
Si 0.5824033433 7.9300698125 25.5352132105 
Si 2.2137947302 7.6760761302 23.8104453649 
Si 3.9751021264 6.0369111552 24.3421520429 
Si 0.2516609543 5.6421392916 25.8144773735 
Si 3.9702639963 9.3528058455 1.0894758450 
Si 13.0536658194 5.7388367325 27.1788071700 
Si 2.6431502642 10.7370811882 2.5638896013 
Si 1.4959628417 12.4906508342 1.4198576972 
Si 1.2821240097 9.3863469558 4.0212385271 
Si 3.9736034463 12.0459012502 4.0672311548 
Si 4.0618137971 9.3170167152 6.7932026751 
Si 16.2718367988 10.6587262875 5.5880894894 
Si 1.3405122573 11.9767176195 7.0680654883 
Si 1.4495493733 9.0067247924 9.7289324798 
Si 2.7320936650 10.4955493560 8.3527279009 
Si 2.7120243848 13.0719269096 11.1690600172 
Si 3.7937292647 8.7744782602 12.7926558977 
Si 2.4681630826 10.3704258648 13.9799569096 
Si 1.1822630508 11.7421253274 12.5621905920 
Si 1.1550685246 9.7882701295 15.8620803927 
Si 2.8016193856 9.1137012234 17.4482204916 
Si 0.2864433626 11.9253878291 16.3809965711 
Si 0.7481931908 9.1260164635 20.3417386940 
Si 4.0916733674 9.9359715609 21.3139348154 
Si 2.5959907137 10.2863531741 19.4801966401 
Si 3.0441774878 9.8553197701 23.4906533374 
Si 1.2484232574 11.4042707243 23.4436563749 
Si 14.6609023941 11.8143714781 28.0826789833 
Si 3.4470943515 6.1781780365 28.1873070418 
Si 4.1594886380 11.7434448174 27.2416667150 
H 2.7247957449 13.6280186446 1.1545626502 
Si 16.2490959586 13.4911500634 2.8960231316 
Si 1.1434293195 8.9585063919 27.7039561323 
Si 4.0621233072 14.8531243958 1.4678087778 
Si 1.3222169581 14.7579745050 4.3719876990 
Si 2.7010449247 13.3325994919 5.6588064776 
Si 4.0286473568 14.6885791043 7.1386052409 
Si 0.0050385133 13.3856071524 8.5114423442 
Si 1.3206514891 14.6690473942 10.1012157722 
Si 0.1713691726 15.6869443435 12.1347575014 
H 1.7197353157 13.6614945949 13.9184266313 
Si 2.9360933369 14.5288393629 14.1560404378 
Si 1.7242965158 13.5700425341 17.3620249313 
Si 0.4673340403 15.6899742835 17.3269322905 
Si 3.7475634043 13.5907308343 16.1460708372 
Si 2.0844032591 12.6036545653 19.4904763025 
H 2.3845628018 16.0581934469 21.6778880365 
Si 3.9997000266 13.5871959043 20.6444865686 
H 2.6255244840 0.0459485518 18.7397950910 
Si 3.1466741688 14.9581134468 22.4029587098 
H 1.1070912161 16.2350539785 25.2486823896 
H 1.6690245453 13.9747350078 25.1762225851 
Si 1.4708632095 13.7633070959 23.4929869389 
Si 1.7832174463 15.3358459703 26.2485863368 
Si 14.6072920036 15.0183701574 26.9490803458 
Si 4.0808242273 15.8108623746 26.2745218070 
Si 5.5025014103 -0.0036544661 0.0907150671 
Si 5.3984734694 2.4927121128 2.8760664076 
Si 8.1672685047 16.0982016872 2.7978907563 
Si 10.2043167333 1.0457137536 27.9316447475 
Si 6.8683201828 1.2771327537 1.5129093198 
Si 6.7766400620 3.9120109558 4.1487004335 
Si 5.4269972596 16.0574766869 5.7290803768 
Si 8.1136092442 2.5390734532 5.5835699826 
Si 6.7814130320 1.2249461092 7.0659091223 
Si 6.5164561796 16.2068234082 10.6841435268 
Si 5.3702591891 2.5617980034 8.5486322724 
Si 8.3039090259 16.0311520466 8.1756400378 
Si 6.5850533702 4.1351676678 9.9330487656 
Si 5.4300434897 1.0917949060 13.7502596247 
Si 7.1058120950 2.6972167747 13.3124877932 
Si 5.1886582675 0.7898320602 16.0649855688 
Si 7.1643583555 1.7890981364 16.8366987334 
Si 7.0256978743 2.3396024014 19.0972496749 
Si 5.2111710477 1.0214807493 20.0753536483 
Si 6.9103483832 2.9706607172 22.9214022601 
Si 7.5472710990 2.2755175408 26.1705731515 
Si 4.1427262279 0.1760085646 23.9443763693 
Si 5.8806411838 0.9245519905 22.4392624602 
Si 4.3626575199 1.2585181705 27.9951541563 
Si 6.2698255773 5.0158539459 27.5401609362 
Si 5.1645164872 5.2662638282 0.0532575132 
Si 5.2970845084 8.0246495534 2.6160175332 
Si 8.0433016036 5.2872779284 2.6568230668 
Si 8.0066816832 7.8533764918 29.2217128446 
Si 6.6354546307 6.6751044910 1.2575335563 
Si 5.3517374589 5.2120344177 5.4899305288 
Si 8.1362197644 7.9371722526 5.3914170971 
Si 6.7887435321 6.5366231998 6.7758631295 
Si 5.5399358307 8.0084572932 8.0869631797 
Si 8.0341303335 5.2637877481 8.3663750389 
Si 6.0457240453 4.5842503919 12.3862547601 
Si 6.8061901222 6.4598972991 13.8633654508 
Si 4.9048864649 7.6553226700 14.6673945657 
Si 6.1283306360 5.9306677742 17.5716355194 
Si 4.1561491880 5.9920973648 16.2789975067 
Si 7.7057402205 5.5032018803 15.8810150583 
Si 6.1353842061 7.9611674228 18.7789641496 
Si 6.9121077032 4.9552877253 21.6501802108 
Si 6.2377505670 4.4991514311 19.4452221564 
Si 5.1259417669 7.8778277820 20.9242233597 
Si 5.7749516628 6.6061977904 22.8734895805 
Si 7.2354479162 7.7292466907 24.3747043073 
Si 4.8944445748 6.6538949109 26.4226611954 
Si 5.4127435095 3.0009601174 26.7031660073 
Si 5.3273839087 10.7558472684 29.1839025920 
Si 8.0645926338 10.5853398368 2.5674992988 
Si 6.6582117609 12.0213196399 1.2500010450 
Si 6.7211726115 9.2891282350 4.0198797212 
Si 5.3601756790 10.6652422875 5.3726005885 
Si 6.6920623812 11.9641906094 6.7858473993 
Si 7.4197855579 8.8156919606 9.2886793504 
Si 8.1791439148 10.6834219277 8.0545290723 
Si 5.1844554474 10.3767952549 11.6313494344 
Si 5.6868390520 11.9670739394 13.2702171123 
Si 4.2800183491 11.4753602850 15.1021238535 
Si 4.7875658838 9.4862209468 16.2271265664 
H 6.8129178923 11.2961702833 16.0914822850 
H 5.9669618946 9.4917758368 17.2208272690 
Si 8.0507298436 11.9914600697 16.5670643692 
H 5.3842197192 12.0837755005 18.4016296438 
Si 7.5349558589 12.3217398227 20.6395830515 
Si 5.4153661995 11.8606024985 21.5160424316 
Si 8.2742775157 9.3516003855 23.1089174818 
Si 4.5430366915 10.4291350254 25.2368076072 
H 7.3097628969 10.4413036555 22.7317306723 
Si 5.9102726941 8.6841664994 26.0337472997 
Si 6.9859665639 9.5951195978 27.8935981808 
Si 5.4004119794 13.4070773726 2.7430304429 
Si 8.1303553644 13.4309910928 0.0627153935 
Si 6.7471551617 14.7624216750 4.1765854949 
Si 8.1060181041 13.3149085518 5.4364940076 
Si 5.4259709896 13.1999826007 8.3734349221 
Si 7.2493921563 14.3213047610 9.3827914324 
Si 6.1820061865 15.4244798611 12.8210726657 
Si 4.4804016410 13.8353088965 12.5904301245 
Si 5.5546782808 14.9065718863 16.9609999390 
H 5.8683096537 12.3352605228 17.8353324925 
Si 7.7841114112 14.2864604507 16.2366382080 
Si 5.4425542098 15.0624020278 19.3465905676 
Si 7.5306878789 14.5949767635 20.2626620953 
Si 7.6702931802 15.6758997234 22.3211349599 
Si 5.3813038092 12.1220895809 23.8626116979 
H 4.2350416587 13.1195100000 24.0208830524 
Si 7.0482106545 12.8878661979 25.2797576910 
Si 8.1944728049 0.2115077329 27.0935864052 
Si 6.8531541927 14.9210048265 28.3188158269 
Si 5.4058854194 13.8454901466 26.7833946371 
Si 9.2927120350 3.7823588446 1.3042528497 
Si 11.0917307814 16.0101542364 0.0413020886 
Si 10.8092295989 2.5515353033 2.6867699685 
Si 12.2912123624 1.1996395940 1.4034545462 
Si 9.4898536168 1.2113325561 4.1368551903 
Si 12.1213565309 3.9026930757 4.1267527635 
Si 9.4409021663 3.8758308654 7.0135950931 
Si 10.8654463894 16.0629175469 5.3824667013 
Si 12.2153987017 1.1098409682 6.7363986783 
Si 10.0738338321 0.6712229401 9.4692233069 
Si 10.9106837198 2.4256950522 8.1834384024 
Si 12.5433489847 3.3549906907 9.5815020337 
Si 8.0295039734 1.6951862855 11.3548028833 
Si 11.5592049157 3.3923273710 11.8002844617 
Si 10.2997435542 1.2915608068 11.7487679925 
Si 10.5368607964 2.8677404962 16.0470552381 
Si 8.2515692555 3.2627078398 15.3399444349 
Si 10.9170856898 0.4888987425 15.7713062470 
H 8.0930838440 0.5801781293 16.9044913349 
Si 10.4335821954 4.0690302672 18.1396754871 
Si 9.3170981652 2.6580556143 19.7490629836 
H 9.2990325550 3.3747993309 21.0777093541 
Si 10.6353827173 0.7688326210 20.3194365528 
H 8.8933463913 0.2867235506 22.1638088617 
Si 11.6303596364 0.6250668537 22.5791308557 
Si 8.7895953804 3.0038108675 24.3258463715 
Si 10.4400819055 1.3118988720 24.4835269407 
Si 12.5389669747 14.7664615950 28.1133702743 
Si 8.4689430175 5.9551842245 27.7181940556 
Si 11.8935734588 1.7396091159 26.3659458164 
Si 12.0390105801 3.6563231134 27.8038874485 
Si 10.2200202935 4.8398730743 28.8717907720 
Si 10.8736565494 7.9690354929 2.7061743083 
Si 12.7149804263 7.0433562344 1.5115032510 
Si 9.5090595270 6.5531738399 4.0449585528 
Si 10.7752160785 5.2150643577 5.5630401970 
Si 12.1724419713 6.5345543698 6.9456843346 
Si 9.0621433729 7.0903691748 9.4276615682 
Si 10.8190850489 8.0138004133 8.1946633212 
Si 9.8769528903 6.9770885138 11.6454692006 
Si 8.3118422560 8.0935888340 13.0455415016 
Si 10.0385659818 4.9617222754 12.7985932889 
Si 12.0135330199 8.0015503332 11.8857415406 
Si 11.7471426474 8.2591766855 14.2910643948 
Si 10.9873607505 6.0026207049 14.7650513589 
Si 9.7697646894 6.0299227451 16.8268326206 
Si 9.0002739523 5.9591264045 21.7469803654 
H 9.9020232006 5.5280441306 20.5921134608 
Si 12.1419470910 5.5627581209 23.3422185564 
Si 9.0627949729 6.6727261510 25.5306050860 
Si 9.8261443799 5.1523641471 23.8537203807 
Si 10.7807872586 8.2842632858 25.8126459394 
Si 11.7911582278 6.7143796814 28.9288310828 
Si 9.4037609660 9.1345035535 1.2053908547 
Si 10.7504552783 10.5326905563 29.4193304933 
Si 12.1355777010 11.8309221182 1.3494656409 
Si 12.2309393619 9.3067377251 4.1200473515 
Si 9.4236999262 11.9543677393 4.0106339328 
Si 9.5554371574 9.3428852354 6.7042304243 
Si 10.8872424096 10.7221432581 5.4086089463 
Si 12.1693957413 11.9601832694 6.9907021667 
Si 12.0146570299 9.2586333547 9.8049960740 
Si 8.9638983820 12.5075598544 9.4072204004 
Si 7.4151103278 9.6373921481 11.4523119802 
Si 8.0583046937 12.4434098338 13.2155399422 
Si 9.4525169364 11.3988298643 14.7806480881 
Si 9.7966106096 8.3487553964 17.3045119923 
Si 9.5924806177 9.0628764229 14.9179465681 
Si 8.2214979152 8.8858692813 18.9862115970 
H 8.6357689090 12.1534804112 21.6693511904 
Si 11.2840993932 8.5175686679 20.8196543797 
Si 9.0026034223 8.2517158655 21.1710829546 
Si 10.6893677778 11.7257212972 18.7842516771 
Si 11.4713855249 9.4886644468 18.6599209323 
Si 8.4033920569 11.2332908827 18.7716679524 
Si 11.3188948335 11.3947899442 23.7808174873 
Si 9.6940976387 10.1171489425 24.7910306362 
Si 8.2769979457 11.1473448420 26.4616825577 
Si 11.6794414068 8.9196221616 27.9257664348 
H 8.0872031540 2.5563245634 1.0398410266 
Si 9.5634355475 14.7462619949 1.3901234782 
Si 10.8666355594 13.2984556516 2.7257736072 
Si 12.2445252220 14.6384384839 4.1287614331 
Si 9.5513809474 14.6815581143 6.7186160438 
Si 10.8083010688 13.4212496727 8.2413944303 
Si 14.3309321511 1.6688453553 9.5559210346 
Si 9.0549106128 11.3423850137 11.4404667370 
Si 10.2498635737 15.9865011562 13.5703950713 
Si 8.1612249146 14.6990535744 13.8864356128 
Si 11.7771325377 14.2506061603 13.1598879766 
H 15.5145146919 9.4250682862 11.9341859268 
Si 11.5617624457 12.5168777345 14.7657012226 
Si 9.8792660704 15.0553973277 17.1174693987 
Si 11.3747532440 13.1849306406 16.9926364864 
Si 9.6566957983 15.1147743782 19.4770950178 
Si 11.0550782811 13.4220967528 20.4213174601 
Si 12.0653515103 14.8112753855 23.6694249382 
Si 9.5560561774 15.6045495227 25.4497561317 
Si 8.5219995479 14.1909195998 23.9172593287 
Si 10.4777606758 13.3358574920 22.7648441826 
Si 11.4734869349 14.3412111412 25.9913880010 
Si 13.5810382842 16.0741739370 2.8129085161 
Si 13.5088898735 2.6361781441 29.4484266643 
Si 14.8050037354 3.8511026452 1.4809773798 
Si 14.9984963572 1.0862090649 4.2048841059 
Si 13.5691954541 2.5062816829 5.4102336056 
Si 14.9129086964 3.8007991248 6.8603158735 
Si 13.4684255132 16.1559986078 8.2634011790 
Si 14.8557145059 1.0249554064 11.7263476942 
Si 15.4127184810 6.0324151152 9.3167711866 
H 13.0965736798 1.7955001064 14.0329503419 
H 12.4036948134 1.4393664942 14.0729464997 
Si 15.2766643997 2.8384022060 13.1233479121 
H 14.6264979138 6.3277691079 10.7504887045 
H 5.2841339583 5.5804164810 9.8259984878 
Si 16.0148783365 2.6019854338 15.3418054082 
Si 14.0760425187 2.7751481354 16.6640417594 
Si 13.0846168197 0.6435283109 16.7276102467 
Si 14.2852712806 3.4627653317 18.9486967369 
Si 14.2279956401 1.5039856668 20.1432348676 
Si 16.1419729176 0.2472805733 19.5621090078 
Si 12.5613331449 0.3766622704 19.0525863140 
Si 15.3590918005 0.8140047914 23.8417569804 
H 13.4117851827 3.3700589408 25.0236818471 
Si 13.6936347652 1.7499532660 22.4402372557 
Si 13.7099736354 3.8202493849 23.6024594360 
Si 14.3249863010 0.9347593045 26.1414474412 
Si 16.1553144278 16.2368132985 0.1217844607 
Si 13.5374299538 5.2705643882 2.8391571024 
Si 15.2613843796 8.4646098774 28.5688065833 
Si 14.9225197965 6.5412495598 4.2352800043 
Si 13.5282912637 7.9092837723 5.5622721762 
H 10.4937411660 13.1394163802 27.6660277226 
Si 13.5374951138 5.0889471765 8.2699588947 
Si 0.0210979937 7.8931729622 8.2174971691 
Si 15.5973330526 7.4878614685 13.2599669891 
Si 13.3334302819 4.2134248285 13.1836375415 
Si 13.7635025759 6.4196609987 12.2766345667 
Si 12.5322880746 4.2676379490 15.4703307280 
Si 15.3604275805 6.8527306527 17.2887971060 
Si 13.1930919307 5.9486193544 17.1543048557 
H 12.3405710629 7.1923934458 16.9615611850 
Si 12.4421066338 4.9120866449 19.1470528671 
Si 12.3274739027 6.3892475684 21.0746668104 
Si 16.1176682374 5.6518481317 21.5443410426 
Si 14.4601118522 7.2946294867 21.1845528571 
Si 15.9816956062 4.4797500410 23.6157225637 
Si 12.7427060065 7.0497093345 25.1635502426 
Si 15.2482220595 6.1452885262 27.8158213095 
Si 15.3419547203 1.7142130057 28.2128289624 
Si 14.5164263828 8.6732847793 1.3607023754 
Si 13.6308368147 10.5379359364 2.6542531512 
Si 14.9155639664 11.9682468195 4.1464554498 
Si 14.8734868960 9.2748256148 6.9521829718 
Si 13.4787207933 10.5408844264 8.4164440844 
Si 14.9567125068 11.8342941482 9.7217249004 
Si 0.0255477701 10.3884588950 11.0358674943 
Si 13.5780572142 11.2849138932 14.3248573081 
Si 15.7290539939 12.3855803333 14.1978975691 
H 14.1028884390 12.6635528958 10.6653270183 
H 0.0779263108 3.6181230631 12.4181571608 
H 13.2654846913 10.8202579290 12.9292454354 
Si 13.5188593536 9.3432599055 15.5975563204 
Si 13.7000367353 9.7695366293 17.9641532048 
Si 14.9293778865 11.8034083080 18.0867411334 
Si 15.5891228926 8.3113698460 15.4391668088 
Si 15.1499933586 8.2881077258 19.1313379808 
H 12.8133720272 11.1211179417 21.0915632670 
Si 16.0594966469 10.6849857677 21.7786464520 
Si 12.4116117535 10.1073423624 22.1415953383 
Si 14.4635490423 9.1843509540 22.7272111656 
Si 14.6003850435 8.6637877092 25.0739872066 
Si 12.3927642233 12.1532197711 25.7157276277 
Si 13.8342011765 9.7211227489 27.1802841330 
Si 0.1761242236 11.3047062434 25.5100162219 
Si 1.7731013562 11.2250807227 27.2882796671 
Si 9.4934862868 12.1278888209 28.2133606691 
Si 14.8416888157 14.7073126045 1.3941703568 
Si 13.5798328242 13.3308238819 5.6245409361 
Si 14.9190826064 14.7222994046 7.0774294337 
H 11.9074688289 13.6701771650 11.7530807244 
H 13.4969818834 14.6142641237 13.4391226003 
Si 15.1529744286 14.6271495138 13.9358252553 
Si 14.6861356043 15.2378616194 16.2562818159 
Si 13.5701891441 13.6450091148 17.6148809959 
Si 15.2946322699 14.5970944635 20.7040967951 
Si 13.0986913798 14.5035247026 19.7639212313 
Si 16.0646768669 12.4156028035 20.1367362304 
Si 15.7548736441 14.9069954263 22.9926804942 
Si 14.0257552883 13.5494845539 23.6650826670 
H 13.8435353466 12.4083700435 22.6735974089 
Si 14.6620101141 12.8666403277 25.8572797611 
Si 0.4185536348 14.7112384945 28.0320486919 
Si 13.4917690834 13.2037944608 0.0360331708 

