&CONTROL
  dt          = 30.D0,
  prefix = 'aSiHcSi_merged-8',
  pseudo_dir = './',
  outdir='./',
 wf_collect=.true.,
 verbosity ="high",
/

&SYSTEM
    ibrav= 0, nat=  398, ntyp= 2,
  ecutwfc     = 42.D0,
  nbnd=1478,
  degauss     = 0.05D0,
  occupations = "smearing",
  smearing    = "methfessel-paxton",
/
&ELECTRONS
  electron_maxstep=200,
  conv_thr    = 1.D-8,
  mixing_beta = 0.3D0,
  scf_must_converge=.false.,
/
&IONS
/
ATOMIC_SPECIES
Si  28.08  Si.pbe-hgh.UPF
H  1.00784  H.pbe-hgh.UPF

K_POINTS {automatic}
2 2 2 0 0 0

CELL_PARAMETERS angstrom
16.29000014898320 0.00000000000000 0.00000000000000
0.00000000000000 16.29000014898320 0.00000000000000
0.00000000000000 0.00000000000000 29.48209827789657

ATOMIC_POSITIONS angstrom
Si 15.2643002896 1.6333983149 28.0100571109 
Si 16.2729933888 2.5458175133 2.4021895748 
Si 2.7498986351 16.0775948370 2.4520821298 
Si 2.5119831830 2.5274749731 29.2530813385 
Si 1.2960845399 1.0141258143 1.0623520329 
Si 3.9637154163 3.9036216057 1.1116048263 
Si 1.3098886860 3.8880483656 3.8782226180 
Si 4.1413089979 1.1882479969 3.7568448194 
Si 16.2562798487 16.1709202479 5.2487569206 
Si 2.8020266356 2.5502483933 5.1296787257 
Si 1.3975109678 1.2744742257 6.4974122290 
Si 4.0495637170 3.9148779958 6.6143382307 
Si 0.3453480032 2.9190865767 7.8055329296 
Si 2.6946266646 0.0156837841 8.0068366966 
Si 15.9647377160 3.6121772130 11.6530941653 
Si 4.1695721481 1.3864777507 9.2489469792 
Si 1.5515084842 2.0604895388 11.8136241904 
Si 1.9817762581 1.7970639464 14.1055919927 
Si 3.2886741001 3.5684059826 14.9033186079 
Si 0.7181528016 2.7672963553 17.4899894645 
Si 0.0212333636 2.2086796702 15.2636782951 
Si 1.8409003368 1.0350307715 18.6597801599 
Si 3.3144448803 1.6556993251 22.0011632504 
H 2.0981683092 3.5355001823 20.0260985225 
Si 1.3450359903 0.8288205466 20.9669017607 
Si 0.0844486640 4.0030068966 22.4510600701 
Si 3.3806311509 0.4821660854 24.0067124678 
Si 1.7917696964 1.3297918082 25.5377473135 
Si 3.6581801735 4.2742842691 25.1791860342 
Si 3.6282228632 3.9136236658 22.7813774992 
H 1.4711140755 3.4846428019 22.8408134093 
Si 1.3997215208 3.6422159733 25.7780264145 
H 5.2668339782 5.3837635992 28.0875655473 
Si 0.7168658916 3.4334270414 28.0134180701 
Si 16.2307697084 5.3583186190 29.1496876198 
Si 0.0714217138 8.0309537834 2.5012789072 
Si 2.6726025844 5.2447447380 2.5668588866 
Si 3.2189040294 7.5011866886 29.4770568391 
Si 1.3727273616 6.5692846501 1.1274219720 
Si 4.0930417274 6.6842268911 3.8499492857 
Si 16.2642130787 5.3659097591 5.1769680113 
Si 2.7777056654 7.9848367930 5.3619681780 
Si 1.3505729614 6.5953160703 6.6760147803 
Si 0.1470411976 8.1264131843 8.0827825818 
Si 2.1994432401 4.7312839333 7.9341928064 
Si 3.4752434718 7.8507863818 9.8628821937 
Si 2.7726883454 5.6091846213 10.0860616777 
H 3.3489308106 6.5214083396 15.0350151409 
H 2.8326192559 6.3842465384 14.4582568523 
Si 0.7863769512 6.9162779433 13.2927705431 
Si 0.5565983541 5.7731597628 11.1593869476 
Si 2.3182462112 4.5085833412 16.8589546329 
Si 1.1778386868 6.6016691704 17.0577819037 
H 4.1331802878 7.5215980588 16.2879748356 
Si 0.6327964588 6.0188292550 21.3256988967 
Si 2.9916096574 6.0350052252 21.8545782577 
H 1.5274514120 3.8676369954 20.4387299700 
Si 3.4919244319 7.6673446901 23.6333511752 
Si 3.0623897080 8.0327619735 27.2026308853 
Si 0.7865479962 8.4112601269 26.6024932928 
Si 3.9992439066 9.3505741155 1.2784145384 
Si 16.1263508075 10.9424980901 29.3564750571 
Si 2.6241398340 10.6570158375 2.6748547608 
Si 1.3255808431 12.0821302105 1.2882674556 
Si 1.3317889622 9.3130745352 4.0513120170 
Si 4.0217241068 12.0562779803 4.0110394707 
Si 4.0645830972 9.4898536168 6.7029909003 
Si 0.0496799393 10.8164949389 5.3486422696 
Si 1.3383896702 12.2117497417 6.8058539412 
Si 1.6764039153 9.3793259658 9.4860714956 
Si 2.8022872756 10.9377577000 8.1362925901 
Si 4.1600262080 12.2859181124 9.6065353492 
Si 3.9633570362 8.8431080309 11.9960888967 
Si 1.9922344382 8.9262196116 13.3390279553 
Si 0.9815132340 10.2886500641 11.7218169364 
Si 2.4422619823 9.9127257307 15.5586172063 
Si 2.9574821070 8.1832489948 17.0211651377 
Si 0.8868438981 11.1617289121 16.9086024864 
Si 1.7644676561 11.9232538390 19.1210570696 
Si 0.0770530039 9.4923134068 21.2450063937 
H 1.5448556481 9.5223684571 20.8254466531 
Si 3.5051519121 10.6315871472 20.0926691005 
Si 1.8083366265 10.9029459697 23.8511943994 
Si 1.3684642685 8.5759031584 24.2859079385 
Si 3.6875836237 11.1672186421 22.4311596538 
Si 2.4874504427 11.6448903165 26.0837557736 
Si 4.0052549166 10.2458236537 27.2323488404 
Si 0.6213527337 10.6906872678 27.1590858262 
Si 16.2566056487 13.5173606736 2.5434058774 
Si 3.0514265379 12.9382837483 29.4599572221 
Si 4.1273647577 14.6173592237 1.1912536630 
Si 1.3799878146 14.8217009856 3.9140433674 
Si 2.7145167548 13.5007611635 5.3708717717 
Si 4.1162875576 14.8447513358 6.7438825706 
Si 0.0048174906 13.5098835636 8.2930783888 
Si 1.4213888500 15.0291867175 9.5331838886 
Si 5.0771043464 15.8119863846 10.2611853414 
Si 3.7229655040 12.3156147826 13.2945394690 
Si 3.9130209358 14.6243150537 13.0170834421 
Si 1.3811248566 12.2567101421 13.0747799085 
Si 3.3544042507 14.2701541605 10.6767944808 
Si 2.7519348852 15.9110458755 14.7085303845 
Si 1.1352761744 15.1954913290 17.9498217513 
Si 0.0431877226 12.6793541960 15.2354639271 
H 3.0975923983 13.8059868963 15.7577098160 
Si 0.7258644876 14.9814081470 15.6066140623 
Si 2.9921635174 13.8306988265 18.6077147744 
Si 1.0816022529 14.9148472064 22.0432636867 
Si 0.4325825830 13.0241157591 20.7853804816 
Si 2.7779663054 14.5461882130 23.7238612169 
Si 2.6265018840 14.0388850284 26.1444299319 
Si 0.3784834925 14.5244573528 26.8761166469 
Si 16.2691815288 15.9786167961 28.9767751134 
Si 5.7911927930 15.4029770609 29.1716812651 
Si 5.4697422200 2.5266604731 2.3247459991 
Si 8.0854112539 16.1712297579 2.4457287376 
Si 8.2135158151 2.3997613719 29.0477974882 
Si 6.7229319315 1.0739312918 0.8791355332 
Si 6.7782364820 3.9800868664 3.7491205096 
Si 5.4365431997 16.1844246580 5.2798900164 
Si 8.2013960550 2.7112750448 5.1720445009 
Si 6.8889107430 1.3076080860 6.5258034896 
Si 5.5943933012 2.6571759543 7.9232549480 
Si 8.3005532859 0.0837750725 7.9847251229 
Si 6.7943961621 4.0041471966 9.4757232791 
Si 5.8023351531 1.6726897953 12.9404005045 
Si 4.8378368242 4.5455942216 10.8997675901 
Si 3.9568247462 2.3907041319 11.3711568595 
Si 5.1483242271 2.1700397898 15.1509682334 
Si 4.4598599508 0.2372573362 16.3380944027 
Si 6.9094850132 2.7353027950 16.5442332338 
Si 5.5313021306 3.1576373389 18.4317361298 
Si 7.2402534662 1.1388941834 21.1003672196 
Si 4.9360492351 0.5293924248 20.6706656372 
Si 6.8933579130 3.3578251507 20.3731323014 
Si 4.1793298582 1.2097361361 18.5006357934 
Si 5.9081061240 4.1244651377 22.3760870942 
Si 5.3128695186 0.4037346217 25.3163072733 
H 6.8355121225 3.6841301437 23.4984116114 
Si 5.0806881465 2.5867379937 26.2712029545 
Si 7.3400785871 3.1392785087 26.8993780225 
Si 4.9099200749 5.7977087930 0.0363826782 
Si 5.5298360306 8.0950875140 2.5425951197 
Si 8.1482906545 5.3636454491 2.3486323951 
Si 8.2183702352 8.0790092839 28.8450490983 
Si 6.8285725825 6.8275951824 0.9782042280 
Si 5.4182006596 5.3251195987 5.2542995551 
Si 8.1447720145 8.0299926734 5.3409474419 
Si 6.6725306710 6.7405740016 6.7369247954 
H 0.9170227524 13.4528359830 12.2621058694 
Si 5.2465040580 8.1286937843 8.1826384486 
Si 8.0916666140 5.4775125501 8.1479969832 
Si 5.8244569733 7.7242293706 12.8865956752 
Si 7.8224417815 4.7945705838 13.7759821339 
Si 5.7233449423 5.4125317395 12.8891606177 
Si 6.6794050511 8.1961995450 15.0269075639 
Si 4.3861965701 5.1796010274 17.9428639761 
Si 6.1081473259 6.6561592209 16.8017003981 
Si 7.6690551401 4.9288979251 16.1849938663 
Si 4.3188699995 6.4317970488 19.9516562244 
Si 6.6305024706 6.7788717920 20.2394015036 
H 6.8091060323 7.2500926263 21.7398044491 
Si 7.6204946497 7.6084237596 23.4635048071 
Si 4.2565933289 6.6098467505 25.5854198664 
Si 6.6665359510 7.0868016648 25.5517218281 
H 6.0198066551 5.6167268914 22.4572218286 
Si 4.6286406423 11.1386948519 29.3677961829 
Si 8.0756046739 10.7090135179 2.3897953007 
Si 6.5635342800 12.0106659798 1.0607246211 
Si 6.8397638126 9.4219080262 3.9472107279 
Si 5.4802655601 10.7584536684 5.3342844877 
Si 6.8729465429 12.0887113706 6.7146363291 
Si 6.6098793305 9.5651948675 9.4001606612 
Si 8.2143628951 10.7715508285 8.1878272979 
Si 6.9438243335 11.0011746706 12.5737021661 
Si 4.7886084438 11.0688433312 11.5657092260 
Si 7.3280728570 8.9337130117 11.5265569995 
Si 6.5175638996 10.5416826364 14.9082421183 
Si 7.8326230316 11.6195593663 16.5415503629 
Si 4.3342803396 11.3051134934 15.3172177856 
Si 8.0164882633 10.3363146045 18.4876341881 
H 6.9548363736 9.8391600900 21.2331840723 
H 6.0938935757 11.5234483654 20.3804438617 
Si 7.4054666477 12.1604036612 19.9918992885 
Si 6.4896265494 8.3711215666 18.4864254221 
Si 4.1436873379 8.6030260087 19.0175159405 
H 4.6654560427 11.4344398046 19.5684184289 
Si 7.1790030657 9.7170665389 22.7208507514 
Si 5.7566579926 10.3356467145 25.7809156601 
Si 5.0084419958 9.6490069182 23.6212340328 
Si 7.5434266590 9.0455764427 26.6807092995 
Si 5.4261990496 13.3557150021 2.6508769702 
Si 7.5984054095 13.6565587249 29.2030502177 
Si 6.7785297020 14.8132627655 3.9145445630 
Si 8.1459774745 13.4726609132 5.2895011804 
Si 5.5753665810 13.4663566832 8.1034495327 
Si 6.9873837939 14.9504897267 9.2840011940 
Si 7.7231542306 14.8791232361 11.5202183484 
Si 6.0827349256 15.6176466828 13.0296133339 
Si 5.9402300043 14.7026210845 16.7924135371 
Si 4.1528423180 13.2101638508 16.6501034487 
Si 7.4324754680 15.1993520590 15.0430047895 
H 6.8383628725 12.7048969162 16.9389395656 
Si 6.6871428012 14.2756276006 19.1174897357 
Si 4.6037495221 14.5015861926 20.3322701132 
Si 4.4652030708 13.4237746228 22.4779477437 
Si 7.1998542658 15.6304343330 24.4400403483 
Si 6.3901923884 12.5737135450 25.6366302711 
Si 6.5967007203 13.5751738842 23.5011239645 
Si 4.3782633400 15.5467037322 27.1883615498 
Si 9.4760722767 3.9740432763 0.9092013770 
Si 3.3370716905 1.3622300855 27.4066175233 
Si 10.8060041788 2.6589515643 2.3986310856 
Si 12.2332851219 1.3332175952 1.0565941791 
Si 9.4909124668 1.2653306486 3.7962918669 
Si 12.1627005512 3.9973379766 3.8439349377 
Si 9.4771637067 4.0642410072 6.7065877163 
Si 10.8753995795 16.2185359183 5.2085728207 
Si 12.2710779222 1.2644151506 6.5666951599 
Si 8.0653256838 2.6490961142 12.8553446510 
Si 9.7329329990 1.3666560785 9.4567662899 
Si 10.9919219505 2.6650766044 7.9452780754 
Si 12.4227541136 3.9654421563 9.3231239384 
Si 8.7636617001 3.1752305390 10.6680382977 
Si 9.7022915087 1.3814555436 14.0573003157 
Si 12.0792305905 1.9040566674 14.1782948470 
Si 8.4773323675 0.8869660731 16.0461921476 
Si 9.7483270492 0.2148927950 17.9889444957 
H 8.9133830915 2.6272838040 18.2072889156 
H 8.5217063279 3.0783050382 18.7471650992 
H 9.7556412592 2.7443111651 21.4966950667 
Si 11.2290066127 2.7847266555 21.1313529049 
Si 11.3083552034 1.9574064179 18.8065125631 
Si 12.2319493419 1.3103839020 22.6453470977 
Si 8.8083614606 2.4229909122 25.1128513131 
Si 8.3670979365 0.9377876156 23.2453667619 
Si 10.9097388998 1.9525845779 26.1919255922 
Si 10.9471244501 5.2268908978 28.9532483990 
Si 10.8460612892 8.0198440033 2.3757175988 
Si 12.2299945419 6.6772384811 0.9189835372 
Si 9.4989597269 6.6896677512 3.8475612358 
Si 10.8765887495 5.3686138991 5.2933928174 
Si 12.3303572328 6.6964443912 6.6707669668 
Si 10.7098768879 4.7743221137 10.7103156266 
Si 9.7227028789 6.6047968504 9.5252532042 
Si 10.9760229104 8.0102329033 8.0848168466 
Si 9.3626287156 7.8539466418 11.5131131627 
Si 9.5060947469 6.3714751783 13.3613753858 
Si 11.6533122466 5.5802535810 12.8100601480 
Si 9.0548291628 7.9214198224 15.0716024248 
Si 11.0076906707 3.8232630350 17.4763097709 
Si 9.3285989053 5.3772313092 17.8630264540 
Si 10.1212051526 7.4974725686 17.1352313759 
H 11.4553235848 6.0784669456 19.0011238938 
Si 11.7608751176 4.9894152756 21.9042850754 
H 9.5115681870 7.8040015014 20.8704952993 
Si 8.3536749764 5.1934312375 20.1348285010 
Si 9.5597702974 5.6764949019 22.2448917568 
Si 10.9689204703 7.3882806976 25.6160222844 
H 10.7605550784 4.7510111235 24.9242838125 
Si 9.3234838453 4.5880459620 24.4167789728 
Si 9.9663361211 7.6948096304 23.4966721676 
Si 8.0635012037 5.3500270089 26.2793400136 
Si 9.6314462981 6.5768757902 27.5456256167 
Si 9.4614764365 9.3721420757 0.9615822210 
Si 10.9729115204 10.8289404990 29.3986934219 
Si 12.1864676615 12.2002978716 1.3427975446 
Si 12.1773452614 9.3779738958 3.8628919269 
Si 9.4112869461 12.0354919401 3.8945262183 
Si 9.5323053572 9.3605924656 6.7639598795 
Si 10.8198832590 10.7187712280 5.2958103495 
Si 12.1424032111 12.1557610112 6.6711797162 
Si 12.4170851936 9.4234718662 9.3102402615 
Si 9.5292917072 12.1105399708 9.7263800787 
Si 11.0529931611 9.3641599756 12.3015234348 
H 9.0804859130 10.9250189199 14.0274349501 
Si 10.1241536426 9.8885839504 14.3817508072 
Si 11.2502487729 10.7098443079 16.3098505525 
Si 10.2661535739 9.5818758276 18.2747734385 
Si 11.5615018057 9.8442588600 20.3248111423 
H 9.0500073228 8.4029848069 20.6760313791 
Si 9.0447619427 10.9963691206 23.4463167438 
Si 9.2027097842 10.7051853679 25.8858424479 
Si 10.8799933595 9.7706443494 22.6244442901 
Si 11.4713366549 9.6717640485 26.0029158601 
Si 12.6705738859 9.9685841412 28.0481184998 
Si 9.2592849547 14.6359949839 1.1268647604 
Si 10.7084433679 13.4784764433 2.5884810574 
Si 12.1966814915 14.8449956858 3.8405444964 
Si 9.5229223171 14.8706035660 6.6202051683 
Si 11.1718938722 0.0472432810 10.8952273470 
Si 11.4356778446 11.0798227913 10.6545944608 
Si 10.7408115982 13.5021621035 8.1043929598 
Si 12.1944986315 14.8758652360 9.3344155821 
H 11.4154945344 12.5668717449 13.7165462238 
Si 9.1955258941 13.8063289863 14.0799425672 
Si 15.2378941994 1.4281329101 9.1456711889 
Si 9.6930224986 15.7123567437 12.6649787424 
Si 8.4692199475 12.7071612262 11.9676681539 
Si 9.8972828105 12.7308305964 16.1516790953 
Si 10.8451327592 14.4085540018 17.5862190333 
Si 9.9013716006 14.6027308036 21.3486064871 
Si 8.4094193569 15.7902066544 19.8382975565 
Si 11.6906977969 14.0488382185 19.8039803941 
Si 8.4192910970 12.8466687875 22.0799983812 
H 11.2836921432 13.3815346524 25.5320867506 
H 10.9082565098 12.7146546263 25.3433128754 
Si 10.8217566090 15.8806813152 25.5089433035 
Si 10.4483898056 16.1435856276 23.1121666419 
Si 8.7783389903 14.9052523963 26.0173620883 
Si 8.3032085559 12.8319589174 26.9831956279 
H 10.2896274641 11.7339477473 28.4071514926 
H 9.3068517551 1.3960171748 28.6819246485 
Si 13.5539154340 16.2058134282 2.4331988458 
Si 13.5885805543 2.7141583748 29.2040820911 
Si 14.8871053362 4.0636056972 1.1273069919 
Si 14.9053338463 1.2657672206 3.8512759801 
Si 13.5861533443 2.6753881745 5.2234023161 
Si 14.9529169368 4.0617649271 6.6121565555 
Si 0.2500726793 0.3370384741 10.8009730788 
Si 13.6750967451 16.2582672287 7.9978151745 
Si 12.9423399584 1.2179316351 12.0452060724 
Si 15.2311338493 3.7567509644 13.8672292281 
Si 12.9286563582 4.1419443079 14.3446918097 
Si 13.9849325479 2.7486280151 10.5883187039 
Si 14.8725420760 16.1943778481 12.4837817664 
Si 15.3377030303 0.1717829386 14.8122778884 
Si 13.4494476630 1.1709219527 18.2053725792 
Si 13.2593922313 0.5568752841 15.8452716478 
Si 15.0798323279 2.8192288758 18.8943986980 
Si 14.1905123498 0.4722878293 21.7357359196 
Si 15.6853967935 2.1869488100 21.1068237991 
Si 12.8000142271 2.2150164803 24.7783179440 
Si 14.1785391997 0.7800792371 26.0610545579 
Si 13.4979592834 5.3857998493 2.4645058860 
Si 13.7050051853 8.1188872043 29.1296987572 
Si 14.9123874164 6.7113660314 3.8007436637 
Si 13.6088616045 8.0644623138 5.2332198548 
Si 13.7786196960 5.4797768601 8.1409212796 
Si 15.2347665193 6.8266666524 9.6209815773 
Si 13.9673556377 8.4670370874 10.8318408357 
H 16.0447216167 5.0233473459 14.0268453082 
Si 12.7483423466 7.7219813506 12.6972321579 
Si 15.8073600246 6.9518553036 15.3137683801 
H 13.0550341794 7.9165165324 17.7955419310 
Si 12.4001273034 7.1863661457 16.6186460499 
Si 12.9074630680 4.9036321348 16.6454452772 
H 15.1268452683 5.6749310619 15.7919974963 
Si 14.2776964306 5.0029685558 18.6162351008 
Si 13.2265027210 8.1784108648 20.6639732009 
Si 12.6163281854 6.0148382050 19.9897765775 
Si 16.1065095873 6.5144362196 19.0242673410 
Si 13.7520018358 7.9284896825 23.0390215560 
Si 12.5358555846 6.0804706156 24.0734599383 
Si 15.8065781046 4.5332301115 24.6630724218 
H 16.0414473267 6.0224945051 24.6370986932 
Si 13.5479695839 4.3508798498 25.4328794899 
Si 16.1007592173 7.7189514106 22.7487997806 
Si 15.3112317800 7.0460929544 27.7072464795 
Si 12.2206603718 3.7331630441 27.5558853869 
H 14.4986214126 6.4237172087 26.5832709647 
Si 14.9694675769 9.3788698458 1.1753922941 
Si 13.6036325144 10.7478814583 2.5716379347 
Si 14.9368387066 12.1294363709 3.9462673008 
Si 15.0025362772 9.3914620159 6.6322338644 
Si 13.6469313348 10.7923531587 7.9056836174 
Si 14.8793350061 11.9638485194 9.5486030260 
Si 14.9682621169 10.5687729067 11.6119666382 
Si 14.4666441423 11.6365824164 13.9586532148 
Si 13.6897414552 8.0576856737 14.8581815154 
Si 15.1279366984 10.1463732028 17.5282572280 
Si 13.5915453343 10.2309834636 15.6899599541 
Si 15.1607610487 8.6694077593 19.4014907884 
H 13.5291872137 12.1717415013 21.3960431832 
Si 12.6951880761 11.9344124891 20.1459727341 
Si 14.3310950511 12.0354267801 18.5447410125 
Si 16.1554284578 11.4757023750 22.5300426114 
Si 14.4433983121 11.7561510175 24.2084584663 
Si 12.8271207873 9.9261161108 24.0408527376 
Si 14.2083661899 11.8357602482 28.2334429695 
Si 15.4568480914 12.3503939330 26.3261870677 
Si 13.2746396714 13.6302992447 29.3628137083 
Si 14.9023201963 14.8220430756 1.0558364892 
Si 13.5415187438 13.4996860235 5.2933338532 
Si 14.9706730369 14.7853254152 6.7122777612 
Si 13.0219654791 13.0031831089 10.5022014948 
Si 12.7210891763 13.2104244908 14.1402924223 
Si 13.6194826846 14.2585719704 12.3465425989 
Si 12.6410889856 14.6016556635 16.0674192584 
Si 14.6011343835 13.5882873343 16.8739315389 
Si 15.4939404217 14.2314979902 19.0946705916 
Si 13.6407085548 15.5945474626 19.7285946688 
Si 13.6315209947 13.9263048374 23.9659387259 
Si 12.9601937985 15.0255051774 25.9528552572 
Si 16.1669617779 16.2054876282 25.2711112167 
Si 15.3669110005 15.3585053605 23.2061555712 
H 12.4709888041 13.7559277258 23.0139617725 
H 11.4349122146 0.5952333474 0.0170713437 

