&CONTROL
  dt          = 30.D0,
  prefix = 'aSiHcSi_merged-4',
  pseudo_dir = './',
  outdir='./',
 wf_collect=.true.,
 verbosity ="high",
/

&SYSTEM
    ibrav= 0, nat=  398, ntyp= 2,
  ecutwfc     = 42.D0,
  nbnd=1478,
  degauss     = 0.05D0,
  occupations = "smearing",
  smearing    = "methfessel-paxton",
/
&ELECTRONS
  electron_maxstep=200,
  conv_thr    = 1.D-8,
  mixing_beta = 0.3D0,
  scf_must_converge=.false.,
/
&IONS
/
ATOMIC_SPECIES
Si  28.08  Si.pbe-hgh.UPF
H  1.00784  H.pbe-hgh.UPF

K_POINTS {automatic}
2 2 2 0 0 0

CELL_PARAMETERS angstrom
16.29000014898320 0.00000000000000 0.00000000000000
0.00000000000000 16.29000014898320 0.00000000000000
0.00000000000000 0.00000000000000 29.47279668781150

ATOMIC_POSITIONS angstrom
Si 15.9523410259 16.1161206874 0.1355091404 
Si 16.1695193079 2.6840870345 2.7280610070 
Si 2.4717468826 16.2222337484 2.9215292863 
Si 1.5666158303 2.4705577126 27.5752201459 
Si 1.1515417395 1.1629952386 1.4293628519 
Si 3.8114527849 3.8417521851 1.3255272419 
Si 1.2317341523 4.0381444269 4.1602326165 
Si 3.9756234064 1.3354151162 4.1024659350 
Si 16.0583726369 16.2769029889 5.5947915225 
Si 2.6433783242 2.6802263045 5.5161875737 
Si 1.2521194585 1.3172208150 6.8721720037 
Si 3.9881015465 4.0461428170 6.9209789550 
Si 16.2398758185 2.7396033551 8.1761369476 
Si 2.5841804636 16.2755997889 8.3231177846 
Si 1.2865206808 3.8507768452 9.8056878764 
Si 6.5840108102 14.8890927162 9.6900955678 
Si 2.8961828365 2.6108471939 11.1248018378 
Si 4.0731027673 1.3267341751 9.5543143935 
Si 2.3149556312 0.7942010383 12.6043362315 
Si 2.1457513996 1.4301121451 14.8878885189 
Si 3.8541162952 3.5314928423 18.0183121463 
Si 0.0683935656 2.4455525624 15.1575646086 
Si 3.5784406227 3.1566599389 15.6974767711 
Si 1.5469472841 3.6374104233 18.6197045627 
H 2.1870465500 16.2774242689 20.4299826809 
H 3.3120665403 2.7215540349 21.2895862691 
H 0.1467823495 1.3103057100 20.9061451841 
Si 1.0025077862 4.0935467174 20.9532132405 
Si 0.9818927910 2.6069213038 22.8344029074 
Si 1.9540343879 3.8400091551 24.5236362496 
H 1.9310491977 1.4922845596 22.5180419078 
Si 2.9252441968 2.0476041487 25.7241811499 
Si 15.9904107562 5.5290378206 0.0148372248 
Si 16.1290060775 8.1553279346 2.7986896170 
Si 2.5604622234 5.3468341689 2.7278812230 
Si 5.1936430075 5.0519200062 29.3572633248 
Si 1.1430725685 6.7528566618 1.4392745535 
Si 3.9233487959 6.7663447819 4.1207390689 
Si 16.2167765983 5.4844032202 5.5328102310 
Si 2.5791142736 8.1153034042 5.6015407929 
Si 1.2507038574 6.7899327021 7.0730291131 
Si 16.2070025982 8.1391845444 8.5838046713 
Si 2.5949807337 5.3046593585 8.3884589749 
Si 4.1466195379 6.6052366804 9.6346277644 
H 1.1130908232 7.0053516641 12.9880425716 
Si 1.6969130255 5.9833333447 13.9474999950 
Si 16.2666402888 4.4040015403 13.6271896406 
H 3.2812295700 7.4258128579 10.5645239727 
Si 1.1909863459 7.1722915856 15.8705115605 
Si 1.0007077412 5.8761451437 17.9378219385 
H 2.8230407358 4.4354575306 15.3226122700 
H 2.3260165413 6.4272032688 18.4636461042 
Si 2.3894009319 5.9854184647 21.7722327876 
Si 3.8047413048 7.1464882254 20.1842974477 
Si 1.0398509825 7.6756525902 22.6494905810 
Si 3.4161922212 5.5824690211 23.9123999191 
H 0.7278111427 7.6909000303 25.7593421963 
Si 3.3752717409 7.3690259174 25.5580135222 
Si 0.8998009642 4.7789158937 27.5814094332 
Si 2.4161816921 8.0355964335 29.4234002806 
H 0.9706950449 9.3708714557 26.9599460422 
H 4.0248843668 5.8244732633 28.4123359902 
Si 3.8905570256 9.4305417262 1.2295608686 
Si 1.4253896740 9.7877488495 28.3252438760 
Si 2.6091856139 10.7513023583 2.7804547977 
Si 1.2834646767 12.2064880716 1.5288895391 
Si 1.2077406110 9.4699635266 4.2121931570 
Si 3.9389871960 12.1740872613 4.1018470062 
Si 3.8753258754 9.5543294374 6.9978145360 
Si 16.1017203273 10.7872706787 5.6121804725 
Si 1.1661001127 12.2440853920 6.8607660314 
Si 0.8009744203 10.0699731021 9.8438846209 
Si 2.4425063323 10.9940233605 8.3597819437 
Si 3.2770430400 12.8857484978 9.5954289449 
Si 3.6932036738 11.9049927489 11.6986666621 
Si 3.7368771642 8.7344537299 13.4992777029 
Si 0.4552159092 10.4381759755 13.7386262848 
Si 2.1002045592 10.0758537922 12.0547864645 
Si 3.2783951100 8.4198286670 15.8658253858 
H 0.5899456134 8.2549575755 17.8403553999 
Si 3.4467522615 10.2467033137 17.3696748368 
Si 1.9698193980 12.0218083399 16.9879431741 
H 1.3581510694 10.9482973301 14.8616282570 
Si 0.7004846674 9.3209263152 18.9573743943 
Si 2.9394164969 9.3469577355 19.4988780879 
Si 2.7455980751 11.3191066035 20.8471995908 
Si 0.8982517852 11.5528192357 22.3982939349 
Si 3.3234695404 11.9902871897 25.7972736857 
Si 1.3090155420 10.9894458705 24.8297407160 
Si 2.4533228924 9.0053564324 24.0718772220 
Si 15.4806966516 11.2551194829 26.3089803818 
Si 11.9203053490 10.3331869245 26.3114266239 
H 14.9611270968 6.5341796998 28.9825461877 
Si 16.1256340475 13.5186801636 2.8829788682 
Si 2.4644163825 13.5816410142 29.4730914158 
Si 3.7653520844 14.9323100866 1.4710992793 
Si 1.1322608954 14.8929697362 4.2786543136 
Si 2.5878620037 13.5355240238 5.5101456504 
Si 3.9202536959 14.9702169169 6.8400761281 
Si 16.1692912479 13.5847361142 8.3410961906 
Si 1.5104625708 14.6457364039 9.7400814310 
Si 0.5860115784 15.5451561822 11.9961650719 
Si 0.2688974035 14.1612392195 14.0253965966 
Si 4.0024041666 13.5363222338 13.5122457335 
Si 2.2684639707 13.6865486152 15.2088472748 
Si 0.4416740320 16.0279592066 17.6230819427 
Si 2.3840252318 15.8259957847 16.3034669438 
Si 2.3114207011 13.0092104090 19.1467960587 
Si 0.3693871564 14.3218097510 19.5579415725 
Si 3.4708125917 15.9015162254 21.1237723149 
Si 4.1048031075 14.5091936227 19.2711712607 
Si 3.9915713165 13.2735808214 23.9152587804 
Si 2.4236588022 16.0571997569 25.1227297879 
Si 0.5846953463 13.8929103371 22.2017103809 
Si 2.5707900835 14.8995671863 23.0510574359 
Si 0.4081573567 15.3058723700 26.0172291674 
Si 4.1199528077 12.7441232366 27.9973295400 
Si 0.6045772915 14.4191262119 28.2381222890 
H 3.5200898422 15.3605579005 25.9303728355 
Si 5.5962340712 14.8215869556 28.1499986269 
Si 5.3360501888 2.6888925846 2.7009430868 
Si 7.9719676929 16.2837284989 2.5109968067 
Si 7.9274634125 2.7264736149 29.0062717890 
Si 6.6190017305 1.4043625418 1.1441634402 
Si 6.6574624209 4.0355868969 4.1394837676 
Si 5.3412466988 16.2529566886 5.4536168263 
Si 8.0448817336 2.6502527042 5.4925798635 
Si 6.7409486717 1.2481609884 6.8930976893 
Si 5.4284144896 2.6592773643 8.2260638651 
Si 8.0942730140 16.2274954184 8.3823875788 
Si 6.9281696434 3.7723893645 9.7016194313 
Si 8.3848703267 2.5197372230 11.2914410303 
Si 8.0088156732 0.7923798162 13.0018063676 
Si 5.8229420033 0.5738234002 13.8821588047 
Si 5.4278443396 2.9190214167 14.2545475909 
Si 4.4258953005 4.0229621468 12.3822292357 
Si 8.1131368342 16.1971471481 16.9446476357 
Si 4.9590507154 1.6200763528 18.8976330355 
Si 4.4714095609 1.7328487658 21.3047352865 
H 5.3577810490 4.0011335466 20.9857217352 
Si 7.9203121024 2.8794855863 20.1793165450 
Si 7.2324831361 1.0426789265 18.8691917867 
Si 7.7894056612 2.4017650420 22.5475441773 
Si 5.6591134718 2.6142192239 23.4492643919 
Si 5.2898517484 1.9935213482 25.8527709618 
Si 6.1737471565 3.6759036936 27.6279764519 
Si 2.8866857664 1.9778340781 0.0705345918 
Si 5.2621913281 8.0837659639 2.6460942121 
Si 7.9777506430 5.3359035788 2.6515496268 
Si 7.8682003920 8.0248287434 29.4531383324 
Si 6.5160000596 6.5838153302 1.2603569939 
Si 5.3217801487 5.4402410298 5.5290082402 
Si 8.0079360132 8.0847759439 5.4562399052 
Si 6.7110565214 6.7615881018 6.9554915999 
Si 5.3046593585 8.1546437546 8.2955901925 
Si 8.1172744942 5.3297785387 8.3277155409 
Si 7.6184258197 6.5017463095 11.9157927553 
Si 4.0436993170 6.2039162367 13.4001017421 
Si 7.4048964977 8.1027438141 13.6493531837 
Si 5.7181810123 5.3703732191 10.9575142438 
Si 7.3052016968 4.3346712996 14.8192758482 
Si 5.0975320066 7.1567997955 16.7639499192 
Si 6.0666566955 6.3857452184 14.7555556618 
Si 4.9285395451 5.6453647116 18.5899075652 
H 5.6488670617 4.7242955232 21.0432231615 
Si 7.2170890860 4.9085028449 19.0879388837 
Si 5.6900481820 4.9593439354 23.8760894336 
Si 6.4494228290 8.3964850968 24.2780983804 
Si 6.8755692329 6.6090485404 22.5478683780 
Si 6.5771853002 5.4265248496 26.0746127025 
Si 5.6311924115 7.6263101797 26.3265461686 
Si 5.1696478373 10.8763606895 29.2468287556 
Si 7.9704201429 10.8674663494 2.7005393095 
Si 6.5862425402 12.1579112912 1.2105096528 
Si 6.6175519205 9.4529567665 4.0754099076 
Si 5.2456243980 10.8108585989 5.5023943048 
Si 6.5430251698 12.2539734221 6.8334742216 
Si 6.6543347409 9.5537755774 9.6395202487 
Si 7.9291249925 10.8497591192 8.1069937665 
Si 5.9053694040 11.0575869411 11.3860487076 
Si 5.8526875435 9.8855703004 13.5440468811 
Si 6.3889054784 11.2127491925 15.5946461835 
H 5.9829586747 8.2747336357 17.3157396188 
Si 5.5722714810 11.0960476315 17.9089385978 
Si 6.6214941006 9.8838109804 19.7910419215 
Si 5.5670261009 8.2278184352 21.2913251641 
Si 6.8870536830 11.4798889050 21.5712872598 
Si 4.6106076122 9.5492795373 23.1686538947 
Si 5.3015316785 10.7210355381 25.3158650246 
Si 4.6255618323 11.7035343170 22.2471279606 
Si 6.4793964293 9.2862286149 27.9627284767 
Si 9.5460541173 7.1415849353 28.0086470940 
Si 5.2615071481 13.5155199036 2.6580807986 
Si 7.5510992491 13.7474080557 29.1782455577 
Si 6.6504414308 14.9233668765 3.9792696448 
Si 7.9669177929 13.5932883643 5.4496969444 
Si 5.1815069574 13.6435267248 8.2879862110 
Si 7.3686349574 12.9918289788 10.8693316361 
Si 9.1641839338 15.1408220885 12.3707053722 
Si 8.0251056734 13.2301516810 13.0743683931 
Si 4.2225635186 15.7123730337 12.5457148389 
Si 6.1338692361 13.3713045323 14.6024444830 
Si 4.3767646600 16.0199933965 17.4942268756 
H 6.8249724924 14.0644766186 17.7908705742 
Si 6.1103464759 15.4850460816 15.8549204510 
Si 6.0077683449 13.2898056615 18.8150207863 
H 5.6550409717 16.0535019268 21.7993182878 
H 7.3394106971 16.1206655974 19.7889788257 
Si 7.3637153773 13.5631844440 20.6882527982 
Si 6.8243697624 15.1953121390 22.3728883841 
Si 5.9653003146 14.3911074116 24.4055976989 
Si 7.0024683340 12.4328050437 25.1994180049 
Si 4.7615018835 0.2836626596 0.1164720716 
Si 6.1079844259 16.0196350165 26.1301394515 
Si 9.2799732549 4.0829582173 1.0952916487 
Si 10.6800010277 0.1999858158 29.1195357467 
Si 10.6292413872 2.7688764853 2.6013456649 
Si 11.9673019994 1.3807795086 1.2692577785 
Si 9.3142637052 1.3356008222 3.9759392188 
Si 12.0496805302 4.0920154574 3.9984564354 
Si 9.4281959662 4.0061345766 6.8907103928 
Si 10.6496201774 16.2861231289 5.4360510395 
Si 12.0479049202 1.4258164720 6.7398096738 
Si 9.7685429393 1.0924253290 9.7178589423 
Si 10.8200787390 2.7040585747 8.3140991089 
Si 12.3041303325 4.0387145769 9.6734434377 
Si 9.1345687135 1.0857936699 15.1280328663 
H 10.1473017328 1.8755328772 17.5804642787 
Si 10.4343966954 3.3486375906 17.8207559901 
H 9.1260001735 2.5744064635 15.4146558141 
Si 11.3835498441 0.3304263630 15.2017738036 
Si 10.2076724734 3.2159066694 20.1580077130 
Si 10.9412926301 1.0270128334 20.4941744320 
H 9.8994982505 0.3210156299 19.6169755842 
Si 9.6582922183 3.4416697815 23.5226221829 
H 11.9568112394 1.3703620535 24.9293882416 
Si 8.4871552376 0.2991120957 23.3140432007 
H 10.6843015877 2.3563811016 23.2565123016 
Si 10.0833146122 3.7894612847 25.8570150446 
Si 14.3303782911 0.8415886487 28.1845112718 
Si 9.4537875565 1.7104500156 27.4219616031 
Si 8.3995801968 0.1944928278 25.7937664229 
Si 10.7466108383 5.5906140211 29.3709092297 
Si 10.7292619881 8.0687628738 2.8273578063 
Si 12.1369786410 6.8963389831 1.2992257182 
Si 9.3419404154 6.6712274710 4.1069752729 
Si 10.7485167683 5.3758140792 5.4939650850 
Si 12.1286544509 6.7568640018 6.8502737158 
Si 9.5764675476 6.7320217516 9.6064517708 
Si 10.7984619088 8.1643037247 8.1840356571 
Si 11.4127089444 5.8866033238 10.9410389504 
Si 8.6875873995 4.4790332810 12.7943178790 
Si 10.9269574299 5.1255833869 13.1424800262 
Si 8.4218649170 4.4736738709 17.0361017239 
Si 11.1986257624 6.5041246495 15.1609245074 
Si 9.3518284455 6.5623451100 16.6177353749 
H 8.1460915045 7.3057718468 16.0500598379 
Si 9.7079604288 7.6009303595 18.6762333867 
Si 10.1136791725 4.9674400654 21.7741190466 
Si 8.5681328284 6.3370055380 20.5182537069 
H 12.4053401035 5.3799354492 19.3483899880 
Si 12.0397436301 6.1808658865 22.4688223373 
Si 12.1836332014 6.8186519724 24.7384339919 
Si 8.8672335211 7.1755821656 23.9367149764 
Si 8.8850547813 5.8827588838 26.0368285771 
Si 10.3417717546 9.4402016963 27.7568315191 
Si 9.2855607249 9.3353592554 1.4591392184 
Si 11.2247223427 10.1421052228 0.3228833296 
Si 12.0671759904 12.1675386813 1.2617834772 
Si 12.0745879404 9.5285749471 4.1659798118 
Si 9.3530664855 12.2539245521 4.0525979630 
Si 9.3655609157 9.4873775368 6.8036182786 
Si 10.7272257381 10.9375459300 5.5269156717 
Si 12.0734802204 12.2164249717 7.0729996403 
Si 12.0626636603 9.3677926457 9.8160917737 
Si 8.4461044372 8.4506982173 10.7176940971 
Si 9.4598800165 11.2467138429 12.9484311328 
H 10.9686598303 11.9793728896 13.2425696438 
Si 9.3621237256 9.3935145559 14.4091324095 
Si 11.7330192173 8.7305767098 14.6099600461 
Si 8.6186318288 10.7104796180 16.2449044968 
Si 8.5772715184 9.6721224285 18.4471413381 
Si 9.2480122746 8.3345668062 21.7662203371 
Si 11.6232571963 8.2041816450 21.3627377504 
H 10.1380164327 10.8448884092 20.8870173391 
Si 10.0346075118 11.2137428826 19.4144679982 
Si 12.1335740310 10.5635438166 18.5861645201 
Si 11.9589778094 8.2781219557 19.0423444672 
Si 11.7850168978 10.0048131015 22.8486972138 
Si 10.9132901198 8.8557164910 24.7200724395 
Si 8.5329627180 9.4607922565 24.7772496651 
Si 10.5830592368 12.0396621801 23.2349087416 
Si 8.3080466860 11.4047431343 23.4975408329 
Si 13.9983392180 9.4199369362 27.0072204081 
Si 8.3519156564 10.3503240047 26.9895367301 
Si 9.2636343847 14.9841285770 0.9749424308 
Si 10.6119576971 13.5994134044 2.5115803681 
Si 11.9743718595 14.8672478260 4.0762056731 
Si 9.3472509555 14.8912429962 6.8851105614 
Si 10.6695591376 13.6298594147 8.4274220121 
Si 11.6121637062 15.4846225416 9.6961669639 
Si 9.1999730641 12.1313748809 9.5857323947 
Si 11.3396808737 13.0301267692 14.4349211066 
Si 11.3261438836 15.0970508581 13.3554504551 
Si 9.6566795083 12.8826371078 16.0656214745 
Si 9.8304775199 14.6002710135 17.7052226271 
Si 12.0238608800 15.5395361321 17.3137059959 
H 8.6006965387 13.5835469442 15.2267667352 
Si 9.5074793970 13.4839987533 19.7689667967 
Si 10.7802008186 13.8155654164 21.6957508802 
Si 10.6270096572 16.0321457366 22.4965267662 
Si 11.9474281993 12.4617035040 25.1839447866 
Si 12.0997071207 16.2751110888 24.3125815525 
Si 11.7266172472 14.6493853640 26.0122777375 
Si 8.3216162561 12.7235815464 27.1444457495 
Si 9.4325291063 14.4140437318 25.9780598206 
Si 13.3117320017 16.2871982690 2.7380080759 
Si 13.3915530025 2.6784506945 29.3630694657 
Si 14.7818719352 3.9799728364 1.3123735328 
Si 14.7742482151 1.3165301190 4.0797718815 
Si 13.4444955030 2.7534009852 5.3855936116 
Si 14.8458427658 4.0714086072 6.7993447231 
Si 15.7711636442 4.5575836617 11.1876378403 
Si 13.2436235111 0.0547774061 8.2013656615 
Si 14.7480538949 1.4112809049 9.3909761542 
Si 13.9497135676 2.9158611567 11.1315216354 
Si 12.8104398272 3.6781028436 13.2325783657 
Si 14.6950951044 0.3710471074 12.1558486843 
Si 12.8077682671 2.1780707599 15.0569444807 
Si 16.2720322788 2.1215770394 17.6028636042 
Si 12.7157786363 3.5166689422 17.0625388225 
Si 14.7080456545 0.9309686215 14.5041821788 
Si 12.8931441579 0.6664564861 19.2093962788 
H 15.9644607860 0.7640172970 20.6115351085 
Si 14.2241837801 2.6868400446 18.7263076683 
H 12.6334815555 3.3094275603 21.9196557166 
Si 15.3678558205 1.7715538062 24.1351847893 
Si 14.2641268605 3.8421105651 24.5163564688 
Si 12.3356514828 4.5989602621 25.7832151617 
Si 15.9381524358 1.2236526832 26.4719944202 
Si 13.4582116831 5.4425053398 2.6488941278 
Si 13.1511451803 8.6917576395 29.4369577670 
Si 14.7950994153 6.7603500618 4.1232147838 
Si 13.4740129832 8.1432896245 5.5142718419 
Si 13.5453306039 5.4078402195 8.2177525365 
Si 14.8976449662 6.5231024997 9.8466255910 
Si 13.7598047458 7.7199125206 13.4390353065 
Si 14.1772197097 5.4283004596 14.1347996179 
Si 13.1497605303 5.6900318920 16.2495611987 
Si 13.8514522867 7.3642855274 17.8370839194 
Si 15.4042802609 6.4531206590 19.3406681153 
H 12.6530947157 5.5442038107 20.0806121489 
Si 14.9895042771 4.3779212500 20.4028087623 
Si 13.5894276343 4.4242663005 22.3049830605 
Si 16.1698613979 7.0928126749 24.6590637504 
Si 16.2591143087 4.8753852746 25.3767852953 
Si 16.2013010982 10.9220052699 0.1904284550 
Si 12.2184123517 4.2945653193 28.0924677277 
Si 14.7725703451 9.5493772773 1.4428938129 
Si 13.4189527827 10.9279185399 2.7942539611 
Si 14.7540649049 12.1779642814 4.2613243091 
Si 14.7996280354 9.3856953558 7.0520739547 
Si 13.1610657904 7.5844122994 11.0797968772 
Si 13.4567130031 10.7770731386 8.4393879676 
Si 15.2182321692 11.8450292583 9.6576754915 
Si 15.1836484989 12.2762907223 13.5973926431 
Si 10.0649069121 10.3167177344 10.8467554738 
Si 14.0556963085 12.7515351866 11.5600266265 
Si 15.7409782740 8.5116879778 14.6987615825 
Si 16.1511930577 11.0410525910 17.5734497531 
Si 12.6743368759 10.2990105042 16.2289597138 
Si 14.7220550546 9.2983972450 16.6457345317 
Si 15.1985375590 10.4021262051 21.5541635649 
Si 15.9407425458 8.3076720160 20.8031672325 
Si 13.7750521860 11.6271830863 20.0116458047 
Si 14.0142056782 10.1544367529 23.5337334273 
Si 14.1274537592 8.1820598248 24.9741868926 
Si 2.6243353140 6.4823937893 27.6197240689 
Si 13.4589284431 13.5567987640 29.3789847760 
Si 14.6652518241 14.7962397153 1.5317955568 
Si 13.3580118922 13.5595517740 5.5816466551 
Si 14.6983042344 14.9195713064 6.9992881758 
Si 12.9885383988 14.9976655672 11.6421673108 
H 15.7486508640 0.4079765377 9.9493088147 
H 12.8612157576 11.8012580279 11.6417546917 
Si 13.7827899361 13.9667040377 16.8230134038 
Si 15.3747302006 15.3382406003 15.7689188303 
Si 13.3857700524 12.2976957825 15.2244089115 
Si 15.0510967677 12.8707616977 18.5317872102 
Si 12.9993386689 13.4900260534 21.2189694482 
H 15.2986233199 15.4535900913 20.2849470484 
Si 13.8890984770 15.6288053329 20.8962423245 
Si 14.2025343699 16.1431620876 23.2662972701 
Si 15.4633478014 14.3094782209 24.1028826041 
Si 14.2218706001 12.2648877222 24.6314477399 
H 13.5047847935 13.2418804811 22.6228471728 
Si 12.5662690149 15.3945714208 28.1029305706 
Si 15.3631317205 12.6000218952 28.2759358871 

