&CONTROL
  dt          = 30.D0,
  prefix = 'aSiHcSi_merged-11',
  pseudo_dir = './',
  outdir='./',
 wf_collect=.true.,
 verbosity ="high",
/

&SYSTEM
    ibrav= 0, nat=  398, ntyp= 2,
  ecutwfc     = 42.D0,
  nbnd=1478,
  degauss     = 0.05D0,
  occupations = "smearing",
  smearing    = "methfessel-paxton",
/
&ELECTRONS
  electron_maxstep=200,
  conv_thr    = 1.D-8,
  mixing_beta = 0.3D0,
  scf_must_converge=.false.,
/
&IONS
/
ATOMIC_SPECIES
Si  28.08  Si.pbe-hgh.UPF
H  1.00784  H.pbe-hgh.UPF

K_POINTS {automatic}
2 2 2 0 0 0

CELL_PARAMETERS angstrom
16.29000014898320 0.00000000000000 0.00000000000000
0.00000000000000 16.29000014898320 0.00000000000000
0.00000000000000 0.00000000000000 29.34461067663915

ATOMIC_POSITIONS angstrom
Si 0.3490279142 15.9718075761 29.2098308798 
Si 0.0818548072 2.7655533253 2.6555698878 
Si 2.6494382042 16.2286031384 3.0036263150 
Si 3.1049391884 2.0250424985 0.1078534755 
Si 1.3886997067 1.1624690716 1.4497998351 
Si 4.0190851268 3.8976920456 1.3420346868 
Si 1.4009758508 4.0582137071 4.1167260872 
Si 4.0540271771 1.3538928634 4.2653271957 
Si 16.2518652586 0.0526922861 5.5752706163 
Si 2.7130506548 2.7382675750 5.6385669415 
Si 1.3744801656 1.3193157091 6.9997460524 
Si 4.0080242167 4.1425144579 7.0656540479 
Si 16.2045753882 2.7568870452 8.2108568242 
Si 2.7410368751 16.1383565376 8.3998067724 
Si 4.1740193182 6.8689066228 12.0388025978 
Si 5.8201238332 5.1381266870 12.0998980772 
Si 2.1161198894 1.9429246078 11.1815584861 
Si 3.0069711275 3.1650818689 14.4244607565 
Si 2.3961938619 1.0937806570 13.3147943038 
H 10.3377318345 1.8250338767 9.2444327015 
Si 0.6755805152 4.6324687924 9.4795123776 
Si 2.5031377129 2.3325651213 16.4864772042 
H 2.5303420131 3.5029364720 17.4296716805 
Si 0.2764054645 1.6627691852 16.6823524804 
Si 0.2264261151 1.4113704999 19.1428393965 
Si 3.9166047358 2.7872353155 20.2923558305 
Si 1.2767743737 3.0698016581 20.5607709844 
Si 1.1475327705 0.3663816514 23.5462623300 
Si 2.8586343861 0.3982562946 25.4435968225 
Si 2.7763861754 3.4411647915 23.9465228196 
Si 0.8643799879 2.5883344137 22.9453433926 
Si 15.8579241850 1.4216625220 27.7511983169 
Si 5.5690786409 5.2353291179 0.1721269763 
H 2.5267093431 5.4757369401 28.6338842061 
H 1.8758586772 9.4150173561 28.7689281044 
Si 15.7380623639 6.2522486672 0.1076002315 
Si 0.0456924730 8.2640148156 2.7746972693 
Si 2.6532500643 5.3980662194 2.5989318547 
Si 2.8915890564 8.4580775874 0.0142772388 
Si 1.3939467157 6.9854941539 1.2929382187 
Si 4.0783481473 6.7469922617 3.9594976632 
Si 16.2598310687 5.4294570497 5.4014037980 
Si 2.7554535252 8.0869588040 5.3936861654 
Si 1.3658627555 6.7779432620 6.7497886586 
Si 0.1263801018 8.1742080448 8.1720045597 
Si 2.5778762336 5.5388281107 8.3692003434 
Si 3.5855919328 7.2910131067 9.6488307812 
Si 10.7151548480 5.5665699809 10.7736097084 
Si 1.4642950814 4.9493418753 14.8174731273 
Si 3.8613490553 5.9092627140 17.6140732140 
Si 1.7129260957 6.2881844075 16.7502559096 
H 3.8929027856 4.7507830634 18.5951809274 
Si 1.7517777460 6.5734874701 21.6393614944 
Si 0.2182485350 5.2610347381 20.3961477185 
Si 3.4697537417 5.2687073282 22.7224710745 
H 1.2369827903 5.6541938917 24.4167995503 
Si 0.6954087034 6.8819874929 23.7074522764 
Si 3.2671550099 7.3773989775 26.0348613830 
Si 3.0678468581 3.6897501937 26.2421223682 
Si 4.0904516174 9.7505099092 1.5088470607 
Si 15.6117008328 11.3903101942 0.1210876015 
Si 2.5775667236 10.8759208595 2.8815116522 
Si 1.1916460909 12.1715134413 1.4706814600 
Si 1.2957619979 9.5269785271 4.2748935388 
Si 4.0501501570 12.2787830923 4.0909321744 
Si 4.1310462978 9.4927695268 6.6980541100 
Si 16.1906148581 10.9058944597 5.5801418217 
Si 1.3577487064 12.1860604114 6.9418784801 
Si 1.9985875383 9.0901133031 9.3452607837 
Si 2.8766837063 10.8388773991 8.0969703902 
Si 6.7926205521 13.0990986298 10.4141088830 
Si 16.1428851576 11.4474066447 11.3649329582 
Si 3.4597028116 11.5176491253 12.2652843030 
Si 1.7261047058 10.0111987816 11.4455719483 
Si 0.7435293638 8.1763094548 12.5712312139 
Si 0.3036928438 11.7223329772 14.9453862853 
H 1.7442191860 9.2220134343 17.4636233951 
Si 3.8079993048 11.5091783253 14.7749234419 
Si 2.0416745887 8.5342170481 16.1439375638 
Si 0.4427003020 9.3366624554 14.6104175544 
Si 1.9758466981 11.9687518095 18.6841537870 
Si 0.8947021942 10.0705269621 19.7110390930 
Si 2.5206820431 8.5404724081 20.5510285736 
Si 3.7607094344 9.5211955771 22.2982653825 
Si 1.4455045662 8.5690613584 25.1017614527 
Si 2.3994844419 10.4355207054 24.0582377525 
Si 1.1610420676 12.2169299617 23.1582678876 
Si 3.3213029704 11.8067151780 25.7493383211 
H 4.7513532135 6.2160848669 28.6749373164 
Si 16.2696213588 13.6220890846 2.8582677860 
Si 3.0101965475 13.1993961607 0.3919178168 
Si 4.0245096968 14.9424750467 1.6110015194 
Si 1.3377739082 14.8764842561 4.3600222543 
Si 2.8086729557 13.5375928538 5.6656813618 
Si 4.2065178685 14.8605689259 7.0836129497 
Si 0.0507874964 13.5927182143 8.3159398750 
Si 1.4639041214 14.7570133950 9.8739332897 
Si 2.3074948111 13.6520301049 11.9596308381 
Si 3.2425896897 15.1751939888 13.5864667095 
Si 0.3579483183 15.7373944739 15.6935564791 
Si 2.1666514698 12.3695021031 16.2130441219 
Si 2.4645141225 14.6848649843 15.8662201683 
Si 3.3769659009 15.5278073320 17.9443468072 
Si 2.3469491915 15.7732650543 21.7533653069 
Si 3.5802162327 12.6981202761 20.4301581222 
Si 1.6012499996 15.8239921147 19.4841465632 
Si 0.5141400977 13.8214786864 18.9283596370 
Si 2.9423975669 13.6438199448 22.5157382922 
H 2.9061360266 15.1857173289 25.0745003094 
Si 1.3138210920 12.7613254767 26.6093701709 
Si 1.9649486880 1.9152316075 27.3105889876 
Si 2.0850385691 14.5196843828 28.0542694560 
Si 4.7637824836 0.3161595809 0.0887554160 
Si 5.3942706493 2.6819530445 2.8404115904 
Si 8.0235418334 16.1712134679 2.6199425960 
Si 8.1872726249 2.3828034818 0.0529265267 
Si 6.5791401002 1.2710174876 1.3600464089 
Si 6.7436365217 3.9777899764 4.2990148087 
Si 5.4132322095 0.0114336253 5.6417361595 
Si 8.1722369547 2.5784626736 5.5810515046 
Si 6.7260433215 1.3637483135 7.0888069458 
Si 9.3347565254 6.8017266622 9.3986386306 
Si 13.6714314950 13.7797762860 10.9376167375 
Si 9.4843801767 4.0317750369 12.1158322008 
Si 1.9433970178 6.0596194154 12.7517592588 
Si 5.2132235877 4.0005633966 14.1200984546 
Si 6.7986641422 2.2400867905 13.9517190785 
H 13.1270848501 0.4611047442 12.7442470384 
H 15.1508241486 10.4835762059 11.9586918106 
Si 8.0456636536 5.8531762435 12.6862327431 
Si 5.9587354445 0.3805506935 15.2577009767 
Si 6.9387581435 3.9123530458 17.4291434776 
Si 4.3834598501 1.0630072177 16.9328380772 
Si 6.9867810639 0.5586003951 19.0489072977 
Si 4.2470148088 0.8478831048 21.6506591695 
Si 5.5249001605 2.3288510013 18.5340854480 
Si 6.8985544231 3.7306869641 22.7970357302 
Si 4.2344877987 1.5944472956 23.8694051828 
Si 6.3559996781 2.1770933599 24.5862059878 
Si 5.5421349807 3.5255632822 26.3686563295 
Si 4.2175461986 15.5985385127 27.3193336816 
Si 2.2069040602 5.6383274316 27.1589653842 
Si 5.4824647101 8.1985778850 2.6879105832 
Si 8.1130065142 5.2719979082 2.8774474236 
Si 8.4720381175 7.4958924386 29.2804633577 
Si 6.8674568128 6.6860513711 1.4795405980 
Si 5.3266834387 5.4218007496 5.5390300221 
Si 8.0839125739 8.0519841736 5.5455151811 
Si 6.6973729213 6.6961511712 6.9754780593 
Si 5.2865448783 8.1328151544 8.2407589825 
Si 7.9760239029 5.2106171877 8.3710783985 
Si 6.5469021899 9.4299715762 9.7025020741 
Si 0.9895947031 3.9803149264 11.6977301879 
Si 5.6520110317 5.3684021291 16.0951374762 
Si 6.9525231936 7.2924140467 15.5278768072 
Si 4.2276948687 7.6995174404 19.0688322883 
Si 7.7859521812 7.2849043566 19.5269603502 
Si 5.1715863473 4.4996238412 21.3477054089 
Si 5.7110459922 6.6998978713 20.5634413439 
Si 7.6450762599 7.8854840821 23.3242410056 
Si 6.4405610689 5.6683336118 25.7241019560 
Si 4.6174168322 6.4622267691 24.3649182786 
Si 7.9542930427 5.5793576310 23.9201713592 
Si 5.4147797595 7.8450523017 22.6444437547 
Si 6.9680638537 7.5066764187 27.2452678842 
Si 4.7996041939 11.5563378757 0.0936574332 
Si 8.0693493138 10.7661099685 2.5861434734 
Si 6.7593726618 12.2457795520 1.2380608623 
Si 6.8179026324 9.4848200067 4.1322787309 
Si 5.4427496898 10.9197898299 5.3986747492 
Si 6.8091223223 12.2307601719 6.8179268446 
Si 7.8479519218 7.7043881505 10.9366190207 
Si 7.9520124427 10.6965353778 8.1961258296 
Si 5.6865784120 11.1350784718 11.2471143463 
Si 5.5159732404 8.3818729667 13.9159186535 
Si 6.8459865926 10.2405294037 13.1229392392 
Si 7.4578552882 11.8152185581 14.7976361705 
Si 5.3973983294 9.2749722248 17.7885269245 
Si 7.7378641008 8.5935289386 17.4146178953 
Si 4.2115677685 9.3643554556 15.6434065394 
Si 7.7612239610 12.0939893306 18.7544047849 
Si 5.0647239463 11.2440911528 21.4925210626 
H 7.1117090750 9.5114052870 20.2497181112 
Si 6.2307295770 10.5590640666 19.6003218769 
Si 6.2363822070 11.9378659692 23.5207618633 
Si 7.9480376827 8.9037557014 25.5154911187 
H 5.1033801167 9.7679402093 24.6975100961 
H 4.7646621436 9.1588896838 25.0516115131 
Si 6.8029484122 11.0102319107 25.7464038601 
Si 4.6527009726 8.3843979167 27.6192942919 
Si 4.8961713148 10.7185594580 27.1967612428 
Si 5.5386652107 13.6200202546 2.7917758327 
Si 8.4961147377 12.9504849584 29.0757846982 
Si 6.8053919122 14.9541223968 4.2362173419 
Si 8.2181910452 13.5138094536 5.4280487045 
Si 6.1230689660 14.0038452381 8.2796112470 
Si 7.2287364361 14.6646490941 12.1420956273 
Si 3.8701130754 1.3944451898 9.7170863456 
Si 5.5340551406 14.8572783459 13.8519767469 
Si 5.5504428808 12.9917638188 15.3748740071 
Si 7.2262114861 15.5701776224 16.9807284818 
Si 6.2345251470 13.5455749539 17.6415691142 
Si 4.8333733642 14.3093641909 19.3272996192 
Si 6.0050479149 15.7340713139 20.8815075791 
Si 8.2185005552 13.0525255194 22.9522687207 
Si 4.5384754915 13.3179384918 24.3612502023 
Si 7.3274375470 16.2393056685 24.8576729811 
Si 7.7354206007 15.3371817503 22.6347600332 
Si 5.9105007541 14.5828407134 25.9203880568 
Si 7.7263959407 12.9853455588 26.6873094568 
Si 11.7673585376 0.6692567371 28.5570013261 
Si 9.4354938863 3.9913921265 1.3380350164 
Si 9.4268601862 0.4099916107 28.6220583279 
Si 10.9536241602 2.7193548849 2.6097981641 
Si 12.6265745955 1.6483199551 1.1649135513 
Si 9.4730749166 1.3202800771 3.9527777474 
Si 12.1568035712 4.0521864071 4.1517048631 
Si 9.4933070968 3.9817647364 6.9858367069 
Si 10.8105002189 0.0652689807 5.4648468463 
Si 12.2564495021 1.3571704114 6.8620611391 
Si 10.6491803474 16.2313561484 11.0128563193 
Si 6.6803335811 3.9424243861 10.1094531350 
Si 12.3860201633 4.2144673885 9.8328801794 
Si 11.0771675213 2.8037207956 8.3433770860 
Si 11.3673087140 3.5206437022 13.5300957123 
Si 11.4598359148 1.5033585017 14.7808803978 
Si 9.7129451688 1.0856926719 16.2487858577 
H 9.2668923848 3.8551588553 15.3841469041 
Si 8.2125221251 2.8194732258 15.7390406256 
Si 10.5599437266 1.4818931686 18.4167070053 
Si 8.7027045196 2.9600396371 21.5674671982 
Si 8.9570728719 1.1536431496 20.0711268106 
Si 11.5915242760 3.3885969610 19.3416197892 
H 11.6096876262 0.3961027566 18.5395142010 
Si 10.1889552632 2.8289051359 23.3834877746 
Si 11.4602431648 1.1264095273 22.3928430627 
Si 6.9596093437 3.9462362461 28.1481722101 
Si 10.3126615243 1.9584652679 25.5721849065 
Si 10.3127266843 5.8291322033 0.0506138779 
Si 10.7780342486 8.2048169550 2.7504028661 
Si 12.0798496105 6.7778129420 1.4167020487 
Si 9.4791999567 6.7382282416 4.1464228332 
Si 10.8317912491 5.4141933195 5.5970443174 
Si 12.2174023717 6.8141885123 6.9431402984 
Si 11.6561629966 7.2008153759 12.2504652746 
Si 10.8089526689 8.2238599652 8.2392330627 
Si 7.7040949305 15.8695063751 8.3466343378 
H 14.0982457889 2.1543036497 10.4239393276 
H 14.6910877644 14.8970585262 11.0128856639 
H 9.7361258390 3.0519966879 26.4485910490 
Si 7.7983488713 2.3678492617 11.6208179633 
H 11.4070726043 4.7011800130 14.4962376743 
Si 9.0512290728 6.6759027011 14.7410597611 
Si 10.3749381949 8.0111125633 17.7396681477 
Si 10.2254122835 5.8766338437 16.7966497390 
H 12.1979846916 7.1220532251 15.4075052142 
Si 8.5884301685 5.2918554184 18.4822922101 
Si 9.8348758199 4.6016806921 20.3546544390 
Si 9.0778469330 8.1304531044 21.4029613108 
H 10.5143154362 7.7256791807 19.2456629123 
Si 10.6086508270 6.3201128078 21.8050998555 
H 10.4926497360 8.1001862841 23.8354828128 
Si 10.2917777441 5.1557361772 23.8547328774 
Si 11.7956216879 7.5765442293 26.5373291516 
Si 11.2609187230 5.4199925596 27.2728811629 
Si 9.4208328862 9.4053899660 1.1530231150 
Si 10.3464469846 11.3003079433 29.3218686034 
Si 12.0859746505 12.2323077219 1.3816323045 
Si 12.1257548309 9.4845267867 4.2175835141 
Si 9.4825556967 12.2480927320 3.8723735141 
Si 9.4355753363 9.5043842969 6.8166356817 
Si 10.7469855083 10.9386047800 5.4417819823 
Si 12.0813157105 12.2840121823 6.8715101037 
Si 11.9071267389 9.7797015894 9.7107772543 
Si 8.9533424619 12.3279626027 9.5248204565 
Si 8.8162784006 9.3826979958 12.1464386297 
Si 11.1282203818 10.5474818765 14.3010079794 
Si 10.2501893737 8.4146321570 13.7018203740 
Si 10.1374137027 10.9376599600 10.9475352159 
Si 10.6451892974 11.3640344239 16.4092715335 
Si 11.8852166887 9.8382315600 17.6047709725 
Si 8.3997756768 10.8718809394 16.8266105865 
Si 12.1477789111 10.3253025644 19.8401260354 
Si 10.2369130236 10.2411972937 21.2035059920 
H 10.9527607902 10.2852780341 22.5419136850 
Si 11.0481713210 10.9942188405 25.1184291916 
Si 10.2839911241 8.7732239302 25.1887682234 
Si 11.7750799977 11.0898248514 27.4172273028 
Si 9.2591872147 14.9180074664 0.9651735898 
Si 10.7752160785 13.7842723261 2.5436524771 
Si 12.1830793414 15.0462423476 4.0100290828 
Si 9.4240583062 14.9799583370 6.8644673971 
Si 10.6377773473 13.5690325541 8.2880331503 
Si 0.3795928415 0.2744083105 10.9424292537 
Si 5.3289803287 2.7832931355 8.5203544330 
Si 8.6749626493 13.6352351147 13.7796716261 
Si 11.5059040352 16.0692217770 13.1650487555 
H 11.5697934158 13.2020025607 12.4532071897 
Si 10.4286463254 12.2910820424 12.8627405763 
Si 9.2076619442 15.0292681675 15.7741661246 
Si 11.0783566913 13.6923641452 16.4628254480 
Si 12.0451844902 14.1221757992 18.6059797441 
Si 9.8073131397 15.9231167656 21.6097821268 
Si 9.1223837934 12.3142464226 20.8188274906 
Si 10.8072259288 13.9813813279 20.7016544602 
H 9.1030801433 14.3122149409 18.5555363584 
H 9.1865989740 15.0819174479 18.6210335294 
Si 11.0213416908 14.4421602721 25.8598794696 
Si 9.5069744069 12.8239116573 25.0291922305 
H 11.8863732787 14.9475575267 24.7139137334 
Si 9.3413539754 16.2175585183 26.2386890488 
Si 13.6635145550 0.0363897426 2.5812341200 
Si 14.2309441302 2.8602796762 29.0759607659 
Si 15.0698302678 4.3212483395 1.3411220694 
Si 14.9946844971 1.3712417135 4.0216495486 
Si 13.5725837741 2.6650603144 5.4020787241 
Si 14.8859487461 4.0517791571 6.7646370316 
Si 13.4957275534 16.2125086183 8.2961616074 
Si 12.0205377199 14.9001536263 9.6674646090 
Si 14.9791601270 1.2675558626 9.5702459138 
Si 15.2847931098 3.0517034679 13.0457335685 
Si 14.5473936730 0.8295519676 13.6591826547 
Si 13.3498017321 0.2560071263 15.6644172807 
Si 15.7694043242 3.6601186835 15.3614048308 
H 12.1494730711 3.3156503403 16.4695160192 
H 14.7874268252 3.5073347721 19.7519748249 
Si 12.9317840383 2.0654416989 20.8186514230 
Si 14.4569678822 0.4697351863 20.0002008866 
H 14.3124430009 3.3509507706 19.1500288261 
Si 13.7998129862 3.4060435512 22.5192303009 
Si 15.2266540993 2.8706564063 24.3223685932 
H 12.4470750838 3.6695994636 23.1654866618 
H 12.3712614231 0.6264498747 23.4815868081 
Si 14.6448893239 0.9887183010 25.6681124388 
Si 13.1420227802 3.9246357059 27.2046842877 
Si 12.4893150542 1.7473794460 26.5217765080 
Si 13.4795678733 5.4083126295 2.7544876359 
Si 13.8698599868 7.8517963618 0.2659243833 
Si 14.8997952463 6.8304459325 4.0471206707 
Si 13.5744408341 8.1436642945 5.5397929820 
Si 13.6498798248 5.4540549499 8.2565463830 
Si 15.4110080309 6.4871667593 9.4430957157 
Si 14.9835910070 7.5196595488 11.5224254837 
Si 13.2592456213 3.9201722459 12.1361386714 
Si 13.6527468649 6.1202833760 12.8764151649 
Si 13.6588230349 6.8197922724 15.1073391916 
Si 16.0541861068 6.3601862082 18.2529053885 
Si 14.4664649523 5.2706947082 16.6961737921 
Si 12.2399477319 4.5395343415 17.3650548478 
Si 12.7643391267 6.7129135814 20.9226780678 
Si 14.5182345728 5.4574106899 21.7986146965 
H 12.6162141554 6.1156244359 19.5332694415 
Si 14.7344517448 6.3525950681 23.9965847254 
Si 13.7582897758 8.0643157038 25.3104016346 
Si 13.1007439198 9.0868227231 27.7418373861 
Si 16.2149032483 6.2026619067 27.1508075825 
Si 14.8756045960 4.7606548035 25.7512457208 
Si 14.8501759058 9.5940933277 1.4939869498 
Si 13.3967658025 10.8616671093 2.8302788964 
Si 14.8319311056 12.2369177919 4.1426960677 
Si 14.8654233460 9.5377299272 6.9836358611 
Si 13.4303557828 10.9382626900 8.2914077805 
Si 14.8683555460 12.2978423925 9.5794601216 
Si 13.0982841298 8.9553298419 11.5584019764 
Si 13.3097772017 10.4497581656 13.4605783296 
Si 14.4786335824 9.0176228025 15.0320115760 
Si 14.1946337198 9.8967615305 17.1652473937 
Si 14.7740038651 12.1033886607 16.4256751709 
Si 15.3999145408 8.6990555596 18.8684672866 
Si 13.7453880957 8.8326172708 20.6400014332 
Si 16.1529035077 11.3176079235 21.4672846974 
Si 14.4700650423 10.1045241924 22.5172348674 
H 13.1448246602 9.0855846831 24.3769789136 
Si 13.0098131390 11.6121311262 23.7579250068 
H 15.3859377207 9.2910667450 23.4286491304 
Si 15.9267494357 10.9996108306 27.1297088074 
Si 15.8054703846 8.6134516088 26.4819558713 
Si 13.8684427568 13.1207317500 0.0702430749 
Si 15.0096875873 14.8587281559 1.2583467917 
Si 13.4799425433 13.6378740947 5.4816906528 
Si 14.9111330864 14.9200111365 6.9160845673 
Si 8.2844750558 0.1290910836 10.7412719475 
Si 13.7637957959 12.9184913981 13.1876147611 
Si 0.0715725592 15.7017356636 13.2553127780 
Si 0.0348607632 13.1612938504 13.0489908203 
Si 12.5358392946 14.4643798323 14.6579264791 
Si 13.7092894554 15.6982170236 17.9836098963 
Si 15.4020974009 14.3060573208 17.1359027831 
H 13.4638317331 12.3653970231 15.7055877695 
Si 13.1704651205 12.4449085138 19.8579675587 
Si 15.2809812498 13.2442425311 20.5684886170 
Si 14.4518691122 15.0479527976 21.8434239170 
Si 16.2057319782 13.4196695427 24.7912954718 
Si 14.3840701316 12.2221590518 25.6563452499 
Si 15.4383915212 15.5667404324 24.0488768217 
Si 12.6676416859 13.3830333324 22.0659440998 
Si 12.8508716075 13.2049184708 27.2000184946 
H 12.3462725629 15.5509880022 28.5817388329 

