&CONTROL
  dt          = 30.D0,
  prefix = 'aSiHcSi_merged-9',
  pseudo_dir = './',
  outdir='./',
 wf_collect=.true.,
 verbosity ="high",
/

&SYSTEM
    ibrav= 0, nat=  398, ntyp= 2,
  ecutwfc     = 42.D0,
  nbnd=1478,
  degauss     = 0.05D0,
  occupations = "smearing",
  smearing    = "methfessel-paxton",
/
&ELECTRONS
  electron_maxstep=200,
  conv_thr    = 1.D-8,
  mixing_beta = 0.3D0,
  scf_must_converge=.false.,
/
&IONS
/
ATOMIC_SPECIES
Si  28.08  Si.pbe-hgh.UPF
H  1.00784  H.pbe-hgh.UPF

K_POINTS {automatic}
2 2 2 0 0 0

CELL_PARAMETERS angstrom
16.29000014898320 0.00000000000000 0.00000000000000
0.00000000000000 16.29000014898320 0.00000000000000
0.00000000000000 0.00000000000000 29.49423432800756

ATOMIC_POSITIONS angstrom
Si 15.9543935659 0.4493417351 0.1570373316 
Si 0.2163263150 2.7274998849 2.8458308336 
Si 2.9107949666 16.1686070679 2.6459130144 
Si 2.9112347966 2.5047830029 0.0031915121 
Si 1.4777994915 1.3163183490 1.4226632411 
Si 4.1739215782 3.9230229959 1.4324140350 
Si 1.5018956597 4.0504433770 4.2926498526 
Si 4.2504682889 1.2574137085 4.0645414443 
Si 0.1794164326 16.2468968086 5.5365101969 
Si 2.9340896668 2.6358849241 5.5186661851 
Si 1.5839793415 1.2780531387 6.8874346118 
Si 4.1925247583 4.0004656566 6.9900450530 
H 15.8366494448 11.5304367755 10.6436728247 
Si 0.2064545749 2.5904195337 8.2560260731 
Si 2.8877446164 16.2469130986 8.3621168340 
Si 1.4288056871 4.0852388174 9.5558959684 
Si 4.1358355578 1.3648658075 9.8334367134 
Si 3.1779509691 3.3013803002 10.8765592989 
Si 0.8106181004 1.5545172472 13.8347720135 
Si 1.8367138068 3.4657789817 12.8966783965 
Si 0.9708025589 1.5401804181 16.1836338469 
Si 0.0061462985 2.9167245267 17.8059642062 
Si 3.7249365941 3.3168232203 16.4070526720 
Si 3.2744366399 1.0184931633 16.9593027155 
Si 2.2901948309 0.5552446551 19.0790828309 
Si 1.7497414960 2.9281763968 19.3926655303 
Si 2.9370544469 3.4134066312 23.8354410356 
Si 2.4729034726 0.3802020875 25.9616803883 
Si 0.2853926576 0.6595511550 22.5081709966 
Si 2.5730218135 1.0697447618 23.4907714132 
Si 2.9845560873 3.8005059048 26.1522721305 
Si 0.4619355342 5.4978587603 29.3742222885 
Si 15.0842469180 6.7960088722 28.4220894160 
Si 0.1215040160 8.0860628540 2.7836245439 
Si 2.8686364462 5.3253965287 2.8494969669 
Si 2.9790174872 8.1193270343 0.1523102907 
Si 1.5909107365 6.7648298119 1.4866716284 
Si 4.2342434487 6.6903356412 4.2105084100 
Si 0.0584369546 5.4005748794 5.6274114271 
Si 2.8157265258 8.0842383739 5.5043909757 
Si 1.3713850655 6.8536917627 6.9378107640 
Si 0.0713632327 8.2282908453 8.4154719039 
Si 2.7434315051 5.4782944701 8.2244967366 
Si 4.0666682172 6.7761350720 9.6651721066 
Si 15.9092539755 6.6699894310 11.8604869561 
Si 16.0416590967 7.4131066578 14.2071367219 
Si 0.1303201641 4.3886889401 11.5170265973 
Si 2.4605556525 4.6955273829 14.8742963024 
Si 1.1846316168 7.1464719354 17.9221714894 
Si 0.6722312911 5.9495804644 15.8636214045 
Si 3.3783668409 6.5167982696 18.4569609462 
Si 0.0197597702 7.9164676624 21.7790440298 
Si 0.6948792784 4.3138363895 20.9426760269 
Si 0.2041365079 6.4279851888 19.9976217706 
Si 3.5793039927 4.1750618782 18.6532450757 
Si 0.8946647272 4.3442986897 23.2580619044 
Si 0.1469871148 6.5227929897 23.7874244221 
Si 4.0050594366 6.7457868017 22.6685016544 
H 2.4869291627 6.5879855703 22.8194531457 
H 16.0520521168 4.9266661951 26.3662822948 
Si 2.0856575891 5.7022005222 27.2719912426 
Si 1.2181434051 7.4192479879 25.7232489980 
Si 4.3834924301 9.4622909365 1.4342161327 
Si 0.1370158429 10.8717994894 0.3008323419 
Si 2.9610007471 10.8291685590 2.7634563865 
Si 1.6256182109 12.2314769319 1.4343429579 
Si 1.5316802960 9.4660213466 4.0875764413 
Si 4.3055121994 12.2093876917 4.1104639671 
Si 4.1861553683 9.4288149862 6.8639866955 
Si 0.1711916116 10.8231412590 5.4515962963 
Si 1.5452580111 12.1546044212 6.8220458943 
Si 4.5473698316 11.9658521894 9.4637559804 
Si 2.8886242764 10.8194271390 8.2498027897 
Si 8.1491703145 10.8685089094 8.3738850335 
Si 2.6385564841 7.9349242326 11.1870745979 
Si 3.2397226496 8.4387250672 13.5239027837 
Si 1.3993843178 11.3568668239 14.2619959978 
Si 1.4321125571 9.4352332463 17.2675764527 
Si 3.6878116837 9.9449799310 17.9474185540 
Si 3.6882189337 11.9091792789 14.9014899865 
Si 1.3584947884 9.0937948432 14.8172249590 
Si 1.3527069514 9.7875044995 21.4124601913 
Si 3.4900836619 9.7248205789 20.3523194326 
H 0.4028403007 10.8146867489 20.8222805624 
Si 1.6696924353 10.6954439478 23.5239524269 
Si 2.6332622341 9.2485987146 25.1302084284 
Si 3.3218242504 12.2635356522 22.9744748413 
Si 2.4724147726 10.8551348193 26.8900114138 
Si 15.3856770807 12.1683694713 28.1492972427 
Si 0.2415921052 13.6050171644 2.7640138275 
Si 3.0828336582 13.2982927516 29.3584133789 
Si 4.3146671795 14.8290966456 1.1847804435 
Si 1.5936295376 14.9106932564 4.1714580437 
Si 2.9758083572 13.5604803040 5.5583064361 
Si 4.3344432396 14.9216564265 6.9947051421 
Si 6.5800034702 9.8090398797 12.0953790383 
Si 0.1339313313 13.4728726832 8.1494044160 
Si 16.2130461883 15.5769705525 10.9179986981 
Si 1.2089753931 15.6687321233 12.9633648603 
H 8.4212133170 5.1348198170 14.7765524099 
Si 3.0697202081 13.2893984115 10.7575500634 
Si 3.4989942920 14.8990459063 12.4085783126 
Si 2.8247837658 15.1897572489 15.9323724647 
H 2.1024688692 12.4436541838 17.5634626115 
H 2.9895896973 14.5516779431 17.2983684334 
Si 3.5833276228 12.1732890513 17.3350887551 
Si 0.6451752299 14.6516659640 15.1048527322 
Si 0.4778231714 15.3738668306 18.7469777524 
Si 2.1642242598 13.6038117044 21.3626739238 
Si 3.4949217920 15.1871997189 20.2871076805 
Si 0.6534326310 13.1325582901 19.5555031980 
H 1.2670052606 14.3983727517 22.3154556695 
H 0.0931462209 15.1103434982 24.9282024175 
Si 0.7847740152 12.5776557250 26.4162455278 
Si 2.4153020321 14.3200667210 26.1546611635 
Si 5.5700234609 16.0711439970 29.0546817538 
Si 5.6377898616 2.5646813335 2.6653438160 
Si 8.2820152657 16.2253940084 2.5884258023 
Si 6.7442718317 4.0560308471 28.1264687053 
Si 6.8970557431 1.1925567019 1.0977075649 
Si 6.8845613130 3.9533061062 4.1861461724 
Si 5.6101946013 16.1731845579 5.4465527822 
Si 8.2767861757 2.5643229535 5.4844233791 
Si 6.9347019334 1.1914554979 6.9043937965 
Si 5.5490419407 2.5281917331 8.3164302650 
Si 8.3831924567 16.1581325978 8.2828658263 
Si 6.8314884925 3.8660405754 9.7237181617 
Si 8.1701844147 2.4244733022 11.1172617453 
H 4.1825715683 1.3994266718 12.9747791290 
H 13.4557844731 3.3493706406 11.1125131735 
Si 7.1264189452 0.5995355365 12.3980193767 
Si 4.8046866739 0.4965371235 11.9247843869 
Si 7.5404130090 0.2453290312 14.7608319830 
Si 5.5880076211 1.0078492772 18.1149752992 
Si 7.1965473958 1.7905805264 16.5029384278 
Si 5.9821604647 3.6120143130 15.8584599135 
Si 5.7059309322 1.6470330451 20.4324847615 
Si 7.8650727119 1.3300035782 21.3029186050 
Si 5.1939362275 3.9349146960 20.4059989391 
Si 4.3172084195 0.3050058178 21.9550656203 
Si 7.7447384808 2.1581480897 23.5687246746 
Si 6.6679206010 0.4204514198 24.7400586967 
Si 5.0735368364 3.0324812677 26.8237968577 
Si 4.0103048167 1.1811178638 27.8113523057 
H 9.5681596475 6.6872568312 29.1229019178 
Si 5.4629981600 5.3633033591 0.1067800411 
Si 5.6247904414 8.0661401838 2.8655388809 
Si 8.2626627456 5.3297133787 2.8595427031 
Si 8.3882586467 7.8787726021 0.0802868451 
Si 6.9139973432 6.6698754010 1.4732311058 
Si 5.5815242010 5.3634499691 5.6355518358 
Si 8.3039416059 8.0911779140 5.6696176764 
Si 6.8838119730 6.7924413621 7.0711836917 
Si 5.4817805301 8.2281605253 8.4352920293 
Si 8.2100297551 5.2727798282 8.3256029719 
Si 4.9568515653 4.9235873850 10.7951847064 
Si 6.6665359510 3.9877757465 13.6442687540 
Si 7.1470909554 7.5431660190 12.5634525371 
Si 3.9852345064 6.4334912088 14.4742365080 
Si 4.8560164644 6.9441012635 16.6427410985 
Si 6.5589730800 5.4293755997 17.2026596430 
Si 6.9306620134 5.3402367188 19.5355945899 
Si 6.6086412904 7.6511850100 20.0371735388 
Si 4.2839605292 7.5570450991 20.4280016379 
Si 7.6184258197 8.0652768138 22.1433273180 
Si 4.7063928130 4.5029144212 22.6842515755 
Si 4.6672153627 8.2107790951 24.4871161431 
Si 6.7585744518 4.3473612098 23.8316657736 
Si 4.0825183873 6.6670246510 28.1674067025 
Si 5.6921495921 7.3473276372 26.5208615769 
Si 6.6393479407 5.1774833274 26.0637599333 
Si 7.1283900352 8.9507686419 27.8845275011 
H 2.0898929891 3.4507107316 28.6581612675 
Si 5.7923982530 10.4909229959 29.3147914064 
Si 8.3479246063 10.7723001685 2.7075972561 
Si 7.0422973844 12.0553168703 1.1805421221 
Si 7.0168686942 9.4405926563 4.1884467227 
Si 5.5970648612 10.8026484388 5.5002912771 
Si 6.9924662740 12.1865002415 6.7945277737 
Si 5.5599073708 5.8528015735 12.8444441075 
Si 9.4076542760 12.5200054145 9.4771463627 
Si 6.2244416369 10.1626469129 9.7331858109 
Si 7.5094945887 8.1362849244 14.8273414814 
Si 4.9676518354 10.0214289017 14.0720531287 
H 6.1014847158 11.7691993076 15.8404094421 
Si 5.7782259528 9.0956193232 16.3496863862 
Si 7.3680648074 9.1984418041 18.3557072398 
Si 4.9001297848 10.9406736101 21.8299805725 
Si 7.8753191220 11.2428694028 19.5335004992 
Si 6.1896624866 9.6186749380 23.4100161997 
Si 7.1345150753 11.1742396322 25.0375080499 
Si 4.3602140199 11.8086536880 27.9710930788 
Si 5.6618827718 13.4523635730 2.5843379014 
Si 8.3775072466 13.4640597931 29.2644152541 
Si 6.9756387038 14.8443603758 4.0101835704 
Si 8.3703396466 13.5374299538 5.4199784771 
Si 5.7907203830 13.5451839939 8.2918910620 
Si 7.6991264804 14.2682645205 9.5714689241 
Si 8.2147375651 14.8952829162 11.8020293836 
Si 8.0719394238 13.1434237202 13.6109697635 
H 1.4003486858 6.8829323129 11.4073375399 
Si 4.2907534592 14.1316239992 14.4690455228 
Si 6.2574451772 15.1127869982 17.8957446555 
Si 7.2814020066 12.7158763763 15.8354249165 
Si 6.2504567672 14.7698824951 15.5632816163 
Si 4.7569569735 13.6255425646 18.9185752077 
Si 6.0596031254 12.4252627736 20.4650463962 
Si 6.9063573332 13.9064310372 22.0883205709 
Si 4.1927853983 13.6439991348 24.7305025648 
Si 5.4505525998 15.1985538490 23.4295118885 
Si 6.9565305336 14.5201079228 27.6647069726 
Si 5.7618545027 12.7935308070 26.3213330817 
H 0.0836380736 0.0700883772 28.2199359339 
Si 9.5302039472 3.9967841166 1.3770061663 
Si 11.1398025719 0.1313035914 0.0897574438 
Si 11.0457278210 2.7348629650 2.7236362207 
Si 12.5369633047 1.3896624457 1.4618050395 
Si 9.6500983483 1.2993865229 4.0096526742 
Si 12.3892455833 4.0601847971 4.1486295063 
Si 9.5678175575 3.9522309661 6.8767282047 
Si 11.0326469509 0.0290232417 5.4630400592 
Si 12.3380461128 1.3996693928 6.9405537278 
Si 9.6656064284 1.2193162852 9.7579019793 
Si 10.9319584600 2.6949850446 8.3685760713 
Si 13.6354957547 5.5268712505 8.4877327780 
H 5.7084233022 1.0623360697 25.7587305619 
Si 11.0179045008 0.7842168972 13.5843069756 
Si 10.3777237849 3.0598810480 14.2750029551 
Si 9.3325085054 2.8151563757 16.5234664149 
Si 10.5759405067 1.8100470766 18.2569605433 
Si 9.6552785683 2.5601527134 20.4082405009 
Si 11.1238872417 2.0311349586 22.2040559465 
Si 10.0039497315 2.2282439604 24.3428008545 
Si 10.1543227229 1.7774019163 28.1666103582 
Si 10.1267437526 0.6016597525 26.1278214103 
Si 8.2704656556 2.6573551443 29.3285947080 
Si 10.7748251185 5.3921529493 29.4321489647 
Si 10.9866765705 8.0622794537 2.7954694285 
Si 12.2459587420 6.6071263204 1.4015542176 
Si 9.6213139180 6.7353937816 4.2226305403 
Si 11.0080816307 5.3757489192 5.5762979190 
Si 12.3683455131 6.7905843021 6.9282251379 
Si 9.9397834209 6.2849752775 9.5923508420 
Si 11.0655853312 8.0733729438 8.4431374957 
Si 10.6481377874 8.0702615538 12.9015744394 
Si 11.6772259668 6.9735861638 14.6958266905 
Si 8.8585835310 4.0646319672 12.6993324746 
Si 9.1945973641 6.4651589691 11.8606639215 
Si 8.2376087253 6.1901837666 15.8349825030 
H 11.1402424019 4.0137908767 17.8000948535 
Si 11.4941263651 5.4645457100 17.9276279228 
Si 10.2763022440 6.8312930125 16.5702737648 
H 8.9735094821 4.1934695784 17.0452489144 
Si 8.9710008220 4.8795718046 20.6419528137 
Si 10.7614021584 6.2348183670 19.9752061525 
Si 10.8613413093 8.1760488148 23.9749192697 
Si 9.7376570991 6.1564960463 24.5472548869 
H 8.7312771799 6.4402352689 25.6710442032 
Si 10.8645667294 4.2253816886 25.3542761266 
Si 8.2620437256 5.8001360030 22.7542413936 
Si 11.3765940140 3.7930613747 27.6662996613 
Si 9.7166429989 9.4207840162 1.3149945387 
Si 11.0933434915 10.8221149890 29.3856365572 
Si 12.4401844138 12.1944334715 1.2865502991 
Si 12.3182700527 9.4727979866 4.1928708578 
Si 9.7217906389 12.1441951111 4.0772534593 
Si 9.6169970680 9.4506761664 7.1183154781 
Si 10.9561979802 10.7975333788 5.6275588983 
Si 12.3851730833 12.1435435111 6.9663316886 
Si 12.8337508174 9.0559205928 9.7823526996 
Si 11.2391878628 13.6719039050 12.6235912809 
Si 8.5159559579 11.0358886609 12.7562858411 
Si 9.3272142553 9.4785809367 14.2855913852 
Si 10.6710089476 10.0210868116 16.1210175875 
Si 9.6623484284 8.7524053100 17.8227464255 
Si 9.3115595652 11.3013016334 21.5473373249 
Si 9.7847189095 9.0540146628 21.9577790898 
Si 10.8595656993 8.5671554284 19.8625381774 
H 11.4883271251 11.5141467753 23.4782363637 
Si 10.8579041193 9.5273369071 25.9406804935 
Si 9.7493696092 12.1055226507 27.8918420712 
Si 12.3427376329 9.4037283860 27.9610650392 
Si 8.6782206494 10.3262962544 26.6460940959 
Si 9.6822222286 14.8899560862 1.2301750196 
Si 11.0482039010 13.5448419039 2.6632113829 
Si 12.3581642630 14.8674270160 4.1601027635 
Si 9.7350018290 14.9231713965 6.8103661775 
Si 11.9419873392 9.8513450101 11.8788913583 
Si 11.0932131715 13.6260638446 8.2659066416 
Si 12.3163315426 15.0150958673 9.8247359143 
Si 15.0215792874 12.3289400028 9.6790933852 
H 0.7749544031 10.4446431055 10.8075132963 
Si 10.5395160664 15.8376920048 11.4581855999 
Si 10.1103560125 13.6695907250 14.6536794297 
Si 10.2813847240 15.8641795451 17.6313878332 
Si 8.6648139792 12.6623963058 17.8168475786 
Si 10.6172682371 12.3032995425 16.5475926986 
Si 9.7835297395 15.9021678254 15.2511441344 
Si 8.4788310475 14.8228575756 18.7253289844 
Si 8.4893869676 15.3285154702 21.0822427438 
H 10.7923205787 13.2622104013 19.6605616607 
Si 11.0892709914 12.8428406375 21.1153057805 
Si 8.1816851548 12.4007626134 23.3625599766 
Si 9.4552373665 13.9800292579 24.4647890077 
Si 10.3851357350 14.7143173046 22.3919342191 
Si 8.2644220656 15.4835799816 25.8872074466 
Si 10.9858457805 13.1576123103 26.0451490715 
Si 13.7548037158 16.2361128285 2.8627516758 
Si 14.3254587110 2.2822127309 0.0707838028 
Si 15.3140499501 4.0611296171 1.3023975512 
Si 15.1094638382 1.3618488995 4.2044620919 
Si 13.7243739955 2.7351073150 5.5870338203 
Si 15.0107627273 4.0677759372 7.0866091762 
H 11.8979554688 4.2963572193 10.9905545146 
Si 13.6632213350 0.0344712693 8.3410874449 
Si 15.2872528998 1.1504845185 9.6886495171 
Si 11.6820315168 4.6219128723 9.5401460473 
Si 14.2788530206 3.9225180059 14.5310718976 
Si 14.7574206450 1.8210102467 13.5569363262 
Si 13.2194491509 0.1103492755 14.1912098354 
Si 12.8892671379 1.9930652282 17.6953903217 
H 13.1525135403 3.1523430888 16.7429035183 
Si 13.5703357541 0.0603010194 16.5401601515 
Si 14.6618146341 1.9738756081 19.2233391310 
Si 14.7101307745 3.4462798515 21.0119284891 
Si 15.4488822813 0.0770776018 20.3578643487 
Si 12.6934124661 3.7335214241 22.1823481900 
Si 14.0819720788 2.1969345801 25.1713233910 
Si 15.5676200924 2.6372044141 23.2866123232 
Si 13.6781755551 3.1605206689 27.3965158999 
Si 13.7757200760 5.3287359787 2.6841227950 
Si 13.5011684135 8.0396852235 0.0712285759 
Si 15.0494026076 6.7192666815 4.1458865426 
Si 13.7314601456 8.1308929344 5.5343276235 
Si 14.6379497839 7.3271606170 9.8359732176 
Si 1.5359596790 9.5605359274 9.8060070755 
Si 14.7690191251 2.6729609644 11.3846269794 
H 14.9139023864 4.7701518736 13.4101435219 
Si 12.1342419210 4.6976776630 14.0708733593 
H 12.2897951324 4.8964319548 12.5641603987 
H 6.0311282052 2.8191474258 12.9223088861 
H 14.5827266834 7.7532255709 14.6021824965 
Si 13.7562698158 5.9374444143 17.7523436882 
Si 15.2419829894 4.5845924819 16.5437879423 
Si 14.2989711708 5.6395491816 19.9963535185 
Si 12.4552037939 5.9081061240 21.4618335396 
Si 12.9110957381 7.4878125985 23.1075823209 
Si 14.2282888601 6.1676058264 24.5761002480 
Si 13.0149607790 4.1450394079 24.4074227219 
Si 14.6031869236 5.2594871881 26.7464924695 
Si 1.4886502606 9.5117636670 28.5132560943 
Si 16.1071286073 8.4973527777 27.2655025110 
H 2.3412802714 14.0870382688 28.1974318331 
Si 14.9588790768 9.4047220760 1.4442441723 
Si 13.6801140651 10.8431779592 2.7996369638 
Si 15.1136829482 12.2191942718 4.1006423871 
Si 15.1014817381 9.5331198572 6.9044822792 
Si 13.7260355755 10.7986410988 8.3920829761 
Si 1.5909091075 14.6531157740 9.5207978295 
Si 10.4061498352 11.7168758272 11.5102724177 
H 14.7562151850 10.0519726519 13.2832593258 
Si 13.3999097726 10.3928734850 13.8154237958 
Si 12.7247055564 8.9239390116 15.5352620937 
Si 16.2486887086 11.4715647149 17.9219060413 
Si 13.9234703773 8.2748965357 17.4622383993 
H 15.3367256303 8.7854740103 17.2514431066 
Si 13.9156348873 11.4834727050 18.9204038502 
Si 14.1490380094 8.8742870912 21.6420138171 
Si 13.1643237904 9.2642208247 19.4901144805 
H 14.1799564297 10.2573081038 22.2823631386 
Si 16.0641392969 11.8274686382 24.3630633935 
Si 14.1729354396 10.5769830667 24.9739774691 
H 14.2280445101 9.1996146841 24.3571350524 
Si 11.9522500393 11.3427922637 24.9172895508 
Si 14.4371429520 10.2084055234 27.2110561544 
Si 13.8715541469 13.5524493339 29.4007670994 
Si 15.0870162180 14.9134951364 1.4201473829 
Si 13.7282184356 13.5089876135 5.5391941722 
Si 15.0286654374 14.9346395566 6.9176662020 
Si 14.2388610702 14.1428966793 11.0128521557 
Si 13.4422800629 14.1432387693 13.2757677903 
H 1.1214003523 11.5287263254 12.7734809797 
Si 12.8224292673 12.7402136365 17.1687117793 
Si 12.4691969040 14.9327987866 18.0519461205 
Si 13.8660807068 12.4953586443 14.9513057483 
Si 16.1422824276 12.4618664040 15.6443317723 
Si 15.8891684053 15.9999566963 16.6715274712 
Si 13.5031720835 12.9034557280 20.9058377283 
Si 13.3715488823 15.2209200192 20.3864737560 
H 15.7343808239 13.1104201799 20.4755168494 
Si 15.4203584910 15.3709346306 23.7960367385 
H 13.3953974425 13.2686612414 23.8673537971 
Si 13.3692194123 0.0104031362 24.4667946156 
Si 14.6816069843 13.2493901712 23.0458213942 
Si 12.1866794315 16.2157503283 22.3000301850 
Si 12.7644694467 15.3269842102 28.3326923917 
Si 11.9765872995 15.3234004101 26.1604420334 
H 1.0911840310 0.8519621208 26.4573015020 

