&CONTROL
/
&SYSTEM
   ntyp             = 2
   nat              = 407
   ibrav            = 0
/
&ELECTRONS
/
&IONS
/
&CELL
/

ATOMIC_SPECIES
Si 28.085 None
H 1.008 None

K_POINTS gamma

CELL_PARAMETERS angstrom
16.29000014900000 0.00000000000000 0.00000000000000
0.00000000000000 16.29000014900000 0.00000000000000
0.00000000000000 0.00000000000000 29.17519467510000

ATOMIC_POSITIONS angstrom
Si 2.6704523044 10.8083662288 2.6929725817 
Si 8.1379302144 2.6928836346 10.9106183774 
Si 4.7826788837 0.3102821488 23.2824472050 
Si 8.9499867218 10.0386148518 17.2312200774 
Si 15.0069508672 1.3840766047 4.2236637579 
Si 12.2438736220 4.0777291273 14.9987633561 
Si 0.1016448768 0.1533167573 29.0940292835 
Si 1.2846000898 12.1482350311 1.3215750509 
Si 3.9973053966 15.1002599881 24.9893711447 
Si 7.9091045823 2.7364268050 16.2634788701 
Si 8.2031879550 16.2781573189 13.6402787664 
Si 13.5642432941 2.7157385048 5.5063511918 
H 15.1328562784 9.4651416866 21.8858014607 
Si 1.3060980030 4.0189710968 14.9471816119 
Si 0.0162341580 2.6742804545 2.7516088879 
Si 1.3245904111 9.4795094667 4.0743451116 
Si 9.7015421687 3.4509225016 26.3575710741 
Si 14.9330431366 4.0644527772 6.8441505684 
Si 12.2870421224 0.7973042833 26.8041849542 
Si 13.3583051122 10.7006567479 26.2993373856 
Si 1.3036333259 4.4256020805 20.4891557164 
Si 4.0327524369 12.1763515714 4.0563148413 
Si 2.7272392449 16.2842823589 2.7868612757 
Si 6.6587167509 9.4932419368 27.9410547651 
Si 12.8776034978 2.1488464996 21.6574180368 
H 12.4264845236 11.0668070812 18.5351762283 
Si 13.5742779341 16.2645388788 8.1939409501 
Si 2.7847103655 2.7729815654 0.0455100944 
Si 4.0541249171 9.4853575767 6.7914893421 
Si 1.3793476176 9.4802750967 20.2353898731 
Si 7.2236050861 11.1815864223 21.2951788197 
Si 5.3858650093 13.5740172941 2.7359826537 
Si 8.8916522313 9.5225313571 25.1057801714 
Si 14.9062949563 1.3290440972 9.5770202288 
Si 1.4486126983 1.3673581775 1.3994494805 
Si 2.6457566642 5.4020898494 13.5959616457 
Si 8.0886366740 13.6205415346 0.0691694268 
Si 9.4006332860 6.3057613177 20.2337852374 
Si 13.5349050038 2.6690024944 10.9421859381 
Si 16.2598799387 10.8678247294 5.4041504849 
Si 12.9715479286 14.2846685506 0.2281932016 
Si 1.3345729232 12.1973656716 6.7827659588 
Si 4.1716409782 4.0486188970 1.4233468825 
Si 6.7231274115 14.8988178463 4.1407186795 
Si 5.4506829199 13.5732027941 13.5979747342 
Si 9.5706683075 9.6350463881 19.3813443994 
Si 16.1951271881 8.3466539863 24.2786050520 
Si 14.9133322364 15.1364237884 1.2906814372 
Si 2.0471154487 6.9574590636 23.2837309136 
Si 1.3783718466 4.0696981572 4.0696479052 
Si 1.3269394291 9.4871331868 9.5059494546 
Si 8.1080054842 13.5425287239 5.4805894949 
Si 14.9087710364 4.0521049571 12.2512769232 
Si 14.9450162867 6.7589817018 22.8808506503 
Si 13.5677293541 13.5561471640 5.4663228247 
Si 4.0286636468 1.3214496991 4.2120812056 
Si 2.6854879746 10.8389262691 8.1432344617 
Si 3.8200376149 12.4392233038 22.4720186473 
Si 5.3943032293 13.5458518839 8.1657868872 
Si 9.2260696444 0.5756983793 24.5952142646 
H 9.6543500383 8.8134439406 21.9613943901 
Si 14.9252565165 14.9040795163 6.8337350239 
Si 4.0259106368 12.2016010716 9.5082834702 
Si 3.3624678008 10.2335735736 23.0869442255 
Si 0.0338027277 16.2387680985 5.4992907947 
Si 8.1294105443 5.4256288996 13.5889887742 
Si 6.7608550518 14.9076796063 9.5185239635 
Si 13.5954875143 2.7680619853 16.4242925431 
Si 13.6022641544 13.5589164640 10.8843023519 
Si 2.6726025844 2.7166996148 5.5012455327 
Si 1.2792243897 12.2623139021 25.1189965346 
Si 8.1302576244 13.5658071341 10.8720195949 
H 5.1771575274 13.0145861090 22.7477242370 
Si 10.7686674985 5.0931174166 23.3517091172 
Si 11.5308277355 7.1362581053 24.3644092995 
Si 13.4299485328 16.2092831982 13.7528658427 
Si 1.3480757043 1.3328168612 6.8626476419 
Si 0.0077768461 0.0392799145 16.2782415186 
Si 6.7414373717 12.2057387316 12.1850784064 
Si 4.0781526673 14.9249470065 12.2513060984 
Si 10.5070012261 10.5584450466 23.7162531746 
Si 9.2847299349 11.8780327986 22.1978301678 
Si 14.9493494267 12.1634498912 14.9346654534 
Si 4.0653487272 4.0597449671 6.8307008037 
Si 1.3219498021 1.3281383732 12.2727790416 
Si 4.3368541597 6.9291144634 20.4036140456 
Si 12.1866468515 6.7168883414 17.7498675132 
Si 10.9031903197 13.4814412233 13.4018299004 
H 14.6224254137 11.0069902007 23.6966474438 
H 14.0534482885 12.5732411350 28.6175400041 
H 2.8592859862 2.9236640667 19.8101322356 
Si 4.0360755969 1.4304330581 27.7342318101 
Si 2.6664449644 8.1279607343 10.8686352723 
Si 3.9652466763 6.8310486625 14.9122005535 
Si 10.4154025553 0.5618307021 17.0546809745 
Si 16.2580880387 2.6805195245 8.2038313411 
Si 16.2846896089 8.0981337441 13.6373612470 
Si 2.7141420848 1.0352734925 22.4361623331 
H 3.3869353810 2.5931236737 25.0374226903 
Si 2.6942519946 16.2621279587 8.2178354345 
Si 9.4987805369 4.0382910369 12.2779722263 
Si 12.2651646522 12.1109472208 12.1402653074 
Si 14.1718277196 9.7197380989 24.3538770543 
Si 12.7226855964 14.7983085453 27.1050395617 
Si 1.3384922972 4.0495311370 9.5284727049 
Si 6.0458054953 4.8517810644 0.2284108486 
Si 6.6979756513 6.8284911324 17.5223885203 
Si 5.9272305842 5.6297100215 21.6063614461 
Si 9.3063630551 0.9131506194 20.6941989846 
Si 9.5019896669 9.4581858565 1.3257908665 
Si 8.4068618269 13.5776988342 16.1378796570 
Si 4.0517302871 1.3342552682 9.5680050937 
Si 5.4280235296 8.0863397840 2.7032014050 
Si 6.7702055119 6.7499733317 12.2031378519 
H 6.0907170257 11.2361579228 22.2993890204 
Si 10.8287124390 10.8406855891 29.1254801434 
Si 16.2893485490 10.8364827691 10.9010780888 
Si 12.7725655768 13.8433235766 23.8334499316 
Si 2.7142072448 11.0734696913 26.5655902122 
Si 2.6198229840 16.2407880585 18.8861246450 
Si 9.4325453963 1.4212894810 15.0674709396 
Si 8.2303108053 5.4462194598 2.8270413538 
Si 12.1375813710 12.2872538924 1.3195794676 
Si 16.1755303179 10.5577282866 21.6575055624 
Si 16.2375952185 16.2488841886 10.9462121150 
Si 5.7736810428 1.7012461656 19.9251408530 
Si 2.6677807444 2.6889740346 10.9019825198 
Si 5.6079465813 5.1002850167 27.1205024149 
Si 8.1123712042 8.0794816939 29.1596734715 
Si 7.0001388640 12.6948622761 19.4562662993 
Si 12.2234133818 9.5020548269 4.0138941082 
Si 12.9054919780 8.6809573694 20.7574216315 
H 4.8624021445 3.2638318498 18.4380520052 
Si 6.8550275427 6.7106166914 1.4101655295 
Si 4.8401500043 4.4601694608 23.3047078785 
Si 10.8515835992 5.4295059197 16.3146521615 
Si 9.4437854964 12.1010266107 4.1916002190 
Si 16.2475484086 8.0167326133 19.0777181484 
Si 13.5615880240 10.8068675488 13.6015924583 
Si 5.4253845496 5.4043052894 5.4584163470 
Si 0.7447380818 1.1644336456 25.5305126555 
Si 2.7175955648 10.8740312195 13.6081277019 
Si 10.8454096892 2.7051825847 13.6857337197 
Si 9.4971841169 9.4636104265 6.8376445000 
Si 9.4295643262 12.2645782122 27.9006762957 
Si 16.2121502383 2.6622584343 13.6172887130 
Si 4.0233856868 4.0572037271 12.2393734437 
Si 8.1237416243 8.1369853944 5.4740542513 
Si 8.6686258393 0.2384057812 18.5472547588 
Si 10.3911304550 0.7811299421 28.1422177324 
Si 10.7715345385 5.2112036277 27.4209485697 
Si 10.8771751895 10.7814551486 5.4743460032 
Si 10.8162505889 13.6599633349 19.0618468425 
Si 2.6309816341 4.4659198308 22.5020107474 
Si 1.5244556809 9.3775666458 27.7542751688 
Si 6.7725024019 6.7611808518 6.8205770111 
Si 6.8595561627 14.8997300863 14.9535709795 
Si 11.0533189611 7.8332746316 19.4985411564 
Si 12.2124339217 12.1857183214 6.8129331101 
Si 14.9521675967 11.8296352082 27.6386538723 
Si 1.2396396893 1.3983124358 17.7221219030 
Si 5.4027088694 8.1247516043 8.1566258761 
H 8.0378281635 13.9255392074 24.3425570787 
Si 16.1053367073 1.9795119481 27.5258333945 
Si 12.5580751449 5.7965847830 25.9788478721 
Si 12.2235437018 9.4546672165 9.5037321398 
Si 2.7338366950 13.5826835742 16.3707268857 
Si 8.1186428542 5.4020083994 8.1892437437 
Si 6.9959849140 8.0206910834 24.7800099477 
Si 8.0720697438 8.1477693745 16.1636121787 
Si 9.4826045667 12.1960298915 9.5211789062 
H 14.1176960491 1.3759690716 24.4295283340 
Si 1.3989770678 6.7993320322 17.6577614236 
Si 2.7874307955 5.6350694315 19.1370896696 
Si 8.0079685932 2.4471978524 23.6439278670 
Si 5.3985223394 5.3931303493 10.8773294803 
Si 13.5981427844 5.4600822499 2.8899489085 
Si 16.2144634183 13.6067113244 2.6084812179 
Si 2.6300042340 13.6103765745 0.0884527717 
Si 2.7260174949 16.2844452589 13.6121247036 
Si 8.1208094243 8.1042913641 10.8431069770 
Si 5.1783955674 14.1524589094 19.6227983105 
Si 6.8735329829 15.0355072375 27.7947119886 
Si 13.4988715235 8.1582112646 29.1511834899 
Si 4.0567801871 14.9699236969 1.3673042510 
Si 7.4491890081 9.0454787027 20.3864882064 
Si 9.5177420971 3.9972076566 1.4992286463 
Si 9.0690829129 6.8077213823 27.4065943739 
Si 8.9505405819 13.9989908180 23.1292482578 
Si 14.9882499471 6.8051149822 4.1653717190 
H 0.0540270887 5.2035636176 20.8252247839 
Si 3.8857188955 6.7277863515 27.2213318877 
Si 4.0173909667 9.5137021770 12.1924013803 
Si 1.3152057420 14.8936376262 4.0430109525 
Si 11.2255694227 15.8268917347 0.6800066849 
Si 13.5633473440 8.1656557947 5.4353095928 
Si 2.6810570945 13.5457541439 5.4148577813 
Si 10.7672502685 2.6265018840 2.9119732630 
H 11.8552430884 11.1718612922 20.8674412906 
Si 13.5677130641 5.4117498195 8.1941451765 
Si 14.9446416167 9.4647507266 12.2635013297 
Si 13.9209942973 13.9701575178 21.7746439690 
Si 0.0311350773 5.3808151092 16.3643958685 
Si 1.8281452667 5.7156071923 26.4966200520 
Si 4.0119826867 14.8913244462 6.8293587447 
Si 8.0604223937 15.4185503010 21.5364868549 
Si 12.2650506222 1.3909428397 1.6318619988 
Si 14.9265597165 6.7768844120 9.5253801343 
Si 0.0036383227 13.5461613939 8.1732265619 
Si 5.3106703686 5.4741568101 16.2294897683 
Si 7.9182758524 5.2917576784 18.7622467684 
Si 9.4336531163 1.2862991368 4.2403519693 
Si 13.5791812242 8.1248982143 10.8915669753 
Si 13.7110487754 13.5318587738 16.3503917750 
Si 12.1870703915 4.0555910171 4.1473997990 
Si 2.1158755394 2.5492384133 24.2008239830 
Si 1.3185745141 14.9119638764 9.5661962316 
Si 6.6712274710 4.1275276577 14.8907859606 
Si 13.6821503151 0.1165810151 18.9873042201 
Si 13.5406553738 8.0973355341 16.3911495220 
Si 9.4893323368 4.0560634271 6.8510067392 
Si 2.7078541448 13.5653021441 10.8980730437 
Si 7.3506182172 11.8169778781 17.3195333917 
H 6.7698960019 12.1645413213 23.9193417048 
Si 16.1786905780 5.3838613392 0.1600268180 
Si 14.9176327964 12.2055432516 20.5058147526 
Si 7.7951560313 7.0952073049 21.7609316275 
Si 5.4971094203 10.8819481595 16.2142311415 
Si 5.3857835593 13.7843863561 26.4193933117 
Si 10.8676455394 16.2300203684 5.5021791390 
Si 10.8405063991 15.3360414503 23.5183286540 
Si 16.2834678589 8.1193270343 2.6959426165 
Si 2.7527005152 5.4304018697 2.7078840237 
Si 6.7494357617 1.2967703489 17.7702609743 
Si 8.0620025237 10.7655235285 13.4609971952 
Si 12.2144538817 1.3277262361 6.8413789249 
Si 14.5754124733 6.9859828539 20.5202564739 
Si 15.4092812909 4.6176937622 23.7434152809 
Si 0.0113664453 2.6826372245 19.3128993927 
Si 2.8814566764 7.9687259829 29.0659335710 
Si 1.2723988796 14.8522773158 27.8069363952 
Si 9.4878499468 1.3428400983 9.5377795920 
Si 8.6209775888 14.3830764415 19.5269869712 
Si 12.2512529920 1.7464672060 18.0597080806 
Si 1.3941601148 6.7698797119 1.3270774926 
Si 1.3879796887 14.9344603666 14.9819584440 
Si 10.8516487592 2.6901794946 8.1868513778 
Si 10.5432953464 11.6313207464 20.2599845622 
Si 14.8740570460 1.2660327476 20.6781818027 
Si 13.5214657537 5.2994791385 19.1200221807 
Si 1.1508298665 3.9560428262 28.0062905004 
Si 4.0726629372 6.7715087119 4.1023824736 
Si 1.3212525901 4.8330964342 24.3827313218 
Si 12.2116520017 4.0338275769 9.5496538962 
H 13.5051594635 7.0478522745 23.3311406049 
Si 14.9865069171 14.9950428771 17.6479585582 
Si 0.0280666929 5.3962417393 5.4764757925 
H 6.3957146985 7.9143173824 23.3799798808 
Si 6.6784113611 9.4292222362 14.8012472882 
Si 5.4949428503 16.2679109088 16.2992184835 
H 11.6287795064 11.7988796879 16.8688349844 
Si 10.8623187093 16.2865303790 10.8746745376 
Si 2.6938773246 8.1308766444 5.4381687619 
Si 2.4577374825 13.7883285361 23.7990523771 
Si 5.8282688333 15.9242570656 21.2110083831 
Si 12.1690862313 1.3105158510 12.3211806896 
Si 9.3930258559 14.8049385754 1.6219745253 
Si 12.3934972733 14.9678548669 20.2690872230 
Si 1.3630299245 6.7732680319 6.8215397926 
Si 4.0750575673 12.4173947036 27.9060445315 
Si 10.8451164692 10.8017199088 10.8256310354 
Si 10.7994555988 13.4413352429 2.8762219794 
Si 9.5072024669 14.9316259066 12.2086519637 
Si 14.3343530511 14.6251132638 25.4252193779 
Si 3.4613318117 1.6230150688 20.2755057658 
Si 1.3473133323 12.2158874017 12.2514519743 
H 4.6614975726 5.2655470682 24.5687815382 
H 10.2129993034 2.1686877198 28.7528545570 
Si 16.2648483888 8.1343138344 8.1447807471 
Si 12.2216051918 14.9010332863 4.1009820643 
Si 2.7063065948 5.4151707195 8.1848091141 
Si 7.4781852084 5.9943290948 25.8429498153 
Si 4.1977049784 9.6435497682 17.7192919092 
H 9.9929051114 3.2188714494 18.5481300147 
Si 9.4878662368 12.1552723112 14.6403169143 
Si 9.4882409068 14.8865351861 6.8376445000 
Si 10.8575294493 13.5385702538 8.1790907760 
Si 4.0547765171 6.7769984420 9.5350079485 
Si 1.4287959131 15.3362369303 22.3199867079 
Si 5.3541483790 10.9208486799 0.0675076077 
Si 8.7766937003 4.4938734711 24.5223929787 
H 9.9385453809 14.3499914512 25.5868791316 
Si 12.2149425817 14.9014405363 9.5371669129 
Si 2.7717761053 8.2415509054 16.3814633573 
Si 2.6873124546 10.9744590704 18.9646642691 
Si 1.0493464236 10.4137898452 23.6783837719 
Si 8.1388424544 10.8060530488 2.7161639439 
Si 15.4486053513 15.8169385447 22.1988804748 
Si 10.8233041590 13.4995557035 26.4752346343 
Si 4.0708873272 1.3399421072 14.9996969623 
Si 6.7672081519 12.2171091517 1.4113704650 
Si 4.1465706679 14.9779546670 17.6692272751 
Si 11.3618515639 0.2999412567 21.5861430362 
Si 14.8595100759 14.9260547265 12.3408155956 
Si 3.9657516663 4.1573220680 17.6152239898 
Si 6.7718345119 9.4557423565 4.0664678090 
Si 7.9233909125 10.9782546404 26.6174637083 
Si 4.0739009773 12.2530937621 14.9621484868 
Si 10.3831972250 4.4473329407 21.1283258814 
Si 14.8951200162 9.4797538167 1.3401042170 
Si 2.9438799569 8.4054608869 21.6207448171 
Si 5.4093063195 10.8295432290 5.4159956139 
Si 10.4603466657 8.2449066454 26.2320010363 
Si 13.8605095268 2.4847463027 27.2457515256 
Si 16.2627795587 5.4005911694 10.8780296850 
Si 13.5648134441 10.9201807899 2.6539099135 
Si 15.0160243973 4.0432269070 17.8226596239 
Si 6.7442881217 12.1809290614 6.8099864155 
H 8.5165098179 7.1724219056 23.0846977355 
Si 10.7826443186 10.8604127793 16.0660503277 
Si 10.5328534563 14.5466932030 16.8196747814 
Si 14.9115566264 12.2529797321 4.0426608501 
Si 1.3159273890 6.7613763318 12.2315544916 
Si 1.6989981455 14.5118000227 20.1663321873 
Si 2.5883181237 16.2789718189 26.4600927082 
Si 6.7675013719 9.4805357367 9.5034403879 
Si 5.2818533583 8.4664017774 26.3070104618 
Si 14.9194084064 9.5151194070 6.7902639839 
H 3.2653631099 7.3022206268 24.1573237677 
Si 5.3919574693 0.0445202446 29.1340284754 
Si 8.1281725043 10.8429987692 8.1600977243 
Si 15.1672607587 0.2651669934 24.4055754992 
H 13.8562252567 6.3419739880 26.9028262874 
Si 13.5754182342 10.8461916092 8.1768734612 
Si 5.3744782991 2.6516699343 2.8651499931 
Si 5.3769217992 2.6908799646 13.5783981785 
Si 5.3925927793 10.8443345492 10.8366009086 
Si 6.2356980270 11.9090815389 25.3059220069 
H 10.3040604042 8.3890894367 22.0010726549 
Si 14.9460262667 12.1941565415 9.5325280570 
Si 1.3841694577 9.4773754767 14.9486695468 
Si 1.2689861246 12.2001512616 17.5879160075 
Si 8.0728353738 0.0040798631 2.8302622953 
Si 6.8027040622 1.3291760462 12.2798394387 
Si 9.4958483369 9.4437040464 12.1781638853 
Si 12.2863905224 9.0141530324 23.0874110286 
Si 2.6508228542 2.6922157446 16.3365627327 
Si 0.4142481878 7.6681429001 26.5110617733 
Si 7.6788291402 3.1162281585 0.3133415908 
Si 12.1392755310 3.4736796318 19.8681616978 
Si 8.4908367776 0.2328899871 26.8561751511 
Si 11.4251219245 4.7876147538 0.3771039788 
Si 15.0347416075 6.8840726130 27.9547962818 
Si 6.6898958112 1.3284283351 1.4646881333 
Si 10.8510948992 8.0958042740 2.7019614592 
Si 11.8538095684 12.0109591998 25.0056509033 
Si 12.1333459710 14.6186461337 15.0278802004 
Si 13.6080959745 10.5393368764 19.3335554305 
Si 6.8030461522 4.0553303771 4.1079257606 
Si 4.4362068706 10.3154796943 25.1883459723 
Si 11.0343736909 1.9039426374 25.2006870797 
Si 12.2824483423 6.7237301415 1.4180049043 
Si 13.5853877142 5.4241790896 13.6248159133 
H 13.0614198595 12.7084318462 17.4277733640 
Si 0.0075068067 13.5746526041 13.6270624033 
Si 5.6348250815 8.2849474658 19.0079019076 
Si 5.3993368394 16.2505946386 5.5252567180 
Si 9.5425191873 6.8061412522 4.1722278897 
Si 14.8295853456 1.3364772242 15.0097040541 
Si 16.2683670288 10.7869611687 16.2733400859 
Si 8.1035583141 2.7059970847 5.5263070250 
Si 5.5599073709 2.8055941457 26.4577586927 
Si 10.8598914993 5.4146168595 5.5134407641 
Si 12.0274121000 9.3674668457 27.6964207578 
Si 16.2185684983 13.5050291435 19.0108194270 
Si 16.1027628873 13.4701196732 26.4573502399 
Si 6.7554467718 1.3318410902 6.8633478465 
Si 6.7998858922 3.8531063152 20.3171095934 
Si 9.5105907870 6.7765911920 14.9308435029 
Si 12.2113262017 9.4143820461 14.9453435747 
Si 13.7902996261 3.9439067761 25.3133033311 
Si 12.2389214619 6.7784482520 6.8178053677 
Si 5.3958019094 2.6893812846 8.2023725813 
Si 9.3489288255 4.0663587072 17.4732866677 
Si 8.6192182688 2.9621899171 21.4615357797 
Si 9.4983569969 6.7371856816 9.5325572322 
Si 10.8514206992 8.1075819442 13.5551747236 
Si 14.9294267565 6.7513579818 15.0316146253 
Si 3.3503154606 12.8572409976 20.2590509560 
Si 7.7630484410 2.4234307422 27.2595805679 
Si 5.3345677988 8.0859814040 13.4823826129 
Si 8.1377836044 16.2631053587 8.1863845747 
Si 10.8539456493 8.0932467440 8.1755605774 
Si 13.6819222551 0.0479750278 2.8864624728 
Si 4.0542389471 9.4368133763 1.3411545240 
Si 6.7693910119 4.0363688169 9.5453067922 
Si 10.8516161792 5.3854414692 10.9026243741 
Si 13.1303754301 3.1194209985 0.2496798573 
H 15.3226347801 3.5435963124 22.6858728243 
Si 12.2535335921 3.2224226695 23.7035036146 
Si 0.0644574129 10.6583190375 29.0988140154 
Si 5.7101989122 2.3876090318 24.1028536793 
Si 5.4411043998 16.2763979989 10.9021867462 
Si 14.8561706259 4.0589630471 1.5253025178 
Si 12.2255310818 6.7493054417 12.2339468575 
Si 14.9484860567 9.4553839765 17.7217134503 
H 1.6956749855 6.3631835682 20.2830329660 

