&CONTROL
/
&SYSTEM
   ntyp             = 2
   nat              = 407
   ibrav            = 0
/
&ELECTRONS
/
&IONS
/
&CELL
/

ATOMIC_SPECIES
Si 28.085 None
H 1.008 None

K_POINTS gamma

CELL_PARAMETERS angstrom
16.29000014900000 0.00000000000000 0.00000000000000
0.00000000000000 16.29000014900000 0.00000000000000
0.00000000000000 0.00000000000000 29.17519467510000

ATOMIC_POSITIONS angstrom
Si 2.6685300844 10.8095228189 2.6947726912 
Si 8.1368713644 2.6929650846 10.9110851806 
Si 4.7789647637 0.3087362278 23.2806675181 
Si 8.9457676118 10.0429479918 17.2331164651 
Si 15.0068694172 1.3843616797 4.2243347874 
Si 12.2471967820 4.0717506972 14.9935118211 
Si 0.1023280794 0.1519039256 29.0922204214 
Si 1.2840348267 12.1485119611 1.3206297746 
Si 3.9963605765 15.0998853181 24.9898087726 
Si 7.9108639024 2.7373390450 16.2651418562 
Si 8.2026340950 16.2781573189 13.6403662920 
Si 13.5641944241 2.7159991448 5.5073139732 
H 15.1475824385 9.4537549765 21.8364953817 
Si 1.3013592419 4.0345932069 14.9628195163 
Si 0.0162832072 2.6741990045 2.7517460114 
Si 1.3231796971 9.4797863967 4.0753078930 
Si 9.6991312487 3.4591815316 26.3499855235 
Si 14.9328639466 4.0649251872 6.8449966491 
Si 12.2868140624 0.8004287053 26.8015300115 
Si 13.3525058721 10.6989788778 26.3040345919 
Si 1.3320170222 4.3986421302 20.4698709127 
Si 4.0326058269 12.1767588214 4.0569858707 
Si 2.7273206949 16.2839728489 2.7871267699 
Si 6.6510278708 9.4962555868 27.9497489732 
Si 12.8770007678 2.1578548697 21.6561926786 
H 12.4507729139 11.0981979115 18.5252566621 
Si 13.5745059941 16.2649787088 8.1948745563 
Si 2.7847592355 2.7730955954 0.0475103458 
Si 4.0536525071 9.4855530567 6.7924229483 
Si 1.3840782337 9.4912219768 20.2246825767 
Si 7.2022000259 11.1813257823 21.2878850210 
Si 5.3855392093 13.5748969542 2.7365282298 
Si 8.8719413311 9.5172859770 25.1154371609 
Si 14.9063926963 1.3299677402 9.5779246599 
Si 1.4482787533 1.3664557115 1.3994611506 
Si 2.6437041242 5.4031486994 13.5998711218 
Si 8.0898910040 13.6200039646 0.0677080413 
Si 9.4097719761 6.3156004778 20.2343979165 
Si 13.5354751538 2.6698332844 10.9431778947 
Si 16.2594075287 10.8684111694 5.4055217190 
Si 12.9719714686 14.2853201506 0.2281651935 
Si 1.3341542702 12.1982779116 6.7843705946 
Si 4.1722111282 4.0489121170 1.4243125814 
Si 6.7227527415 14.8993391263 4.1414772345 
Si 5.4503408299 13.5745548641 13.5976246318 
Si 9.5548018474 9.6320164481 19.3829198599 
Si 16.2274465484 8.3275783962 24.2651844624 
Si 14.9135602964 15.1366844284 1.2910344571 
Si 2.0780338690 6.9398821535 23.2381300843 
Si 1.3784142006 4.0695515472 4.0701438835 
Si 1.3263692791 9.4872309268 9.5067663601 
Si 8.1075656541 13.5427242039 5.4813188748 
Si 14.9095040864 4.0532452571 12.2520938286 
Si 14.9406016966 6.7785297020 22.8733234501 
Si 13.5678270941 13.5560982940 5.4670230294 
Si 4.0285659068 1.3215067141 4.2125188335 
Si 2.6850644346 10.8391706191 8.1442847687 
Si 3.8157044749 12.4407219838 22.4733023559 
Si 5.3938796893 13.5458681739 8.1665162671 
Si 9.2237075944 0.5804892683 24.5938722056 
H 9.7490112292 8.8174024106 22.1603108674 
Si 14.9252565165 14.9042587063 6.8346686302 
Si 4.0254708068 12.2019594516 9.5092462516 
Si 3.3692444408 10.2290286636 23.0767620825 
Si 0.0337110150 16.2389472885 5.5000493498 
Si 8.1267878543 5.4261175996 13.5895722781 
Si 6.7602523218 14.9077936363 9.5191658178 
Si 13.5976052144 2.7638917453 16.4234756377 
Si 13.6019220644 13.5590630740 10.8840981255 
Si 2.6723908144 2.7165692948 5.5020040878 
Si 1.2732736526 12.2525887721 25.1104482026 
Si 8.1297852143 13.5658885841 10.8723696972 
H 5.1745348373 13.0147978790 22.7481035145 
Si 10.7587305984 5.1046833167 23.3475370643 
Si 11.5298992054 7.1235681951 24.4196962934 
Si 13.4297204728 16.2094786782 13.7508235791 
Si 1.3478655633 1.3329113432 6.8637562993 
Si 0.0103912119 0.0448390399 16.2810423373 
Si 6.7410789917 12.2063740416 12.1857202607 
Si 4.0765888273 14.9264945565 12.2525606317 
Si 10.4569909256 10.5870991568 23.7327371596 
Si 9.2555382547 11.8849560487 22.1868894698 
Si 14.9507992367 12.1676527113 14.9297348455 
Si 4.0645993872 4.0597123871 6.8319845123 
Si 1.3191088261 1.3358435432 12.2803354171 
Si 4.3205967395 6.9333824434 20.3824620295 
Si 12.1940425115 6.7074564313 17.7283945699 
Si 10.9019034097 13.4815878333 13.4034345361 
H 14.6529040040 10.9922803305 23.7053708270 
H 14.0623589186 12.5778349150 28.6258549346 
H 2.8492024761 2.9259772468 19.8444130893 
Si 4.0351633569 1.4305356851 27.7353988179 
Si 2.6657119144 8.1280747643 10.8693646522 
Si 3.9564989462 6.8320423525 14.9215366158 
Si 10.4147183752 0.5577500571 17.0545059233 
Si 16.2580554587 2.6812199945 8.2046774217 
Si 16.2857973289 8.0984921241 13.6384407292 
Si 2.7098741048 1.0320513304 22.4359289315 
H 3.3854041210 2.5982550238 25.0106398616 
Si 2.6937632946 16.2622256987 8.2193817198 
Si 9.4970700869 4.0387797369 12.2786140806 
Si 12.2641383822 12.1122992908 12.1405570594 
Si 14.2266598601 9.7097523288 24.3871367762 
Si 12.7268069664 14.8018434754 27.1053604889 
Si 1.3383245102 4.0500361270 9.5296688879 
Si 6.0459358153 4.8514552644 0.2279215806 
Si 6.6992625613 6.8265200424 17.5195877016 
Si 5.9168212741 5.6290584215 21.5927949806 
Si 9.3051575951 0.9139406844 20.6920400202 
Si 9.5023154669 9.4604990365 1.3274305124 
Si 8.4044834869 13.5765585342 16.1385506865 
Si 4.0504596670 1.3347048722 9.5699306565 
Si 5.4265248496 8.0866167140 2.7067607787 
Si 6.7644225619 6.7517489417 12.2083310366 
H 6.0718369155 11.2434721328 22.2916575938 
Si 10.8283051890 10.8406855891 29.1227376751 
Si 16.2885992090 10.8362547091 10.9020700454 
Si 12.7684767868 13.8430629366 23.8298905579 
Si 2.7154941548 11.0738280713 26.5596384725 
Si 2.6212727940 16.2475646986 18.8849576372 
Si 9.4322521763 1.4201410360 15.0680252683 
Si 8.2287795453 5.4460565598 2.8300405638 
Si 12.1370763810 12.2869769624 1.3181703057 
Si 16.1839033780 10.5618496566 21.6464481636 
Si 16.2384585885 16.2540155387 10.9501507662 
Si 5.7717588228 1.7025167856 19.9191307629 
Si 2.6663635144 2.6895930546 10.9043457106 
Si 5.6065619313 5.0979555466 27.1192770567 
Si 8.1054968241 8.0827234039 29.1683676795 
Si 6.9966528040 12.6961980561 19.4529403271 
Si 12.2233645118 9.5022828869 4.0143609113 
Si 12.9646246786 8.6567504292 20.6035808299 
H 4.8677941345 3.2666337299 18.4264402777 
Si 6.8514437427 6.7096555814 1.4147197774 
Si 4.8347743042 4.4696828209 23.3002440738 
Si 10.8532940493 5.4232994296 16.3029529085 
Si 9.4438343664 12.1017759507 4.1923295988 
Si 16.2517675186 8.0511045136 19.0618760177 
Si 13.5610341640 10.8089852489 13.6011256552 
Si 5.4246514996 5.4043541594 5.4601960338 
Si 0.7480905638 1.1644255006 25.5270408073 
Si 2.7199576149 10.8732818794 13.6068439933 
Si 10.8443345492 2.7024458647 13.6833997042 
Si 9.4971841169 9.4637407466 6.8386948070 
Si 9.4304928562 12.2657348022 27.8960666149 
Si 16.2130461883 2.6734170845 13.6280251847 
Si 4.0215286268 4.0575458171 12.2421742624 
Si 8.1237416243 8.1370342644 5.4753379599 
Si 8.6670294193 0.2346721131 18.5464378534 
Si 10.3920915650 0.7834463802 28.1409631991 
Si 10.7665172185 5.2061211476 27.4379577082 
Si 10.8769634195 10.7815040186 5.4749003319 
Si 10.8191664989 13.6485277548 19.0673609543 
Si 2.6201324940 4.5495201116 22.4985680745 
Si 1.5305986400 9.3806943258 27.7553254758 
Si 6.7721603119 6.7613437518 6.8218898949 
Si 6.8590023027 14.9002676563 14.9535126292 
Si 11.0481061610 7.8360765117 19.4473386898 
Si 12.2123361817 12.1856042914 6.8134290885 
Si 14.9473946267 11.8266704282 27.6404919096 
Si 1.2395435783 1.4061576999 17.7277818908 
Si 5.4021224294 8.1248656343 8.1578220591 
H 8.0333972835 13.9334724374 24.3407482166 
Si 16.1078779473 1.9779969781 27.5231201014 
Si 12.5652590349 5.7885049429 26.0118741924 
Si 12.2232016118 9.4548789865 9.5050741988 
Si 2.7351561850 13.5854040042 16.3693848267 
Si 8.1179423842 5.4021387194 8.1909067298 
Si 6.9881820039 8.0201046434 24.7932846613 
Si 8.0735847138 8.1487956445 16.1633496019 
Si 9.4821321567 12.1960624715 9.5217040598 
H 14.1235930292 1.3747652406 24.4271359681 
Si 1.3924382617 6.8058806122 17.6936177378 
Si 2.8174532658 5.5926014011 19.0815400989 
Si 7.9993023132 2.4509119724 23.6436361151 
Si 5.3965349594 5.3938471093 10.8799552478 
Si 13.5987129344 5.4604243399 2.8911946893 
Si 16.2145122883 13.6067439044 2.6087437947 
Si 2.6290431240 13.6107349545 0.0859895100 
Si 2.7251541249 16.2879964790 13.6133500618 
Si 8.1178935142 8.1035908941 10.8467247011 
Si 5.1780534774 14.1561078695 19.6211353244 
Si 6.8749339229 15.0359144875 27.7934574553 
Si 13.4983339535 8.1571035446 29.1483243208 
Si 4.0562263271 14.9696793469 1.3664406652 
Si 7.4414349681 9.0408849227 20.3981582842 
Si 9.5145166770 3.9943894865 1.5042963776 
Si 9.0567350928 6.7972632022 27.4264335063 
Si 8.9464517918 14.0043990981 23.1262140375 
Si 14.9883639771 6.8055711022 4.1664803764 
H 0.1965323358 5.3804241492 20.7399456898 
Si 3.8889117356 6.7282750515 27.2256206413 
Si 4.0179611167 9.5139953970 12.1912927229 
Si 1.3151943390 14.8936539162 4.0436819820 
Si 11.2251784627 15.8275596248 0.6786967187 
Si 13.5628423540 8.1657861147 5.4362431990 
Si 2.6809267745 13.5459333339 5.4158497379 
Si 10.7670873685 2.6246285340 2.9147303189 
H 11.8476682384 11.1550337220 20.9083449135 
Si 13.5674687141 5.4121570695 8.1951079579 
Si 14.9442669467 9.4648484666 12.2651059654 
Si 13.9212223573 13.9812672979 21.7744105674 
Si 0.0286265802 5.3941240393 16.3862480893 
Si 1.8346612668 5.7182135923 26.5020174630 
Si 4.0115754367 14.8916502462 6.8304382269 
Si 8.0580114737 15.4219874910 21.5342111897 
Si 12.2647248222 1.3901283397 1.6327605948 
Si 14.9263153665 6.7772753720 9.5263720909 
Si 0.0037870504 13.5476926539 8.1755897526 
Si 5.3105237586 5.4747758301 16.2270098767 
Si 7.9268932625 5.2972148284 18.7632679002 
Si 9.4328874863 1.2849421798 4.2422483569 
Si 13.5790997742 8.1250774043 10.8927631583 
Si 13.7130361554 13.5380163938 16.3456362183 
Si 12.1870215215 4.0557050471 4.1484209309 
Si 2.1034462692 2.5550050734 24.1902042121 
Si 1.3180239120 14.9141304464 9.5698431310 
Si 6.6703152310 4.1269737977 14.8925656475 
Si 13.6859295952 0.1223699924 18.9871291690 
Si 13.5441251439 8.1007890141 16.3838265481 
Si 9.4890391168 4.0563892271 6.8524071485 
Si 2.7073654448 13.5651881141 10.8996485043 
Si 7.3425057972 11.8174177081 17.3166742226 
H 6.7825533320 12.1594751312 23.9137108922 
Si 16.1797168480 5.3833400592 0.1608653131 
Si 14.9339553766 12.2234296718 20.5111538132 
Si 7.7889821212 7.0855799148 21.7567303995 
Si 5.4920432302 10.8804494795 16.2106717677 
Si 5.3876243293 13.7848424761 26.4164466170 
Si 10.8678410194 16.2294827984 5.5033461468 
Si 10.8383561191 15.3374749703 23.5168698942 
Si 16.2822461089 8.1198320243 2.6959922143 
Si 2.7530263152 5.4305810597 2.7089051555 
Si 6.7489796417 1.2966905279 17.7685104626 
Si 8.0612531837 10.7659144885 13.4618141006 
Si 12.2143724317 1.3280145692 6.8423708816 
Si 14.6502161540 6.9627370237 20.4925108638 
Si 15.3952067308 4.6427314925 23.7500672253 
Si 0.0207244640 2.6916944646 19.3343431608 
Si 2.8828413264 7.9693938729 29.0693470688 
Si 1.2695758226 14.8492799558 27.8023558897 
Si 9.4871657668 1.3430893353 9.5382463951 
Si 8.6240238189 14.3785478215 19.5288541837 
Si 12.2492330320 1.7457341560 18.0579867441 
Si 1.3942073558 6.7699937419 1.3285479224 
Si 1.3882891987 14.9378975566 14.9832713277 
Si 10.8517139192 2.6905704546 8.1880767360 
Si 10.5494366765 11.6112188862 20.2716546401 
Si 14.8730796460 1.2702534866 20.6830832354 
Si 13.5277374037 5.3013036185 19.1141287914 
Si 1.1520825675 3.9557496062 28.0080993625 
Si 4.0714411872 6.7714761319 4.1047456644 
Si 1.3061729369 4.8164969240 24.4074135365 
Si 12.2115868417 4.0345117569 9.5510543056 
H 13.5249355237 7.0886750148 23.3778500916 
Si 14.9880218871 14.9998484272 17.6466748496 
Si 0.0281121420 5.3962906094 5.4770592964 
H 6.3925707285 7.9423850526 23.3899869726 
Si 6.6777108911 9.4291244962 14.8012472882 
Si 5.4939654503 16.2694421688 16.2974387967 
H 11.6360611364 11.8126936080 16.8533137808 
Si 10.8614716293 16.2856181389 10.8741202089 
Si 2.6927370246 8.1313653444 5.4393941200 
Si 2.4535183724 13.7880190261 23.8012696919 
Si 5.8266398333 15.9266354057 21.2087618931 
Si 12.1687767213 1.3097844300 12.3191092508 
Si 9.3932213359 14.8048571254 1.6212422279 
Si 12.3937904933 14.9748758570 20.2664614555 
Si 1.3624858385 6.7733331919 6.8226192748 
Si 4.0744548373 12.4187793536 27.9023392818 
Si 10.8443508392 10.8020294188 10.8265354664 
Si 10.7995696288 13.4413026629 2.8757814340 
Si 9.5065345769 14.9313978466 12.2091479420 
Si 14.3332127511 14.6174895437 25.4210765003 
Si 3.4641336917 1.6197929068 20.2821285350 
Si 1.3469777583 12.2150729017 12.2525606317 
H 4.6923997029 5.2708087382 24.5740622485 
H 10.2125106034 2.1706913898 28.7523877539 
Si 16.2643596887 8.1344767344 8.1455976525 
Si 12.2216051918 14.9007563563 4.1014196922 
Si 2.7058341848 5.4154150695 8.1858302460 
Si 7.4762792784 5.9945734448 25.8467717658 
Si 4.1933881283 9.6433379982 17.7124649136 
H 9.9972382514 3.2292644695 18.5530022722 
Si 9.4878662368 12.1538062112 14.6425050539 
Si 9.4878010768 14.8864863161 6.8384905807 
Si 10.8571384893 13.5382607438 8.1794117031 
Si 4.0539945971 6.7771450520 9.5361166059 
Si 1.4263475260 15.3334676302 22.3182361962 
Si 5.3487726789 10.9253772999 0.0726520698 
Si 8.7691351402 4.5027189412 24.5149824792 
H 9.9433183509 14.3651900214 25.5933560248 
Si 12.2146656517 14.9012939263 9.5369335114 
Si 2.7584345952 8.2346765253 16.3951173484 
Si 2.6921668746 10.9824085904 18.9586250038 
Si 1.0630055887 10.4039669752 23.6674722491 
Si 8.1385329444 10.8071118988 2.7173572094 
Si 15.4486868013 15.8208155647 22.1999891322 
Si 10.8264155490 13.5069187835 26.4764891676 
Si 4.0683460872 1.3443974223 15.0020601531 
Si 6.7676316919 12.2188847618 1.4121669479 
Si 4.1456910079 14.9814244370 17.6684978952 
Si 11.3617375339 0.3047256298 21.5857345835 
Si 14.8594612059 14.9272927665 12.3391817847 
Si 3.9623796362 4.1665910781 17.6180539836 
Si 6.7721277319 9.4560355765 4.0678098680 
Si 7.9137472324 10.9793623604 26.6256327628 
Si 4.0730376072 12.2548693721 14.9601937487 
Si 10.3768441249 4.4464695707 21.1216739370 
Si 14.8931815062 9.4794280167 1.3391443531 
Si 2.9372336369 8.4127262269 21.5978714645 
Si 5.4089805195 10.8295920990 5.4167833442 
Si 10.4346410454 8.2417463854 26.2512274896 
Si 13.8621059468 2.4837851927 27.2470352342 
Si 16.2629750387 5.4014545394 10.8787882401 
Si 13.5643410341 10.9205228799 2.6537873777 
Si 15.0206181774 4.0356031869 17.8311787807 
Si 6.7439297417 12.1808639014 6.8108324961 
H 8.5142455079 7.1556920754 23.0837933045 
Si 10.7845828286 10.8622046793 16.0708058844 
Si 10.5320552463 14.5411546030 16.8249846668 
Si 14.9114425964 12.2529471521 4.0430109525 
Si 1.3157710050 6.7617672918 12.2326923242 
Si 1.7035919256 14.5153349528 20.1632979671 
Si 2.5877968437 16.2796885789 26.4600635330 
Si 6.7675339519 9.4802099367 9.5044323445 
Si 5.2757283182 8.4699529975 26.3125829240 
Si 14.9189685764 9.5152334370 6.7910808893 
H 3.2788023600 7.3006730768 24.1254936303 
Si 5.3923810093 0.0440892112 29.1334741467 
Si 8.1278467043 10.8427869992 8.1608854545 
Si 15.1695250687 0.2604266034 24.4084346683 
H 13.8671884268 6.3577264182 26.8932568236 
Si 13.5750109842 10.8461427392 8.1777195418 
Si 5.3749018392 2.6515070342 2.8656809816 
Si 5.3765471292 2.6910102846 13.5790983832 
Si 5.3932117993 10.8447580892 10.8366884341 
Si 6.2366102670 11.9089837989 25.2995618145 
H 10.3156100143 8.3279367762 21.9367705258 
Si 14.9458796567 12.1940750915 9.5331115609 
Si 1.3919414167 9.4725699266 14.9462480057 
Si 1.2701883266 12.2027413716 17.5834230276 
Si 8.0728027938 0.0037257348 2.8302331201 
Si 6.8018081122 1.3290799352 12.2803937674 
Si 9.4947731968 9.4440950064 12.1788640900 
Si 12.2871887324 9.0603026029 23.2236300125 
Si 2.6495196542 2.6994485047 16.3384299452 
Si 0.4286827569 7.6700651202 26.5073565236 
Si 7.6785847902 3.1155439785 0.3114452032 
Si 12.1388031210 3.4789250118 19.8631727395 
Si 8.4913580577 0.2352487792 26.8552415449 
Si 11.4250241845 4.7823856637 0.3891825094 
Si 15.0480505376 6.8923642230 27.9572761734 
Si 6.6899772612 1.3283045311 1.4643146908 
Si 10.8512089292 8.0962603941 2.7022590462 
Si 11.8473587284 12.0135167299 25.0024999823 
Si 12.1309513409 14.6226208937 15.0279677260 
Si 13.6561840549 10.5813162068 19.2921558293 
Si 6.8021664922 4.0549068371 4.1102306010 
Si 4.4364675106 10.3140624643 25.1813731008 
Si 11.0324677609 1.9085364174 25.1985572905 
Si 12.2832465523 6.7238115915 1.4188072222 
Si 13.5866583343 5.4244885996 13.6247867381 
H 13.0578849294 12.7179289163 17.4206546165 
Si 0.0090970691 13.5787739742 13.6252535412 
Si 5.6376432516 8.2883357858 18.9986241957 
Si 5.3990110394 16.2510018886 5.5263070250 
Si 9.5425517673 6.8066299522 4.1730739703 
Si 14.8306279056 1.3351821692 15.0083036448 
Si 16.2800958289 10.7917992987 16.2567685753 
Si 8.1033628341 2.7057364447 5.5279408359 
Si 5.5566167908 2.8046330357 26.4528864352 
Si 10.8596145693 5.4148286295 5.5144618959 
Si 12.0206680399 9.3620585656 27.6935032383 
Si 16.2254428784 13.5124899636 19.0062389215 
Si 16.1000424572 13.4608832431 26.4517486026 
Si 6.7545182418 1.3323639992 6.8649524822 
Si 6.7974586822 3.8518682752 20.3083862102 
Si 9.5100857970 6.7772916620 14.9288304145 
Si 12.2102999317 9.4174282761 14.9444974940 
Si 13.7838650761 3.9422289060 25.3147037405 
Si 12.2381558319 6.7788555020 6.8192349522 
Si 5.3947267693 2.6898699846 8.2043273194 
Si 9.3520890855 4.0684275372 17.4721488351 
Si 8.6122298588 2.9608704271 21.4598144433 
Si 9.4966139668 6.7375603516 9.5351538245 
Si 10.8515184392 8.1091620742 13.5553789499 
Si 14.9313815566 6.7510973417 15.0318480269 
Si 3.3526449307 12.8586093576 20.2592551824 
Si 7.7624294210 2.4258579522 27.2553501647 
Si 5.3271558487 8.0863886540 13.4892679588 
Si 8.1371971644 16.2632193887 8.1870264289 
Si 10.8528867993 8.0932793240 8.1776320163 
Si 13.6820688651 0.0477839461 2.8871043271 
Si 4.0530171971 9.4378885163 1.3455220507 
Si 6.7679086219 4.0373625069 9.5473198807 
Si 10.8510948992 5.3858161393 10.9041414842 
Si 13.1315483101 3.1178245785 0.2512413137 
H 15.3285317602 3.5610103226 22.6949754850 
Si 12.2462193820 3.2334021296 23.7015488765 
Si 0.0643248123 10.6573905075 29.0983180371 
Si 5.6978185121 2.3918118519 24.0941302961 
Si 5.4402573197 16.2763165489 10.9028577757 
Si 14.8562357859 4.0593865871 1.5259122793 
Si 12.2253844718 6.7499570417 12.2352305661 
Si 14.9628701268 9.4647995966 17.6928591828 
H 12.4387020238 7.9922324531 22.0412468979 

