&CONTROL
/
&SYSTEM
   ntyp             = 2
   nat              = 407
   ibrav            = 0
/
&ELECTRONS
/
&IONS
/
&CELL
/

ATOMIC_SPECIES
Si 28.085 None
H 1.008 None

K_POINTS gamma

CELL_PARAMETERS angstrom
16.29000014900000 0.00000000000000 0.00000000000000
0.00000000000000 16.29000014900000 0.00000000000000
0.00000000000000 0.00000000000000 29.17519467510000

ATOMIC_POSITIONS angstrom
Si 2.6677807444 10.8102395789 2.6950819483 
Si 8.1356170344 2.6936329746 10.9031787028 
Si 4.7733121337 0.3097950778 23.2787127801 
Si 8.9525116719 10.0374745518 17.2308407999 
Si 15.0052567072 1.3850784397 4.2236054075 
Si 12.2342625219 4.0808568073 14.9870057526 
Si 0.0983479437 0.1546079027 29.0933290788 
Si 1.2815489727 12.1493590411 1.3233693254 
Si 4.0027136766 15.1011396481 24.9956438115 
Si 7.9147409224 2.7373390450 16.2663380391 
Si 8.2066740151 16.2784505389 13.6398119633 
Si 13.5632658940 2.7168299348 5.5063220166 
H 15.1489345085 9.4535106265 21.8751525147 
Si 1.3132313940 4.0341696669 14.9501283066 
Si 0.0129986382 2.6760234845 2.7516468157 
Si 1.3228457521 9.4809592767 4.0761539736 
Si 9.6795180885 3.4605173116 26.3698538311 
Si 14.9319517066 4.0653161472 6.8443839700 
Si 12.2794672723 0.7978011283 26.8065773202 
Si 13.3575557722 10.6957045878 26.3002126414 
Si 1.3358011892 4.4105989903 20.4862381970 
Si 4.0305369969 12.1774592914 4.0581820537 
Si 2.7236717349 16.2857810389 2.7885213442 
Si 6.6555727809 9.4952130268 27.9474149576 
Si 12.8503829075 2.1109070893 21.7036898956 
H 12.4339779237 11.0411340410 18.5305081971 
Si 13.5744082541 16.2660538488 8.1937950741 
Si 2.7796115954 2.7752458754 0.0483727645 
Si 4.0535221871 9.4866281968 6.7920436708 
Si 1.3795251786 9.4843964667 20.2332892591 
Si 7.2319455661 11.1771066722 21.2943035639 
Si 5.3826232992 13.5757603242 2.7385150606 
Si 8.8882476213 9.5284283371 25.1052550179 
Si 14.9065230163 1.3303912802 9.5769910537 
Si 1.4446591152 1.3681010015 1.4005843956 
Si 2.6505622142 5.4057876794 13.5913811402 
Si 8.0866655840 13.6205578246 0.0767695650 
Si 9.4086642561 6.3039205476 20.2331142080 
Si 13.5355891838 2.6706314944 10.9416316094 
Si 16.2588536687 10.8701379094 5.4050840911 
Si 12.9646409686 14.2850106406 0.2291568583 
Si 1.3337388752 12.1992716016 6.7839037914 
Si 4.1666888181 4.0489121170 1.4277990172 
Si 6.7208468115 14.8994205763 4.1428484687 
Si 5.4526214299 13.5750761442 13.5966910256 
Si 9.5786666976 9.6332219081 19.3794771870 
Si 16.1828608180 8.3445851563 24.2712237277 
Si 14.9089176464 15.1371894184 1.2885720707 
Si 2.0860159691 6.9269804733 23.2365837990 
Si 1.3751887806 4.0703986272 4.0706398619 
Si 1.3269768961 9.4883875168 9.5040822422 
Si 8.1065556741 13.5432291939 5.4814647507 
Si 14.9096018264 4.0547928071 12.2499056890 
Si 14.9568916968 6.7507715417 22.8561976108 
Si 13.5669963041 13.5582811540 5.4666729271 
Si 4.0253404868 1.3215327781 4.2146777980 
Si 2.6855368446 10.8406692991 8.1430302354 
Si 3.8531226052 12.4332448737 22.4744693637 
Si 5.3940262993 13.5467967039 8.1658744128 
Si 9.2141616543 0.5727889852 24.6065925905 
H 9.6616805384 8.8122873506 21.9554426504 
Si 14.9248329765 14.9059528663 6.8336766736 
Si 4.0265948168 12.2023341216 9.5082251198 
Si 3.3719648708 10.2270738635 23.0834140269 
Si 0.0325176096 16.2407228985 5.4995825466 
Si 8.1268367243 5.4278606296 13.5876758904 
Si 6.7608387618 14.9084452363 9.5180279852 
Si 13.5928322443 2.7688927753 16.4068166015 
Si 13.6021664144 13.5599264440 10.8822600882 
Si 2.6695400644 2.7177584649 5.5020332630 
Si 1.2818014677 12.2542503521 25.1169542710 
Si 8.1307951944 13.5671429141 10.8713777406 
H 5.2139403477 13.0178929791 22.7492996975 
Si 10.7536481183 5.0935246666 23.3620079609 
Si 11.5294430854 7.1367468053 24.3676185709 
Si 13.4297367628 16.2100976983 13.7476143077 
Si 1.3467920523 1.3335645722 6.8639605256 
Si -0.0003865943 0.0312818502 16.2631579429 
Si 6.7426102517 12.2070582216 12.1844949025 
Si 4.0784784673 14.9266574565 12.2512185728 
Si 10.5099334261 10.5497136065 23.7118185450 
Si 9.2903662750 11.8749376986 22.1960504809 
Si 14.9543178768 12.1633684412 14.9264380485 
Si 4.0628726472 4.0609667171 6.8299130734 
Si 1.3211727691 1.3357523192 12.2773595472 
Si 4.3213460795 6.9323887534 20.3815867737 
Si 12.1910125715 6.7142004914 17.7453745332 
Si 10.9045098097 13.4833145733 13.4018299004 
H 14.6195257937 10.9990081006 23.6903164266 
H 14.0511513985 12.5754239950 28.6136013528 
H 2.8358283859 2.9197707567 19.8162590264 
Si 4.0289568668 1.4309054681 27.7376161327 
Si 2.6666567344 8.1300295644 10.8665930087 
Si 3.9572971562 6.8338831225 14.9203404328 
Si 10.4251276853 0.5677276822 17.0609244661 
Si 16.2575830487 2.6823277145 8.2043273194 
Si 16.2863837690 8.1068814741 13.6304467258 
Si 2.6998720447 1.0318216414 22.4279932786 
H 3.3849317110 2.5856465637 25.0099688321 
Si 2.6936166846 16.2629261687 8.2186815152 
Si 9.4920690568 4.0416630670 12.2708243036 
Si 12.2653112622 12.1128857308 12.1394192268 
Si 14.1726585096 9.7142646588 24.3546064341 
Si 12.7019158462 14.7948387753 27.1084238843 
Si 1.3385981822 4.0511438470 9.5287061065 
Si 6.0396967452 4.8534426444 0.2341251022 
Si 6.6996861013 6.8272530924 17.5194710008 
Si 5.9199000841 5.6308177415 21.5943120907 
Si 9.3009221951 0.9106533623 20.6987211398 
Si 9.4998719669 9.4591306765 1.3293327351 
Si 8.4107877169 13.5777477042 16.1405929501 
Si 4.0510786871 1.3350665102 9.5683551960 
Si 5.4255148696 8.0882131340 2.7056375337 
Si 6.7643574019 6.7539969618 12.2073390800 
H 6.1073654059 11.2304727127 22.3060993152 
Si 10.8275395590 10.8402457591 29.1295646706 
Si 0.0002613845 10.8398385091 10.8966434592 
Si 12.7581977967 13.8266263265 23.8402477520 
Si 2.7107863448 11.0702768512 26.5703749441 
Si 2.6241398340 16.2343697985 18.8823610449 
Si 9.4362595163 1.4211037750 15.0689005241 
Si 8.2282745552 5.4477670098 2.8294745650 
Si 12.1353170610 12.2886711224 1.3216042261 
Si 16.1822255080 10.5599111466 21.6597520524 
Si 16.2393708285 16.2541458587 10.9484002546 
Si 5.7699669228 1.7028262956 19.9220774575 
Si 2.6679436444 2.6906519046 10.9022450966 
Si 5.5984820912 5.1004804967 27.1264249794 
Si 8.1092598142 8.0817297139 29.1643706779 
Si 7.0088214341 12.6923699061 19.4573457815 
Si 12.2218332518 9.5033743169 4.0149444152 
Si 12.9261151182 8.6694077593 20.7497777305 
H 4.8828460947 3.2812132800 18.4322169662 
Si 6.8520464727 6.7119361814 1.4137599135 
Si 4.8394821143 4.4662456308 23.3028698413 
Si 10.8507853892 5.4347350097 16.3084961955 
Si 9.4425148764 12.1022809407 4.1930589787 
Si 16.2442415386 8.0482863436 19.0665148737 
Si 13.5623047840 10.8076331788 13.5983540117 
Si 5.4237392596 5.4057876794 5.4592916028 
Si 0.7416625298 1.1645818847 25.5343054308 
Si 2.7191431149 10.8727117294 13.6085361546 
Si 10.8378999991 2.7061925647 13.6762517815 
Si 9.4958483369 9.4653045866 6.8375861496 
Si 9.4249705462 12.2619555221 27.9094288541 
Si 16.2160598383 2.6746388345 13.6236780807 
Si 4.0270509368 4.0581648371 12.2367768514 
Si 8.1224058443 8.1383700444 5.4748711567 
Si 8.6716394893 0.2410887442 18.5478382627 
Si 10.3850054150 0.7850395422 28.1471191651 
Si 10.7660285185 5.2176707577 27.4230491837 
Si 10.8760837595 10.7828072186 5.4748711567 
Si 10.8227502990 13.6581062749 19.0624011712 
Si 2.6257525440 4.5372700315 22.5061244499 
Si 1.5200932189 9.3770453658 27.7568717612 
Si 6.7712643619 6.7626958219 6.8206353615 
Si 6.8643780028 14.8986386563 14.9526081981 
Si 11.0639889112 7.8315804716 19.4971115719 
Si 12.2118474817 12.1872170015 6.8120578543 
Si 14.9503756967 11.8273057382 27.6386830475 
Si 1.2590785465 1.3724422865 17.6844275515 
Si 5.4026111294 8.1266086643 8.1568592776 
H 7.9629756128 13.9306868474 24.2971313006 
Si 16.1026651473 1.9830957481 27.5277881326 
Si 12.5566904948 5.7980020130 25.9809193109 
Si 12.2224196918 9.4576157065 9.5016898762 
Si 2.7363453550 13.5842799942 16.3674884391 
Si 8.1178120642 5.4039469094 8.1882517871 
Si 6.9897458439 8.0302858934 24.7884999293 
Si 8.0720208738 8.1496753045 16.1615115647 
Si 9.4824090867 12.1974308316 9.5204787016 
H 14.0823304588 1.3422178203 24.4417235654 
Si 1.3920505597 6.8099694023 17.6930925843 
Si 2.8179745458 5.5961200412 19.0818318509 
Si 7.9979665331 2.4452756324 23.6475455912 
Si 5.3988644294 5.3965186693 10.8758707206 
Si 13.5959762143 5.4613202899 2.8916235647 
Si 16.2110099383 13.6088453145 2.6082215587 
Si 2.6256548040 13.6121196045 0.0901971566 
Si 2.7271577949 16.2882408290 13.6113077981 
Si 8.1188709142 8.1053176341 10.8464621244 
Si 5.1860518674 14.1487936594 19.6214562516 
Si 6.8691021028 15.0337804975 27.8044565037 
Si 13.4971447834 8.1590420546 29.1530215271 
Si 4.0524307571 14.9707056169 1.3698483280 
Si 7.4544995482 9.0443546927 20.3797779116 
Si 9.5142723270 3.9989832666 1.5007545090 
Si 9.0645380029 6.8148238223 27.4086366375 
Si 8.9315138617 13.9919209580 23.1265641399 
Si 14.9861811171 6.8062552823 4.1668596539 
H 0.1874262257 5.3609901790 20.7592596687 
Si 3.8809133455 6.7304904916 27.2274878538 
Si 4.0172769367 9.5150216670 12.1909717958 
Si 1.3123387020 14.8945009962 4.0436528068 
Si 11.2221648126 15.8295795848 0.6831050906 
Si 13.5616368940 8.1671218947 5.4361848486 
Si 2.6791348745 13.5473668539 5.4155579860 
Si 10.7646927385 2.6283426540 2.9127960035 
H 11.8642188785 11.1666159121 20.8615770764 
Si 13.5671592041 5.4131344695 8.1939117749 
Si 14.9448696767 9.4694422466 12.2570244365 
Si 13.9038409272 13.9359648075 21.7822586948 
Si 0.0472385569 5.4208233496 16.3472992044 
Si 1.8252293567 5.7212272423 26.5021633390 
Si 4.0106957767 14.8919108862 6.8303215262 
Si 8.0575064837 15.4128162210 21.5284345011 
Si 12.2631935622 1.3936958498 1.6329035533 
Si 14.9267226165 6.7783993820 9.5238046738 
Si 0.0040823066 13.5499080939 8.1736350146 
Si 5.3118269586 5.4766003101 16.2253760658 
Si 7.9219248125 5.2927350784 18.7623051188 
Si 9.4320241163 1.2879151048 4.2418107290 
Si 13.5791486442 8.1278467043 10.8875407985 
Si 13.7171575255 13.5290568937 16.3443233345 
Si 12.1852459114 4.0565847071 4.1483042301 
Si 2.1021919392 2.5475279633 24.1916046215 
Si 1.3188612181 14.9142770564 9.5687928239 
Si 6.6739153210 4.1273810478 14.8930908010 
Si 13.6856200852 0.1028907360 18.9919722513 
Si 13.5444020739 8.0999745141 16.3886696304 
Si 9.4886970268 4.0574317871 6.8512401407 
Si 2.7093202448 13.5658722941 10.8981313941 
Si 7.3519539972 11.8145995381 17.3198251437 
H 6.7576296318 12.1602407612 23.9280359128 
Si 16.1742271179 5.3875754593 0.1620022705 
Si 14.9203206465 12.1970561616 20.5025763060 
Si 7.7936410613 7.0938715249 21.7512454629 
Si 5.4958062203 10.8843590795 16.2133850608 
Si 5.3857835593 13.7840605561 26.4276498918 
Si 10.8667984594 16.2315190484 5.5024417157 
Si 10.8215285490 15.3167866701 23.5406185027 
Si 16.2807148489 8.1213632843 2.6984283431 
Si 2.7491492951 5.4320145797 2.7107052650 
Si 6.7502502617 1.2981745469 17.7701442735 
Si 8.0630450837 10.7681950885 13.4618432758 
Si 12.2143072717 1.3287459902 6.8412330490 
Si 14.5987723335 6.9837674139 20.4917523087 
Si 15.4020485309 4.6135398122 23.7533056719 
Si 0.0338711457 2.7172371849 19.2937896402 
Si 2.8769606363 7.9706319129 29.0707183030 
Si 1.2683833946 14.8522284458 27.8062361905 
Si 9.4884526768 1.3433760393 9.5346286710 
Si 8.6280311589 14.3815777615 19.5218813122 
Si 12.2727883722 1.7507351860 18.0681688871 
Si 1.3903563997 6.7712643619 1.3304268049 
Si 1.3892421637 14.9322286366 14.9751897988 
Si 10.8522189093 2.6918736546 8.1858594212 
Si 10.5510656765 11.6284048363 20.2585841529 
Si 14.8467061358 1.1581147546 20.7606600781 
Si 13.5408345638 5.2887928984 19.1043551012 
Si 1.1463550035 3.9596266262 28.0106084292 
Si 4.0705941072 6.7727467519 4.1038995838 
Si 1.3054089359 4.8097202840 24.4112646622 
Si 12.2115542617 4.0354402869 9.5494788451 
H 13.5195761136 7.0504912545 23.3054664336 
Si 14.9943586971 14.9885431671 17.6467623752 
Si 0.0263378351 5.3975612294 5.4773510483 
H 6.3948187485 7.9325458926 23.3865442996 
Si 6.6776783111 9.4325942663 14.8011597626 
Si 5.4995203403 16.2686439588 16.2960092121 
H 11.6267758363 11.7950515379 16.8803591863 
Si 10.8624653193 16.2868887590 10.8714360910 
Si 2.6926881546 8.1324404844 5.4393065944 
Si 2.4830032727 13.7708004959 23.8062878254 
Si 5.8268678933 15.9244525456 21.2087910683 
Si 12.1677667413 1.3116333450 12.3175046151 
Si 9.3909570259 14.8071703054 1.6265346083 
Si 12.3911189333 14.9628049668 20.2792110155 
Si 1.3620851045 6.7742780120 6.8216273182 
Si 4.0708710372 12.4178345336 27.9094872045 
Si 10.8448721192 10.8039353488 10.8250183563 
Si 10.7980709488 13.4428176329 2.8784597169 
Si 9.5091083970 14.9323263766 12.2071640288 
Si 14.3172322609 14.6062494436 25.4393109969 
Si 3.4559398216 1.6198010518 20.2713337130 
Si 1.3499832633 12.2137859917 12.2493221851 
H 4.6868122329 5.2611161881 24.5799848130 
H 10.2068416833 2.1750245299 28.7533213601 
Si 16.2644248487 8.1359917044 8.1436720897 
Si 12.2207581118 14.9027926063 4.1014780426 
Si 2.7054920947 5.4166042395 8.1846340630 
Si 7.4659351283 6.0022623249 25.8511480450 
Si 4.1956198584 9.6447552282 17.7126107896 
H 10.0095046215 3.2390873396 18.5517185636 
Si 9.4906029568 12.1569338912 14.6413088709 
Si 9.4873775368 14.8874474262 6.8369734706 
Si 10.8567801093 13.5394336238 8.1778070674 
Si 4.0543041071 6.7787251820 9.5336950648 
Si 1.4477248932 15.3091955300 22.3269887546 
Si 5.3509066689 10.9235365299 0.0720207186 
Si 8.7569665101 4.4965450311 24.5285489448 
H 9.8991398705 14.3142186109 25.5760551344 
Si 12.2149588717 14.9017174663 9.5349787733 
Si 2.7597703752 8.2372666353 16.3954966260 
Si 2.6928021846 10.9759740404 18.9651894226 
Si 1.0581055567 10.4029244151 23.6782378960 
Si 8.1370831344 10.8069815788 2.7192010817 
Si 15.4547466813 15.7174066437 22.2802792679 
Si 10.8071933488 13.4929419634 26.4729006187 
Si 4.0792603873 1.3437637413 14.9931325435 
Si 6.7643248219 12.2178096217 1.4166336702 
Si 4.1558070980 14.9728721869 17.6664264564 
Si 11.3404627937 0.2750745715 21.6063614461 
Si 14.8603734459 14.9271787365 12.3370519955 
Si 3.9679996863 4.1693277981 17.6217884086 
Si 6.7699774519 9.4568174965 4.0683933719 
Si 7.9209474124 10.9784012504 26.6237655504 
Si 4.0753019173 12.2546576021 14.9588808650 
Si 10.3973532351 4.4458505507 21.1307765977 
Si 14.8921878162 9.4812524967 1.3426103662 
Si 2.9424790169 8.4104782069 21.6020726925 
Si 5.4079868295 10.8310744891 5.4170750961 
Si 10.4568606056 8.2500054154 26.2315342332 
Si 13.8567302467 2.4841598627 27.2458682264 
Si 16.2632193887 5.4034093394 10.8770960788 
Si 13.5626468740 10.9222659099 2.6557712910 
Si 15.0289097874 4.0723860072 17.7578615165 
Si 6.7435387817 12.1815317914 6.8108908465 
H 8.5065566278 7.1808275457 23.0786876454 
Si 10.7843058986 10.8619766193 16.0675966130 
Si 10.5391413964 14.5501629731 16.8217170450 
Si 14.9102208464 12.2548042121 4.0434777556 
Si 1.3168884990 6.7644388519 12.2295705783 
Si 1.7071105656 14.5016350626 20.1645816757 
Si 2.5851578636 16.2791184289 26.4614931176 
Si 6.7677945919 9.4811384667 9.5044031693 
Si 5.2754513882 8.4696109075 26.3155004434 
Si 14.9185776164 9.5165855070 6.7898555311 
H 3.2790467100 7.2920067967 24.1304825886 
Si 5.3865003193 0.0461142211 29.1381130027 
Si 8.1275209043 10.8438947192 8.1607979289 
Si 15.1511988186 0.2504294303 24.4459247935 
H 13.8550197967 6.3489623981 26.8990918625 
Si 13.5750924342 10.8483581792 8.1755314022 
Si 5.3703732191 2.6528102343 2.8692957882 
Si 5.3852134093 2.6927696046 13.5725339644 
Si 5.3935213093 10.8455237192 10.8366592589 
Si 6.2292797670 11.9065565889 25.3156956971 
H 10.3110162343 8.3866622267 21.9953251415 
Si 14.9459122367 12.1968606815 9.5299314646 
Si 1.3881637657 9.4748342367 14.9504492337 
Si 1.2760576137 12.1994996616 17.5861654959 
Si 8.0699031738 0.0055252423 2.8335474222 
Si 6.8073304223 1.3281790981 12.2759883130 
Si 9.4959297869 9.4464570564 12.1780763597 
Si 12.2948124524 9.0041672624 23.0814009385 
Si 2.6652557944 2.7020549047 16.3285979046 
Si 0.4126827188 7.6711891302 26.5042931282 
Si 7.6713031602 3.1177105485 0.3204457507 
Si 12.1778339614 3.4544900116 19.8925229853 
Si 8.4819587276 0.2329942431 26.8665031701 
Si 11.4211471645 4.7905306638 0.3781834610 
Si 15.0344158075 6.8883894630 27.9533666973 
Si 6.6845689811 1.3285635421 1.4698463077 
Si 10.8495473492 8.0968631240 2.7039220322 
Si 11.8451595783 11.9990023397 25.0123028477 
Si 12.1364084910 14.6198027237 15.0272091709 
Si 13.6201179946 10.5295628763 19.3288873994 
Si 6.8010261922 4.0564869671 4.1095012212 
Si 4.4311569705 10.3142905243 25.1914968934 
Si 11.0111767307 1.9114034575 25.2209638400 
Si 12.2806401523 6.7249356015 1.4200209103 
Si 13.5823089042 5.4267203296 13.6185140712 
H 13.0744518596 12.6952532361 17.4178829730 
Si 0.0103077582 13.5746526041 13.6198269550 
Si 5.6387021016 8.2910399258 18.9978364654 
Si 5.3975286494 16.2515068786 5.5267446529 
Si 9.5412648573 6.8073304223 4.1738908758 
Si 14.8292758356 1.3382414312 14.9998136631 
Si 16.2751273788 10.7919947787 16.2664547399 
Si 8.1021085041 2.7075446348 5.5274448576 
Si 5.5478201907 2.8067833157 26.4566792105 
Si 10.8590607093 5.4160340895 5.5143160199 
Si 12.0250663400 9.3674668457 27.6994549780 
Si 16.2238790384 13.4985457235 19.0102067480 
Si 16.1028769173 13.4641412431 26.4549870492 
Si 6.7540295418 1.3330155992 6.8637271241 
Si 6.8038443622 3.8502555652 20.3164093888 
Si 9.5091409770 6.7812501320 14.9257378438 
Si 12.2135905117 9.4176889161 14.9461313049 
Si 13.7795645160 3.9408605460 25.3132449808 
Si 12.2376019719 6.7799958020 6.8187681491 
Si 5.3927719693 2.6904727146 8.2009721720 
Si 9.3542067855 4.0719461772 17.4722071855 
Si 8.6239260789 2.9637048871 21.4669331908 
Si 9.4956202768 6.7399712716 9.5322946554 
Si 10.8533429193 8.1122408842 13.5542411173 
Si 14.9262664965 6.7633637119 15.0163268233 
Si 3.3626632808 12.8506272575 20.2637773376 
Si 7.7473448809 2.4218994822 27.2680705496 
Si 5.3277911587 8.0890927940 13.4888303309 
Si 8.1370179744 16.2637732487 8.1853050925 
Si 10.8520722992 8.0953318640 8.1754438767 
Si 13.6802606751 0.0494215799 2.8860219273 
Si 4.0513881970 9.4387030163 1.3443871356 
Si 6.7663284919 4.0388448969 9.5416307177 
Si 10.8500197592 5.3882270593 10.8999110810 
Si 13.1266613101 3.1220273986 0.2490700957 
H 15.3428180903 3.5423094024 22.6835971591 
Si 12.2354842719 3.2167537494 23.7200459499 
Si 0.0612288978 10.6589706375 29.1012355566 
Si 5.6969062721 2.3882117618 24.0973979179 
Si 5.4412672998 16.2768866989 10.9014865415 
Si 14.8524565058 4.0607549471 1.5257751559 
Si 12.2239020818 6.7539643818 12.2293955272 
Si 14.9548391568 9.4641642866 17.7065423491 
H 14.8060625854 2.8238878158 20.0531032568 

