&CONTROL
/
&SYSTEM
   ntyp             = 2
   nat              = 407
   ibrav            = 0
/
&ELECTRONS
/
&IONS
/
&CELL
/

ATOMIC_SPECIES
Si 28.085 None
H 1.008 None

K_POINTS gamma

CELL_PARAMETERS angstrom
16.29000014900000 0.00000000000000 0.00000000000000
0.00000000000000 16.29000014900000 0.00000000000000
0.00000000000000 0.00000000000000 29.17519467510000

ATOMIC_POSITIONS angstrom
Si 2.6702405344 10.8088386389 2.6938215799 
Si 8.1210700643 2.6909777046 10.8956223274 
Si 4.7622186435 0.3119714219 23.2722942373 
Si 8.9480645018 10.0390872618 17.2304906976 
Si 15.0065110372 1.3856762827 4.2237221083 
Si 12.1770194614 4.0981242075 14.9331191681 
Si 0.1017027063 0.1530378725 29.0939417579 
Si 1.2850317747 12.1488540511 1.3224269666 
Si 3.9987063366 15.1008464281 24.9900713493 
Si 7.9089905523 2.7394730351 16.2653460825 
Si 8.2021942650 16.2777500689 13.6385866052 
Si 13.5632658940 2.7166833248 5.5062928414 
H 15.1483806485 9.4562473465 21.8767279752 
Si 1.3105207380 4.0241838968 14.9526957237 
Si 0.0151985050 2.6750297945 2.7506781992 
Si 1.3240560991 9.4803239667 4.0748994403 
Si 9.6980072387 3.4518021616 26.3594382866 
Si 14.9315607466 4.0657722672 6.8441213933 
Si 12.2872050224 0.7944616783 26.8087071094 
Si 13.3562851522 10.6995816079 26.3035969640 
Si 1.3333658342 4.3898944002 20.5022553788 
Si 4.0318727769 12.1769054314 4.0571317467 
Si 2.7267668349 16.2843638089 2.7866745544 
Si 6.6596452809 9.4948220668 27.9432137295 
Si 12.8960274879 2.1400824796 21.6815459228 
H 12.4318439337 11.0454671810 18.5328713879 
Si 13.5732027941 16.2654999888 8.1926864167 
Si 2.7833908755 2.7743825054 0.0461878342 
Si 4.0531475171 9.4867748068 6.7914601669 
Si 1.3742700246 9.4907984368 20.2327932808 
Si 7.2298441561 11.1750378422 21.2975128353 
Si 5.3846106792 13.5744408341 2.7368841672 
Si 8.8941120213 9.5214725071 25.1073264567 
Si 14.9044378963 1.3303929092 9.5760866226 
Si 1.4481158532 1.3677800885 1.3996478718 
Si 2.6491124042 5.4013079294 13.5952906163 
Si 8.0869425140 13.6208999146 0.0719302755 
Si 9.4121014461 6.3027476676 20.2319180250 
Si 13.5317284538 2.6706477844 10.9392975938 
Si 16.2595378487 10.8690464794 5.4044422368 
Si 12.9688112086 14.2834305106 0.2359301715 
Si 1.3336052972 12.1987991916 6.7836120395 
Si 4.1708916381 4.0488632470 1.4240616747 
Si 6.7217590515 14.8990947763 4.1411563074 
Si 5.4473597598 13.5750109842 13.5968077264 
Si 9.5652926075 9.6410573982 19.3822488304 
Si 16.1812318180 8.3578126364 24.2820769002 
Si 14.9130878864 15.1368473284 1.2919388881 
Si 2.0884920491 6.9261008133 23.2307487600 
Si 1.3765946076 4.0704963672 4.0687434742 
Si 1.3252615591 9.4892183068 9.5052784251 
Si 8.1060506841 13.5422192139 5.4805311445 
Si 14.9048940163 4.0562263271 12.2457336362 
Si 14.9650041169 6.7771939220 22.8668757321 
Si 13.5671429141 13.5574829440 5.4653016929 
Si 4.0276210868 1.3215604711 4.2120812056 
Si 2.6849341146 10.8403597891 8.1435845641 
Si 3.8260974950 12.4303289637 22.4740025606 
Si 5.3926090693 13.5465197739 8.1669830702 
Si 9.2231700244 0.5757374753 24.5966438491 
H 9.6583085083 8.8173372506 21.9587977978 
Si 14.9243116965 14.9062135063 6.8320136875 
Si 4.0238092268 12.2033115216 9.5100923323 
Si 3.3657095108 10.2226104035 23.0821303184 
Si 0.0334272432 16.2402504885 5.4986197652 
Si 8.1168998242 5.4294081797 13.5867714594 
Si 6.7584441318 14.9091294164 9.5194867449 
Si 13.4949130534 2.7624745153 16.3297065620 
Si 13.5991038944 13.5603174040 10.8819975115 
Si 2.6697518344 2.7165855848 5.4994658459 
Si 1.2823439247 12.2548856621 25.1193758121 
Si 8.1286123343 13.5674524241 10.8723405220 
H 5.1842436774 13.0068972290 22.7463821780 
Si 10.7699218285 5.0854448265 23.3522926211 
Si 11.5344441155 7.1323322152 24.3584867350 
Si 13.4298507928 16.2115800883 13.7504151263 
Si 1.3467887943 1.3336052972 6.8631727954 
Si 0.0015298786 0.0554228159 16.2978472494 
Si 6.7393196716 12.2078075616 12.1851075816 
Si 4.0725651973 14.9291172465 12.2546028954 
Si 10.5106990561 10.5506747165 23.7143567870 
Si 9.2898938650 11.8753612386 22.1981802701 
Si 14.9465964167 12.1719369813 14.9353073077 
Si 4.0610155871 4.0612273571 6.8270830796 
Si 1.3172533951 1.3361025542 12.2766301673 
Si 4.3121585194 6.9215070333 20.3820827520 
Si 12.1637268212 6.7386029116 17.7409690788 
Si 10.9029785497 13.4856440433 13.4053309237 
H 14.6203565837 11.0021520706 23.6952762097 
H 14.0552238985 12.5717913250 28.6220621592 
H 2.8363333759 2.8997666365 19.8208687072 
Si 4.0339253169 1.4307474551 27.7351654163 
Si 2.6634150244 8.1287752343 10.8678475421 
Si 3.9532083662 6.8330034625 14.9237539306 
Si 10.4178134753 0.5681398192 17.0626749778 
Si 16.2566545187 2.6819530445 8.2036854651 
Si 16.2801284089 8.1192292943 13.6182223193 
Si 2.6878663146 1.0358876255 22.4230626707 
H 3.3836773810 2.5876502337 24.9999325651 
Si 2.6923460646 16.2623071487 8.2184772888 
Si 9.4699146566 4.0475926270 12.2530274348 
Si 12.2618252021 12.1153455208 12.1407321105 
Si 14.1698403396 9.7182557089 24.3592744653 
Si 12.7149478463 14.7928676853 27.1159219093 
Si 1.3366792202 4.0518606071 9.5279767266 
Si 6.0443231053 4.8513249444 0.2277497387 
Si 6.6973892112 6.8243697624 17.5218925420 
Si 5.9203562041 5.6304267815 21.5934076597 
Si 9.3079594751 0.9150321144 20.6974082560 
Si 9.5011262969 9.4569641065 1.3264735661 
Si 8.4049558969 13.5793767042 16.1407680013 
Si 4.0487980870 1.3350697682 9.5681217945 
Si 5.4279420796 8.0864375240 2.7025274580 
Si 6.7581183318 6.7567988418 12.2066680505 
H 6.0994810458 11.2379498228 22.3024815911 
Si 10.8276372990 10.8390402991 29.1268513775 
Si 16.2896743490 10.8460775792 10.8952430499 
Si 12.7580837667 13.8334192565 23.8439238265 
Si 2.7180028149 11.0697229912 26.5652984602 
Si 2.6661680344 16.2142353583 18.8837031038 
Si 9.4278375862 1.4211721930 15.0681711442 
Si 8.2298872653 5.4462683298 2.8261135826 
Si 12.1358057610 12.2854131224 1.3220039262 
Si 16.1793584680 10.5648144366 21.6626403966 
Si 16.2361616985 16.2535594186 10.9479626266 
Si 5.7787309429 1.7040643356 19.9228068374 
Si 2.6653535344 2.6908962546 10.9016907679 
Si 5.6053238913 5.0981836066 27.1191020056 
Si 8.1132834442 8.0785205839 29.1586815149 
Si 7.0088865941 12.6892910961 19.4616053600 
Si 12.2224848518 9.5018430569 4.0138065826 
Si 12.9253331982 8.6747508793 20.7510030886 
H 4.8702376345 3.2816042400 18.4503931125 
Si 6.8546365827 6.7103560514 1.4089664290 
Si 4.8451347443 4.4639976108 23.3006817017 
Si 10.8326546191 5.4408111798 16.3054619752 
Si 9.4419773063 12.1010266107 4.1918044453 
Si 16.2400875885 8.0546394437 19.0669816768 
Si 13.5590630740 10.8140025689 13.6018258599 
Si 5.4239673196 5.4049405994 5.4570159376 
Si 0.7450003508 1.1637983356 25.5290247206 
Si 2.7142561148 10.8724999594 13.6104325423 
Si 10.8033814888 2.7022340947 13.6457928782 
Si 9.4943822368 9.4657932866 6.8357481124 
Si 9.4258664962 12.2625745421 27.9053151517 
Si 16.2091528782 2.6758605845 13.6199144806 
Si 4.0254382268 4.0579530671 12.2361058219 
Si 8.1222266543 8.1378161844 5.4727121924 
Si 8.6667524893 0.2412728212 18.5498805264 
Si 10.3897132250 0.7821154872 28.1453978286 
Si 10.7743689985 5.2114479777 27.4182644518 
Si 10.8761163395 10.7819438486 5.4732081707 
Si 10.8165926789 13.6649643650 19.0627220984 
Si 2.6366831341 4.5539184116 22.5002894110 
Si 1.5264072230 9.3778272858 27.7559673301 
Si 6.7700751919 6.7629564618 6.8186514483 
Si 6.8599471227 14.8992088063 14.9501866570 
Si 11.0529117111 7.8473003218 19.4997956898 
Si 12.2109678217 12.1872658715 6.8104532186 
Si 14.9518580867 11.8240477381 27.6446639624 
Si 1.2835901097 1.3636619765 17.7362718725 
Si 5.4013567994 8.1261525443 8.1563049489 
H 8.0306442734 13.9249690574 24.3415651221 
Si 16.1069494173 1.9794304981 27.5255416426 
Si 12.5620499049 5.7959657630 25.9745007681 
Si 12.2188521817 9.4605967765 9.4990641087 
Si 2.7305135350 13.5856483543 16.3661172049 
Si 8.1161016142 5.4039469094 8.1858302460 
Si 6.9968482840 8.0236721534 24.7860492130 
Si 8.0633708838 8.1526400846 16.1622117694 
Si 9.4801284867 12.1979521116 9.5207121031 
H 14.0784860188 1.3147675410 24.4670476344 
Si 1.3880106397 6.8101648823 17.7073009042 
Si 2.8005768256 5.5780381410 19.0888630728 
Si 8.0019250032 2.4459923924 23.6436361151 
Si 5.3960788394 5.3969747894 10.8744994864 
Si 13.5974911844 5.4601636999 2.8900772794 
Si 16.2143656783 13.6071348644 2.6090530517 
Si 2.6306558341 13.6101485145 0.0879684635 
Si 2.7198761649 0.0010718234 13.6168219099 
Si 8.1159712942 8.1060669741 10.8464329492 
Si 5.1866871774 14.1439881094 19.6270870642 
Si 6.8732071829 15.0351651475 27.7960248724 
Si 13.4994905435 8.1570709646 29.1512418403 
Si 4.0564380971 14.9700377269 1.3673130036 
Si 7.4448884481 9.0409500827 20.3843875923 
Si 9.5171882370 3.9976474866 1.4974956397 
Si 9.0706630430 6.8072489723 27.4047271614 
Si 8.9456861618 13.9956350780 23.1296275353 
Si 14.9870281971 6.8052941722 4.1658676973 
H 0.1638806595 5.3229693187 20.7329436431 
Si 3.8858980855 6.7280307015 27.2223530195 
Si 4.0125202567 9.5158524570 12.1916428252 
Si 1.3149239250 14.8942077762 4.0433902300 
Si 11.2242010627 15.8279180048 0.6837411098 
Si 13.5620930140 8.1661119147 5.4354262935 
Si 2.6803077545 13.5462917139 5.4154412852 
Si 10.7663380285 2.6276584740 2.9115706453 
H 11.8590712385 11.1707698622 20.8610519229 
Si 13.5661003541 5.4136231695 8.1937075485 
Si 14.9385817366 9.4807312167 12.2509851712 
Si 13.8961846271 13.9398744075 21.7831047755 
Si 0.0587274053 5.4513508099 16.3164026732 
Si 1.8279172067 5.7192887323 26.4963574752 
Si 4.0106631967 14.8918294362 6.8302048254 
Si 8.0602269137 15.4207005810 21.5394627247 
Si 12.2653927122 1.3924740997 1.6325913787 
Si 14.9246863665 6.7804356320 9.5236296226 
Si 0.0030979508 13.5504456639 8.1720887293 
Si 5.3052132185 5.4742708401 16.2319988350 
Si 7.9258018325 5.2904544784 18.7612256366 
Si 9.4328386163 1.2872244088 4.2400893925 
Si 13.5756788742 8.1328477344 10.8840105999 
Si 13.7140298454 13.5410137538 16.3573354713 
Si 12.1861255715 4.0563566471 4.1473414486 
Si 2.0981194392 2.5535715533 24.1858279329 
Si 1.3166702130 14.9142607664 9.5686761232 
Si 6.6655096810 4.1281140978 14.8943453344 
Si 13.6969905053 0.1189604954 18.9993244003 
Si 13.5390263738 8.1058552041 16.3870649947 
Si 9.4877847868 4.0572200171 6.8495771547 
Si 2.7054920947 13.5668008241 10.9009030376 
Si 7.3483376172 11.8163425681 17.3211963778 
H 6.7708571119 12.1633521512 23.9187290257 
Si 16.1770452880 5.3857509793 0.1598532256 
Si 14.9172092564 12.2022852516 20.5070401108 
Si 7.7962637513 7.0890659748 21.7492615496 
Si 5.4912776002 10.8869003196 16.2156023756 
Si 5.3878686793 13.7840605561 26.4188098078 
Si 10.8664237894 16.2306230984 5.5019165622 
Si 10.8342021691 15.3352269503 23.5167823686 
Si 16.2830606089 8.1191641343 2.6974801493 
Si 2.7517882752 5.4308905697 2.7078665186 
Si 6.7484909417 1.2993572009 17.7687146889 
Si 8.0599174037 10.7695145785 13.4629227580 
Si 12.2131181017 1.3286857171 6.8407954211 
Si 14.6077969936 6.9919287040 20.4999797136 
Si 15.4034331809 4.6316054224 23.7344876713 
Si 0.2656784994 2.4216551322 19.6362480753 
Si 2.8816847363 7.9684816329 29.0675965571 
Si 1.2723532676 14.8516094258 27.8067613440 
Si 9.4850643567 1.3431186573 9.5346286710 
Si 8.6218572489 14.3851778516 19.5299628411 
Si 12.2646759522 1.7535533560 18.0656889955 
Si 1.3931550217 6.7704335719 1.3275938935 
Si 1.3780753686 14.9463194867 14.9882019356 
Si 10.8495636392 2.6913035046 8.1852467421 
Si 10.5463252865 11.6333081264 20.2580298242 
Si 14.8752462160 1.1657547647 20.7619437866 
Si 13.4989855535 5.3293224187 19.1214809404 
Si 1.1498817885 3.9581442362 28.0080993625 
Si 4.0717832772 6.7724861119 4.1015655682 
Si 1.3078475490 4.8144280940 24.4004406650 
Si 12.2084265817 4.0360104369 9.5477283334 
H 13.5222150937 7.0637350246 23.3073919965 
Si 14.9930717871 15.0000276172 17.6615250237 
Si 0.0270124040 5.3968118894 5.4764466173 
H 6.3997057485 7.9323341226 23.3843269848 
Si 6.6713089210 9.4357545263 14.8014515145 
Si 5.4983637503 16.2692466888 16.2951047811 
H 11.6276392063 11.7972669779 16.8786086746 
Si 10.8605105193 16.2856018489 10.8699189809 
Si 2.6935678146 8.1317725944 5.4380812363 
Si 2.4665503726 13.7792387160 23.8033411307 
Si 5.8277312633 15.9243548056 21.2101623024 
Si 12.1650626013 1.3106901540 12.3152289499 
Si 9.3916900759 14.8050363154 1.6241013970 
Si 12.3932692133 14.9712106069 20.2718005161 
Si 1.3615507925 6.7748481620 6.8207520623 
Si 4.0761164173 12.4174598636 27.9049942245 
Si 10.8424286192 10.8051408088 10.8259227873 
Si 10.7981849788 13.4410583129 2.8776019661 
Si 9.5074631070 14.9327824966 12.2078934087 
Si 14.3247419510 14.5989678135 25.4428411955 
Si 3.4734678618 1.6105108647 20.2776647302 
Si 1.3448225913 12.2186729917 12.2556240272 
H 4.6889950929 5.2598618581 24.5764254392 
H 10.2113377234 2.1713266999 28.7530004329 
Si 16.2636592187 8.1366107244 8.1434678633 
Si 12.2205952118 14.9020432663 4.1006903124 
Si 2.7042214747 5.4164087595 8.1834087048 
Si 7.4764584684 5.9940358748 25.8435916696 
Si 4.1919057383 9.6441850782 17.7133401694 
H 10.0196532916 3.2132025294 18.5403985881 
Si 9.4871820568 12.1587909512 14.6428259811 
Si 9.4860417568 14.8869261462 6.8362440907 
Si 10.8551022393 13.5384073538 8.1767567604 
Si 4.0514207770 6.7793279120 9.5331699113 
Si 1.4247185260 15.3158255601 22.3248589654 
Si 5.3538877390 10.9218423699 0.0687773122 
Si 8.7737126302 4.4921467311 24.5221887523 
H 9.9340982108 14.3435731912 25.5872584091 
Si 12.2126782717 14.9013102163 9.5332574368 
Si 2.7540688752 8.2345299153 16.3996686788 
Si 2.6886971046 10.9784338304 18.9633805605 
Si 1.0562598997 10.4056937152 23.6802509844 
Si 8.1381256944 10.8057272488 2.7161639439 
Si 15.4317614911 15.7355699939 22.2621322968 
Si 10.8172768589 13.4958578734 26.4807195709 
Si 4.0647622872 1.3452868563 15.0063197315 
Si 6.7660189819 12.2174675317 1.4133222856 
Si 4.1737586782 14.9524933968 17.6607664686 
Si 11.3658914839 0.3055124368 21.5893523076 
Si 14.8558122459 14.9280421065 12.3372562219 
Si 3.9605062862 4.1668354281 17.6309785949 
Si 6.7705150219 9.4563450865 4.0659718307 
Si 7.9237004225 10.9782057704 26.6175512339 
Si 4.0696818672 12.2550811421 14.9592893177 
Si 10.3948445751 4.4412567706 21.1259918658 
Si 14.8946638962 9.4783691667 1.3417117702 
Si 2.9350507768 8.4085885669 21.5964710551 
Si 5.4086384295 10.8301785390 5.4161414899 
Si 10.4645331957 8.2418278354 26.2284708377 
Si 13.8622362668 2.4836874527 27.2442635907 
Si 16.2613297487 5.4048102794 10.8761916477 
Si 13.5646342541 10.9196106399 2.6548726950 
Si 14.8125622955 4.2326958987 17.5580406082 
Si 6.7424310617 12.1816458214 6.8109200217 
H 8.5110200878 7.1742300956 23.0754783740 
Si 10.7813736986 10.8639965794 16.0689970224 
Si 10.5320389563 14.5530788831 16.8216295194 
Si 14.9111819564 12.2534684321 4.0427775509 
Si 1.3141387470 6.7630867819 12.2326339738 
Si 1.7044715856 14.5085420227 20.1664197129 
Si 2.5875524937 16.2794442289 26.4600051827 
Si 6.7653185119 9.4817086167 9.5041405925 
Si 5.2814298183 8.4670207974 26.3104239596 
Si 14.9180563364 9.5166017970 6.7892428521 
H 3.2838685500 7.2921696967 24.1218759062 
Si 5.3912081293 0.0448566331 29.1340868258 
Si 8.1262177043 10.8436992392 8.1605645274 
Si 15.1596696186 0.2361691642 24.4418402662 
H 13.8585058567 6.3467632481 26.8971371245 
Si 13.5741801941 10.8493029992 8.1741601681 
Si 5.3736475091 2.6517188043 2.8653863121 
Si 5.3740710492 2.6903912646 13.5800028142 
Si 5.3907357193 10.8454096892 10.8374761644 
Si 6.2356980270 11.9077294689 25.3046966487 
H 10.3059989143 8.3896432967 21.9964046237 
Si 14.9438271167 12.1993693416 9.5283560041 
Si 1.3822781886 9.4742640867 14.9522872710 
Si 1.2708529586 12.2023992816 17.5870699269 
Si 8.0714995938 0.0045589520 2.8311725613 
Si 6.7993157422 1.3291483532 12.2799269643 
Si 9.4923459868 9.4478742864 12.1782805861 
Si 12.2949101924 9.0085004024 23.0817218656 
Si 2.6489495042 2.7025273147 16.3545638278 
Si 0.4173644648 7.6714986402 26.5079108523 
Si 7.6772164302 3.1160163885 0.3126092934 
Si 12.1734030813 3.4655835017 19.8846748579 
Si 8.4898919577 0.2325495261 26.8582757652 
Si 11.4253662745 4.7877450738 0.3755606110 
Si 15.0360936775 6.8858482230 27.9515870104 
Si 6.6890161512 1.3285277042 1.4649507101 
Si 10.8508831292 8.0952667040 2.7018243358 
Si 11.8446708783 12.0030259698 25.0135573811 
Si 12.1343722410 14.6237449037 15.0313812237 
Si 13.6185704446 10.5342218163 19.3308129622 
Si 6.8022479422 4.0558842371 4.1071963808 
Si 4.4376078106 10.3117655743 25.1845531970 
Si 11.0302849009 1.9015968774 25.2093812877 
Si 12.2823180223 6.7232740215 1.4177715028 
Si 13.5760209642 5.4328942397 13.6064647158 
H 13.0642706095 12.7121622563 17.4305158323 
Si 0.0046037007 13.5820482642 13.6282877614 
Si 5.6298566315 8.2845239258 19.0001121306 
Si 5.3977892894 16.2505783486 5.5253442435 
Si 9.5414766273 6.8064670523 4.1717319114 
Si 14.8276957056 1.3429329513 15.0041315919 
Si 16.2702077988 10.7951876187 16.2669215430 
Si 8.1021573741 2.7065346547 5.5257526963 
Si 5.5550692408 2.8039814356 26.4520403545 
Si 10.8590281293 5.4156268395 5.5130031362 
Si 12.0265161500 9.3650559256 27.6983754958 
Si 16.2222826184 13.5024716135 19.0148456039 
Si 16.1060371773 13.4589610231 26.4623975486 
Si 6.7533779418 1.3325708822 6.8624434155 
Si 6.8037303322 3.8529759952 20.3143087747 
Si 9.4963859068 6.7863163221 14.9234913538 
Si 12.2089152817 9.4210120762 14.9447600708 
Si 13.7967993362 3.9458452861 25.3100940597 
Si 12.2367548919 6.7800935420 6.8179804188 
Si 5.3886505993 2.6892835446 8.1973252727 
Si 9.3567480256 4.0611296171 17.4757665592 
Si 8.6213196788 2.9648614771 21.4629361891 
Si 9.4921830868 6.7420401017 9.5295230119 
Si 10.8486351092 8.1132671542 13.5545328693 
Si 14.9193758264 6.7811523920 14.9989092321 
Si 3.3548115007 12.8522073875 20.2626103298 
Si 7.7587804610 2.4227302722 27.2584135601 
Si 5.3219430487 8.0900539040 13.4905516674 
Si 8.1351772044 16.2628121387 8.1849258149 
Si 10.8501337892 8.0962603941 8.1734016130 
Si 13.6817756451 0.0490234522 2.8871889351 
Si 4.0540108871 9.4375790063 1.3420268623 
Si 6.7595029818 4.0400014869 9.5355331020 
Si 10.8456377492 5.3902795993 10.8957682034 
Si 13.1310107401 3.1194698685 0.2483593880 
H 15.3281408002 3.6026638530 22.6212789433 
Si 12.2572314221 3.2151899094 23.7155529700 
Si 0.0660471540 10.6556474775 29.1025776155 
Si 5.6991380021 2.3851981118 24.0928757627 
Si 5.4370481897 16.2768704089 10.9033537540 
Si 14.8553887059 4.0598589971 1.5248065395 
Si 12.2181028417 6.7601708718 12.2226560572 
Si 14.9503268267 9.4674711566 17.7069508018 
H 15.5508576822 3.1644628489 18.5150453439 

