&CONTROL
/
&SYSTEM
   ntyp             = 2
   nat              = 407
   ibrav            = 0
/
&ELECTRONS
/
&IONS
/
&CELL
/

ATOMIC_SPECIES
Si 28.085 None
H 1.008 None

K_POINTS gamma

CELL_PARAMETERS angstrom
16.29000014900000 0.00000000000000 0.00000000000000
0.00000000000000 16.29000014900000 0.00000000000000
0.00000000000000 0.00000000000000 29.17519467510000

ATOMIC_POSITIONS angstrom
Si 2.6703056944 10.8088549289 2.6938536726 
Si 8.1215750543 2.6909939946 10.8958265537 
Si 4.7646621436 0.3111732118 23.2736362962 
Si 8.9481948218 10.0390058118 17.2306657487 
Si 15.0065924872 1.3855541077 4.2238096339 
Si 12.1761723814 4.0985477475 14.9317479339 
Si 0.1017701469 0.1531593959 29.0939417579 
Si 1.2850757578 12.1488866311 1.3224415542 
Si 3.9987714966 15.1004717581 24.9903339261 
Si 7.9090231323 2.7394078750 16.2654044329 
Si 8.2023408750 16.2776686189 13.6389658827 
Si 13.5633799240 2.7166018748 5.5063803670 
H 15.1479408185 9.4560355765 21.8764362232 
Si 1.3115111700 4.0228644068 14.9512369640 
Si 0.0152739440 2.6749972145 2.7508036526 
Si 1.3241619841 9.4802913867 4.0749869658 
Si 9.6979583687 3.4519650616 26.3594674618 
Si 14.9316910666 4.0656908172 6.8442089188 
Si 12.2872376024 0.7947011413 26.8086195838 
Si 13.3564806322 10.6999074079 26.3033052121 
Si 1.3330041962 4.3952212302 20.4987251803 
Si 4.0319868069 12.1768891414 4.0571609219 
Si 2.7268482849 16.2843638089 2.7867620800 
Si 6.6598896309 9.4950664168 27.9431262040 
Si 12.8946265479 2.1405223096 21.6825087042 
H 12.4317461937 11.0450273510 18.5329589135 
Si 13.5732842441 16.2653696688 8.1929198183 
Si 2.7835049055 2.7743987954 0.0463197061 
Si 4.0532778371 9.4866607768 6.7915476924 
Si 1.3741592526 9.4904726368 20.2328516312 
Si 7.2297627061 11.1758197622 21.2972794337 
Si 5.3847572893 13.5744408341 2.7368754146 
Si 8.8944215313 9.5217820171 25.1071514056 
Si 14.9045682163 1.3302886532 9.5762908490 
Si 1.4481907872 1.3677866045 1.3997295624 
Si 2.6494382042 5.4015522794 13.5949405139 
Si 8.0871705740 13.6209487846 0.0717453047 
Si 9.4118408061 6.3031060477 20.2318596746 
Si 13.5318750638 2.6705500444 10.9395309954 
Si 16.2596030087 10.8689650294 5.4045005872 
Si 12.9691207186 14.2835445406 0.2355293043 
Si 1.3336737152 12.1987177416 6.7836995651 
Si 4.1710219581 4.0488795370 1.4241900456 
Si 6.7219056615 14.8990459063 4.1412146578 
Si 5.4474574998 13.5748480842 13.5968660768 
Si 9.5661233975 9.6409433682 19.3822196553 
Si 16.1812318180 8.3576171564 24.2824270025 
Si 14.9132344964 15.1368961984 1.2919301356 
Si 2.0885734991 6.9261171033 23.2313614391 
Si 1.3767135246 4.0704637872 4.0688601750 
Si 1.3253381221 9.4891368568 9.5053659507 
Si 8.1062298741 13.5421703439 5.4805894949 
Si 14.9050894963 4.0560471371 12.2459962129 
Si 14.9646294469 6.7761350720 22.8677509879 
Si 13.5672406541 13.5574340740 5.4654183937 
Si 4.0277351168 1.3215230041 4.2121979064 
Si 2.6849992746 10.8402457591 8.1436137393 
Si 3.8251038050 12.4305570237 22.4738275094 
Si 5.3927556793 13.5464220339 8.1670122454 
Si 9.2230885743 0.5759850833 24.5965271484 
H 9.6584876983 8.8168322606 21.9587102722 
Si 14.9244094365 14.9060343163 6.8322762642 
Si 4.0239884168 12.2031160416 9.5100631571 
Si 3.3652859708 10.2228221735 23.0822761943 
Si 0.0334811631 16.2401364585 5.4987656412 
Si 8.1176328742 5.4294570497 13.5872382625 
Si 6.7585907418 14.9090153864 9.5195450953 
Si 13.4945709634 2.7673615153 16.3285979046 
Si 13.5992993744 13.5604151440 10.8826393658 
Si 2.6698658644 2.7165530048 5.4996408970 
Si 1.2818796597 12.2552766221 25.1192007610 
Si 8.1287263643 13.5673709741 10.8724863980 
H 5.1830707974 13.0072230290 22.7464113532 
Si 10.7691561985 5.0861452965 23.3520592195 
Si 11.5344604055 7.1324462452 24.3586326110 
Si 13.4300136928 16.2125737783 13.7518738861 
Si 1.3468832763 1.3335222182 6.8632894962 
Si 0.0021189869 0.0553724798 16.2970595191 
Si 6.7394662816 12.2076609516 12.1851951072 
Si 4.0727606772 14.9288077365 12.2544278442 
Si 10.5110900161 10.5510819665 23.7142400862 
Si 9.2899753150 11.8755078486 22.1980927445 
Si 14.9466941567 12.1715786013 14.9354823589 
Si 4.0611947771 4.0611459071 6.8272873059 
Si 1.3172289601 1.3358011892 12.2767468681 
Si 4.3137386495 6.9232500633 20.3824620295 
Si 12.1666427313 6.7362734416 17.7430988680 
Si 10.9032554797 13.4854974333 13.4055059749 
H 14.6205357737 11.0022172306 23.6951303337 
H 14.0550447085 12.5720356750 28.6215661809 
H 2.8298662459 2.8997829265 19.8224441677 
Si 4.0341370869 1.4308582271 27.7352529419 
Si 2.6635127644 8.1288403943 10.8680225932 
Si 3.9534038462 6.8330034625 14.9237831058 
Si 10.4187094253 0.5687686132 17.0629083794 
Si 16.2567522587 2.6818553045 8.2038021659 
Si 16.2799492189 8.1177143242 13.6198853054 
Si 2.6904075546 1.0354021835 22.4250465839 
H 3.3846222009 2.5879434537 25.0014496753 
Si 2.6924112246 16.2622094087 8.2185939896 
Si 9.4703219066 4.0475111770 12.2533483620 
Si 12.2620695521 12.1149871408 12.1410822129 
Si 14.1700358196 9.7183697389 24.3592744653 
Si 12.7153713863 14.7932912253 27.1154551062 
Si 1.3367965082 4.0517465771 9.5280934274 
Si 6.0444697153 4.8513575244 0.2279218723 
Si 6.6975358212 6.8248584624 17.5217466660 
Si 5.9206657142 5.6309317715 21.5939036380 
Si 9.3073567451 0.9150500334 20.6974666064 
Si 9.5013054869 9.4570944265 1.3264239682 
Si 8.4053957269 13.5792626742 16.1407971765 
Si 4.0488958270 1.3349443352 9.5682676705 
Si 5.4280398196 8.0864375240 2.7026354062 
Si 6.7585581618 6.7566033618 12.2069306273 
H 6.0992366958 11.2386014228 22.3021606639 
Si 10.8277513290 10.8392194891 29.1267055015 
Si 16.2897069290 10.8454585592 10.8958557289 
Si 12.7591426167 13.8345758465 23.8430777459 
Si 2.7177910449 11.0700162112 26.5650650587 
Si 2.6651743444 16.2165159583 18.8848992868 
Si 9.4280982262 1.4210549050 15.0685795970 
Si 8.2299850053 5.4462846198 2.8262156958 
Si 12.1359686610 12.2855597324 1.3218492977 
Si 16.1791141180 10.5645537966 21.6625820463 
Si 16.2361291185 16.2532987786 10.9481668530 
Si 5.7770367828 1.7043738456 19.9232152901 
Si 2.6653861144 2.6907333546 10.9018366439 
Si 5.6054867913 5.0983790866 27.1193354071 
Si 8.1133486042 8.0786834839 29.1587398653 
Si 7.0086748241 12.6898775361 19.4611969072 
Si 12.2226151718 9.5018593469 4.0138649330 
Si 12.9245349882 8.6757771494 20.7515865925 
H 4.8690158845 3.2806757100 18.4497220830 
Si 6.8547831927 6.7104212114 1.4090568721 
Si 4.8441247643 4.4643722808 23.3005650009 
Si 10.8339089491 5.4405668298 16.3065122822 
Si 9.4421890764 12.1010103207 4.1918044453 
Si 16.2403319385 8.0533525336 19.0677110567 
Si 13.5591771040 10.8133509689 13.6022926630 
Si 5.4241139296 5.4048917294 5.4571909888 
Si 0.7454629868 1.1639188816 25.5293456477 
Si 2.7143538548 10.8726954394 13.6105200679 
Si 10.8033163288 2.7017453947 13.6457053527 
Si 9.4945777168 9.4656792566 6.8359231635 
Si 9.4262411662 12.2628677622 27.9049066989 
Si 16.2088759482 2.6752578545 13.6201770573 
Si 4.0256825768 4.0579204871 12.2359307708 
Si 8.1223732643 8.1377836044 5.4728288931 
Si 8.6672248993 0.2415236872 18.5497346504 
Si 10.3898109650 0.7820975682 28.1451936023 
Si 10.7741572285 5.2115620077 27.4185270285 
Si 10.8762629495 10.7818949786 5.4733248714 
Si 10.8169021889 13.6650621050 19.0626053976 
Si 2.6352170341 4.5541790517 22.4997350823 
Si 1.5263860460 9.3780390558 27.7558506293 
Si 6.7702706719 6.7628750119 6.8188556747 
Si 6.8600774427 14.8988667163 14.9504200585 
Si 11.0534492811 7.8468442018 19.4996789890 
Si 12.2111470117 12.1871681315 6.8106282698 
Si 14.9520046967 11.8247807881 27.6440512833 
Si 1.2857452768 1.3646817305 17.7323040460 
Si 5.4014708294 8.1260710943 8.1564508249 
H 8.0317031235 13.9248876074 24.3421194508 
Si 16.1070797373 1.9795771081 27.5255708178 
Si 12.5617892649 5.7964381730 25.9751426223 
Si 12.2191128218 9.4604338765 9.4993266854 
Si 2.7303995050 13.5861370543 16.3665256577 
Si 8.1163948342 5.4038817494 8.1860636475 
Si 6.9969948940 8.0239816634 24.7859908626 
Si 8.0637129738 8.1527052446 16.1621825942 
Si 9.4802913867 12.1978055016 9.5208871543 
H 14.0839431688 1.3228587841 24.4608624931 
Si 1.3897618147 6.8112400223 17.7070383274 
Si 2.8034927356 5.5809866310 19.0883670945 
Si 8.0019901632 2.4464485124 23.6435485895 
Si 5.3965023794 5.3968933394 10.8745286616 
Si 13.5975726344 5.4601962799 2.8901414648 
Si 16.2144471283 13.6071511544 2.6091172372 
Si 2.6306558341 13.6102136745 0.0880072665 
Si 2.7200553549 0.0006603380 13.6165593332 
Si 8.1162808042 8.1059203641 10.8466371755 
Si 5.1862473474 14.1442976194 19.6267661370 
Si 6.8732886329 15.0352465975 27.7959956972 
Si 13.4995557035 8.1572827346 29.1512710155 
Si 4.0565195471 14.9700540169 1.3673509313 
Si 7.4456214981 9.0416505527 20.3844167675 
Si 9.5173022670 3.9976474866 1.4976473507 
Si 9.0706793330 6.8074933223 27.4047563366 
Si 8.9461097018 13.9957002380 23.1297150609 
Si 14.9871585171 6.8053267522 4.1658968725 
H 0.1709456326 5.3334274988 20.7403249674 
Si 3.8862238855 6.7283565015 27.2226447715 
Si 4.0126668667 9.5158687470 12.1918178764 
Si 1.3150086330 14.8941751962 4.0434777556 
Si 11.2243802527 15.8279017148 0.6834785331 
Si 13.5622070440 8.1660956247 5.4355429943 
Si 2.6803892045 13.5462265539 5.4155288108 
Si 10.7664683485 2.6275933140 2.9116348307 
H 11.8593155885 11.1709164722 20.8613436749 
Si 13.5662306741 5.4135091395 8.1938242493 
Si 14.9389889866 9.4797538167 12.2520063030 
Si 13.8978299171 13.9424482275 21.7824045708 
Si 0.0626761014 5.4474737898 16.3191743167 
Si 1.8282592967 5.7196471123 26.4969993295 
Si 4.0107772267 14.8917642762 6.8302923510 
Si 8.0601943337 15.4202933310 21.5392293232 
Si 12.2654415822 1.3924056817 1.6325651210 
Si 14.9248166865 6.7802401520 9.5238046738 
Si 0.0031000196 13.5501198639 8.1723513060 
Si 5.3058648185 5.4744989001 16.2317070831 
Si 7.9253782925 5.2908454384 18.7613131622 
Si 9.4329689363 1.2871706518 4.2401769181 
Si 13.5759883842 8.1327174144 10.8843315270 
Si 13.7145185454 13.5411277838 16.3575980481 
Si 12.1862558915 4.0562914871 4.1473997990 
Si 2.0993737692 2.5530828533 24.1870532911 
Si 1.3167027930 14.9140978664 9.5687636488 
Si 6.6658680610 4.1280652277 14.8941411080 
Si 13.6961434253 0.1197259625 18.9993244003 
Si 13.5401015138 8.1042913641 16.3881153017 
Si 9.4879639768 4.0571385671 6.8497230306 
Si 2.7056224147 13.5665727641 10.9007863368 
Si 7.3485168072 11.8163262781 17.3211380274 
H 6.7709059819 12.1636290812 23.9186706753 
Si 16.1770778680 5.3857835593 0.1600063954 
Si 14.9171440964 12.2026762116 20.5073026875 
Si 7.7964103613 7.0896524148 21.7496700024 
Si 5.4914893702 10.8870795096 16.2154564996 
Si 5.3878198093 13.7838976561 26.4191015597 
Si 10.8665703994 16.2305579384 5.5020332630 
Si 10.8344628091 15.3354224303 23.5168115438 
Si 16.2831257689 8.1192618743 2.6974363865 
Si 2.7518860152 5.4309068597 2.7079598792 
Si 6.7485072317 1.2993767489 17.7690064409 
Si 8.0601780437 10.7694331285 13.4630102836 
Si 12.2132810017 1.3285798321 6.8409412970 
Si 14.6072105536 6.9955613740 20.5021386781 
Si 15.4036286609 4.6310515623 23.7365007597 
Si 0.2501199203 2.4320155722 19.6171091476 
Si 2.8817010264 7.9687259829 29.0676549075 
Si 1.2724330886 14.8517560358 27.8067613440 
Si 9.4853412867 1.3430013693 9.5348037222 
Si 8.6221667589 14.3852918816 19.5296419139 
Si 12.2655719022 1.7563226561 18.0646678637 
Si 1.3932674227 6.7704824419 1.3276434914 
Si 1.3779531936 14.9459773967 14.9877351325 
Si 10.8497591192 2.6912057646 8.1853926180 
Si 10.5466836665 11.6334384464 20.2581173498 
Si 14.8737475360 1.1689704107 20.7611268812 
Si 13.5027974135 5.3282798587 19.1270825778 
Si 1.1500137375 3.9582582662 28.0082744137 
Si 4.0719135972 6.7724372419 4.1017114442 
Si 1.3082857500 4.8136461740 24.4015784975 
Si 12.2086057717 4.0358964069 9.5479325598 
H 13.5221173537 7.0632951946 23.3080922011 
Si 14.9937070971 15.0009887272 17.6618167757 
Si 0.0271106327 5.3967955994 5.4765341429 
H 6.3997220385 7.9327250826 23.3843269848 
Si 6.6715044010 9.4357056563 14.8014223393 
Si 5.4986243903 16.2689860488 16.2953673579 
H 11.6273459863 11.7969574679 16.8789004265 
Si 10.8606734193 16.2853900789 10.8702107328 
Si 2.6936655546 8.1317074344 5.4381687619 
Si 2.4659639325 13.7797274160 23.8031660796 
Si 5.8277149733 15.9241267456 21.2101331272 
Si 12.1653395313 1.3104702390 12.3154623514 
Si 9.3918692659 14.8050688954 1.6239876138 
Si 12.3931877633 14.9716504369 20.2713337130 
Si 1.3616892574 6.7747504220 6.8208687631 
Si 4.0760349673 12.4173621236 27.9051109253 
Si 10.8426078092 10.8049616188 10.8261270137 
Si 10.7983478788 13.4410908929 2.8775348632 
Si 9.5075282670 14.9326195966 12.2081851606 
Si 14.3251329110 14.6019325935 25.4417325381 
Si 3.4714641917 1.6126986117 20.2793277163 
Si 1.3448893803 12.2185915417 12.2555656768 
H 4.6890439629 5.2600899181 24.5764837896 
H 10.2114680434 2.1711800899 28.7529712578 
Si 16.2637732487 8.1364478244 8.1436137393 
Si 12.2207092418 14.9019943963 4.1007486628 
Si 2.7043680847 5.4163273095 8.1835837560 
Si 7.4764095984 5.9943453848 25.8436500199 
Si 4.1921500883 9.6447226482 17.7132818191 
H 10.0180242916 3.2128604394 18.5404861137 
Si 9.4876055968 12.1584814412 14.6430010322 
Si 9.4862209468 14.8868284062 6.8363899667 
Si 10.8552488493 13.5382933238 8.1769318116 
Si 4.0515836770 6.7792627520 9.5334033128 
Si 1.4258018110 15.3171939201 22.3244505127 
Si 5.3540017690 10.9218586599 0.0688143647 
Si 8.7735497302 4.4924725311 24.5223638035 
H 9.9346846509 14.3442085012 25.5872584091 
Si 12.2128411717 14.9011147363 9.5335491888 
Si 2.7546227352 8.2355073153 16.3990851749 
Si 2.6884364646 10.9783523804 18.9634097357 
Si 1.0558640527 10.4056937152 23.6803968604 
Si 8.1382560144 10.8057761188 2.7161668615 
Si 15.4337000012 15.7393329839 22.2598274564 
Si 10.8178795889 13.4960859334 26.4802235926 
Si 4.0660817772 1.3445798703 15.0052694245 
Si 6.7662144619 12.2175489817 1.4132405950 
Si 4.1722762882 14.9544156168 17.6615250237 
Si 11.3653050439 0.3054244708 21.5892064316 
Si 14.8555841859 14.9286285465 12.3381606529 
Si 3.9610112762 4.1672426781 17.6301616894 
Si 6.7706779219 9.4563450865 4.0660301811 
Si 7.9239284825 10.9784338304 26.6173470075 
Si 4.0696329972 12.2554069421 14.9596394200 
Si 10.3940789451 4.4414196706 21.1258751650 
Si 14.8947942162 9.4786135167 1.3416096571 
Si 2.9350019068 8.4087351769 21.5967336319 
Si 5.4087361695 10.8301296690 5.4161998403 
Si 10.4645820657 8.2420396054 26.2285000129 
Si 13.8622525568 2.4837689027 27.2446136930 
Si 16.2614763587 5.4046473794 10.8763958741 
Si 13.5646668341 10.9196920899 2.6548581074 
Si 14.8118618255 4.2350253687 17.5604037990 
Si 6.7425939617 12.1815480814 6.8109783721 
H 8.5112481478 7.1743604156 23.0759160019 
Si 10.7816669186 10.8633938494 16.0691137231 
Si 10.5323973363 14.5534698431 16.8217170450 
Si 14.9112471164 12.2534521421 4.0428359013 
Si 1.3141094250 6.7632171018 12.2327214993 
Si 1.7045530356 14.5092099127 20.1661571362 
Si 2.5878294237 16.2794605189 26.4601218834 
Si 6.7655465719 9.4815457167 9.5042864685 
Si 5.2815601383 8.4673465974 26.3103656092 
Si 14.9181703664 9.5165529270 6.7894179032 
H 3.2839825800 7.2923488867 24.1224010597 
Si 5.3913384493 0.0448929598 29.1341743514 
Si 8.1263643143 10.8436014992 8.1606812282 
Si 15.1604189587 0.2392789252 24.4396521266 
H 13.8581800567 6.3471704980 26.8976914532 
Si 13.5743593841 10.8492704192 8.1744810952 
Si 5.3737452491 2.6517025143 2.8655117655 
Si 5.3746574891 2.6904238446 13.5795068359 
Si 5.3908986193 10.8452793692 10.8375345148 
Si 6.2357631870 11.9078597889 25.3046091231 
H 10.3064387443 8.3895455567 21.9966963757 
Si 14.9439574367 12.1991412816 9.5290270336 
Si 1.3821837066 9.4744269867 14.9520246942 
Si 1.2707698796 12.2024970216 17.5870991021 
Si 8.0716624938 0.0044989885 2.8312163241 
Si 6.7998044422 1.3290164042 12.2798394387 
Si 9.4926880768 9.4476299364 12.1786015132 
Si 12.2948939024 9.0085818524 23.0819844424 
Si 2.6509694642 2.7027065047 16.3518213595 
Si 0.4173921578 7.6715638002 26.5080567283 
Si 7.6773467502 3.1160326785 0.3127580869 
Si 12.1732727613 3.4659744617 19.8857835153 
Si 8.4899408277 0.2326570401 26.8581298892 
Si 11.4254314345 4.7877939438 0.3756889818 
Si 15.0362239975 6.8860274130 27.9518787624 
Si 6.6891464712 1.3285211882 1.4650761634 
Si 10.8509645792 8.0953318640 2.7018593460 
Si 11.8456156983 12.0038078898 25.0127113004 
Si 12.1346817510 14.6236960337 15.0316438005 
Si 13.6185867346 10.5342218163 19.3309880134 
Si 6.8023782622 4.0558679471 4.1073130816 
Si 4.4375426506 10.3120425043 25.1844948467 
Si 11.0301382909 1.9017597774 25.2093812877 
Si 12.2824320523 6.7233554715 1.4178035955 
Si 13.5769820742 5.4329105297 13.6072816213 
H 13.0644823795 12.7117712963 17.4303116059 
Si 0.0045032239 13.5817550442 13.6282294110 
Si 5.6307688715 8.2856153558 18.9999079042 
Si 5.3979196094 16.2505131886 5.5254317691 
Si 9.5416232373 6.8064670523 4.1718194370 
Si 14.8275328056 1.3447118193 15.0058529284 
Si 16.2702077988 10.7948781087 16.2672716454 
Si 8.1022876941 2.7064857847 5.5258693971 
Si 5.5552973008 2.8042094956 26.4522154057 
Si 10.8591584493 5.4155616795 5.5130906618 
Si 12.0267116300 9.3653491457 27.6982004447 
Si 16.2223803584 13.5026345135 19.0149623047 
Si 16.1057439573 13.4602153531 26.4617265191 
Si 6.7535408418 1.3324861742 6.8625601163 
Si 6.8029809922 3.8532529252 20.3141337236 
Si 9.4972655669 6.7861045521 14.9243957849 
Si 12.2096646217 9.4199369362 14.9456353266 
Si 13.7959359662 3.9460733461 25.3110860163 
Si 12.2369177919 6.7800120920 6.8180971196 
Si 5.3888460793 2.6891858046 8.1975294990 
Si 9.3563244856 4.0615205771 17.4758540848 
Si 8.6206192088 2.9649917971 21.4625860868 
Si 9.4925903368 6.7418120417 9.5299022894 
Si 10.8490912292 8.1129902242 13.5549704972 
Si 14.9212328865 6.7782364820 15.0019726275 
Si 3.3544857007 12.8524517375 20.2623185778 
Si 7.7589107810 2.4228280122 27.2585594361 
Si 5.3221873987 8.0899235840 13.4905516674 
Si 8.1353563944 16.2627469787 8.1850716909 
Si 10.8503618492 8.0961137840 8.1736350146 
Si 13.6818408051 0.0489845191 2.8871860176 
Si 4.0541412071 9.4376115863 1.3421143879 
Si 6.7598776518 4.0398060070 9.5356789780 
Si 10.8462078992 5.3901818593 10.8962933569 
Si 13.1310270301 3.1195024485 0.2485078897 
H 15.3270982402 3.5970275129 22.6297105745 
Si 12.2559770921 3.2162324694 23.7160781235 
Si 0.0659676588 10.6560873075 29.1022566884 
Si 5.6994149321 2.3857845518 24.0930216387 
Si 5.4372762497 16.2767726689 10.9034121044 
Si 14.8554538659 4.0598264171 1.5249144877 
Si 12.2188521817 6.7600405518 12.2232395611 
Si 14.9508481067 9.4668358466 17.7076801817 
H 15.5051316518 3.1020395684 18.4795683072 

