&CONTROL
/
&SYSTEM
   ntyp             = 2
   nat              = 407
   ibrav            = 0
/
&ELECTRONS
/
&IONS
/
&CELL
/

ATOMIC_SPECIES
Si 28.085 None
H 1.008 None

K_POINTS gamma

CELL_PARAMETERS angstrom
16.29000014900000 0.00000000000000 0.00000000000000
0.00000000000000 16.29000014900000 0.00000000000000
0.00000000000000 0.00000000000000 29.17519467510000

ATOMIC_POSITIONS angstrom
Si 2.6707781044 10.8086920289 2.6937136316 
Si 8.1370016844 2.6928836346 10.9116103341 
Si 4.7767493237 0.3025720918 23.2805799925 
Si 8.9501333319 10.0359595818 17.2324162604 
Si 15.0067553872 1.3844740807 4.2240722106 
Si 12.2444111920 4.0762630273 15.0003388166 
Si 0.1067799736 0.1422131674 29.0961882479 
Si 1.2855905218 12.1486585711 1.3217121743 
Si 4.0027136766 15.1001133781 24.9990573093 
Si 7.9105869723 2.7381861250 16.2653460825 
Si 8.2023734550 16.2778152289 13.6413290735 
Si 13.5640152341 2.7160480148 5.5070805717 
H 15.1444384685 9.4590492265 21.8749774635 
Si 1.3015188839 4.0350330369 14.9632863194 
Si 0.0163294219 2.6743293245 2.7509903738 
Si 1.3243672381 9.4797375267 4.0747243891 
Si 9.7016724887 3.4515741016 26.3557913873 
Si 14.9327824966 4.0649740572 6.8449674739 
Si 12.2839470223 0.7942547953 26.8013841355 
Si 13.3642346722 10.7066677579 26.3000959406 
Si 1.3391634453 4.3903016501 20.4688206057 
Si 4.0328990469 12.1768076914 4.0571609219 
Si 2.7276464950 16.2845918689 2.7872259656 
Si 6.6610625109 9.4967279968 27.9413173419 
Si 12.8775709178 2.1563724797 21.6546755685 
H 12.4330656837 11.0471287610 18.5308582994 
Si 13.5744245441 16.2650927388 8.1952538338 
Si 2.7836026455 2.7773798654 0.0480369580 
Si 4.0538316971 9.4855204768 6.7925979994 
Si 1.3734832176 9.4907658568 20.2345729677 
Si 7.2291273961 11.1819122223 21.2944494398 
Si 5.3855554992 13.5744571241 2.7362773231 
Si 8.8962785914 9.5240137471 25.1048757404 
Si 14.9062135063 1.3300785122 9.5786248646 
Si 1.4488733383 1.3663465685 1.3988805642 
Si 2.6436063842 5.4034419194 13.6000461730 
Si 8.0894674640 13.6208347546 0.0685973012 
Si 9.4044288560 6.3081722377 20.2313636963 
Si 13.5353122538 2.6699310244 10.9443740777 
Si 16.2598310687 10.8682482694 5.4052591423 
Si 12.9708963286 14.2861509407 0.2252219998 
Si 1.3341184322 12.1982616216 6.7845456457 
Si 4.1703703581 4.0508994970 1.4256750630 
Si 6.7227853215 14.8990621963 4.1415647601 
Si 5.4499172898 13.5741801941 13.5983248365 
Si 9.5780965476 9.6320978981 19.3804691436 
Si 16.1827793680 8.3489508764 24.2735577433 
Si 14.9131530464 15.1337848084 1.2910081994 
Si 2.0857553291 6.9277135234 23.2311280376 
Si 1.3782447846 4.0696981572 4.0700271828 
Si 1.3263122641 9.4872146368 9.5071456376 
Si 8.1075167842 13.5423006639 5.4812896996 
Si 14.9084126563 4.0538642771 12.2540777418 
Si 14.9617624068 6.7604640918 22.8607197660 
Si 13.5679411241 13.5562774840 5.4671689054 
Si 4.0286799368 1.3214611021 4.2129856367 
Si 2.6850318546 10.8391054591 8.1444598199 
Si 3.8137985449 12.4384902538 22.4771243064 
Si 5.3937982393 13.5457052739 8.1667788438 
Si 9.2251574044 0.5781483953 24.5931136506 
H 9.6631792184 8.8066673005 21.9536046131 
Si 14.9252890965 14.9043727363 6.8350187325 
Si 4.0252427468 12.2019105816 9.5097130547 
Si 3.3614578207 10.2271553135 23.0827429975 
Si 0.0335833014 16.2392242185 5.5002244009 
Si 8.1271462343 5.4260198596 13.5902433076 
Si 6.7602686118 14.9077936363 9.5193116938 
Si 13.5973934444 2.7662863753 16.4265973835 
Si 13.6018569044 13.5590304940 10.8847691550 
Si 2.6723256544 2.7167321949 5.5020624382 
Si 1.2839045067 12.2508294520 25.1275740418 
Si 8.1297689243 13.5658885841 10.8727489748 
H 5.1809205174 12.9950381088 22.7403137376 
Si 10.7654257885 5.0931988666 23.3513298396 
Si 11.5351934555 7.1348571652 24.3605581738 
Si 13.4295575728 16.2090877182 13.7525449156 
Si 1.3478004033 1.3330823882 6.8640772264 
Si 0.0085056281 0.0428871721 16.2820051187 
Si 6.7408020617 12.2062925916 12.1860995383 
Si 4.0763770573 14.9264293965 12.2530857852 
Si 10.5141851162 10.5511634165 23.7105348365 
Si 9.2916206050 11.8757684886 22.1953502762 
Si 14.9487792767 12.1667730513 14.9322730874 
Si 4.0648763172 4.0600218971 6.8317219355 
Si 1.3188188641 1.3359738632 12.2810064465 
Si 4.3226004095 6.9352720834 20.3846793443 
Si 12.1913057915 6.7173118814 17.7446159781 
Si 10.9017567997 13.4813597733 13.4030552585 
H 14.6189230637 11.0014516006 23.6873697319 
H 14.0349917184 12.5827544951 28.6208076259 
H 2.8537473861 2.9179462767 19.8388406271 
Si 4.0711642572 1.4510301343 27.7583013457 
Si 2.6651743444 8.1281073443 10.8703857840 
Si 3.9541368962 6.8332803925 14.9230245507 
Si 10.4136269452 0.5603939241 17.0548852008 
Si 16.2579088487 2.6813828945 8.2051442248 
Si 16.2841031689 8.0988667941 13.6415332998 
Si 2.7034558447 1.0179686253 22.4404802619 
H 3.3963998711 2.5767848036 25.0343301197 
Si 2.6936818446 16.2621116687 8.2196442966 
Si 9.4972492769 4.0388286069 12.2791975845 
Si 12.2640406422 12.1116802708 12.1409071617 
Si 14.1732286596 9.7176529789 24.3556275659 
Si 12.7261879464 14.7957673053 27.0967538064 
Si 1.3379091152 4.0504922470 9.5303982678 
Si 6.0451538953 4.8511457544 0.2286165337 
Si 6.6959556912 6.8275951824 17.5198211032 
Si 5.9214965042 5.6334241415 21.5967919823 
Si 9.3048643751 0.9151494024 20.6935863055 
Si 9.5024620769 9.4582510165 1.3253474035 
Si 8.4038155969 13.5751087242 16.1399219206 
Si 4.0503782170 1.3348400792 9.5700765325 
Si 5.4283981997 8.0863072039 2.7030701166 
Si 6.7641456319 6.7522702217 12.2096439204 
H 6.0983570358 11.2410449228 22.2993890204 
Si 10.8291522690 10.8409462291 29.1245757123 
Si 16.2886806590 10.8362058391 10.9027994253 
Si 12.7662287668 13.8377035266 23.8218673794 
Si 2.7185892549 11.0678007712 26.5690912355 
Si 2.6182591440 16.2410975685 18.8855703163 
Si 9.4316657363 1.4212764490 15.0680544435 
Si 8.2304085453 5.4462846198 2.8270384363 
Si 12.1368320310 12.2882475824 1.3202184043 
Si 16.1766054579 10.5670950366 21.6611524617 
Si 16.2383119785 16.2537874787 10.9508217957 
Si 5.7725081628 1.7017511556 19.9215231288 
Si 2.6661843244 2.6897233746 10.9047249881 
Si 5.6077511013 5.1023375567 27.1203565389 
Si 8.1134300542 8.0795957239 29.1585939893 
Si 7.0018167340 12.6953021061 19.4573166063 
Si 12.2232504818 9.5020874069 4.0143609113 
Si 12.9271902582 8.6739526693 20.7505654607 
H 4.8684457345 3.2666663099 18.4263235769 
Si 6.8554510827 6.7106004014 1.4094361496 
Si 4.8422188343 4.4657080608 23.3029573669 
Si 10.8521700393 5.4293430197 16.3140978328 
Si 9.4435737264 12.1009940307 4.1921837229 
Si 16.2427754386 8.0521470736 19.0675943559 
Si 13.5607898140 10.8082359088 13.6018258599 
Si 5.4252053596 5.4044518994 5.4592332524 
Si 0.7834773312 1.1439457125 25.4800979191 
Si 2.7172208949 10.8719623894 13.6113369733 
Si 10.8447417992 2.7051825847 13.6864630996 
Si 9.4969397669 9.4635289766 6.8386656318 
Si 9.4309815562 12.2659139922 27.8991591856 
Si 16.2125086183 2.6733682144 13.6291630173 
Si 4.0216426568 4.0576924271 12.2424660144 
Si 8.1235461443 8.1369202344 5.4748128064 
Si 8.6666058793 0.2378291152 18.5474298100 
Si 10.3908372350 0.7797599531 28.1412257758 
Si 10.7726422585 5.2111221777 27.4202191898 
Si 10.8769634195 10.7813574086 5.4750753831 
Si 10.8169347689 13.6591162549 19.0605047836 
Si 2.6322522541 4.5483798116 22.4938125177 
Si 1.5205330489 9.3796680558 27.7548586727 
Si 6.7720951519 6.7613600418 6.8218023693 
Si 6.8585136027 14.8995020263 14.9548255129 
Si 11.0650803412 7.8320691716 19.4978993021 
Si 12.2123361817 12.1857020314 6.8136041396 
Si 14.9492191067 11.8554059884 27.6398208801 
Si 1.2405160913 1.4034828818 17.7267315838 
Si 5.4021224294 8.1247841843 8.1582013366 
H 8.0476673236 13.9198377073 24.3476627378 
Si 16.0934124272 1.9399109577 27.5188896982 
Si 12.5590851249 5.8003477731 25.9790229232 
Si 12.2231853218 9.4547649565 9.5053367755 
Si 2.7351887650 13.5845569242 16.3699391554 
Si 8.1179423842 5.4022038794 8.1909942554 
Si 6.9984935740 8.0257246934 24.7846196284 
Si 8.0716950738 8.1469711645 16.1629703244 
Si 9.4821158667 12.1960461815 9.5218791109 
H 13.9547145976 1.3507684414 24.3746789681 
Si 1.3880415907 6.8076399323 17.6986358713 
Si 2.8185446958 5.5940512112 19.0828821579 
Si 8.0028535332 2.4486965324 23.6419147786 
Si 5.3967793094 5.3941566193 10.8804804013 
Si 13.5982568144 5.4603591799 2.8898584654 
Si 16.2155059783 13.6061085944 2.6094060716 
Si 2.6286521640 13.6100344845 0.0854976162 
Si 2.7247631649 16.2878009990 13.6141086168 
Si 8.1178120642 8.1036071841 10.8474832562 
Si 5.1785421774 14.1511394194 19.6234109896 
Si 6.8745266729 15.0348230575 27.7936325064 
Si 13.5002398835 8.1585044846 29.1501331829 
Si 4.0554118271 14.9689951669 1.3670679319 
Si 7.4531148982 9.0468144827 20.3824036791 
Si 9.5177583870 3.9972891066 1.4986947402 
Si 9.0717707630 6.8093178023 27.4047855118 
Si 8.9511921819 13.9956024980 23.1279645492 
Si 14.9879730171 6.8058154522 4.1653717190 
H 0.1994905998 5.3538225790 20.7594055447 
Si 3.8868591956 6.7309466116 27.2242202320 
Si 4.0161529267 9.5143374870 12.1934808625 
Si 1.3153458360 14.8941751962 4.0438862083 
Si 11.2249829827 15.8277225248 0.6797178505 
Si 13.5628097740 8.1656069247 5.4361848486 
Si 2.6808779045 13.5459496239 5.4159372635 
Si 10.7671851085 2.6268113940 2.9120812112 
H 11.8626550385 11.1692874722 20.8618980036 
Si 13.5674198441 5.4120919095 8.1953997098 
Si 14.9442832367 9.4646366966 12.2658936957 
Si 13.9203589873 13.9751585478 21.7664457393 
Si 0.0296719095 5.3963557694 16.3859563373 
Si 1.8292855667 5.7171873223 26.5002961265 
Si 4.0115591467 14.8915687962 6.8306424533 
Si 8.0614160837 15.4191367410 21.5377122130 
Si 12.2646759522 1.3907620207 1.6321625033 
Si 14.9262176265 6.7773242420 9.5266930180 
Si 0.0037261095 13.5476112039 8.1759106798 
Si 5.3089110485 5.4752482401 16.2268931759 
Si 7.9182269824 5.2940382784 18.7617507901 
Si 9.4343535863 1.2868806898 4.2416356778 
Si 13.5789857442 8.1249959543 10.8933758374 
Si 13.7112116754 13.5329990738 16.3500708479 
Si 12.1869726515 4.0559493971 4.1478082518 
Si 2.1488790796 2.5577417934 24.1759958923 
Si 1.3179652681 14.9139349664 9.5703682845 
Si 6.6698265310 4.1276905578 14.8929449250 
Si 13.6843494652 0.1198445537 18.9861955627 
Si 13.5427242039 8.1018967341 16.3898658134 
Si 9.4889739568 4.0564543871 6.8523487981 
Si 2.7069744848 13.5647645741 10.9006112857 
Si 7.3484353572 11.8127913480 17.3220424585 
H 6.7693584319 12.1685975313 23.9179412954 
Si 16.1807105380 5.3794141692 0.1539306611 
Si 14.9177468264 12.2072862816 20.5027513571 
Si 7.7943089513 7.0962987349 21.7543088583 
Si 5.4932812702 10.8813942995 16.2152230981 
Si 5.3876080393 13.7807048160 26.4202102171 
Si 10.8679061794 16.2302972984 5.5030835700 
Si 10.8377370991 15.3366116003 23.5132813453 
Si 16.2830117389 8.1201741143 2.6947901963 
Si 2.7521955252 5.4318679697 2.7092202476 
Si 6.7484746517 1.2981175319 17.7692398424 
Si 8.0605690037 10.7655235285 13.4623100789 
Si 12.2143887217 1.3281465182 6.8425751079 
Si 14.6040177136 6.9943559140 20.4991628082 
Si 15.4074405209 4.6258550523 23.7500380501 
Si 0.0240899780 2.6910591546 19.3307837870 
Si 2.8787362463 7.9717070529 29.0671005788 
Si 1.2850220007 14.8618721259 27.8016265098 
Si 9.4872309268 1.3431577533 9.5384797967 
Si 8.6228835189 14.3826691915 19.5282998550 
Si 12.2488257820 1.7462065660 18.0592121023 
Si 1.3932462457 6.7686579619 1.3259484126 
Si 1.3877858377 14.9373274066 14.9841174084 
Si 10.8516976292 2.6907333546 8.1882517871 
Si 10.5496484465 11.6286491864 20.2573296195 
Si 14.8721022460 1.2750215697 20.6752642833 
Si 13.5333574538 5.3027045585 19.1157042519 
Si 1.1445093465 3.9405347460 27.9952331017 
Si 4.0728584172 6.7722254719 4.1031118535 
Si 1.3147952340 4.8034160539 24.4088431210 
Si 12.2115868417 4.0344954669 9.5516086343 
H 13.5196738536 7.0489599945 23.3004483001 
Si 14.9869630371 14.9959551171 17.6482503101 
Si 0.0277882968 5.3966001194 5.4767383692 
H 6.3995265585 7.9345984326 23.3839768825 
Si 6.6765868811 9.4299878662 14.8030853254 
Si 5.4936559402 16.2691163688 16.2991601332 
H 11.6261242363 11.7953773379 16.8781710467 
Si 10.8617811393 16.2866769890 10.8751705159 
Si 2.6937307146 8.1311698644 5.4389273169 
Si 2.4524758124 13.7908371961 23.8156238877 
Si 5.8295557433 15.9234588556 21.2092578714 
Si 12.1684672113 1.3108563120 12.3216183175 
Si 9.3931887559 14.8053295354 1.6220270407 
Si 12.3919008533 14.9709662569 20.2641274399 
Si 1.3627513655 6.7734146419 6.8222983476 
Si 4.0753019173 12.4181929136 27.9051692757 
Si 10.8441064892 10.8017036188 10.8268563935 
Si 10.7989831888 13.4420520029 2.8770680601 
Si 9.5066160269 14.9318213866 12.2093813436 
Si 14.3329521111 14.6325252138 25.4065764285 
Si 3.4638404717 1.6112830107 20.2837331707 
Si 1.3468849053 12.2144864617 12.2543694938 
H 4.6846293728 5.2613279581 24.5789928564 
H 10.2139115434 2.1677266098 28.7510456949 
Si 16.2644737187 8.1344604444 8.1456851781 
Si 12.2218658318 14.9012613463 4.1015947434 
Si 2.7057690247 5.4154313595 8.1860052971 
Si 7.4773707084 5.9967237248 25.8435916696 
Si 4.1911238183 9.6447063582 17.7154116083 
H 9.9942408914 3.2260553395 18.5550153606 
Si 9.4866770668 12.1549790912 14.6419215500 
Si 9.4878662368 14.8866980861 6.8381113031 
Si 10.8571547793 13.5385865438 8.1796451047 
Si 4.0537339571 6.7772753720 9.5367292850 
Si 1.4112613569 15.3276358102 22.3380461534 
Si 5.3542786990 10.9224450999 0.0681170775 
Si 8.7730447402 4.4945902311 24.5221887523 
H 9.9397019709 14.3496493612 25.5837865610 
Si 12.2145842017 14.9016197263 9.5376920664 
Si 2.7555838452 8.2353607053 16.3985308462 
Si 2.6859278046 10.9788085004 18.9638765388 
Si 1.0515178806 10.4068828852 23.6798133565 
Si 8.1390868044 10.8059715988 2.7161989542 
Si 15.4325271211 15.8394676149 22.2064368502 
Si 10.8248028390 13.4975031634 26.4701873256 
Si 4.0683949572 1.3442035713 15.0027311826 
Si 6.7677457219 12.2179562317 1.4118401857 
Si 4.1467987279 14.9784922370 17.6703942829 
Si 11.3622262339 0.3026242198 21.5827295384 
Si 14.8595100759 14.9269669665 12.3404071429 
Si 3.9622167362 4.1669168781 17.6189875899 
Si 6.7718996719 9.4557586465 4.0667887362 
Si 7.9249221725 10.9807307204 26.6144878385 
Si 4.0738032373 12.2537942321 14.9617983844 
Si 10.3827573950 4.4489782307 21.1273339247 
Si 14.8954132362 9.4824905367 1.3381232213 
Si 2.9365494569 8.4133289570 21.5989509467 
Si 5.4091271295 10.8293640390 5.4166374682 
Si 10.4652825357 8.2450043854 26.2283833121 
Si 13.8524296867 2.4844693727 27.2436509116 
Si 16.2623234387 5.4018129194 10.8801594742 
Si 13.5645202241 10.9204251399 2.6541287275 
Si 15.0240716574 4.0380303969 17.8310037296 
Si 6.7438808717 12.1806684214 6.8109783721 
H 8.5133984279 7.1764292456 23.0790669229 
Si 10.7816506286 10.8610643793 16.0685010441 
Si 10.5307683363 14.5451782330 16.8195580806 
Si 14.9116543664 12.2530123121 4.0431568285 
Si 1.3146111570 6.7626795318 12.2344720110 
Si 1.6962777155 14.5132498327 20.1718462991 
Si 2.6572899843 16.2926065490 26.5139792928 
Si 6.7671429919 9.4802750967 9.5053076003 
Si 5.2821139983 8.4690081775 26.3083525207 
Si 14.9190988964 9.5151845670 6.7909350134 
H 3.2830866300 7.2914855167 24.1206505480 
Si 5.4029532194 0.0421065553 29.1440355672 
Si 8.1276349343 10.8425915192 8.1612647321 
Si 15.0814613279 0.3156887999 24.3975814959 
H 13.8566650867 6.3490927181 26.9002880455 
Si 13.5750924342 10.8460775792 8.1778654178 
Si 5.3741036292 2.6516862243 2.8655642808 
Si 5.3765634192 2.6909614146 13.5796235367 
Si 5.3921366593 10.8445137392 10.8378846171 
Si 6.2340038670 11.9087231589 25.3026543851 
H 10.3140298843 8.3838766367 21.9965796749 
Si 14.9458307867 12.1940099315 9.5336075392 
Si 1.3856534767 9.4742315066 14.9535126292 
Si 1.2705401906 12.2024807316 17.5852902400 
Si 8.0747250138 0.0038008480 2.8328297124 
Si 6.8018081122 1.3288583912 12.2808897458 
Si 9.4949360968 9.4437529164 12.1800019226 
Si 12.2964251625 9.0065944724 23.0804965075 
Si 2.6496499742 2.6993996347 16.3389550987 
Si 0.4170240038 7.6706515601 26.5037387995 
Si 7.6787151102 3.1155928485 0.3124284072 
Si 12.1396176210 3.4795114518 19.8638729441 
Si 8.4905598476 0.2329926141 26.8549206178 
Si 11.4258386845 4.7872889538 0.3767772166 
Si 15.0381787975 6.8863857930 27.9521996895 
Si 6.6943755612 1.3287671672 1.4693999273 
Si 10.8513392492 8.0958857240 2.7019001913 
Si 11.8550476084 12.0068541198 25.0010995729 
Si 12.1320427710 14.6189230637 15.0285804051 
Si 13.6185704446 10.5345964863 19.3297918304 
Si 6.8029484122 4.0555747271 4.1084800893 
Si 4.4363209006 10.3137040843 25.1831527877 
Si 11.0342922409 1.9047408474 25.1986156409 
Si 12.2829207523 6.7240559415 1.4174214004 
Si 13.5846872442 5.4246840796 13.6277042575 
H 13.0646615695 12.7060535062 17.4263437794 
Si 0.0082767862 13.5774056142 13.6272666296 
Si 5.6375943816 8.2924571558 18.9990034732 
Si 5.3991250694 16.2508226986 5.5264820761 
Si 9.5424866073 6.8063041523 4.1725196417 
Si 14.8293898656 1.3360830062 15.0104042588 
Si 16.2712014888 10.7926626687 16.2672132950 
Si 8.1033302541 2.7062414347 5.5272989816 
Si 5.5671727109 2.8124196557 26.4501731420 
Si 10.8595982793 5.4148286295 5.5142576696 
Si 12.0307678400 9.3701872757 27.6947577717 
Si 16.2198879883 13.5041494835 19.0079894332 
Si 16.1109078873 13.4935935634 26.4443381031 
Si 6.7547300118 1.3325888012 6.8647190807 
Si 6.7970351422 3.8527642252 20.3126457886 
Si 9.5103464370 6.7762979720 14.9306101013 
Si 12.2111958817 9.4172327961 14.9471232615 
Si 13.7867809861 3.9508137361 25.3117278706 
Si 12.2380906719 6.7787577620 6.8193516530 
Si 5.3948245093 2.6900328846 8.2043564946 
Si 9.3503297655 4.0682809272 17.4756790336 
Si 8.6170679888 2.9647637371 21.4599019688 
Si 9.4964347769 6.7376418016 9.5355039268 
Si 10.8516976292 8.1090643342 13.5574212136 
Si 14.9283841965 6.7518792618 15.0351156487 
Si 3.3495172506 12.8568989076 20.2620268259 
Si 7.7647914710 2.4243429822 27.2576258299 
Si 5.3261784487 8.0869425140 13.4908434193 
Si 8.1372786144 16.2632682587 8.1870264289 
Si 10.8527890593 8.0932141640 8.1777778922 
Si 13.6819711251 0.0479567830 2.8862990917 
Si 4.0544995871 9.4378559363 1.3417642856 
Si 6.7680063619 4.0374602469 9.5476991582 
Si 10.8510460292 5.3860279093 10.9046082873 
Si 13.1315483101 3.1185576285 0.2506198820 
H 15.3404886203 3.5630139926 22.6782580985 
Si 12.2548367921 3.2241656995 23.7032118626 
Si 0.0588997535 10.6682722276 29.0946127874 
Si 5.7019561722 2.3867130818 24.0931966898 
Si 5.4401432897 16.2762839689 10.9031203524 
Si 14.8571480259 4.0601847971 1.5245118700 
Si 12.2250749618 6.7501362317 12.2362516979 
Si 14.9517440567 9.4658584466 17.7083512112 
H 0.8730902510 15.9594108860 24.8653182169 

