&CONTROL
/
&SYSTEM
   ntyp             = 2
   nat              = 407
   ibrav            = 0
/
&ELECTRONS
/
&IONS
/
&CELL
/

ATOMIC_SPECIES
Si 28.085 None
H 1.008 None

K_POINTS gamma

CELL_PARAMETERS angstrom
16.29000014900000 0.00000000000000 0.00000000000000
0.00000000000000 16.29000014900000 0.00000000000000
0.00000000000000 0.00000000000000 29.17519467510000

ATOMIC_POSITIONS angstrom
Si 2.6710550344 10.8082521988 2.6940608164 
Si 8.1370016844 2.6928836346 10.9116103341 
Si 4.7760488537 0.3035250568 23.2829431833 
Si 8.9501007518 10.0359921618 17.2324454356 
Si 15.0070811873 1.3848764437 4.2245973642 
Si 12.2444437720 4.0761327073 15.0005138678 
Si 0.1050340114 0.1407065053 29.0984347379 
Si 1.2861118018 12.1474368211 1.3216771641 
Si 4.0047499266 15.1085515982 25.0094145034 
Si 7.9104729424 2.7380395150 16.2655794841 
Si 8.2023408750 16.2778152289 13.6414457742 
Si 13.5639826541 2.7161620448 5.5072556228 
H 15.1444058885 9.4591795465 21.8759985953 
Si 1.3015123679 4.0349352969 14.9634613705 
Si 0.0164085914 2.6743619045 2.7512150228 
Si 1.3243509481 9.4793791467 4.0746952139 
Si 9.7026173087 3.4519487716 26.3555288105 
Si 14.9327336266 4.0649903472 6.8451425251 
Si 12.2830673623 0.7942205863 26.8031346472 
Si 13.3646907922 10.7025952579 26.2967407933 
Si 1.3390184643 4.3900898801 20.4685872042 
Si 4.0329804969 12.1765796314 4.0573651483 
Si 2.7278256849 16.2843312289 2.7874506146 
Si 6.6609647709 9.4969071869 27.9409380644 
Si 12.8781736478 2.1563724797 21.6549089701 
H 12.4332774537 11.0470310210 18.5310041754 
Si 13.5744897041 16.2650764488 8.1953121842 
Si 2.7828207255 2.7806215754 0.0523338807 
Si 4.0538642771 9.4856670868 6.7927730506 
Si 1.3732176906 9.4909450468 20.2346896685 
Si 7.2287038561 11.1817004523 21.2940993375 
Si 5.3858487193 13.5740498741 2.7368549920 
Si 8.8971419614 9.5250563071 25.1043797621 
Si 14.9062297963 1.3300736252 9.5786540398 
Si 1.4484074442 1.3658269175 1.3995340886 
Si 2.6435900942 5.4034256294 13.6001336986 
Si 8.0903959940 13.6204112146 0.0696280609 
Si 9.4044614360 6.3081070777 20.2313636963 
Si 13.5353122538 2.6699310244 10.9443740777 
Si 16.2598799387 10.8680364994 5.4052883175 
Si 12.9703750486 14.2844079106 0.2287370273 
Si 1.3341216902 12.1982127516 6.7845164705 
Si 4.1703540681 4.0536036371 1.4285196445 
Si 6.7227690315 14.8988015563 4.1419148624 
Si 5.4499172898 13.5741801941 13.5983540117 
Si 9.5780965476 9.6321630581 19.3804983188 
Si 16.1843106280 8.3496513464 24.2730909402 
Si 14.9120453264 15.1324001584 1.2933772252 
Si 2.0857064591 6.9284465734 23.2311572128 
Si 1.3781486736 4.0696818672 4.0704064603 
Si 1.3263171511 9.4872146368 9.5071748128 
Si 8.1075982342 13.5421540539 5.4812605244 
Si 14.9084126563 4.0538642771 12.2541069170 
Si 14.9622673968 6.7612297218 22.8608948171 
Si 13.5681040241 13.5561634540 5.4670813798 
Si 4.0286962269 1.3212672511 4.2131315126 
Si 2.6850318546 10.8391543291 8.1445473455 
Si 3.8147433649 12.4428722638 22.4817339871 
Si 5.3938308193 13.5456726939 8.1667788438 
Si 9.2255646544 0.5778437723 24.5932303514 
H 9.6630488984 8.8071885805 21.9540130659 
Si 14.9252728065 14.9043401563 6.8349895573 
Si 4.0252427468 12.2019268716 9.5097422299 
Si 3.3621094207 10.2293870436 23.0820719680 
Si 0.0337036845 16.2390938985 5.5002827513 
Si 8.1271462343 5.4260198596 13.5902141324 
Si 6.7602523218 14.9077936363 9.5193408690 
Si 13.5973771544 2.7660420253 16.4269183106 
Si 13.6018569044 13.5590304940 10.8847691550 
Si 2.6723908144 2.7166344548 5.5020916134 
Si 1.2890472598 12.2522466821 25.1270780635 
Si 8.1297689243 13.5658885841 10.8727489748 
H 5.1864754074 12.9915194688 22.7382714739 
Si 10.7654909485 5.0929219366 23.3513881900 
Si 11.5348839455 7.1348082953 24.3603539475 
Si 13.4295738628 16.2090877182 13.7525740907 
Si 1.3478443863 1.3330563242 6.8641064016 
Si 0.0084448501 0.0427969255 16.2823260458 
Si 6.7408020617 12.2062925916 12.1860995383 
Si 4.0763770573 14.9264293965 12.2530857852 
Si 10.5157815362 10.5531019265 23.7106223621 
Si 9.2913599650 11.8755730086 22.1950876995 
Si 14.9488444367 12.1667893413 14.9324481386 
Si 4.0648600272 4.0600544771 6.8316344099 
Si 1.3188123481 1.3359787502 12.2810064465 
Si 4.3222257395 6.9355978834 20.3849127458 
Si 12.1912732115 6.7172793014 17.7445284526 
Si 10.9017567997 13.4813271933 13.4031136089 
H 14.6182551737 11.0013864406 23.6873405567 
H 14.0493920785 12.5723777650 28.6124343450 
H 2.8536659361 2.9166267867 19.8403285620 
Si 4.0800585973 1.4581113973 27.7686001894 
Si 2.6651906344 8.1280910543 10.8703857840 
Si 3.9541206062 6.8333129725 14.9231412515 
Si 10.4137735552 0.5603955531 17.0551186024 
Si 16.2579088487 2.6813503145 8.2051442248 
Si 16.2841194589 8.0988505041 13.6416208254 
Si 2.7021037747 1.0158753603 22.4410929410 
H 3.3979962911 2.5762798136 25.0355263026 
Si 2.6936981346 16.2620953787 8.2196734718 
Si 9.4972818569 4.0388286069 12.2791975845 
Si 12.2640406422 12.1116802708 12.1409363369 
Si 14.1729680196 9.7158936589 24.3524182945 
Si 12.7257481164 14.7957021453 27.1032306997 
Si 1.3379058572 4.0504922470 9.5303982678 
Si 6.0449909953 4.8512923644 0.2289832659 
Si 6.6959231112 6.8275300224 17.5198211032 
Si 5.9217408542 5.6338476815 21.5963835295 
Si 9.3047992151 0.9148903914 20.6938780575 
Si 9.5024457869 9.4581206965 1.3253094758 
Si 8.4038481769 13.5751413042 16.1399802710 
Si 4.0503782170 1.3348514822 9.5700765325 
Si 5.4284959397 8.0868121940 2.7026558288 
Si 6.7641456319 6.7522865118 12.2096439204 
H 6.0978031758 11.2403118728 22.2988346917 
Si 10.8292011390 10.8403597891 29.1243714860 
Si 16.2886806590 10.8362058391 10.9027994253 
Si 12.7713601168 13.8441380766 23.8319619967 
Si 2.7204788949 11.0668070812 26.5698206154 
Si 2.6170536839 16.2397943685 18.8872041272 
Si 9.4317146063 1.4212748200 15.0682003194 
Si 8.2303270953 5.4463823598 2.8271288794 
Si 12.1371741210 12.2868792224 1.3198128691 
Si 16.1763611079 10.5672742266 21.6613275129 
Si 16.2383119785 16.2537711887 10.9508217957 
Si 5.7721986528 1.7009529456 19.9226609614 
Si 2.6661843244 2.6897233746 10.9047249881 
Si 5.6089728513 5.1042434867 27.1205607653 
Si 8.1132834442 8.0798074939 29.1584481133 
Si 7.0013280340 12.6954975861 19.4574333071 
Si 12.2233482218 9.5020874069 4.0143025609 
Si 12.9270762282 8.6736431593 20.7500986576 
H 4.8680873545 3.2663405099 18.4267612048 
Si 6.8554999527 6.7107795914 1.4094303146 
Si 4.8427726943 4.4667994908 23.3028406661 
Si 10.8521048792 5.4292941496 16.3140978328 
Si 9.4435411464 12.1009288707 4.1918627957 
Si 16.2427917286 8.0521959436 19.0675651807 
Si 13.5608223940 10.8082359088 13.6018842103 
Si 5.4252053596 5.4045985094 5.4592332524 
Si 0.7883806212 1.1407333244 25.4787266850 
Si 2.7172046049 10.8719460994 13.6113369733 
Si 10.8447417992 2.7051662947 13.6865214500 
Si 9.4969397669 9.4635615565 6.8386364566 
Si 9.4304602763 12.2651157822 27.8997718647 
Si 16.2125086183 2.6733519244 13.6292213677 
Si 4.0216263668 4.0576761371 12.2424951896 
Si 8.1235461443 8.1369202344 5.4747836312 
Si 8.6665570093 0.2378942752 18.5475465108 
Si 10.3899901550 0.7800254801 28.1427137107 
Si 10.7728866085 5.2115131377 27.4203650658 
Si 10.8768982595 10.7813899886 5.4749003319 
Si 10.8165600989 13.6593280249 19.0609424115 
Si 2.6328224041 4.5495201116 22.4932873642 
Si 1.5239458039 9.3764915057 27.7548294975 
Si 6.7721114419 6.7613763318 6.8218023693 
Si 6.8583832827 14.8995671863 14.9550005641 
Si 11.0649174412 7.8320528816 19.4976950758 
Si 12.2123687617 12.1857020314 6.8134874388 
Si 14.9601985668 11.8459089183 27.6288218317 
Si 1.2406268633 1.4029795208 17.7274317885 
Si 5.4021387194 8.1247841843 8.1582305118 
H 8.0494429336 13.9199191573 24.3474001610 
Si 16.0933961372 1.9336881777 27.5158554779 
Si 12.5591991549 5.8009830831 25.9791979744 
Si 12.2231853218 9.4547649565 9.5053076003 
Si 2.7350584450 13.5845243442 16.3700266810 
Si 8.1179586742 5.4022364594 8.1910234306 
Si 6.9990474340 8.0263437134 24.7843278765 
Si 8.0716787838 8.1469548745 16.1629994996 
Si 9.4821484467 12.1960298915 9.5218791109 
H 13.9388318475 1.3525733734 24.3735994859 
Si 1.3880806867 6.8075910623 17.6986066961 
Si 2.8184958258 5.5938883112 19.0828821579 
Si 8.0034888432 2.4484684724 23.6415938515 
Si 5.3967793094 5.3941566193 10.8804804013 
Si 13.5983871344 5.4603428899 2.8897505172 
Si 16.2162227383 13.6053266744 2.6097182462 
Si 2.6314377541 13.6078190445 0.0873178566 
Si 2.7247468749 16.2878009990 13.6141086168 
Si 8.1178120642 8.1036234741 10.8474832562 
Si 5.1776136474 14.1509928094 19.6246071726 
Si 6.8768887229 15.0343995175 27.7945077623 
Si 13.5005168135 8.1579669146 29.1501623581 
Si 4.0563566471 14.9686204969 1.3682845375 
Si 7.4532126382 9.0466027127 20.3821994527 
Si 9.5177420971 3.9975008766 1.4987501731 
Si 9.0718685030 6.8094969923 27.4048730374 
Si 8.9527397319 13.9955699180 23.1277019724 
Si 14.9879567271 6.8056199722 4.1655467701 
H 0.1996567578 5.3540669290 20.7589095664 
Si 3.8866800056 6.7305556516 27.2238993048 
Si 4.0161529267 9.5143374870 12.1935100377 
Si 1.3155690090 14.8939308462 4.0439737339 
Si 11.2255368427 15.8272989848 0.6804647355 
Si 13.5628097740 8.1656069247 5.4361848486 
Si 2.6810082245 13.5458193039 5.4159956139 
Si 10.7670384985 2.6270068740 2.9122124996 
H 11.8627364885 11.1700531022 20.8625398579 
Si 13.5673872641 5.4121407795 8.1954580602 
Si 14.9442995267 9.4646041166 12.2659228709 
Si 13.9182249973 13.9745558178 21.7716680991 
Si 0.0296111478 5.3960951293 16.3862772645 
Si 1.8288946067 5.7153628423 26.5003544769 
Si 4.0115591467 14.8915036362 6.8306716285 
Si 8.0612857637 15.4190227110 21.5382373665 
Si 12.2648062722 1.3909363237 1.6326147188 
Si 14.9262339165 6.7773242420 9.5267221932 
Si 0.0037314363 13.5475949139 8.1759106798 
Si 5.3089273386 5.4751342101 16.2269223511 
Si 7.9181292424 5.2939242484 18.7618383157 
Si 9.4351517963 1.2872325538 4.2427735104 
Si 13.5789857442 8.1249959543 10.8934050126 
Si 13.7114234454 13.5331782638 16.3503625998 
Si 12.1870866815 4.0559656871 4.1477207262 
Si 2.1519253097 2.5575137334 24.1756749652 
Si 1.3179652681 14.9139349664 9.5703682845 
Si 6.6698916910 4.1276253978 14.8930032754 
Si 13.6845449452 0.1185410279 18.9880627752 
Si 13.5427242039 8.1019293141 16.3898949886 
Si 9.4890228268 4.0565358371 6.8524071485 
Si 2.7069744848 13.5647645741 10.9006112857 
Si 7.3484027772 11.8129053780 17.3221008089 
H 6.7707919519 12.1675712613 23.9167159372 
Si 16.1814435880 5.3772964692 0.1522845966 
Si 14.9169160364 12.2082311017 20.5047352704 
Si 7.7945858813 7.0963964749 21.7544255591 
Si 5.4932324002 10.8813454295 16.2153981492 
Si 5.3909800693 13.7815030260 26.4202685675 
Si 10.8681016594 16.2301181084 5.5036962491 
Si 10.8386493391 15.3371328803 23.5146525794 
Si 16.2830931889 8.1194736443 2.6946530729 
Si 2.7516253752 5.4334643897 2.7110874601 
Si 6.7481325617 1.2980784359 17.7698233463 
Si 8.0605527137 10.7655235285 13.4623392541 
Si 12.2145516217 1.3281351152 6.8427501591 
Si 14.6041969036 6.9942744640 20.4991628082 
Si 15.4074893909 4.6264089123 23.7501547508 
Si 0.0237452816 2.6898048246 19.3318632692 
Si 2.8807562064 7.9697033829 29.0679174843 
Si 1.2888061678 14.8625563059 27.8072864976 
Si 9.4872309268 1.3431561243 9.5384797967 
Si 8.6223785289 14.3828483815 19.5285040814 
Si 12.2494773820 1.7453920660 18.0599706574 
Si 1.3930833457 6.7676479819 1.3252686305 
Si 1.3877076457 14.9373599866 14.9841757588 
Si 10.8517139192 2.6907170646 8.1882517871 
Si 10.5497787665 11.6286328964 20.2573004443 
Si 14.8725583660 1.2728989826 20.6775107732 
Si 13.5334389038 5.3026719785 19.1157042519 
Si 1.1430660525 3.9362667660 27.9929574365 
Si 4.0732656673 6.7733820619 4.1036953574 
Si 1.3152480960 4.8022757539 24.4084346683 
Si 12.2115868417 4.0344791769 9.5516086343 
H 13.5199833636 7.0487970945 23.3003899497 
Si 14.9872888371 14.9957433471 17.6490963908 
Si 0.0277019598 5.3964860893 5.4769717708 
H 6.3998197785 7.9345821426 23.3838601817 
Si 6.6765705911 9.4299878662 14.8031436758 
Si 5.4932812702 16.2689045988 16.2997436371 
H 11.6262056863 11.7953773379 16.8781710467 
Si 10.8617811393 16.2866606990 10.8751996911 
Si 2.6936981346 8.1314793744 5.4393065944 
Si 2.4574931325 13.7980373762 23.8234720151 
Si 5.8289693033 15.9228561256 21.2113293102 
Si 12.1684672113 1.3108514250 12.3216183175 
Si 9.3936448759 14.8051666354 1.6228614512 
Si 12.3916402133 14.9698422469 20.2663739299 
Si 1.3627643975 6.7733820619 6.8223275228 
Si 4.0774033273 12.4189748336 27.9038272167 
Si 10.8441064892 10.8017036188 10.8268563935 
Si 10.7995859188 13.4413189529 2.8768317410 
Si 9.5065997369 14.9318213866 12.2094105188 
Si 14.3369105811 14.6416476139 25.4176046521 
Si 3.4634495117 1.6096882197 20.2848126529 
Si 1.3468897923 12.2144864617 12.2543694938 
H 4.6846456628 5.2620610081 24.5790512068 
H 10.2134880034 2.1681175698 28.7521543523 
Si 16.2644900087 8.1344278644 8.1456851781 
Si 12.2215563218 14.9010984463 4.1019740209 
Si 2.7057853147 5.4154150695 8.1860052971 
Si 7.4779734384 5.9975382249 25.8433290928 
Si 4.1908957583 9.6452276382 17.7160534626 
H 9.9945992714 3.2261530795 18.5550737110 
Si 9.4866607768 12.1549790912 14.6419799004 
Si 9.4877359168 14.8866166361 6.8382280039 
Si 10.8571710693 13.5385702538 8.1796159295 
Si 4.0537339571 6.7772590820 9.5367001098 
Si 1.4074820769 15.3268376002 22.3432976884 
Si 5.3544904690 10.9229826699 0.0673599812 
Si 8.7730121602 4.4945250711 24.5221595771 
H 9.9426993309 14.3502683812 25.5852453207 
Si 12.2145679117 14.9016197263 9.5376920664 
Si 2.7556164252 8.2355724753 16.3987350726 
Si 2.6861232846 10.9797370304 18.9655395249 
Si 1.0524578136 10.4087888152 23.6791131518 
Si 8.1389564844 10.8059390188 2.7159888928 
Si 15.4281288211 15.8401517949 22.2143141528 
Si 10.8256662090 13.4972751034 26.4732798962 
Si 4.0683786672 1.3441384113 15.0028770586 
Si 6.7675828219 12.2178910717 1.4118226806 
Si 4.1461308379 14.9783293370 17.6712987139 
Si 11.3622425239 0.3027643138 21.5834880935 
Si 14.8595100759 14.9269669665 12.3404071429 
Si 3.9622981862 4.1667051081 17.6191042906 
Si 6.7719485419 9.4557749365 4.0667303858 
Si 7.9245475025 10.9810728104 26.6139043346 
Si 4.0738195273 12.2537453621 14.9618567348 
Si 10.3829854550 4.4489619407 21.1273047496 
Si 14.8955272662 9.4818552267 1.3380940461 
Si 2.9367123569 8.4144855470 21.5992426986 
Si 5.4092248695 10.8292825890 5.4167249938 
Si 10.4650707657 8.2449880954 26.2281790858 
Si 13.8530324167 2.4837200327 27.2430965829 
Si 16.2623071487 5.4018129194 10.8801886494 
Si 13.5648786041 10.9202133699 2.6541549852 
Si 15.0242182674 4.0374113769 17.8315872335 
Si 6.7439460317 12.1806358414 6.8109783721 
H 8.5136101979 7.1763152156 23.0793003245 
Si 10.7816669186 10.8610806693 16.0685593944 
Si 10.5308334963 14.5451945230 16.8197331317 
Si 14.9119638764 12.2527679621 4.0432443540 
Si 1.3146209310 6.7626795318 12.2345011862 
Si 1.6945509755 14.5135756327 20.1762517535 
Si 2.6644412944 0.0096729858 26.5299089491 
Si 6.7671429919 9.4802750967 9.5052784251 
Si 5.2822768983 8.4688289874 26.3080607688 
Si 14.9190988964 9.5151356970 6.7909933637 
H 3.2829400200 7.2918601867 24.1207672488 
Si 5.4081008595 0.0410478682 29.1486160727 
Si 8.1276512243 10.8425752292 8.1612647321 
Si 15.0731045579 0.3259449840 24.4017535487 
H 13.8565673467 6.3500375381 26.9001129943 
Si 13.5750598542 10.8460775792 8.1778362426 
Si 5.3741199191 2.6517350943 2.8660485891 
Si 5.3765634192 2.6909451246 13.5796818871 
Si 5.3921366593 10.8444974492 10.8379137923 
Si 6.2343133770 11.9088534789 25.3011664502 
H 10.3138181143 8.3841698567 21.9964337989 
Si 14.9458307867 12.1939936415 9.5336075392 
Si 1.3856046067 9.4743292467 14.9536293299 
Si 1.2706656236 12.2028391116 17.5863697222 
Si 8.0763703039 0.0033286498 2.8349799242 
Si 6.8018244022 1.3288567622 12.2809189209 
Si 9.4949360968 9.4437529164 12.1800310978 
Si 12.2955292125 9.0059265824 23.0791252733 
Si 2.6495685242 2.6992041547 16.3392468506 
Si 0.4174247378 7.6696741601 26.5035345731 
Si 7.6788128502 3.1156742985 0.3126763964 
Si 12.1400085810 3.4793648418 19.8641063457 
Si 8.4908693577 0.2333167851 26.8549789682 
Si 11.4260667445 4.7871097638 0.3768151443 
Si 15.0386186275 6.8857179030 27.9523455655 
Si 6.6974543713 1.3291011122 1.4724633227 
Si 10.8513555392 8.0958368540 2.7018972737 
Si 11.8568720884 12.0090043998 25.0025583327 
Si 12.1320916410 14.6188741937 15.0286971058 
Si 13.6187985046 10.5348897063 19.3302294583 
Si 6.8029484122 4.0556398871 4.1086843157 
Si 4.4370865306 10.3135248943 25.1824525830 
Si 11.0348298109 1.9043987574 25.1986739913 
Si 12.2828881723 6.7239582015 1.4174476581 
Si 13.5846872442 5.4246352096 13.6277917831 
H 13.0647755995 12.7060697962 17.4264604802 
Si 0.0082495982 13.5773893242 13.6272958048 
Si 5.6374640616 8.2923594158 18.9990034732 
Si 5.3991739394 16.2507249586 5.5265987769 
Si 9.5425191873 6.8063041523 4.1725488169 
Si 14.8294061556 1.3360422812 15.0105501347 
Si 16.2714621288 10.7929721787 16.2676800981 
Si 8.1032650941 2.7063880448 5.5275615583 
Si 5.5703818409 2.8153518557 26.4499980909 
Si 10.8596797293 5.4148123395 5.5142284944 
Si 12.0308981600 9.3693401957 27.6947869469 
Si 16.2198228283 13.5042472235 19.0096232441 
Si 16.1181732274 13.4958741634 26.4439296504 
Si 6.7547137218 1.3325692532 6.8647774311 
Si 6.7967582122 3.8524710052 20.3126749638 
Si 9.5103301470 6.7762979720 14.9306101013 
Si 12.2111795917 9.4172327961 14.9471232615 
Si 13.7865855061 3.9515793661 25.3116986954 
Si 12.2380906719 6.7787577620 6.8193516530 
Si 5.3948082193 2.6900654646 8.2043273194 
Si 9.3503297655 4.0682157672 17.4757957344 
Si 8.6172308888 2.9647800271 21.4595810417 
Si 9.4964510668 6.7376580916 9.5355039268 
Si 10.8516813392 8.1090480442 13.5574212136 
Si 14.9284330665 6.7517652318 15.0352615246 
Si 3.3486050106 12.8578274376 20.2659363020 
Si 7.7664693410 2.4250434522 27.2577425307 
Si 5.3261784487 8.0869262240 13.4908725945 
Si 8.1372460344 16.2632682587 8.1870847793 
Si 10.8527727693 8.0932304540 8.1777487170 
Si 13.6815964551 0.0484291930 2.8877432638 
Si 4.0548905471 9.4383935063 1.3412887299 
Si 6.7680063619 4.0374602469 9.5476991582 
Si 10.8510623192 5.3860441993 10.9046082873 
Si 13.1321999101 3.1182644085 0.2505212699 
H 15.3405700703 3.5652131426 22.6767118132 
Si 12.2552440421 3.2238887695 23.7032702130 
Si 0.0630579390 10.6635807075 29.0943793858 
Si 5.7025589021 2.3877719318 24.0926423611 
Si 5.4401432897 16.2763002589 10.9031203524 
Si 14.8575226959 4.0602499571 1.5245264576 
Si 12.2250912518 6.7501199417 12.2363100483 
Si 14.9517277667 9.4660050566 17.7084679119 
H 0.8767343240 15.9596063660 24.8679439844 

