&CONTROL
/
&SYSTEM
   ntyp             = 2
   nat              = 407
   ibrav            = 0
/
&ELECTRONS
/
&IONS
/
&CELL
/

ATOMIC_SPECIES
Si 28.085 None
H 1.008 None

K_POINTS gamma

CELL_PARAMETERS angstrom
16.29000014900000 0.00000000000000 0.00000000000000
0.00000000000000 16.29000014900000 0.00000000000000
0.00000000000000 0.00000000000000 29.17519467510000

ATOMIC_POSITIONS angstrom
Si 2.6662331944 10.8157455989 2.6913241832 
Si 8.1371971644 2.6936003946 10.9109101294 
Si 4.7983498639 0.3061184248 23.2834099864 
Si 8.9524628019 10.0358455518 17.2300238945 
Si 15.0050286472 1.3848340897 4.2263770510 
Si 12.2464637320 4.0759372273 14.9991134584 
Si 0.0818249965 0.1326589194 29.1862812491 
Si 1.2802555467 12.1583511212 1.3169274424 
Si 4.0182380467 15.0890035980 24.9887292904 
Si 7.9121833924 2.7399128651 16.2609698033 
Si 8.2029110250 16.2783039289 13.6389950579 
Si 13.5622884940 2.7167484849 5.5075473748 
H 15.1443570185 9.4530382165 21.8726434479 
Si 1.3028057939 4.0348375569 14.9623527131 
Si 0.0141153014 2.6812037045 2.7597516848 
Si 1.3233442261 9.4845919467 4.0762706744 
Si 9.7056798288 3.4507596016 26.3529322182 
Si 14.9312512366 4.0647785772 6.8458719049 
Si 12.2538105221 0.7811820701 26.7990501200 
Si 13.3580444722 10.6930167378 26.2937357482 
Si 1.3414978023 4.4004991902 20.4696666864 
Si 4.0299342669 12.1786484614 4.0574526739 
Si 2.7330221950 16.2838588189 2.7977377883 
Si 6.6572343609 9.4992040769 27.9465105265 
Si 12.8830606478 2.1485532797 21.6541504150 
H 12.4354928937 11.0417693510 18.5267154218 
Si 13.5732679541 16.2658420788 8.1958665129 
Si 2.8034927356 2.7694140553 0.0454231523 
Si 4.0529194571 9.4864327168 6.7926855250 
Si 1.3799161386 9.4894137868 20.2297882358 
Si 7.2322224961 11.1844371723 21.2903940878 
Si 5.3792186892 13.5766074042 2.7333539686 
Si 8.8939491213 9.5288192971 25.1060719234 
Si 14.9058388363 1.3302837662 9.5788582661 
Si 1.4614703954 1.3783425246 1.4219844009 
Si 2.6446326542 5.4041586794 13.5999002970 
Si 8.0883271640 13.6220727946 0.0737481818 
Si 9.4125575661 6.3063314677 20.2295840094 
Si 13.5355403138 2.6706966544 10.9438780994 
Si 16.2578111087 10.8671079694 5.4099271734 
Si 12.9634029286 14.2824368206 0.2177140552 
Si 1.3329813902 12.1988317716 6.7859460551 
Si 4.1767397482 4.0531312271 1.4282395626 
Si 6.7182241214 14.9003816863 4.1396391973 
Si 5.4506666298 13.5746526041 13.5970119527 
Si 9.5827066176 9.6330264281 19.3775224489 
Si 16.1886437681 8.3486413663 24.2706402238 
Si 14.8896302862 15.1169083683 1.3221498022 
Si 2.0955456192 6.9545594436 23.2362045214 
Si 1.3769383266 4.0748295073 4.0757163457 
Si 1.3262161531 9.4880942968 9.5081375942 
Si 8.1043891041 13.5434898339 5.4794808375 
Si 14.9090805464 4.0537176671 12.2538443403 
Si 14.9662421569 6.7526123118 22.8593485318 
Si 13.5641781341 13.5561960340 5.4713409582 
Si 4.0298202369 1.3241212591 4.2174786167 
Si 2.6844291245 10.8396104491 8.1449557982 
Si 3.8540022653 12.4483945738 22.4725438008 
Si 5.3930488993 13.5463405839 8.1667496687 
Si 9.2221437543 0.5733623932 24.5929969498 
H 9.6646127384 8.8110656006 21.9475653478 
Si 14.9238067065 14.9044867663 6.8366525434 
Si 4.0250146868 12.2023178316 9.5095671788 
Si 3.3831398109 10.2379881636 23.0750407461 
Si 0.0317643600 16.2396966285 5.5020624382 
Si 8.1284168543 5.4270461296 13.5881426936 
Si 6.7591283118 14.9079565363 9.5199243729 
Si 13.5999672644 2.7663515353 16.4255470765 
Si 13.6018080344 13.5596006440 10.8843898774 
Si 2.6708106844 2.7185892549 5.5049216073 
Si 1.2864555208 12.2554395221 25.1082017126 
Si 8.1294431244 13.5662469641 10.8725447484 
H 5.2142661477 13.0377016192 22.7469948571 
Si 10.7781482786 5.0867317365 23.3508338613 
Si 11.5351608755 7.1346616853 24.3571446761 
Si 13.4313006028 16.2102768883 13.7509402798 
Si 1.3464059793 1.3337307302 6.8650691830 
Si 0.0101645366 0.0435346996 16.2829970753 
Si 6.7410789917 12.2063903316 12.1854285088 
Si 4.0765073773 14.9266900365 12.2525606317 
Si 10.5102592261 10.5494040965 23.7071213387 
Si 9.2931355750 11.8774463586 22.1901862668 
Si 14.9515974467 12.1656490413 14.9316895835 
Si 4.0641758472 4.0613250971 6.8335016224 
Si 1.3191658411 1.3362507932 12.2803062419 
Si 4.3287743196 6.9351254734 20.3797195612 
Si 12.1941076715 6.7165136714 17.7421652618 
Si 10.9032717697 13.4812783233 13.4006628926 
H 14.6227512137 11.0019891706 23.6828475767 
H 14.0519496085 12.5770041250 28.6064534301 
H 2.8557673461 2.9191843167 19.8435670087 
Si 4.0484559970 1.4371396511 27.7176311243 
Si 2.6653861144 8.1287263643 10.8705316600 
Si 3.9554238062 6.8346161725 14.9220325941 
Si 10.4184650753 0.5608826241 17.0460159416 
Si 16.2569477387 2.6820344945 8.2059611303 
Si 16.2854389489 8.0989971141 13.6415041246 
Si 2.7289496950 1.0156587033 22.4230334955 
H 3.3995927111 2.6209632840 25.0181670618 
Si 2.6928836346 16.2630564887 8.2201402749 
Si 9.4979986169 4.0396919770 12.2774470728 
Si 12.2651809422 12.1109798008 12.1397401539 
Si 14.1777898597 9.7158773689 24.3469041827 
Si 12.7150944563 14.7889255053 27.0875052697 
Si 1.3374774302 4.0510623970 9.5306316693 
Si 6.0469132153 4.8531820044 0.2282818942 
Si 6.6999467413 6.8277906624 17.5184206938 
Si 5.9363692743 5.6430841116 21.5876017959 
Si 9.3147686952 0.9171025734 20.6831124106 
Si 9.4999208369 9.4579577965 1.3257908665 
Si 8.4059821669 13.5750761442 16.1360707949 
Si 4.0498080670 1.3355519522 9.5702515837 
Si 5.4273882196 8.0880339440 2.7041525163 
Si 6.7647483619 6.7530521418 12.2084185622 
H 6.1093364959 11.2386991628 22.3037944748 
Si 10.8289242090 10.8386493391 29.1259469465 
Si 16.2887783990 10.8369063091 10.9033829292 
Si 12.7616186967 13.8281901665 23.8219840801 
Si 2.7127411448 11.0725737413 26.5659694897 
Si 2.6194971840 16.2409020885 18.8841699070 
Si 9.4326268463 1.4230259950 15.0633572371 
Si 8.2248699452 5.4478158798 2.8301368419 
Si 12.1360338210 12.2878240424 1.3185758409 
Si 16.1796353980 10.5592106766 21.6571846352 
Si 16.2384422985 16.2541784387 10.9505300438 
Si 5.7806368729 1.7044715856 19.9162424186 
Si 2.6660377144 2.6905541646 10.9046082873 
Si 5.6142833913 5.1065403767 27.1202981885 
Si 8.1129576442 8.0789767039 29.1577479087 
Si 7.0027778440 12.6965564361 19.4515982682 
Si 12.2201065118 9.5032928669 4.0161114230 
Si 12.9296663383 8.6703362893 20.7493401025 
H 4.8719155046 3.2683115999 18.4217138962 
Si 6.8544411027 6.7126529414 1.4098125097 
Si 4.8709381046 4.4910227211 23.3041827250 
Si 10.8543203193 5.4289194797 16.3121722700 
Si 9.4409347463 12.1011080607 4.1919211461 
Si 16.2460334386 8.0504040436 19.0663106473 
Si 13.5623047840 10.8082359088 13.6011840056 
Si 5.4229573396 5.4059017094 5.4603710850 
Si 0.8489891958 1.0420028915 25.2236479579 
Si 2.7180842649 10.8724999594 13.6104033671 
Si 10.8462730592 2.7067138447 13.6838665073 
Si 9.4955551168 9.4638710666 6.8393074861 
Si 9.4302647963 12.2655230322 27.9060153563 
Si 16.2134371483 2.6734659545 13.6286670390 
Si 4.0218381368 4.0586535371 12.2415907585 
Si 8.1222266543 8.1375066744 5.4757464126 
Si 8.6716557793 0.2420351932 18.5373351927 
Si 10.3727064649 0.7776194471 28.1487821512 
Si 10.7787510086 5.2098515577 27.4182644518 
Si 10.8742266995 10.7825628686 5.4760965149 
Si 10.8196877790 13.6574709649 19.0511103709 
Si 2.6598149343 4.5700455118 22.4839221267 
Si 1.5236330359 9.3834310458 27.7594975287 
Si 6.7709059819 6.7620116418 6.8222399972 
Si 6.8597353527 14.8998115363 14.9527248989 
Si 11.0686641412 7.8317596616 19.4947775563 
Si 12.2094365617 12.1850178514 6.8164924839 
Si 14.9515485767 11.8230540481 27.6365240831 
Si 1.2411497724 1.4049783039 17.7284820955 
Si 5.4013730894 8.1258267443 8.1581429862 
H 7.9510513327 13.9417314675 24.2654178640 
Si 15.9361161857 2.1054336493 27.9029519609 
Si 12.5634508449 5.8059515331 25.9767180829 
Si 12.2227454918 9.4541622265 9.5058619290 
Si 2.7366222850 13.5849315942 16.3676051399 
Si 8.1174373942 5.4030183794 8.1907608539 
Si 7.0020285040 8.0269790234 24.7864868409 
Si 8.0739593838 8.1471340645 16.1607530096 
Si 9.4810733067 12.1957203815 9.5224917900 
H 14.0135540782 1.2945109258 24.4411108863 
Si 1.3911578677 6.8072652623 17.6965060821 
Si 2.8236760458 5.5935950912 19.0786809299 
Si 8.0118293233 2.4461227124 23.6383262297 
Si 5.3970399494 5.3950036993 10.8800135982 
Si 13.6037465444 5.4575247199 2.8889452818 
Si 16.2093483582 13.5986966444 2.6212628707 
Si 2.5993301638 13.6400569547 0.0697351338 
Si 2.7251052549 16.2881593790 13.6130874850 
Si 8.1178935142 8.1044868441 10.8465204747 
Si 5.1821585574 14.1561078695 19.6172550236 
Si 6.8721320428 15.0345949975 27.7997301221 
Si 13.4971610734 8.1552790646 29.1509209131 
Si 4.0467618370 14.9706241669 1.3616005005 
Si 7.4582788282 9.0502516728 20.3786109038 
Si 9.5071373069 3.9969307266 1.5037537190 
Si 9.0746052230 6.8064018923 27.4042895335 
Si 8.9384045318 13.9994795180 23.1101093301 
Si 14.9859856371 6.8055548122 4.1693103702 
H 0.2108349559 5.3811409092 20.7420171287 
Si 3.8976757556 6.7408998017 27.2287715623 
Si 4.0166904967 9.5149727970 12.1927514826 
Si 1.3125846810 14.8945498662 4.0458992968 
Si 11.2222299726 15.8264681947 0.6800212725 
Si 13.5601870840 8.1665680347 5.4374393820 
Si 2.6789231045 13.5471387939 5.4174543736 
Si 10.7611089384 2.6281634640 2.9150891738 
H 11.8674931685 11.1723011222 20.8556253367 
Si 13.5665564741 5.4125643195 8.1956331114 
Si 14.9452280567 9.4642294466 12.2657478197 
Si 13.9085650272 13.9571906776 21.7610483283 
Si 0.0317275446 5.3952806293 16.3861022133 
Si 1.8408025968 5.7488225026 26.5001210753 
Si 4.0105002967 14.8925299062 6.8314010084 
Si 8.0683067538 15.4199023710 21.5110460851 
Si 12.2570359421 1.3910389507 1.6362966284 
Si 14.9258755365 6.7767052220 9.5274515731 
Si 0.0029741142 13.5480510339 8.1769318116 
Si 5.3118758286 5.4774148101 16.2243549340 
Si 7.9246126625 5.2948201984 18.7592125482 
Si 9.4295969062 1.2871168948 4.2433570143 
Si 13.5793115442 8.1250448243 10.8935217134 
Si 13.7145999954 13.5322660238 16.3486120881 
Si 12.1871844215 4.0564380971 4.1457951633 
Si 2.1845378900 2.6249217540 24.1111686098 
Si 1.3178137710 14.9143259264 9.5704849852 
Si 6.6708365110 4.1292055278 14.8899398800 
Si 13.6834209351 0.1179234740 18.9832488681 
Si 13.5454446339 8.1017827041 16.3882320025 
Si 9.4884852568 4.0571059871 6.8524654989 
Si 2.7071210948 13.5652532741 10.9002320081 
Si 7.3504390272 11.8121071680 17.3178995808 
H 6.7539969618 12.1725071313 23.9330540463 
Si 16.1890835981 5.3965186693 0.1629495891 
Si 14.9202717765 12.2012426916 20.4996879617 
Si 7.8063146814 7.1015604049 21.7491740240 
Si 5.4947962403 10.8812476895 16.2126848561 
Si 5.3882270593 13.7785545360 26.4310925647 
Si 10.8623024193 16.2310303484 5.5068763453 
Si 10.8293640390 15.3284503102 23.5193206106 
Si 16.2797863189 8.1236438843 2.7032889305 
Si 2.7507457152 5.4331222997 2.7093923813 
Si 6.7509018617 1.3003818419 17.7636673803 
Si 8.0611880237 10.7654583685 13.4607929688 
Si 12.2129552017 1.3285879771 6.8430419110 
Si 14.6071616836 6.9913096839 20.4982000268 
Si 15.4300347511 4.6255618323 23.7577986518 
Si 0.0248499065 2.6907007746 19.3358602709 
Si 2.8821734364 7.9752419829 29.0716810844 
Si 1.2450838074 14.9029717963 27.7829543852 
Si 9.4871657668 1.3435356813 9.5384214463 
Si 8.6254573389 14.3824085515 19.5074104156 
Si 12.2505525220 1.7450662660 18.0560611813 
Si 1.3940363108 6.7816573820 1.3362735139 
Si 1.3884390667 14.9381581966 14.9835630797 
Si 10.8509808692 2.6915152746 8.1884268383 
Si 10.5526132265 11.6300989964 20.2531575667 
Si 14.8734706060 1.2640958666 20.6758769623 
Si 13.5343837238 5.3008312085 19.1139537402 
Si 1.1835320418 3.9791257564 28.0166476945 
Si 4.0715552172 6.7731865820 4.1033452551 
Si 1.3336867472 4.8613758745 24.4025412790 
Si 12.2111958817 4.0349027169 9.5514919335 
H 13.5236486137 7.0308780943 23.3024905637 
Si 14.9896345971 14.9946682071 17.6485420621 
Si 0.0264267785 5.3992065194 5.4816689771 
H 6.4107177886 7.9386057726 23.3809718374 
Si 6.6779715311 9.4296620662 14.8014223393 
Si 5.4949428503 16.2703381188 16.2958049858 
H 11.6283233863 11.7947094479 16.8759245567 
Si 10.8619766193 16.2873122990 10.8747912384 
Si 2.6926067046 8.1328966044 5.4387522657 
Si 2.4724147726 13.7830505761 23.7971851647 
Si 5.8352572434 15.9271241057 21.2031019053 
Si 12.1692491313 1.3113466410 12.3204221345 
Si 9.3910710559 14.8064698354 1.6262807841 
Si 12.3896202533 14.9677897069 20.2607431173 
Si 1.3626438515 6.7758581420 6.8245156624 
Si 4.0571711471 12.4279669137 27.9120254464 
Si 10.8440901992 10.8016384588 10.8265646416 
Si 10.7978265988 13.4408791229 2.8773685646 
Si 9.5072350470 14.9318702566 12.2081851606 
Si 14.3347114311 14.5960030335 25.4105734302 
Si 3.4753575018 1.6122180567 20.2730258743 
Si 1.3474908933 12.2151380617 12.2541069170 
H 4.7178935531 5.2915784884 24.5792554331 
H 10.2068579733 2.1704470398 28.7494410592 
Si 16.2638546987 8.1349491444 8.1481650696 
Si 12.2147633917 14.9002839463 4.1082758630 
Si 2.7053129047 5.4166531095 8.1872014801 
Si 7.4840821885 5.9961861548 25.8406449749 
Si 4.1940234384 9.6457814982 17.7143613013 
H 9.9953974814 3.2204189995 18.5506099062 
Si 9.4885178368 12.1544252312 14.6389456802 
Si 9.4837774467 14.8859813261 6.8397451140 
Si 10.8548415993 13.5390752438 8.1808412877 
Si 4.0537828271 6.7782527720 9.5369626866 
Si 1.4180331100 15.3301281802 22.3246255638 
Si 5.3459382189 10.9291728700 0.0684012439 
Si 8.7807987803 4.4941178211 24.5174915460 
H 9.9025444806 14.3080447009 25.5580832145 
Si 12.2137859917 14.9017989163 9.5376628912 
Si 2.7577178352 8.2366313253 16.3978306416 
Si 2.6929650846 10.9818547304 18.9653352985 
Si 1.0670992658 10.4019633051 23.6699229655 
Si 8.1359754144 10.8065254588 2.7157671613 
Si 15.4263369211 15.8000295245 22.1774367067 
Si 10.8106305389 13.4927464834 26.4626893006 
Si 4.0688999472 1.3449252183 15.0006889189 
Si 6.7635754819 12.2193408818 1.4128613175 
Si 4.1469942079 14.9807891270 17.6661055293 
Si 11.3639203939 0.2959274007 21.5880977742 
Si 14.8601942559 14.9270809965 12.3396485878 
Si 3.9656213463 4.1673404181 17.6142028579 
Si 6.7706942119 9.4565405665 4.0680140943 
Si 7.9261439225 10.9793134904 26.6237947256 
Si 4.0751878873 12.2539734221 14.9601645735 
Si 10.3888498550 4.4465836007 21.1272172240 
Si 14.8909009062 9.4776035367 1.3430217365 
Si 2.9502167670 8.4209852570 21.5920364255 
Si 5.4071723294 10.8306835291 5.4163457162 
Si 10.4620734057 8.2437011854 26.2254657927 
Si 13.7691877859 2.5087414729 27.2546499600 
Si 16.2626166587 5.4021224294 10.8807138029 
Si 13.5613762540 10.9201807899 2.6552869827 
Si 15.0265151574 4.0364176869 17.8317914598 
Si 6.7425125117 12.1814992114 6.8104240434 
H 8.5205497379 7.1767387556 23.0766745570 
Si 10.7834425286 10.8610806693 16.0659628021 
Si 10.5344010063 14.5456995130 16.8115932524 
Si 14.9064252763 12.2483207920 4.0505089775 
Si 1.3153947060 6.7629727518 12.2343844854 
Si 1.7028262956 14.5086723427 20.1693372324 
Si 2.6125250639 -0.0041800140 26.4354980191 
Si 6.7667520319 9.4809755667 9.5048116220 
Si 5.2861050483 8.4733576075 26.3089068494 
Si 14.9173558664 9.5138976570 6.7937358320 
H 3.2956950901 7.3260366070 24.1211757015 
Si 5.3869401493 0.0456730879 29.1311693063 
Si 8.1264946343 10.8435526292 8.1608562793 
Si 15.1108484882 0.2351933932 24.3656346577 
H 13.8669603668 6.3388137280 26.9039641200 
Si 13.5739521341 10.8461427392 8.1794700535 
Si 5.3748692592 2.6525170143 2.8680208322 
Si 5.3769380892 2.6919876846 13.5780189010 
Si 5.3922181093 10.8451653392 10.8373302884 
Si 6.2319024570 11.9057420889 25.3194301220 
H 10.3166525744 8.3899039367 21.9955877183 
Si 14.9455375667 12.1941076715 9.5341618679 
Si 1.3873899907 9.4745898866 14.9527832493 
Si 1.2748212027 12.2027739516 17.5859029191 
Si 8.0692189938 0.0063486855 2.8309916751 
Si 6.8019384322 1.3295246522 12.2796935628 
Si 9.4955225368 9.4434922764 12.1793892435 
Si 12.2968649925 9.0055682024 23.0776665136 
Si 2.6503341542 2.6990575447 16.3380214925 
Si 0.4127527658 7.6848564403 26.5076191004 
Si 7.6749358302 3.1153973685 0.3103132056 
Si 12.1431851311 3.4747873518 19.8634353162 
Si 8.4816980876 0.2323116921 26.8538994860 
Si 11.4036191243 4.8033997639 0.3866734426 
Si 15.0382113775 6.8862880530 27.9530165950 
Si 6.6858721811 1.3289512441 1.4631506005 
Si 10.8486513992 8.0976124641 2.7045697216 
Si 11.8478962984 11.9991163697 25.0018289528 
Si 12.1368320310 14.6174406737 15.0244083522 
Si 13.6203949246 10.5306543063 19.3276328660 
Si 6.8006678122 4.0565032571 4.1113100832 
Si 4.4350991506 10.3160335543 25.1885210235 
Si 11.0306107009 1.9046593974 25.1874707165 
Si 12.2820573823 6.7259292915 1.4245751581 
Si 13.5860881843 5.4249284296 13.6270624033 
H 13.0666815295 12.7046688562 17.4234554352 
Si 0.0090889730 13.5779920542 13.6268290017 
Si 5.6423510616 8.2944771159 18.9960276033 
Si 5.3987992694 16.2520444486 5.5285243398 
Si 9.5404666472 6.8061738322 4.1738617006 
Si 14.8313283756 1.3357620932 15.0099666309 
Si 16.2747201288 10.7930373387 16.2677676237 
Si 8.1011799741 2.7075935048 5.5292245444 
Si 5.5668306209 2.8155473357 26.4431419201 
Si 10.8595168293 5.4146494395 5.5138200416 
Si 12.0261577700 9.3641599756 27.6947869469 
Si 16.2235043684 13.5031232135 19.0088646890 
Si 16.1060860473 13.4589610231 26.4484226304 
Si 6.7539480918 1.3332615782 6.8664404172 
Si 6.8044633822 3.8543443552 20.3096990940 
Si 9.5120894670 6.7759233020 14.9291221664 
Si 12.2130692317 9.4168744161 14.9459270785 
Si 13.7982165662 3.9567921662 25.3100357093 
Si 12.2367223119 6.7788229220 6.8197601057 
Si 5.3941891993 2.6909777046 8.2052317504 
Si 9.3535877655 4.0663587072 17.4728782149 
Si 8.6230789989 2.9628252271 21.4566635222 
Si 9.4960763969 6.7382282416 9.5350371237 
Si 10.8529030893 8.1092109442 13.5565167825 
Si 14.9305833466 6.7509670217 15.0346488456 
Si 3.3599102707 12.8592446676 20.2625811546 
Si 7.7649869510 2.4269168022 27.2545040840 
Si 5.3269603687 8.0875615340 13.4893554844 
Si 8.1357473544 16.2638221187 8.1886310647 
Si 10.8520234292 8.0937517340 8.1777195418 
Si 13.6699816850 0.0505043762 2.8994366819 
Si 4.0535058971 9.4424497164 1.3458283902 
Si 6.7680552319 4.0381932969 9.5475824574 
Si 10.8513392492 5.3871682093 10.9037038563 
Si 13.0933482597 3.1407120287 0.2658863862 
H 15.3853838607 3.5615804726 22.6871273577 
Si 12.2727720822 3.2201420695 23.7012862998 
Si 0.0607789680 10.6583841975 29.1046198792 
Si 5.7145972123 2.3985559119 24.0869240230 
Si 5.4395568497 16.2770495989 10.9029453012 
Si 14.8560728859 4.0588164371 1.5135186566 
Si 12.2258894618 6.7500222017 12.2359307708 
Si 14.9552789868 9.4643271866 17.7071258530 
H 0.1636754055 1.1218727623 26.7489854859 

