&CONTROL
/
&SYSTEM
   ntyp             = 2
   nat              = 407
   ibrav            = 0
/
&ELECTRONS
/
&IONS
/
&CELL
/

ATOMIC_SPECIES
Si 28.085 None
H 1.008 None

K_POINTS gamma

CELL_PARAMETERS angstrom
16.29000014900000 0.00000000000000 0.00000000000000
0.00000000000000 16.29000014900000 0.00000000000000
0.00000000000000 0.00000000000000 29.17519467510000

ATOMIC_POSITIONS angstrom
Si 2.6686115344 10.8130740389 2.6938361675 
Si 8.1349165644 2.6923134846 10.9118437356 
Si 4.7976168139 0.3009658978 23.2762912389 
Si 8.9503939719 10.0331902818 17.2328830635 
Si 15.0035788372 1.3830649957 4.2300531255 
Si 12.2446229620 4.0742267773 15.0002804662 
Si 0.1144243819 0.1444101997 29.1164358330 
Si 1.2824318907 12.1529754211 1.3221439672 
Si 3.9961976766 15.1030944481 24.9864828004 
Si 7.9122648424 2.7366059950 16.2634788701 
Si 8.2016892750 16.2763979989 13.6404246424 
Si 13.5609201340 2.7160643048 5.5111359237 
H 15.1454647385 9.4498127964 21.8726726231 
Si 1.3021949189 4.0325406669 14.9634321953 
Si 0.0143293357 2.6761212245 2.7612717124 
Si 1.3249487911 9.4867910968 4.0809095304 
Si 9.6980072387 3.4567380316 26.3644564201 
Si 14.9308602766 4.0646319672 6.8476515918 
Si 12.2216377718 0.7904657412 26.8287504682 
Si 13.3599992722 10.6972032678 26.2969450196 
Si 1.3429020003 4.3833784001 20.4721757531 
Si 4.0304718369 12.1803589114 4.0569566955 
Si 2.7222707949 16.2885014690 2.7879903557 
Si 6.6631313409 9.5088966270 27.9436805327 
Si 12.8828977478 2.1521533697 21.6478777481 
H 12.4330168137 11.0400426110 18.5306832483 
Si 13.5715737941 16.2645225888 8.1970626959 
Si 2.7860298555 2.7829673354 0.0445125945 
Si 4.0519257671 9.4864001368 6.7934440801 
Si 1.3742716536 9.4839892167 20.2343687413 
Si 7.2306423661 11.1824823723 21.2973377841 
Si 5.3785833792 13.5808102242 2.7337390812 
Si 8.8988035414 9.5310347372 25.1073848071 
Si 14.9044704763 1.3288306981 9.5799960987 
Si 1.4495412283 1.3813105626 1.4050861281 
Si 2.6434760642 5.4017966294 13.6005713265 
Si 8.0846782039 13.6263081946 0.0687361752 
Si 9.4076705660 6.3067224277 20.2313345211 
Si 13.5339276038 2.6687744344 10.9452493335 
Si 16.2574527287 10.8663749194 5.4147119053 
Si 12.9765489587 14.2804820206 0.2247864142 
Si 1.3327207502 12.1997277216 6.7882508954 
Si 4.1758275082 4.0484559970 1.4296662296 
Si 6.7181100914 14.9016034363 4.1394641461 
Si 5.4487606998 13.5719484641 13.5986457636 
Si 9.5790087876 9.6307458281 19.3811985234 
Si 16.1831051680 8.3451227263 24.2712820781 
Si 14.9117846864 15.1270733283 1.3040582640 
Si 2.0946333792 6.9222237933 23.2327326733 
Si 1.3770490986 4.0723860072 4.0748994403 
Si 1.3252289791 9.4863023968 9.5091003757 
Si 8.1014894841 13.5440111139 5.4807353709 
Si 14.9077447663 4.0513556170 12.2554781512 
Si 14.9702006269 6.7401830416 22.8598153349 
Si 13.5645202241 13.5522049839 5.4742876529 
Si 4.0235648768 1.3217852731 4.2146486228 
Si 2.6833702745 10.8388611091 8.1464145580 
Si 3.8101495848 12.4344503337 22.4715226690 
Si 5.3918597293 13.5451677039 8.1685585307 
Si 9.2376518345 0.5829620903 24.5956518925 
H 9.6666652784 8.8045007305 21.9554718256 
Si 14.9226664065 14.9031509863 6.8382571791 
Si 4.0238255168 12.2010797916 9.5114343912 
Si 3.3619791008 10.2255100235 23.0823053695 
Si 0.0314260167 16.2381653685 5.5043672786 
Si 8.1262339943 5.4247492396 13.5902724828 
Si 6.7579717218 14.9071420363 9.5209163295 
Si 13.5979310144 2.7641849653 16.4263056316 
Si 13.5996577544 13.5581182540 10.8857027612 
Si 2.6692468444 2.7171231548 5.5050091328 
Si 1.2742673426 12.2593817021 25.1109441809 
Si 8.1276675143 13.5648948941 10.8737701066 
H 5.1670088573 13.0086728390 22.7448650679 
Si 10.7800542086 5.0889634665 23.3555018925 
Si 11.5427683056 7.1321367352 24.3689606299 
Si 13.4283195328 16.2076867782 13.7520781124 
Si 1.3457820723 1.3325024642 6.8667905195 
Si 0.0073696938 0.0394877749 16.2816550164 
Si 6.7395966016 12.2045169816 12.1868289181 
Si 4.0752693373 14.9248655565 12.2541360922 
Si 10.5191209862 10.5532159565 23.7120519466 
Si 9.2947482850 11.8760128386 22.1964005832 
Si 14.9485675067 12.1637919812 14.9329149417 
Si 4.0631821572 4.0597286771 6.8326555417 
Si 1.3182536011 1.3343611532 12.2817650016 
Si 4.3242945696 6.9313624834 20.3847085195 
Si 12.1922506115 6.7149661214 17.7444992774 
Si 10.9004861797 13.4796656133 13.4029677330 
H 14.6306192838 10.9921500105 23.6920669382 
H 14.0459385985 12.5751633550 28.6105963077 
H 2.8612570762 2.9136782967 19.8357772317 
Si 4.0369715469 1.4405621802 27.7288343991 
Si 2.6643598444 8.1266086643 10.8712610398 
Si 3.9540880262 6.8312115625 14.9236372298 
Si 10.4166731753 0.5584554141 17.0514133527 
Si 16.2559377587 2.6806824245 8.2072448389 
Si 16.2838588189 8.0967816740 13.6423793805 
Si 2.7315723850 1.0137886113 22.4185405155 
H 3.4262431513 2.5759377236 24.9863660996 
Si 2.6921180046 16.2616066787 8.2215115090 
Si 9.4959786568 4.0377045969 12.2791100589 
Si 12.2627700222 12.1098232108 12.1414906656 
Si 14.1756395796 9.7100618388 24.3551607628 
Si 12.7290224064 14.8106237855 27.1023554438 
Si 1.3369137962 4.0494659770 9.5314193996 
Si 6.0479069053 4.8515692944 0.2316069912 
Si 6.6963955212 6.8256566724 17.5213673885 
Si 5.9280776642 5.6325119015 21.5919488999 
Si 9.3116898852 0.9149148264 20.6914565163 
Si 9.4979823269 9.4605316165 1.3286967159 
Si 8.4038318869 13.5730073141 16.1402428478 
Si 4.0490424370 1.3342536392 9.5710684891 
Si 5.4271112896 8.0869750940 2.7042808871 
Si 6.7630704918 6.7508529917 12.2097606211 
H 6.0989923458 11.2456387028 22.3015188096 
Si 10.8230272290 10.8433082792 29.1270556039 
Si 16.2872960090 10.8348863491 10.9043748858 
Si 12.7737384568 13.8419552166 23.8289569517 
Si 2.7135556448 11.0776888013 26.5603095019 
Si 2.6197741140 16.2351191385 18.8779555905 
Si 9.4323173363 1.4195236450 15.0660413550 
Si 8.2297243653 5.4458122098 2.8275986000 
Si 12.1346817510 12.2871398624 1.3218434627 
Si 16.1761656279 10.5596993766 21.6590226725 
Si 16.2368784585 16.2527937886 10.9521346795 
Si 5.7836505229 1.6955609555 19.9171760248 
Si 2.6651254744 2.6887459746 10.9056585944 
Si 5.6148698314 5.1041294567 27.1224279778 
Si 8.1106118842 8.0845641739 29.1591774932 
Si 7.0042276541 12.6920766861 19.4569373288 
Si 12.2188033117 9.5007516269 4.0173951316 
Si 12.9296500483 8.6673877993 20.7525493739 
H 4.8746522246 3.2625123598 18.4213346186 
Si 6.8556302727 6.7125714914 1.4104718690 
Si 4.8584273844 4.4638184208 23.2986977884 
Si 10.8528542193 5.4276325696 16.3137185553 
Si 9.4381491563 12.1011406407 4.1943135121 
Si 16.2433618786 8.0459731636 19.0676818815 
Si 13.5598287040 10.8064765888 13.6023218382 
Si 5.4237555496 5.4046799594 5.4609837641 
Si 0.7718006591 1.2017458910 25.5058596160 
Si 2.7162597848 10.8689487394 13.6119496524 
Si 10.8444811592 2.7043355047 13.6855003182 
Si 9.4942193368 9.4626167365 6.8402994427 
Si 9.4290919162 12.2724788622 27.9009388725 
Si 16.2122479783 2.6711527744 13.6301841491 
Si 4.0211539568 4.0565195471 12.2427285911 
Si 8.1209071643 8.1373437744 5.4754546606 
Si 8.6717372293 0.2359818292 18.5454458968 
Si 10.3539566747 0.7807340951 28.1709261240 
Si 10.7780505386 5.2107312177 27.4285341203 
Si 10.8723207694 10.7814714386 5.4767383692 
Si 10.8201764790 13.6567379149 19.0592794254 
Si 2.6450724842 4.5317965915 22.4938416929 
Si 1.5253874689 9.3880899859 27.7562007317 
Si 6.7702055119 6.7617510018 6.8229693771 
Si 6.8591000427 14.8967001462 14.9534542788 
Si 11.0668233712 7.8307171016 19.4977826014 
Si 12.2077424016 12.1828675714 6.8184472219 
Si 14.9492842667 11.8296352082 27.6378077917 
Si 1.2407962794 1.4001287708 17.7248935465 
Si 5.3999558594 8.1250611143 8.1586973149 
H 8.0582884037 13.9266306374 24.3480711905 
Si 16.1902401881 1.9999396083 27.5504864340 
Si 12.5683867149 5.7865664329 25.9829907497 
Si 12.2207581118 9.4524517764 9.5080208934 
Si 2.7341787850 13.5797839542 16.3695015275 
Si 8.1159712942 5.4020572694 8.1915194089 
Si 7.0051724741 8.0299763834 24.7863701401 
Si 8.0712878238 8.1446416945 16.1637288795 
Si 9.4791999567 12.1943520215 9.5236296226 
H 14.0553053485 1.3737910986 24.3923007856 
Si 1.3897781047 6.8021990722 17.7000071055 
Si 2.8201574058 5.5882519711 19.0846326696 
Si 8.0162927833 2.4501952124 23.6426149833 
Si 5.3954923994 5.3932769593 10.8803637006 
Si 13.5967907144 5.4632588000 2.8934820246 
Si 16.2126226483 13.5995437244 2.6208719231 
Si 2.6228692140 13.6168111245 0.0832910963 
Si 2.7238020549 16.2857973289 13.6149838727 
Si 8.1161016142 8.1028578441 10.8480375849 
Si 5.1801060174 14.1462198394 19.6210769741 
Si 6.8675545528 15.0417463076 27.7949453902 
Si 13.4955809434 8.1624629546 29.1513001907 
Si 4.0494659770 14.9763745370 1.3635231458 
Si 7.4539293982 9.0473357627 20.3843000668 
Si 9.5197783471 3.9960999365 1.5016443524 
Si 9.0761364830 6.8118916223 27.4095410685 
Si 8.9609661820 13.9976224580 23.1275269213 
Si 14.9855946771 6.8083078223 4.1703898524 
H 0.2017174428 5.3448467889 20.7635775975 
Si 3.9077755557 6.7479533717 27.2275462042 
Si 4.0155501967 9.5122523670 12.1942102424 
Si 1.3128078540 14.8950711462 4.0465119758 
Si 11.2258137727 15.8178182047 0.6827579058 
Si 13.5587861440 8.1656232147 5.4405611278 
Si 2.6790208445 13.5471387939 5.4182129287 
Si 10.7648393485 2.6239280640 2.9174844573 
H 11.8644143585 11.1677073421 20.8608476966 
Si 13.5649926341 5.4110167695 8.1976170246 
Si 14.9435827667 9.4627307665 12.2672649298 
Si 13.9235192473 13.9726824678 21.7725433550 
Si 0.0305141025 5.3933258293 16.3861022133 
Si 1.8559848770 5.7640373627 26.4915435681 
Si 4.0102070767 14.8915525062 6.8326555417 
Si 8.0706199338 15.4167258210 21.5340653137 
Si 12.2594631521 1.3731916266 1.6486902511 
Si 14.9243116965 6.7743757520 9.5301065158 
Si 0.0016196251 13.5475460439 8.1792366520 
Si 5.3091716886 5.4739124601 16.2276517310 
Si 7.9216804625 5.2924907284 18.7609922350 
Si 9.4293525562 1.2855253618 4.2439696934 
Si 13.5775196442 8.1233180843 10.8955639770 
Si 13.7104623354 13.5300017137 16.3497790959 
Si 12.1864839515 4.0550697371 4.1488585588 
Si 2.1486673096 2.5508511233 24.1626628284 
Si 1.3168005330 14.9133485264 9.5724105481 
Si 6.6695170210 4.1263384877 14.8932366770 
Si 13.6842517252 0.1169907086 18.9858746356 
Si 13.5428708139 8.0994695241 16.3896324118 
Si 9.4867259368 4.0556724671 6.8535449811 
Si 2.7055246747 13.5635265340 10.9021867462 
Si 7.3488426072 11.8095985080 17.3218090569 
H 6.7682507119 12.1773452614 23.9196918071 
Si 16.1747972679 5.4078076395 0.1759456795 
Si 14.9167368464 12.2037024816 20.5053771247 
Si 7.7983162913 7.0962824449 21.7529376242 
Si 5.4928088602 10.8787227395 16.2159816531 
Si 5.3798865792 13.7903973661 26.4213480497 
Si 10.8626282193 16.2292547384 5.5068179949 
Si 10.8469572392 15.3400813703 23.5157320616 
Si 16.2806822689 8.1292802243 2.7064340165 
Si 2.7531403452 5.4314281397 2.7117118092 
Si 6.7533453618 1.2935612188 17.7650677896 
Si 8.0592332237 10.7639433984 13.4633312107 
Si 12.2106420217 1.3273825171 6.8449966491 
Si 14.6059073536 6.9874815339 20.4999213633 
Si 15.4406395412 4.6094836022 23.7515259850 
Si 0.0260421716 2.6861069946 19.3314548165 
Si 2.8822223064 7.9775225830 29.0691136673 
Si 1.2700433456 14.8589073459 27.7964916755 
Si 9.4835982567 1.3419653253 9.5385673223 
Si 8.6257505589 14.3800139215 19.5247113060 
Si 12.2494773820 1.7445449860 18.0588620000 
Si 1.3965107618 6.7853389221 1.3415600592 
Si 1.3873150567 14.9342811766 14.9845550363 
Si 10.8485536592 2.6902283646 8.1902065252 
Si 10.5508864865 11.6272482463 20.2572420939 
Si 14.8779340661 1.2645747926 20.6762270647 
Si 13.5349212938 5.2996257485 19.1139829154 
Si 1.1995320800 4.0388286069 28.0259545816 
Si 4.0723371372 6.7729422319 4.1053583435 
Si 1.3436855493 4.8160896740 24.4141238313 
Si 12.2094365617 4.0331596869 9.5531840948 
H 13.5287636737 7.0296400543 23.2997480954 
Si 14.9856761271 14.9927296971 17.6480460838 
Si 0.0251232527 5.3979358994 5.4803269182 
H 6.4044298486 7.9400392926 23.3860774965 
Si 6.6761633411 9.4276909762 14.8039897565 
Si 5.4947310803 16.2657443388 16.2972929207 
H 11.6253260263 11.7922496578 16.8797465072 
Si 10.8591910293 16.2859765189 10.8748495888 
Si 2.6922320346 8.1317888844 5.4403860767 
Si 2.4532577324 13.7904462361 23.7974185662 
Si 5.8387270134 15.9175292956 21.2049107674 
Si 12.1669848213 1.3092484890 12.3210639888 
Si 9.3904846159 14.8027720054 1.6258489912 
Si 12.3953054634 14.9670403669 20.2665198059 
Si 1.3613569414 6.7739033419 6.8242822609 
Si 4.0686718872 12.4226075036 27.9046441222 
Si 10.8418095992 10.8002212288 10.8283151533 
Si 10.7962301787 13.4396085029 2.8801577132 
Si 9.5056386269 14.9302901265 12.2092938180 
Si 14.3356236711 14.6257159938 25.4130533217 
Si 3.4764163518 1.6057590717 20.2668115578 
Si 1.3460671473 12.2124502117 12.2556240272 
H 4.7025483730 5.2614256981 24.5729827663 
H 10.2262104935 2.1802699099 28.7585437199 
Si 16.2631053587 8.1315282444 8.1504115596 
Si 12.2169299617 14.8956575862 4.1106974041 
Si 2.7041726047 5.4147471795 8.1866763266 
Si 7.4844405685 5.9995418949 25.8447878525 
Si 4.1914007483 9.6413831982 17.7161701633 
H 9.9942571814 3.2234000695 18.5547819591 
Si 9.4862698168 12.1529102611 14.6421549516 
Si 9.4821647367 14.8854763361 6.8400952164 
Si 10.8525447093 13.5379838138 8.1816290179 
Si 4.0523330171 6.7764608720 9.5368459858 
Si 1.4251534690 15.3307960702 22.3132472379 
Si 5.3495871789 10.9295638300 0.0687268391 
Si 8.7826721303 4.4975875911 24.5237933880 
H 9.9493945210 14.3521254413 25.5881628402 
Si 12.2118311917 14.9003979763 9.5385381471 
Si 2.7556490052 8.2318420653 16.4000479563 
Si 2.6853902346 10.9738400504 18.9641974659 
Si 1.0520456766 10.4023053951 23.6765457347 
Si 8.1328314444 10.8097834589 2.7164761185 
Si 15.4476768213 15.8272501148 22.2114549837 
Si 10.8318564091 13.4991484535 26.4761390653 
Si 4.0686881772 1.3417926513 15.0025561314 
Si 6.7626306619 12.2244233618 1.4119860616 
Si 4.1493236780 14.9724486469 17.6666890332 
Si 11.3685141740 0.3021159718 21.5833713927 
Si 14.8584023559 14.9251913565 12.3410489972 
Si 3.9643995963 4.1631050181 17.6188417139 
Si 6.7692118219 9.4570292665 4.0678098680 
Si 7.9246615325 10.9907979405 26.6134667066 
Si 4.0733634072 12.2502755920 14.9615941581 
Si 10.3881330950 4.4504443307 21.1308349481 
Si 14.8923181362 9.4823602167 1.3430363241 
Si 2.9387486069 8.4091424269 21.5991259978 
Si 5.4057713894 10.8308627191 5.4163748914 
Si 10.4644843257 8.2470406354 26.2293169184 
Si 13.8310083365 2.4915229428 27.2319808338 
Si 16.2615903887 5.3994019994 10.8823184386 
Si 13.5600730540 10.9193825799 2.6577843794 
Si 15.0257169474 4.0341859569 17.8312079559 
Si 6.7407857716 12.1807010014 6.8115035256 
H 8.5174872179 7.1762337656 23.0775206376 
Si 10.7811945086 10.8588652293 16.0687636208 
Si 10.5317457363 14.5430605330 16.8184202480 
Si 14.9070605863 12.2466592120 4.0518802117 
Si 1.3142153100 6.7609365018 12.2353180917 
Si 1.6968967355 14.5065220627 20.1602345717 
Si 2.5882529637 0.0013115030 26.4508733467 
Si 6.7652859319 9.4795420467 9.5059494546 
Si 5.2911712384 8.4815188976 26.3082066448 
Si 14.9162807264 9.5116496370 6.7974994322 
H 3.2973403802 7.2943199767 24.1138527277 
Si 5.3866143493 0.0520612115 29.1323946645 
Si 8.1248330543 10.8422820092 8.1616731848 
Si 15.1504657686 0.2997197127 24.4172164019 
H 13.8634580168 6.3258631778 26.9190476957 
Si 13.5721439441 10.8443671292 8.1819207699 
Si 5.3739570191 2.6506436642 2.8711046503 
Si 5.3759281092 2.6898699846 13.5800319894 
Si 5.3907194293 10.8432594092 10.8389057489 
Si 6.2315277870 11.9180573290 25.3042298456 
H 10.3200408944 8.3851635467 21.9973965803 
Si 14.9440225967 12.1928044715 9.5357956788 
Si 1.3856925727 9.4709246366 14.9548838633 
Si 1.2694862276 12.1977077616 17.5858445687 
Si 8.0706525138 0.0053997115 2.8298421725 
Si 6.8006026522 1.3278972811 12.2811814977 
Si 9.4932908068 9.4420424663 12.1813148063 
Si 12.2987709225 9.0021798823 23.0815468145 
Si 2.6504318942 2.6967769447 16.3387800475 
Si 0.4163088728 7.6875280003 26.5044098289 
Si 7.6789431702 3.1160326785 0.3162182650 
Si 12.1402366410 3.4789738818 19.8622974836 
Si 8.4818609876 0.2358124132 26.8531409309 
Si 11.4344723846 4.7765864237 0.3828339870 
Si 15.0388629775 6.8972186431 27.9536876244 
Si 6.6866866812 1.3296240212 1.4661731507 
Si 10.8475436792 8.0952667040 2.7030934567 
Si 11.8587617285 12.0099980898 25.0037253404 
Si 12.1321893810 14.6164795637 15.0275300981 
Si 13.6185052846 10.5296606163 19.3312214150 
Si 6.8022153622 4.0563403571 4.1105515282 
Si 4.4362394506 10.3198942844 25.1828318606 
Si 11.0351067409 1.9198090976 25.2026418177 
Si 12.2813894923 6.7232251515 1.4181391102 
Si 13.5844754742 5.4229573396 13.6282294110 
H 13.0645801195 12.7026326062 17.4263437794 
Si 0.0071595528 13.5752390442 13.6278793087 
Si 5.6383763016 8.2907792858 19.0008123353 
Si 5.3947267693 16.2512136586 5.5260736234 
Si 9.5398313372 6.8056525522 4.1742409781 
Si 14.8288197156 1.3334293652 15.0102875580 
Si 16.2703055388 10.7886879087 16.2677384485 
Si 8.1005609541 2.7060785348 5.5291370189 
Si 5.5634097209 2.8114096757 26.4506399452 
Si 10.8573013893 5.4131670495 5.5148703486 
Si 12.0244961900 9.3722723957 27.6975002400 
Si 16.2166625683 13.4993113535 19.0072308781 
Si 16.0969636472 13.4670082832 26.4513109746 
Si 6.7504783217 1.3322760332 6.8640188760 
Si 6.8028832522 3.8492292952 20.3101950723 
Si 9.5096948370 6.7741965620 14.9311644300 
Si 12.2108863717 9.4152617061 14.9476484150 
Si 13.8101245563 3.9475394461 25.2958273895 
Si 12.2348489619 6.7766726420 6.8214230918 
Si 5.3924950393 2.6895116046 8.2047649473 
Si 9.3519913455 4.0657396872 17.4745995514 
Si 8.6235188289 2.9646497071 21.4594059905 
Si 9.4944962668 6.7366806916 9.5365250586 
Si 10.8505084592 8.1075819442 13.5584715206 
Si 14.9287914465 6.7492565717 15.0356991526 
Si 3.3493706406 12.8532336576 20.2579131234 
Si 7.7613217010 2.4264118122 27.2611268532 
Si 5.3256571687 8.0851506139 13.4915436240 
Si 8.1322938744 16.2633334187 8.1873181809 
Si 10.8503781392 8.0922530540 8.1791199512 
Si 13.6807005051 0.0387418558 2.8994220943 
Si 4.0550045771 9.4425148764 1.3446934751 
Si 6.7662633319 4.0366294569 9.5474949318 
Si 10.8495147692 5.3854740492 10.9054835432 
Si 13.1415666602 3.0923633083 0.2848689348 
H 15.3816371607 3.5196988822 22.7060620590 
Si 12.2715014622 3.2180080794 23.7004110439 
Si 0.0615674040 10.6624078275 29.1018774109 
Si 5.7177086023 2.3859311618 24.0926131859 
Si 5.4381559097 16.2755346289 10.9043457106 
Si 14.8643970759 4.0630192572 1.5341192616 
Si 12.2238369218 6.7484420717 12.2378563336 
Si 14.9521675967 9.4612972465 17.7096932701 
H 14.7459199049 1.1940309469 26.8113328769 

