&CONTROL
/
&SYSTEM
   ntyp             = 2
   nat              = 407
   ibrav            = 0
/
&ELECTRONS
/
&IONS
/
&CELL
/

ATOMIC_SPECIES
Si 28.085 None
H 1.008 None

K_POINTS gamma

CELL_PARAMETERS angstrom
16.29000014900000 0.00000000000000 0.00000000000000
0.00000000000000 16.29000014900000 0.00000000000000
0.00000000000000 0.00000000000000 29.17519467510000

ATOMIC_POSITIONS angstrom
Si 2.6745085145 10.8057109588 2.7005727199 
Si 8.1367410444 2.6928836346 10.9099765232 
Si 4.7720252236 0.3136036799 23.2845186438 
Si 8.9497912419 10.0368718218 17.2319494573 
Si 15.0077490773 1.3862431747 4.2123729576 
Si 12.2446555420 4.0756602973 15.0004555174 
Si 0.0781789687 16.2773753989 29.1590316172 
Si 1.2884771098 12.1422728910 1.3311620198 
Si 3.9982502166 15.0983377681 24.9923761897 
Si 7.9101634323 2.7379906450 16.2658420608 
Si 8.2023571650 16.2783527989 13.6417083510 
Si 13.5651718241 2.7153801248 5.4999034738 
H 15.1477453385 9.4630402766 21.8686172710 
Si 1.3015873019 4.0350981969 14.9627903411 
Si 0.0104025009 2.6733682144 2.7217509937 
Si 1.3279461511 9.4835168067 4.0862485910 
Si 9.7032689087 3.4454327715 26.3520569624 
Si 14.9335807066 4.0630681272 6.8396867636 
Si 12.2107071817 0.7622807830 26.7864464359 
Si 13.3572299722 10.6967308578 26.2958947126 
Si 1.3400512503 4.3932338502 20.4701918399 
Si 4.0342022469 12.1770683314 4.0611287484 
Si 2.7171394448 0.0101550884 2.7693415713 
Si 6.6750556211 9.4980474869 27.9418424954 
Si 12.8778967178 2.1527886797 21.6574472120 
H 12.4333263237 11.0508103011 18.5315001537 
Si 13.5751901742 16.2659723988 8.1941160013 
Si 2.7821039654 2.7683877853 0.0040581529 
Si 4.0534570271 9.4824416667 6.7927147002 
Si 1.3733235756 9.4965162268 20.2250326790 
Si 7.2301373761 11.1840299223 21.2901315110 
Si 5.3865166093 13.5741964841 2.7403851906 
Si 8.9052218014 9.5278744771 25.1024541992 
Si 14.9070442963 1.3305997922 9.5773703312 
Si 1.4203479190 1.3586837524 1.3521360673 
Si 2.6439321842 5.4035559494 13.5996085451 
Si 8.0906077640 13.6195641346 0.0720183846 
Si 9.4056180260 6.3085306177 20.2297007102 
Si 13.5357520838 2.6696866744 10.9435863474 
Si 16.2611831387 10.8604616493 5.4218306528 
Si 12.9490840184 14.2601032304 0.2254142644 
Si 1.3354395512 12.2016336516 6.7877257419 
Si 4.1629909881 4.0297387869 1.4137861712 
Si 6.7235835315 14.8975960962 4.1450366083 
Si 5.4499987398 13.5752716242 13.5987332892 
Si 9.5791228176 9.6328146581 19.3796230629 
Si 16.1839359580 8.3664952065 24.2601371538 
Si 14.8716624160 15.0584761377 1.3446993102 
Si 2.0991945792 6.9360540034 23.2078170570 
Si 1.3756139496 4.0652021172 4.0505673279 
Si 1.3263839401 9.4855530567 9.5056868779 
Si 8.1069629241 13.5398897438 5.4844406206 
Si 14.9083474963 4.0530660671 12.2543694938 
Si 14.9678711569 6.7641130519 22.8608948171 
Si 13.5664424441 13.5546810640 5.4724787908 
Si 4.0268391668 1.3184050981 4.2084926567 
Si 2.6858300646 10.8384049891 8.1443139439 
Si 3.8249409050 12.4449736738 22.4705307124 
Si 5.3937493693 13.5449070639 8.1683543044 
Si 9.1916488741 0.5695489042 24.5823480038 
H 9.6648245084 8.8053966805 21.9544506938 
Si 14.9265271365 14.9067673663 6.8331223448 
Si 4.0253241968 12.2007539916 9.5106174858 
Si 3.3717531008 10.2349745136 23.0739029135 
Si 0.0328857636 16.2418631985 5.4944185372 
Si 8.1275371943 5.4257103496 13.5894555773 
Si 6.7596007218 14.9076633163 9.5205662272 
Si 13.5975889244 2.7661397653 16.4277643913 
Si 13.6021012544 13.5590304940 10.8842148263 
Si 2.6693608744 2.7177421749 5.4918219449 
Si 1.2863154268 12.2523444221 25.1053133683 
Si 8.1296874743 13.5661980941 10.8737117562 
H 5.1826961274 13.0226007891 22.7436980601 
Si 10.7687652385 5.0914232566 23.3501628318 
Si 11.5426216956 7.1305403152 24.3608207506 
Si 13.4302743328 16.2094786782 13.7526907915 
Si 1.3476146973 1.3349850602 6.8585047642 
Si 0.0099811600 0.0446056042 16.2842224335 
Si 6.7406717416 12.2067487116 12.1867997429 
Si 4.0760349673 14.9266900365 12.2529399093 
Si 10.5192187262 10.5517824365 23.7047873231 
Si 9.2916368950 11.8764037986 22.1932788374 
Si 14.9487792767 12.1682228613 14.9324189634 
Si 4.0614065471 4.0580833871 6.8273164811 
Si 1.3187895421 1.3365146912 12.2807146946 
Si 4.3262493696 6.9382042835 20.3795736852 
Si 12.1922343215 6.7173118814 17.7440032991 
Si 10.9023106597 13.4817670233 13.4031136089 
H 14.6183366237 11.0071205207 23.6820306713 
H 14.0559080786 12.5821028951 28.6085248689 
H 2.8486160361 2.9252441968 19.8465428785 
Si 4.0667822472 1.4218628890 27.7349903651 
Si 2.6655001444 8.1276023543 10.8697439297 
Si 3.9542835062 6.8334921625 14.9229078499 
Si 10.4148649853 0.5611220871 17.0566940629 
Si 16.2581206187 2.6811874145 8.2022267054 
Si 16.2843638089 8.0992740441 13.6412123727 
Si 2.6978846647 1.0513272876 22.4621866067 
H 3.3836936710 2.6089249739 25.0527980179 
Si 2.6923949346 16.2641967887 8.2171644050 
Si 9.4973470169 4.0383399069 12.2781181023 
Si 12.2643012822 12.1118920408 12.1407321105 
Si 14.1735870396 9.7212856489 24.3479544897 
Si 12.7111196963 14.7815135552 27.1014801880 
Si 1.3375377032 4.0495800070 9.5290853840 
Si 6.0421402453 4.8445808843 0.2286929727 
Si 6.6970959913 6.8280350124 17.5169911093 
Si 5.9226856742 5.6355092615 21.5943412659 
Si 9.3050924351 0.9160616424 20.6925943489 
Si 9.4983081269 9.4497313464 1.3279119032 
Si 8.4049233169 13.5760698342 16.1399510958 
Si 4.0497103270 1.3350811712 9.5688803495 
Si 5.4302226797 8.0824953439 2.7038257541 
Si 6.7639501519 6.7514231418 12.2088561901 
H 6.0991226658 11.2484894529 22.2936998575 
Si 10.8206325990 10.8320030191 29.1270847791 
Si 16.2891367790 10.8355705291 10.9014865415 
Si 12.7694216068 13.8481942867 23.8315535440 
Si 2.7263921649 11.0800182713 26.5582964135 
Si 2.6202628140 16.2497475586 18.8950230794 
Si 9.4322521763 1.4212813360 15.0689880497 
Si 8.2289098653 5.4450465798 2.8279866301 
Si 12.1256570909 12.2737169023 1.3248193325 
Si 16.1784462280 10.5725033167 21.6523415529 
Si 16.2383608485 16.2545856887 10.9505300438 
Si 5.7678166427 1.7059213956 19.9244114731 
Si 2.6659888444 2.6897396646 10.9039372579 
Si 5.6176065514 5.1054163667 27.1179349978 
Si 8.1164111242 8.0697402738 29.1569310032 
Si 7.0010022340 12.6987555861 19.4555952699 
Si 12.2224359818 9.4982429669 4.0175993579 
Si 12.9288192582 8.6752395793 20.7478521676 
H 4.8639334045 3.2666825999 18.4293869724 
Si 6.8535614427 6.7052898613 1.4083333273 
Si 4.8349209142 4.4684773609 23.2956343930 
Si 10.8526424493 5.4292615697 16.3137185553 
Si 9.4416840863 12.0958626806 4.1974936083 
Si 16.2424170585 8.0532873737 19.0645309604 
Si 13.5613273840 10.8087734789 13.6015924583 
Si 5.4254171296 5.4034907894 5.4602835594 
Si 0.7638543970 1.1828511198 25.6287747112 
Si 2.7172860549 10.8731678494 13.6110452214 
Si 10.8447092192 2.7050033947 13.6861421725 
Si 9.4967931568 9.4617044965 6.8408829466 
Si 9.4299227062 12.2627374422 27.9039147423 
Si 16.2124760383 2.6731075744 13.6294547692 
Si 4.0217403968 4.0576924271 12.2415324081 
Si 8.1245887043 8.1354541344 5.4757464126 
Si 8.6654167092 0.2392430872 18.5469046565 
Si 10.3527023447 0.7669380940 28.1551715189 
Si 10.7811782186 5.2035636176 27.4179435246 
Si 10.8777942095 10.7787021386 5.4786931073 
Si 10.8203556690 13.6617715249 19.0635973542 
Si 2.6251335240 4.5681232918 22.4940459193 
Si 1.5338387210 9.4045754660 27.7580387689 
Si 6.7724372419 6.7606432818 6.8222691724 
Si 6.8583507027 14.9006260363 14.9560216959 
Si 11.0660414512 7.8329488316 19.4962363160 
Si 12.2115216817 12.1840567414 6.8176886669 
Si 14.9501313467 11.8206268381 27.6396166538 
Si 1.2409950173 1.4058025779 17.7307869359 
Si 5.4027088694 8.1240022643 8.1589307165 
H 8.0254640534 13.9234703773 24.3300117450 
Si 15.8840207653 1.7048788356 27.6179103089 
Si 12.5731433950 5.7953630330 25.9796939527 
Si 12.2226314618 9.4531522465 9.5065037833 
Si 2.7352865050 13.5884665243 16.3707852361 
Si 8.1196039643 5.4008843894 8.1891853933 
Si 7.0136432741 8.0294388134 24.7758378948 
Si 8.0726561838 8.1477205045 16.1612489879 
Si 9.4817086167 12.1951339415 9.5240672505 
H 14.1476533594 1.3691793995 24.4900376878 
Si 1.3878151597 6.8086987823 17.6965352573 
Si 2.8185121158 5.5965761612 19.0810441206 
Si 7.9954090031 2.4554568825 23.6348543815 
Si 5.3970888194 5.3933421193 10.8788757656 
Si 13.6103114145 5.4542667199 2.8726567707 
Si 16.2178843183 13.5757766142 2.6400837888 
Si 2.6480372642 13.5869515543 0.0949527133 
Si 2.7246491349 16.2885014690 13.6137293393 
Si 8.1181704442 8.1025809141 10.8473957306 
Si 5.1787865274 14.1570201095 19.6243737711 
Si 6.8712035128 15.0294962275 27.7978337345 
Si 13.4937890434 8.1667472247 29.1499289565 
Si 4.0570571171 14.9692720969 1.3717447156 
Si 7.4541737482 9.0480199428 20.3818493504 
Si 9.5141420070 3.9952528565 1.5003489738 
Si 9.0779935430 6.8022968122 27.4017512916 
Si 8.9499704318 13.9979319680 23.1254846577 
Si 14.9884942971 6.8005374922 4.1614622429 
H 0.2024342029 5.3565592990 20.7649196565 
Si 3.9258411659 6.7674036319 27.2196397264 
Si 4.0158434167 9.5140768470 12.1936559137 
Si 1.3189622161 14.8989807463 4.0401226082 
Si 11.2195747026 15.8192843047 0.6816609185 
Si 13.5635428240 8.1594167246 5.4352804176 
Si 2.6813177345 13.5490773039 5.4157622123 
Si 10.7672991385 2.6243027340 2.9114451920 
H 11.8627364885 11.1699553622 20.8650197494 
Si 13.5690325541 5.4097787295 8.1926864167 
Si 14.9444787167 9.4646529866 12.2651934910 
Si 13.9255554974 13.9853072179 21.7805957087 
Si 0.0295663503 5.3960951293 16.3854020086 
Si 1.8837267472 5.8520522335 26.4411288317 
Si 4.0116568867 14.8910312262 6.8325388410 
Si 8.0592983837 15.4212870210 21.5350864455 
Si 12.2607337721 1.3850263117 1.6288394486 
Si 14.9261524665 6.7737241519 9.5273056971 
Si 0.0032765055 13.5502338939 8.1765233589 
Si 5.3092368486 5.4747269601 16.2261637961 
Si 7.9189437424 5.2953740584 18.7598835776 
Si 9.4362269363 1.2861688168 4.2448157741 
Si 13.5797187942 8.1236275943 10.8931424358 
Si 13.7122379454 13.5352796738 16.3512086805 
Si 12.1927881815 4.0569919571 4.1375677584 
Si 2.0939003291 2.5621238034 24.2468916154 
Si 1.3183366801 14.9159223464 9.5699014813 
Si 6.6703478110 4.1272995978 14.8923030707 
Si 13.6880635852 0.1214066018 18.9939269893 
Si 13.5428382339 8.1030207441 16.3893990103 
Si 9.4910590768 4.0554932771 6.8495479794 
Si 2.7068441648 13.5653184341 10.8997652050 
Si 7.3480932672 11.8141434180 17.3210505018 
H 6.7737241519 12.1678644813 23.9139734689 
Si 16.1942475281 5.4412835898 0.1464854432 
Si 14.9159875064 12.2169625417 20.5061648549 
Si 7.7965406813 7.0973250049 21.7549507126 
Si 5.4935256202 10.8824205695 16.2137059880 
Si 5.3895139693 13.7822523660 26.4187222822 
Si 10.8646644694 16.2278863784 5.5094145873 
Si 10.8353424691 15.3405049103 23.5195248369 
Si 16.2815782189 8.1336133644 2.7092785980 
Si 2.7564309252 5.4294896297 2.6982766321 
Si 6.7459497017 1.3005431129 17.7714571572 
Si 8.0609273837 10.7658819085 13.4621058526 
Si 12.2163923917 1.3287313292 6.8400660412 
Si 14.6061354136 6.9953984740 20.4989002314 
Si 15.4113989909 4.6297320723 23.7581195790 
Si 0.0226194797 2.6917433346 19.3356268694 
Si 2.8888197564 7.9879970531 29.0642705849 
Si 1.2871429588 14.7958161753 27.8008971299 
Si 9.4876707568 1.3432343163 9.5373127889 
Si 8.6238283389 14.3841352916 19.5269869712 
Si 12.2514321820 1.7459459260 18.0629465272 
Si 1.4032043228 6.8045937022 1.3428846131 
Si 1.3872922507 14.9389075366 14.9838840068 
Si 10.8529030893 2.6901143346 8.1865304506 
Si 10.5516195365 11.6293822364 20.2566002397 
Si 14.8764353861 1.2701834396 20.6895309535 
Si 13.5348561338 5.3034701885 19.1163461062 
Si 1.2979008749 4.1559048380 27.9926073341 
Si 4.0742104873 6.7660026919 4.1000776333 
Si 1.3193841271 4.8176535141 24.4147365103 
Si 12.2125479517 4.0337298369 9.5500039986 
H 13.5254893837 7.0528858845 23.2985519125 
Si 14.9870933571 14.9990990872 17.6506718513 
Si 0.0303617910 5.3897908993 5.4677815844 
H 6.4082579986 7.9467181927 23.3772957629 
Si 6.6765868811 9.4302973762 14.8020350184 
Si 5.4929554702 16.2708593988 16.3002979658 
H 11.6267106763 11.7966479579 16.8764205350 
Si 10.8619603293 16.2869050490 10.8747620632 
Si 2.6961905047 8.1248167643 5.4385772146 
Si 2.4599366325 13.7903484961 23.7974769166 
Si 5.8257438833 15.9292743857 21.2128172451 
Si 12.1688907513 1.3108807470 12.3212973904 
Si 9.3906963859 14.8001493154 1.6301289922 
Si 12.3959407734 14.9726767069 20.2718588665 
Si 1.3618195774 6.7673547619 6.8181262948 
Si 4.0919177174 12.4074415135 27.9064529843 
Si 10.8442205192 10.8007425088 10.8279358757 
Si 10.7963604987 13.4356174529 2.8829702020 
Si 9.5069092470 14.9323263766 12.2097022707 
Si 14.3344019211 14.6137102637 25.4281077222 
Si 3.4595399116 1.6220555878 20.2988750968 
Si 1.3466943123 12.2147959717 12.2533191868 
H 4.7011963030 5.2724866082 24.5678771072 
H 10.1968559133 2.1578874497 28.7617529913 
Si 16.2663633588 8.1274394543 8.1467938355 
Si 12.2152032217 14.8972377162 4.1094720460 
Si 2.7054758047 5.4135417195 8.1842839606 
Si 7.4837400984 5.9981083749 25.8374357035 
Si 4.1913355883 9.6474430782 17.7146238780 
H 9.9944037914 3.2265440395 18.5549278350 
Si 9.4869214168 12.1555492412 14.6416881485 
Si 9.4850969368 14.8845478061 6.8427501591 
Si 10.8565846293 13.5375602738 8.1825917993 
Si 4.0532126771 6.7759884620 9.5355039268 
Si 1.4236971430 15.3445285403 22.3298770989 
Si 5.3672455391 10.9169553698 0.0720256784 
Si 8.7767262803 4.4943295911 24.5203798903 
H 9.9269957708 14.3309810211 25.5764635871 
Si 12.2153172517 14.9023364863 9.5372544385 
Si 2.7559259352 8.2370059953 16.3977431160 
Si 2.6882409846 10.9861390005 18.9617175744 
Si 1.0613554117 10.4095870252 23.6634752475 
Si 8.1390542244 10.8025018288 2.7188626495 
Si 15.4467971613 15.8376920048 22.2335114309 
Si 10.8165600989 13.4868983733 26.4682034124 
Si 4.0681506072 1.3448437683 15.0026144818 
Si 6.7707267919 12.2186567017 1.4165082168 
Si 4.1441108779 14.9846335670 17.6734868535 
Si 11.3607275539 0.3041343028 21.5862597370 
Si 14.8595752359 14.9273416365 12.3397944638 
Si 3.9613696562 4.1675196081 17.6186374875 
Si 6.7714598419 9.4529078965 4.0685100726 
Si 7.9314218825 10.9817732804 26.6135542322 
Si 4.0732656673 12.2557816121 14.9622943628 
Si 10.3852660550 4.4496624107 21.1264294937 
Si 14.8925461962 9.4827511767 1.3436956835 
Si 2.9453134769 8.4282180171 21.5831379912 
Si 5.4093226095 10.8270834390 5.4185922062 
Si 10.4665857357 8.2404757654 26.2252615663 
Si 13.7426839557 2.4524106524 27.2354526819 
Si 16.2628284287 5.3999884394 10.8807138029 
Si 13.5618812440 10.9176721298 2.6597361999 
Si 15.0246743874 4.0377534669 17.8321999126 
Si 6.7431315317 12.1786647514 6.8133415629 
H 8.5201424879 7.1719820756 23.0783667183 
Si 10.7818786886 10.8615204993 16.0680634161 
Si 10.5325928163 14.5456180630 16.8212502419 
Si 14.9082008863 12.2347512219 4.0634044136 
Si 1.3146909780 6.7625655019 12.2340635583 
Si 1.6952677355 14.5204663028 20.1727799054 
Si 2.6067909838 16.2616392587 26.4919811960 
Si 6.7670941219 9.4795583367 9.5063579074 
Si 5.3048059685 8.4858683276 26.2995416119 
Si 14.9171278064 9.5057689469 6.7971785050 
H 3.3025531802 7.3054623368 24.0896956665 
Si 5.4032301494 0.0391596943 29.1457277285 
Si 8.1279281543 10.8415815392 8.1629568933 
Si 15.2040761591 0.2673645144 24.4598997117 
H 13.8699740169 6.3827152784 26.8676410027 
Si 13.5750924342 10.8435037592 8.1798201559 
Si 5.3747878092 2.6510997842 2.8664599593 
Si 5.3766122892 2.6910754446 13.5789525072 
Si 5.3924787493 10.8441716492 10.8389349241 
Si 6.2422791871 11.9112318189 25.3009330486 
H 10.3144208443 8.3804883167 21.9947124624 
Si 14.9461891667 12.1939773515 9.5329656849 
Si 1.3853960947 9.4757301867 14.9531917020 
Si 1.2695285816 12.2075795016 17.5858445687 
Si 8.0759793439 0.0025227183 2.8374714859 
Si 6.8019547222 1.3290310651 12.2801895411 
Si 9.4946917468 9.4430361564 12.1802644993 
Si 12.2980541625 9.0035971123 23.0769954841 
Si 2.6491124042 2.6997743047 16.3392468506 
Si 0.4173693518 7.7318368007 26.4913393417 
Si 7.6777214202 3.1133448285 0.3108587817 
Si 12.1434294811 3.4788435618 19.8665570621 
Si 8.4687475374 0.2309123811 26.8497857835 
Si 11.4184918944 4.7903351838 0.3812526915 
Si 15.0457210676 6.9316068334 27.9389249759 
Si 6.6974706612 1.3274069521 1.4717981282 
Si 10.8524306793 8.0929209440 2.7036740431 
Si 11.8560087184 12.0079618398 24.9975985496 
Si 12.1324663110 14.6196235337 15.0288138066 
Si 13.6195315546 10.5399721864 19.3304045095 
Si 6.8023619722 4.0553792471 4.1093261700 
Si 4.4433256006 10.3198779944 25.1763257921 
Si 11.0081305007 1.8922301273 25.1705782788 
Si 12.2845334624 6.7241048115 1.4164440314 
Si 13.5848827242 5.4243419896 13.6278209583 
H 13.0656226795 12.7081060462 17.4274232616 
Si 0.0083992381 13.5780409242 13.6267414761 
Si 5.6406894816 8.2945911459 18.9948605956 
Si 5.3967955994 16.2492914386 5.5258110467 
Si 9.5425680573 6.8040398422 4.1729280944 
Si 14.8300414656 1.3362116972 15.0116004418 
Si 16.2718856688 10.7951713287 16.2677384485 
Si 8.1027112341 2.7054432247 5.5272989816 
Si 5.5621228109 2.8125662657 26.4438421248 
Si 10.8633938494 5.4115706295 5.5095021128 
Si 12.0224436500 9.3687700457 27.6934448879 
Si 16.2201486283 13.5102908136 19.0110528286 
Si 16.1032352973 13.4431760129 26.4437254240 
Si 6.7527915018 1.3320854402 6.8634645473 
Si 6.7971654622 3.8552565953 20.3097282692 
Si 9.5109654570 6.7760536220 14.9297640207 
Si 12.2111795917 9.4175585961 14.9462771809 
Si 13.7904951061 3.9308910660 25.3157832227 
Si 12.2375693919 6.7758581420 6.8186806235 
Si 5.3925439093 2.6900980446 8.2016432015 
Si 9.3507695955 4.0681668972 17.4751538801 
Si 8.6175241088 2.9670606271 21.4550880617 
Si 9.4965488069 6.7362245716 9.5353580509 
Si 10.8522840693 8.1086245042 13.5567501841 
Si 14.9284493565 6.7522865118 15.0349114223 
Si 3.3481814706 12.8652230977 20.2608014677 
Si 7.7600836610 2.4272588922 27.2536288282 
Si 5.3263413487 8.0864863940 13.4902307402 
Si 8.1349328544 16.2637732487 8.1879892104 
Si 10.8534080793 8.0910801740 8.1780404690 
Si 13.6691346050 0.0447108376 2.8963441112 
Si 4.0616183171 9.4416352164 1.3472929850 
Si 6.7675991119 4.0367271969 9.5448399891 
Si 10.8519908492 5.3849853492 10.9036746811 
Si 13.1117233799 3.1152507585 0.2458298986 
H 15.3382568903 3.5686014626 22.6836263343 
Si 12.2533381121 3.2208425395 23.7031243370 
Si 0.0646326933 10.6625544375 29.1064287412 
Si 5.6979162521 2.3936852019 24.0870115486 
Si 5.4392310498 16.2767726689 10.9028869509 
Si 14.8657817260 4.0666519272 1.4805477691 
Si 12.2254170518 6.7492728617 12.2358432452 
Si 14.9508806867 9.4687743566 17.7077968825 
H 0.0365143611 2.8696138462 28.5406050157 

