&CONTROL
/
&SYSTEM
   ntyp             = 2
   nat              = 407
   ibrav            = 0
/
&ELECTRONS
/
&IONS
/
&CELL
/

ATOMIC_SPECIES
Si 28.085 None
H 1.008 None

K_POINTS gamma

CELL_PARAMETERS angstrom
16.29000014900000 0.00000000000000 0.00000000000000
0.00000000000000 16.29000014900000 0.00000000000000
0.00000000000000 0.00000000000000 29.17519467510000

ATOMIC_POSITIONS angstrom
Si 2.6701102144 10.8113961689 2.6980490656 
Si 8.1359265444 2.6929813746 10.9112018813 
Si 4.7865721938 0.3066625108 23.2809009197 
Si 8.9501822019 10.0337278518 17.2323287348 
Si 15.0051915472 1.3853488537 4.2247724153 
Si 12.2448347320 4.0747643473 14.9997261375 
Si 0.0808989100 0.0384152413 29.1534883303 
Si 1.2863642968 12.1472902111 1.3244254674 
Si 3.9994230966 15.0954055681 24.9854908438 
Si 7.9107987423 2.7367200250 16.2641498995 
Si 8.2016241150 16.2770495989 13.6405121680 
Si 13.5618649540 2.7174489549 5.5065262430 
H 15.1467679385 9.4501874664 21.8720307688 
Si 1.3020743729 4.0331596869 14.9630529178 
Si 0.0105831244 2.6748994745 2.7465148990 
Si 1.3233719191 9.4784343267 4.0745493379 
Si 9.7069993188 3.4500102616 26.3568708695 
Si 14.9317073566 4.0652672772 6.8445006708 
Si 12.2341484919 0.7804734551 26.8030179464 
Si 13.3596408922 10.7034097579 26.2965657421 
Si 1.3375833152 4.3852517501 20.4745389439 
Si 4.0318076169 12.1806521314 4.0591448351 
Si 2.7240626949 0.0059111198 2.7772538841 
Si 6.6722700310 9.5044657469 27.9427761016 
Si 12.8842009478 2.1534565697 21.6572429856 
H 12.4330005237 11.0384787710 18.5296621165 
Si 13.5735448841 16.2660864288 8.1955455858 
Si 2.7151194848 2.7487909151 29.1435104137 
Si 4.0519583471 9.4851620968 6.7917227436 
Si 1.3733284626 9.4870028668 20.2313053459 
Si 7.2305446261 11.1822054423 21.2936908848 
Si 5.3842685892 13.5780083442 2.7374180733 
Si 8.9043584314 9.5290310671 25.1074139823 
Si 14.9060831863 1.3302251222 9.5786248646 
Si 1.4178571780 1.3570254304 1.3823003011 
Si 2.6435249342 5.4024970994 13.6001336986 
Si 8.0867796140 13.6254774046 0.0688487914 
Si 9.4069863860 6.3056798677 20.2311011195 
Si 13.5348398438 2.6696215144 10.9440239754 
Si 16.2606292787 10.8588978093 5.4156163364 
Si 12.9517881585 14.2666192305 0.2237868720 
Si 1.3339180652 12.2000046516 6.7854209016 
Si 4.1232759677 4.0225386068 1.3774426312 
Si 6.7209608415 14.9006749063 4.1433736222 
Si 5.4490213398 13.5730561841 13.5986457636 
Si 9.5794160376 9.6296869781 19.3801482164 
Si 16.1770615780 8.3496513464 24.2702317711 
Si 14.8765331261 15.0732022979 1.3365973586 
Si 2.0982823392 6.9215070333 23.2209167194 
Si 1.3766956056 4.0691605872 4.0651257500 
Si 1.3260011251 9.4870354468 9.5071456376 
Si 8.1048778041 13.5430662939 5.4829818609 
Si 14.9082823363 4.0523655971 12.2544570194 
Si 14.9672847169 6.7440600617 22.8616533722 
Si 13.5652858541 13.5552675040 5.4731789955 
Si 4.0287125168 1.3251051751 4.2084926567 
Si 2.6844942845 10.8397896391 8.1446640463 
Si 3.8151831949 12.4350204837 22.4700055589 
Si 5.3922181093 13.5463731639 8.1677708005 
Si 9.2186739843 0.5779252223 24.5879496411 
H 9.6681313784 8.8020409405 21.9546840953 
Si 14.9248166865 14.9053338463 6.8361565651 
Si 4.0245748568 12.2016825216 9.5106466610 
Si 3.3630216608 10.2270901535 23.0794753756 
Si 0.0327916074 16.2399409785 5.5003994521 
Si 8.1265435043 5.4251727796 13.5899515556 
Si 6.7583789718 14.9078750863 9.5207121031 
Si 13.5979310144 2.7646899553 16.4258680036 
Si 13.6011238544 13.5590142040 10.8850025565 
Si 2.6709572944 2.7175304049 5.4994074955 
Si 1.2810162897 12.2545435721 25.1084934645 
Si 8.1283354043 13.5657745541 10.8735367050 
H 5.1719773073 13.0101063590 22.7447483671 
Si 10.7771220086 5.0914558366 23.3549475638 
Si 11.5448534256 7.1309638552 24.3669475415 
Si 13.4294761228 16.2083220882 13.7521948132 
Si 1.3473540573 1.3342275752 6.8634061969 
Si 0.0089213000 0.0408911584 16.2829095497 
Si 6.7400364316 12.2055269616 12.1866830421 
Si 4.0755462673 14.9255823165 12.2536109387 
Si 10.5186811562 10.5499742465 23.7076756674 
Si 9.2941618450 11.8742046486 22.1932496622 
Si 14.9491213667 12.1646553513 14.9325064890 
Si 4.0625305571 4.0605757571 6.8309633805 
Si 1.3186005781 1.3351870562 12.2813273737 
Si 4.3249950396 6.9326819734 20.3842708916 
Si 12.1921854515 6.7148846714 17.7434197952 
Si 10.9011703597 13.4804801133 13.4026176306 
H 14.6220181637 10.9947401206 23.6852982931 
H 14.0632222886 12.5900198351 28.6108588845 
H 2.8496748861 2.9180603067 19.8500730771 
Si 4.0385028069 1.4221463350 27.7144802033 
Si 2.6646204844 8.1277978343 10.8704733096 
Si 3.9540717362 6.8316025225 14.9237539306 
Si 10.4148812753 0.5589147921 17.0518218054 
Si 16.2570943487 2.6818553045 8.2046774217 
Si 16.2842009089 8.0977264941 13.6416791758 
Si 2.7126108248 1.0318770274 22.4462569504 
H 3.3845733309 2.5487497133 25.0431118533 
Si 2.6922809046 16.2633171287 8.2201402749 
Si 9.4966954169 4.0384213569 12.2786432558 
Si 12.2637637122 12.1110286708 12.1408779865 
Si 14.1730005996 9.7122284088 24.3534394263 
Si 12.7169026463 14.7931609053 27.1001089538 
Si 1.3371858392 4.0503456370 9.5302815670 
Si 6.0294177551 4.8450695843 0.2296639232 
Si 6.6965584212 6.8258195724 17.5198502784 
Si 5.9230603442 5.6307851615 21.5973463110 
Si 9.3100445951 0.9153693174 20.6911939395 
Si 9.4969234769 9.4554654265 1.3279177382 
Si 8.4038481769 13.5736100441 16.1393967671 
Si 4.0491401770 1.3351675082 9.5706892116 
Si 5.4283656197 8.0874637940 2.7042867222 
Si 6.7634288719 6.7515860418 12.2096730956 
H 6.0990412158 11.2472351229 22.2973759320 
Si 10.8199972890 10.8378674191 29.1260636473 
Si 16.2882571190 10.8355053691 10.9030328268 
Si 12.7701546568 13.8395442966 23.8252808771 
Si 2.7193548849 11.0765322113 26.5593467205 
Si 2.6217289140 16.2423518985 18.8877876311 
Si 9.4317146063 1.4203609510 15.0662747566 
Si 8.2256518652 5.4490864998 2.8289231538 
Si 12.1272046409 12.2784898723 1.3234043356 
Si 16.1763611079 10.5609374166 21.6580015407 
Si 16.2376277985 16.2536734487 10.9512302484 
Si 5.7760593828 1.6990307255 19.9216981800 
Si 2.6651091844 2.6896745046 10.9050459153 
Si 5.6172481714 5.1056118467 27.1175848954 
Si 8.1129576442 8.0748227539 29.1583605878 
Si 7.0029081640 12.6942921261 19.4562371241 
Si 12.2211002018 9.5021036969 4.0176868835 
Si 12.9308229283 8.6664755593 20.7504487599 
H 4.8684294445 3.2612906098 18.4261485258 
Si 6.8484789626 6.7073424013 1.4085696463 
Si 4.8411436943 4.4628736008 23.3028114909 
Si 10.8524306793 5.4275511196 16.3132517522 
Si 9.4405274963 12.0999026007 4.1963557757 
Si 16.2429872086 8.0467225036 19.0666899248 
Si 13.5605617540 10.8073073788 13.6016216335 
Si 5.4231691096 5.4053967194 5.4591457268 
Si 0.7259931786 1.0863589329 25.5083978579 
Si 2.7166344548 10.8704311294 13.6121247036 
Si 10.8446603492 2.7047101747 13.6853544422 
Si 9.4957343068 9.4639525166 6.8409412970 
Si 9.4295317462 12.2699376222 27.9014056756 
Si 16.2123457183 2.6719835644 13.6295131196 
Si 4.0213331468 4.0571385671 12.2423201384 
Si 8.1223732643 8.1386632644 5.4764174421 
Si 8.6690819593 0.2372508202 18.5455334224 
Si 10.3606355748 0.7741936601 28.1577972864 
Si 10.7818949786 5.2071962876 27.4223198038 
Si 10.8755950595 10.7819275586 5.4782263041 
Si 10.8181728089 13.6577478949 19.0586959215 
Si 2.6242864440 4.5481680416 22.5058035228 
Si 1.5265994450 9.3953390359 27.7562882573 
Si 6.7709222719 6.7621093818 6.8222108220 
Si 6.8585787627 14.8980522163 14.9542420090 
Si 11.0669211112 7.8295768016 19.4971407471 
Si 12.2101044517 12.1852947814 6.8181262948 
Si 14.9537314368 11.8315900082 27.6363782071 
Si 1.2423014754 1.4010915098 17.7274609637 
Si 5.4007051994 8.1255335243 8.1584347382 
H 8.0498990536 13.9226721673 24.3418276989 
Si 15.9800177361 1.7158582957 27.5103413662 
Si 12.5695107250 5.7840414829 25.9774474627 
Si 12.2220613118 9.4539993265 9.5070289368 
Si 2.7348303850 13.5828627642 16.3709894624 
Si 8.1173396542 5.4027740294 8.1909942554 
Si 7.0127310341 8.0304162134 24.7815854082 
Si 8.0714670138 8.1451955545 16.1625910469 
Si 9.4806334767 12.1954923215 9.5238338490 
H 14.0659264286 1.3460329383 24.4250937045 
Si 1.3898367487 6.8023131022 17.7005030838 
Si 2.8190659758 5.5882356811 19.0864123564 
Si 8.0075939232 2.4539582024 23.6389972591 
Si 5.3960299693 5.3939448493 10.8802178246 
Si 13.5993971144 5.4642036200 2.8865995962 
Si 16.2160272583 13.5811034442 2.6348001610 
Si 2.6422054442 13.5964649143 0.0891360548 
Si 2.7240789849 16.2865792490 13.6146045951 
Si 8.1168020842 8.1033628341 10.8478041833 
Si 5.1796498974 14.1499013794 19.6232651137 
Si 6.8680432528 15.0387163675 27.7945077623 
Si 13.4922089134 8.1704776347 29.1522046217 
Si 4.0552977971 14.9721228469 1.3664640054 
Si 7.4540108482 9.0463257827 20.3832497598 
Si 9.5117636670 3.9988529466 1.5023941549 
Si 9.0788406230 6.8069557523 27.4058066436 
Si 8.9567796519 13.9953255680 23.1244927010 
Si 14.9893250871 6.8075421923 4.1649924414 
H 0.1953676008 5.3511998889 20.7463350575 
Si 3.9335137560 6.7745060720 27.2297635190 
Si 4.0155827767 9.5133112170 12.1940643664 
Si 1.3165366350 14.8994694463 4.0407061121 
Si 11.2188253626 15.8211576547 0.6843187787 
Si 13.5621581740 8.1651019347 5.4371476300 
Si 2.6791837445 13.5502664739 5.4161123147 
Si 10.7602455684 2.6273652540 2.9177528691 
H 11.8646587085 11.1673978321 20.8601183167 
Si 13.5667519541 5.4119941695 8.1955164106 
Si 14.9442669467 9.4636592966 12.2661562724 
Si 13.9159443973 13.9640976377 21.7652203811 
Si 0.0303523428 5.3940751693 16.3856354102 
Si 1.9003588374 5.8502603335 26.4738342249 
Si 4.0102722367 14.8930674762 6.8317511107 
Si 8.0665474338 15.4185665910 21.5340361385 
Si 12.2544458321 1.3848552667 1.6400923212 
Si 14.9255497365 6.7753205720 9.5284727049 
Si 0.0027713851 13.5483279639 8.1769901620 
Si 5.3086829886 5.4733586001 16.2278267822 
Si 7.9201003324 5.2926699184 18.7611381110 
Si 9.4287009562 1.2868986088 4.2468288625 
Si 13.5786110742 8.1241814543 10.8940760421 
Si 13.7112605454 13.5308650837 16.3496623951 
Si 12.1868749115 4.0582299971 4.1450657835 
Si 2.1013122792 2.5327529332 24.2288029947 
Si 1.3174456170 14.9143585064 9.5709809635 
Si 6.6694518610 4.1266968677 14.8928282242 
Si 13.6817593551 0.1180370153 18.9840657735 
Si 13.5428545239 8.0998279041 16.3885237544 
Si 9.4863023968 4.0566009971 6.8505691113 
Si 2.7059970847 13.5644061941 10.9011072640 
Si 7.3486634172 11.8108039680 17.3214297794 
H 6.7723883719 12.1734356613 23.9151988271 
Si 16.1531478577 5.4055270394 0.1435705495 
Si 14.9167857164 12.2019105816 20.5019636269 
Si 7.7965081013 7.0948163449 21.7540462816 
Si 5.4928577302 10.8795698195 16.2155440252 
Si 5.3864188693 13.7851519861 26.4188098078 
Si 10.8615367893 16.2302158484 5.5097938648 
Si 10.8414186392 15.3378985103 23.5147692802 
Si 16.2867747290 8.1168672442 2.6916801206 
Si 2.7518860152 5.4248958496 2.6975064069 
Si 6.7495823717 1.2962669879 17.7681603602 
Si 8.0596567637 10.7644972584 13.4626893565 
Si 12.2131343917 1.3291190312 6.8431002614 
Si 14.6078621536 6.9852009339 20.4998046625 
Si 15.4334393611 4.6231020423 23.7736116074 
Si 0.0243405182 2.6864653746 19.3312797654 
Si 2.8845191964 7.9853417830 29.0679758347 
Si 1.2817086147 14.8233951456 27.8078408263 
Si 9.4864490068 1.3435014723 9.5386256727 
Si 8.6242844589 14.3814637315 19.5248280068 
Si 12.2483045020 1.7451314260 18.0578116930 
Si 1.3935508687 6.7667683219 1.3162184851 
Si 1.3876587757 14.9354540566 14.9845550363 
Si 10.8498894392 2.6914989846 8.1878141592 
Si 10.5516195365 11.6265640663 20.2551414799 
Si 14.8738941460 1.2666843476 20.6732220196 
Si 13.5330479438 5.2986972185 19.1132827107 
Si 1.1886813109 4.1143490476 27.9199027490 
Si 4.0714086072 6.7684461919 4.0975977417 
Si 1.3405073703 4.8100786640 24.4433865515 
Si 12.2108049217 4.0343488569 9.5513752327 
H 13.5192014436 7.0270010743 23.2882238936 
Si 14.9860507971 14.9941469271 17.6482503101 
Si 0.0272790713 5.3955901394 5.4749878575 
H 6.4077204286 7.9446004927 23.3834225538 
Si 6.6761144711 9.4285054762 14.8032895518 
Si 5.4939491602 16.2672267288 16.2988100308 
H 11.6253423163 11.7927220679 16.8792797041 
Si 10.8609666393 16.2866932790 10.8751121655 
Si 2.6931442746 8.1290684543 5.4362431990 
Si 2.4566623425 13.7866669561 23.7953763026 
Si 5.8332209934 15.9215203456 21.2096663241 
Si 12.1683857613 1.3102340340 12.3211515144 
Si 9.3874383859 14.8033910254 1.6289211392 
Si 12.3915098933 14.9689788769 20.2648859950 
Si 1.3619287205 6.7726653019 6.8209854639 
Si 4.0840985174 12.4108949935 27.9035062896 
Si 10.8429661892 10.8009705688 10.8280234013 
Si 10.7954971287 13.4393804429 2.8815727101 
Si 9.5061761969 14.9313163966 12.2091187669 
Si 14.3294497611 14.6136451037 25.4192968134 
Si 3.4676197517 1.6130944588 20.2880510995 
Si 1.3466389263 12.2132647117 12.2547779465 
H 4.6887018729 5.2587052681 24.5802473897 
H 10.2026877333 2.1639310398 28.7682298846 
Si 16.2647180688 8.1309743844 8.1484859968 
Si 12.2134927717 14.8985734963 4.1118060615 
Si 2.7044821147 5.4157571595 8.1859177716 
Si 7.4858577985 5.9991509349 25.8414618803 
Si 4.1912541383 9.6425072082 17.7159075866 
H 9.9929702714 3.2237421595 18.5549278350 
Si 9.4866119068 12.1535944412 14.6414839221 
Si 9.4833539067 14.8856392361 6.8428668599 
Si 10.8550044993 13.5385865438 8.1825334490 
Si 4.0529031671 6.7771939220 9.5365834090 
Si 1.4243862100 15.3328811902 22.3163106333 
Si 5.3602897090 10.9212233499 0.0714208766 
Si 8.7817761803 4.4962029411 24.5230931834 
H 9.9379100709 14.3459189512 25.5813358446 
Si 12.2140792117 14.9020921363 9.5380421688 
Si 2.7554698152 8.2324610853 16.4000771315 
Si 2.6858463546 10.9767070904 18.9633222101 
Si 1.0529872386 10.4003180151 23.6744742959 
Si 8.1369691044 10.8078612388 2.7177160643 
Si 15.4402160012 15.8104062546 22.1841178263 
Si 10.8219520890 13.4940496834 26.4687869162 
Si 4.0686881772 1.3425110403 15.0025853066 
Si 6.7678760419 12.2224685618 1.4137161507 
Si 4.1473200079 14.9774985470 17.6706276844 
Si 11.3659566439 0.3033214318 21.5846259261 
Si 14.8593797559 14.9261198865 12.3406113693 
Si 3.9628357562 4.1633493681 17.6200378969 
Si 6.7706127619 9.4573713565 4.0683641967 
Si 7.9285874225 10.9882404105 26.6128832027 
Si 4.0734122773 12.2522955521 14.9623527131 
Si 10.3886055050 4.4494832207 21.1308932985 
Si 14.8952014662 9.4831910067 1.3426862217 
Si 2.9407034069 8.4154955270 21.5929992070 
Si 5.4071071694 10.8308464291 5.4174543736 
Si 10.4692572957 8.2438640854 26.2295211447 
Si 13.8103526163 2.4485662124 27.2577133555 
Si 16.2620302187 5.4004608494 10.8812097812 
Si 13.5620604340 10.9189590399 2.6582628526 
Si 15.0253911474 4.0348701369 17.8307703280 
Si 6.7418772017 12.1810919614 6.8123496062 
H 8.5198655579 7.1740183256 23.0768496081 
Si 10.7812107986 10.8593539293 16.0681509417 
Si 10.5314362263 14.5436306830 16.8178075689 
Si 14.9072560663 12.2381395419 4.0609536972 
Si 1.3145769480 6.7618487418 12.2345595366 
Si 1.6991121755 14.5093728127 20.1631812663 
Si 2.5885787637 16.2614926487 26.4577878679 
Si 6.7660026919 9.4802913867 9.5059786298 
Si 5.3036167985 8.4901688877 26.3018756275 
Si 14.9168345864 9.5100857970 6.7978203593 
H 3.3069189002 7.3008359768 24.0951806031 
Si 5.3888949493 0.0482361565 29.1344369281 
Si 8.1260873843 10.8432431192 8.1624609150 
Si 15.1346807584 0.2522620553 24.3835482272 
H 13.8567628267 6.3559182281 26.8857004482 
Si 13.5738055241 10.8456051692 8.1807829373 
Si 5.3550280390 2.6616068343 2.8466412496 
Si 5.3760584292 2.6901794946 13.5795068359 
Si 5.3911755493 10.8441064892 10.8387890482 
Si 6.2373596070 11.9148319090 25.3003495447 
H 10.3201060544 8.3806349266 21.9957627694 
Si 14.9455375667 12.1940425115 9.5345703206 
Si 1.3859369227 9.4718857466 14.9546212866 
Si 1.2694731956 12.2005422216 17.5858737439 
Si 8.0693330238 0.0071356391 2.8334598966 
Si 6.8011728022 1.3285537681 12.2805104682 
Si 9.4940727268 9.4427918064 12.1807313024 
Si 12.2985428625 9.0013816723 23.0785709446 
Si 2.6501060942 2.6973959647 16.3387508723 
Si 0.4115473058 7.7066524605 26.5028051932 
Si 7.6730461902 3.1188834285 0.3129331381 
Si 12.1406601810 3.4758787818 19.8645147984 
Si 8.4768273775 0.2362033732 26.8499024843 
Si 11.4223526245 4.7886410238 0.3835837895 
Si 15.0279486774 6.9123520532 27.9433304303 
Si 6.6863771712 1.3316293202 1.4661702332 
Si 10.8489771992 8.0975635941 2.7049840093 
Si 11.8546566484 12.0078803898 24.9983571046 
Si 12.1327432410 14.6171963237 15.0275300981 
Si 13.6189776946 10.5284877363 19.3295292537 
Si 6.7923273321 4.0559005271 4.1006903124 
Si 4.4393019706 10.3210834544 25.1783097054 
Si 11.0295844309 1.9057996974 25.1829777365 
Si 12.2809822423 6.7287963315 1.4179844817 
Si 13.5847524042 5.4235111996 13.6274125056 
H 13.0647593095 12.7031375962 17.4254976988 
Si 0.0079253457 13.5760046742 13.6275000312 
Si 5.6389138716 8.2907629958 18.9990326484 
Si 5.3966326994 16.2528589486 5.5261319738 
Si 9.5403200372 6.8071349423 4.1743576789 
Si 14.8299763056 1.3341200612 15.0106084851 
Si 16.2711037488 10.7901377187 16.2677384485 
Si 8.0950712240 2.7090758948 5.5253442435 
Si 5.5613734709 2.8111653257 26.4468179947 
Si 10.8590444193 5.4147145995 5.5139950928 
Si 12.0257831000 9.3742597757 27.6951662244 
Si 16.2182915683 13.5023901635 19.0088355138 
Si 16.1058579873 13.4610624331 26.4464970675 
Si 6.7518792618 1.3336085552 6.8658277381 
Si 6.8001302422 3.8510211952 20.3118580584 
Si 9.5102161170 6.7747504220 14.9303766998 
Si 12.2111470117 9.4160436261 14.9467439840 
Si 13.8068013963 3.9242447459 25.3311001999 
Si 12.2369992419 6.7783830920 6.8197892809 
Si 5.3921855293 2.6910428646 8.2046482465 
Si 9.3509487855 4.0660817772 17.4746870770 
Si 8.6221993389 2.9655619471 21.4572762013 
Si 9.4957343068 6.7375603516 9.5361166059 
Si 10.8512252192 8.1079566141 13.5575087392 
Si 14.9290195065 6.7499081717 15.0347655463 
Si 3.3503317506 12.8549929776 20.2582048754 
Si 7.7618104010 2.4300933522 27.2567213988 
Si 5.3254779787 8.0856718939 13.4912518720 
Si 8.1341346444 16.2644248487 8.1890395174 
Si 10.8520560092 8.0930675540 8.1786239729 
Si 13.6694604050 0.0451589755 2.9012688841 
Si 4.0560308471 9.4439646864 1.3485066731 
Si 6.7670452519 4.0376720169 9.5471156543 
Si 10.8506387792 5.3858161393 10.9046082873 
Si 13.1172456900 3.1132796685 0.2627322559 
H 15.3940175608 3.5170273222 22.7441356881 
Si 12.2745476923 3.2271956395 23.7069462875 
Si 0.0630040191 10.6641182775 29.1010896806 
Si 5.7097427922 2.3879999918 24.0914170030 
Si 5.4384328397 16.2762839689 10.9038497323 
Si 14.8542321159 4.0582788671 1.5172939268 
Si 12.2248306118 6.7492565717 12.2366018002 
Si 14.9524119468 9.4615253065 17.7080886344 
H 0.2562987173 3.5287235423 26.8055270132 

