&CONTROL
/
&SYSTEM
   ntyp             = 2
   nat              = 407
   ibrav            = 0
/
&ELECTRONS
/
&IONS
/
&CELL
/

ATOMIC_SPECIES
Si 28.085 None
H 1.008 None

K_POINTS gamma

CELL_PARAMETERS angstrom
16.29000014900000 0.00000000000000 0.00000000000000
0.00000000000000 16.29000014900000 0.00000000000000
0.00000000000000 0.00000000000000 29.17519467510000

ATOMIC_POSITIONS angstrom
Si 2.6681554144 10.8126830789 2.6940491464 
Si 8.1342323844 2.6914664046 10.9121354876 
Si 4.7986756639 0.3014008408 23.2766413413 
Si 8.9504102619 10.0329459318 17.2333206915 
Si 15.0028620772 1.3824492336 4.2304324031 
Si 12.2442808720 4.0736892073 15.0004846926 
Si 0.1137610531 0.1429585978 29.1168734609 
Si 1.2822950547 12.1528776811 1.3223044307 
Si 3.9969795966 15.1035668581 24.9868037275 
Si 7.9122811324 2.7362150350 16.2637122716 
Si 8.2013146050 16.2756975289 13.6406580440 
Si 13.5600730540 2.7153475448 5.5114276757 
H 15.1463118185 9.4503503664 21.8729060247 
Si 1.3018756349 4.0319868069 14.9635780713 
Si 0.0136262756 2.6754207545 2.7614409286 
Si 1.3244698651 9.4862535268 4.0811137567 
Si 9.6990172187 3.4573896316 26.3650107488 
Si 14.9300620665 4.0638500472 6.8479141686 
Si 12.2247817418 0.7900193952 26.8289838697 
Si 13.3604553922 10.6985390478 26.2977911003 
Si 1.3432440903 4.3836716201 20.4721174027 
Si 4.0299831369 12.1798865014 4.0571317467 
Si 2.7215214549 16.2881105090 2.7876606760 
Si 6.6638481010 9.5092712970 27.9438264086 
Si 12.8838751478 2.1527886797 21.6483445513 
H 12.4333426137 11.0399448710 18.5309750002 
Si 13.5707755841 16.2636429287 8.1972669223 
Si 2.7855900255 2.7827718555 0.0443168290 
Si 4.0511764270 9.4855856368 6.7935899561 
Si 1.3748678676 9.4840706667 20.2343979165 
Si 7.2314079961 11.1828081723 21.2977754120 
Si 5.3780783892 13.5803866842 2.7338411944 
Si 8.8995691714 9.5315234372 25.1075890335 
Si 14.9037048463 1.3279037971 9.5802295003 
Si 1.4487560503 1.3809554406 1.4047476959 
Si 2.6430525242 5.4012264794 13.6007463777 
Si 8.0845967539 13.6262430346 0.0687954008 
Si 9.4082895860 6.3070319377 20.2314512219 
Si 13.5332434238 2.6679273544 10.9454827351 
Si 16.2567522587 10.8654138094 5.4151203581 
Si 12.9759788087 14.2803517006 0.2251012145 
Si 1.3320039902 12.1990109616 6.7883384210 
Si 4.1753388082 4.0479998770 1.4297566727 
Si 6.7174096214 14.9009681263 4.1398434236 
Si 5.4483371598 13.5712479941 13.5987916396 
Si 9.5795626476 9.6310716281 19.3816069762 
Si 16.1834146780 8.3461815763 24.2717780564 
Si 14.9109538964 15.1261610883 1.3050152104 
Si 2.0955130392 6.9227124933 23.2327326733 
Si 1.3764056436 4.0715715072 4.0750744914 
Si 1.3245122191 9.4854227367 9.5092462516 
Si 8.1007564341 13.5432291939 5.4810271228 
Si 14.9071094563 4.0504922470 12.2557115527 
Si 14.9710802869 6.7407206116 22.8603404884 
Si 13.5636242740 13.5513579039 5.4746669304 
Si 4.0226852168 1.3210734001 4.2146486228 
Si 2.6825720645 10.8380466091 8.1465020835 
Si 3.8111269849 12.4345806537 22.4714059682 
Si 5.3910126493 13.5442554639 8.1687335819 
Si 9.2401116245 0.5842099043 24.5961478708 
H 9.6676752584 8.8050220105 21.9559678039 
Si 14.9219007765 14.9023039063 6.8384322303 
Si 4.0230435968 12.2001349716 9.5116094424 
Si 3.3630868208 10.2257055035 23.0822470191 
Si 0.0306778170 16.2373182885 5.5044839793 
Si 8.1258593243 5.4240813496 13.5905350595 
Si 6.7570757718 14.9061646363 9.5212080814 
Si 13.5978821444 2.7639894853 16.4265098579 
Si 13.5989735744 13.5572711740 10.8859945131 
Si 2.6684486344 2.7162597848 5.5052425344 
Si 1.2756715407 12.2594631521 25.1109150057 
Si 8.1269507543 13.5640315241 10.8740326833 
H 5.1680839973 13.0084936490 22.7445733160 
Si 10.7816017586 5.0894847466 23.3558519948 
Si 11.5438597356 7.1327883352 24.3694274330 
Si 13.4278471228 16.2070840482 13.7523990396 
Si 1.3449692013 1.3316114012 6.8669947459 
Si 0.0073435646 0.0392328364 16.2818300675 
Si 6.7389450016 12.2036047416 12.1870331445 
Si 4.0745851573 14.9239533165 12.2543403186 
Si 10.5198540362 10.5539164265 23.7124020489 
Si 9.2954976250 11.8767133086 22.1967798608 
Si 14.9481113867 12.1632218312 14.9332358689 
Si 4.0623350772 4.0588164371 6.8329764689 
Si 1.3175596470 1.3334896382 12.2820567535 
Si 4.3249135896 6.9314113534 20.3847376947 
Si 12.1923157715 6.7148846714 17.7447910293 
Si 10.9000300597 13.4789162733 13.4032303097 
H 14.6311894338 10.9933717605 23.6922419894 
H 14.0496527185 12.5773950850 28.6122009434 
H 2.8620715762 2.9140366766 19.8358355821 
Si 4.0373462169 1.4409547692 27.7287176983 
Si 2.6636919544 8.1258104543 10.8714360910 
Si 3.9537622262 6.8306414125 14.9238122810 
Si 10.4168523653 0.5581573071 17.0515592286 
Si 16.2551069687 2.6797864745 8.2074198900 
Si 16.2834515689 8.0961789440 13.6424960812 
Si 2.7327941350 1.0140297033 22.4184238147 
H 3.4274323213 2.5765567436 24.9863077492 
Si 2.6912220546 16.2606781487 8.2217740858 
Si 9.4953922168 4.0368738069 12.2793726356 
Si 12.2621184221 12.1089435507 12.1417240672 
Si 14.1763237597 9.7114627788 24.3558026171 
Si 12.7305699564 14.8094183254 27.1022095678 
Si 1.3360992962 4.0485211570 9.5316528011 
Si 6.0476299753 4.8511946244 0.2318716102 
Si 6.6964932612 6.8253797424 17.5215424397 
Si 5.9288758742 5.6328377015 21.5920364255 
Si 9.3126672852 0.9153416244 20.6916899179 
Si 9.4978031369 9.4604338765 1.3289797153 
Si 8.4035875369 13.5725349041 16.1405054245 
Si 4.0481139070 1.3332713522 9.5714477667 
Si 5.4265574296 8.0864212340 2.7045697216 
Si 6.7624351818 6.7499896217 12.2100523731 
H 6.0999534558 11.2459156329 22.3020731383 
Si 10.8229457790 10.8432105392 29.1272890054 
Si 16.2866606990 10.8340392691 10.9045207618 
Si 12.7748787568 13.8420855366 23.8286943749 
Si 2.7146633648 11.0777050913 26.5603678523 
Si 2.6203116840 16.2352983285 18.8779264153 
Si 9.4320566963 1.4188720450 15.0662455814 
Si 8.2288935753 5.4454538298 2.8280770732 
Si 12.1344536910 12.2868629324 1.3221031219 
Si 16.1770941580 10.5600577566 21.6590810229 
Si 16.2361454085 16.2519304186 10.9524264314 
Si 5.7844161529 1.6957401455 19.9173802512 
Si 2.6643272644 2.6878988946 10.9059795215 
Si 5.6155865914 5.1043900967 27.1225738537 
Si 8.1105793042 8.0844175639 29.1595567707 
Si 7.0047815141 12.6922232961 19.4572874312 
Si 12.2183797717 9.5003117969 4.0176577083 
Si 12.9302853583 8.6676484393 20.7530453523 
H 4.8751897946 3.2623657498 18.4211595675 
Si 6.8552067327 6.7123108514 1.4106323326 
Si 4.8592581744 4.4641768008 23.2986977884 
Si 10.8528705093 5.4273230596 16.3140978328 
Si 9.4376278763 12.1006193607 4.1945177384 
Si 16.2437528386 8.0459731636 19.0679444582 
Si 13.5594051640 10.8058249888 13.6025552397 
Si 5.4228758896 5.4039306194 5.4613922168 
Si 0.7725271931 1.2024919730 25.5045467322 
Si 2.7158688248 10.8683297194 13.6120955284 
Si 10.8441064892 2.7037164847 13.6857045446 
Si 9.4934862868 9.4618836865 6.8405036691 
Si 9.4296783562 12.2729838522 27.9010847484 
Si 16.2117918583 2.6705174644 13.6304467258 
Si 4.0204860668 4.0556724671 12.2429619927 
Si 8.1201089543 8.1366921744 5.4757464126 
Si 8.6721607693 0.2359231852 18.5459126999 
Si 10.3563513047 0.7810012511 28.1702842697 
Si 10.7785881086 5.2113991077 27.4293218505 
Si 10.8716202994 10.7807872586 5.4769425956 
Si 10.8205511490 13.6569985549 19.0595711773 
Si 2.6458218242 4.5321549714 22.4937249922 
Si 1.5261824210 9.3882854659 27.7563757828 
Si 6.7694235919 6.7609690818 6.8232319539 
Si 6.8587579527 14.8959996762 14.9535709795 
Si 11.0674423912 7.8310754816 19.4981327037 
Si 12.2069441916 12.1820042014 6.8188556747 
Si 14.9504571467 11.8303519682 27.6383912956 
Si 1.2409070514 1.3999512098 17.7249518969 
Si 5.3991250694 8.1241977443 8.1589307165 
H 8.0611065737 13.9272170774 24.3498217022 
Si 16.1929117481 1.9994183283 27.5517117922 
Si 12.5689242850 5.7871854529 25.9838368304 
Si 12.2199599018 9.4515558264 9.5083418206 
Si 2.7342276550 13.5795233142 16.3696765787 
Si 8.1150753442 5.4012427694 8.1918986865 
Si 7.0061987441 8.0302207334 24.7865160161 
Si 8.0713204038 8.1443810545 16.1639914562 
Si 9.4783854567 12.1933909115 9.5239505497 
H 14.0507604385 1.3684935905 24.3858238924 
Si 1.3898676997 6.8019873022 17.7001821567 
Si 2.8206786858 5.5883008411 19.0846326696 
Si 8.0178240433 2.4507653624 23.6428483848 
Si 5.3947756393 5.3924624593 10.8806554525 
Si 13.5962042743 5.4629818700 2.8940305183 
Si 16.2119384683 13.5986314844 2.6213679014 
Si 2.6228366340 13.6166156445 0.0832070717 
Si 2.7233785149 16.2851294389 13.6151880990 
Si 8.1153685642 8.1020107641 10.8483001616 
Si 5.1808390674 14.1465782194 19.6211936748 
Si 6.8684830828 15.0423979076 27.7948870398 
Si 13.4955483634 8.1624140847 29.1515627674 
Si 4.0493193670 14.9761953470 1.3634356202 
Si 7.4544995482 9.0476615627 20.3846209939 
Si 9.5192570671 3.9959207465 1.5022657840 
Si 9.0767717930 6.8125106423 27.4098328205 
Si 8.9623182520 13.9983555080 23.1281979508 
Si 14.9851711370 6.8079005723 4.1707399548 
H 0.2021132898 5.3453680689 20.7630816192 
Si 3.9086715058 6.7484420717 27.2276629049 
Si 4.0149474667 9.5114052870 12.1943852935 
Si 1.3122165270 14.8945661562 4.0464244503 
Si 11.2251947527 15.8176878847 0.6833530798 
Si 13.5580693840 8.1649390347 5.4408528798 
Si 2.6782226345 13.5465034839 5.4182421039 
Si 10.7638945284 2.6235533940 2.9182196722 
H 11.8651474085 11.1682286221 20.8611977989 
Si 13.5641781341 5.4101859795 8.1978504262 
Si 14.9429800367 9.4619488465 12.2674399810 
Si 13.9241871373 13.9721937678 21.7718723255 
Si 0.0305461938 5.3930977693 16.3862480893 
Si 1.8568319570 5.7648844427 26.4917769697 
Si 4.0093111267 14.8906891362 6.8329181185 
Si 8.0714995938 15.4173448410 21.5347946936 
Si 12.2587789721 1.3729358736 1.6496063522 
Si 14.9235460665 6.7734472219 9.5303982678 
Si 0.0008068014 13.5466500939 8.1794117031 
Si 5.3091879786 5.4736681101 16.2277684318 
Si 7.9222180325 5.2926047584 18.7612256366 
Si 9.4283751562 1.2850089687 4.2446115477 
Si 13.5768517542 8.1225035843 10.8957973786 
Si 13.7102831454 13.5297247837 16.3501291983 
Si 12.1857671914 4.0546624871 4.1493253619 
Si 2.1502148597 2.5517959433 24.1620209741 
Si 1.3159567110 14.9124037064 9.5726439497 
Si 6.6692075110 4.1256705977 14.8934409033 
Si 13.6847078452 0.1173652157 18.9860205116 
Si 13.5428708139 8.0991274341 16.3897491126 
Si 9.4858299867 4.0549068371 6.8539534339 
Si 2.7048079147 13.5626305840 10.9023617974 
Si 7.3487285772 11.8092564180 17.3222466848 
H 6.7698308419 12.1783552414 23.9198668583 
Si 16.1746017879 5.4075632895 0.1763237900 
Si 14.9174536064 12.2035070016 20.5050853727 
Si 7.7990819213 7.0966408249 21.7531710257 
Si 5.4927762802 10.8783969395 16.2161858795 
Si 5.3805870492 13.7908371961 26.4216689768 
Si 10.8615693693 16.2285216884 5.5073723236 
Si 10.8484396292 15.3407329703 23.5160529888 
Si 16.2802913089 8.1287915243 2.7066061502 
Si 2.7525701952 5.4307602497 2.7119452108 
Si 6.7536385818 1.2931474528 17.7652720160 
Si 8.0588096837 10.7632755084 13.4635646123 
Si 12.2098275217 1.3266071131 6.8453175762 
Si 14.6064123436 6.9876118539 20.5003589912 
Si 15.4414866212 4.6105587422 23.7532764967 
Si 0.0264591956 2.6862861846 19.3314548165 
Si 2.8824177864 7.9772782330 29.0693762440 
Si 1.2704277896 14.8590376659 27.7963166244 
Si 9.4827837567 1.3410253923 9.5388590742 
Si 8.6262555489 14.3801768215 19.5255282115 
Si 12.2495099620 1.7445775660 18.0591829271 
Si 1.3963902158 6.7850619921 1.3417613681 
Si 1.3869729667 14.9336784466 14.9847300875 
Si 10.8476902892 2.6893812846 8.1905274523 
Si 10.5515380865 11.6275903363 20.2575921963 
Si 14.8786182461 1.2649038506 20.6764021158 
Si 13.5352796738 5.2998375185 19.1141579666 
Si 1.1998953470 4.0396268170 28.0258670561 
Si 4.0717181172 6.7722417619 4.1056209203 
Si 1.3448910093 4.8171322341 24.4144739336 
Si 12.2086709317 4.0322637369 9.5534174964 
H 13.5296759137 7.0304871343 23.3002732490 
Si 14.9856924171 14.9925993771 17.6482211349 
Si 0.0244001396 5.3970562394 5.4805019693 
H 6.4053746686 7.9402347726 23.3862817229 
Si 6.6758701211 9.4270882462 14.8042523332 
Si 5.4948451102 16.2654674088 16.2973512711 
H 11.6257821463 11.7919238578 16.8792213537 
Si 10.8585068493 16.2850968589 10.8751121655 
Si 2.6914826946 8.1309580944 5.4405903030 
Si 2.4545446425 13.7906417161 23.7974185662 
Si 5.8395740934 15.9178388056 21.2052608697 
Si 12.1663658013 1.3084193280 12.3212973904 
Si 9.3898981759 14.8026742654 1.6261815884 
Si 12.3958267434 14.9673172969 20.2665781562 
Si 1.3606190044 6.7729911019 6.8244573120 
Si 4.0692909072 12.4227541136 27.9049066989 
Si 10.8410765491 10.7993415688 10.8286360804 
Si 10.7955948687 13.4391686729 2.8802656614 
Si 9.5050196069 14.9293778865 12.2095272196 
Si 14.3372689611 14.6249014938 25.4123531171 
Si 3.4771656918 1.6060001637 20.2666656818 
Si 1.3453992573 12.2116031317 12.2558574287 
H 4.7031999730 5.2618655281 24.5729244159 
H 10.2277580435 2.1805142599 28.7580769168 
Si 16.2623560187 8.1305182644 8.1506741364 
Si 12.2159525617 14.8950059862 4.1112809080 
Si 2.7033255247 5.4138186495 8.1869389034 
Si 7.4853853885 5.9998188249 25.8450212541 
Si 4.1915147783 9.6410411082 17.7162868641 
H 9.9942897614 3.2229928195 18.5550737110 
Si 9.4858462767 12.1522260811 14.6424758787 
Si 9.4812199167 14.8846129661 6.8406203699 
Si 10.8517139192 13.5370878638 8.1820082955 
Si 4.0515673871 6.7755323420 9.5370502121 
Si 1.4267254541 15.3307797802 22.3129846611 
Si 5.3496523389 10.9292543200 0.0689797880 
Si 8.7841219403 4.4981251611 24.5240851400 
H 9.9503719210 14.3547970013 25.5897966511 
Si 12.2111144317 14.8994857363 9.5388007238 
Si 2.7556001352 8.2315488453 16.4001938323 
Si 2.6858137746 10.9738889204 18.9641391156 
Si 1.0531827186 10.4025986151 23.6765165595 
Si 8.1323264544 10.8093762089 2.7166920150 
Si 15.4492406613 15.8260283647 22.2096752968 
Si 10.8322473691 13.4999466635 26.4763432917 
Si 4.0683786672 1.3411687443 15.0027020074 
Si 6.7624840518 12.2242930418 1.4121202675 
Si 4.1495680280 14.9722368769 17.6667473836 
Si 11.3695730240 0.3025932688 21.5836631447 
Si 14.8577344659 14.9243605665 12.3413407491 
Si 3.9645624963 4.1628280881 17.6189000643 
Si 6.7686416719 9.4564916965 4.0679849191 
Si 7.9253620025 10.9913029305 26.6136125826 
Si 4.0730376072 12.2496565720 14.9617692093 
Si 10.3890453350 4.4510307707 21.1312142256 
Si 14.8923181362 9.4822136067 1.3431471898 
Si 2.9395956869 8.4094519369 21.5990092971 
Si 5.4050383394 10.8301296690 5.4165499426 
Si 10.4651847957 8.2475619154 26.2295211447 
Si 13.8323929865 2.4922722828 27.2334395935 
Si 16.2608899187 5.3985223394 10.8825518402 
Si 13.5596983840 10.9188775899 2.6579944408 
Si 15.0257983974 4.0341207969 17.8313538319 
Si 6.7400364316 12.1798539214 6.8117369272 
H 8.5184483279 7.1766410156 23.0776373384 
Si 10.7811293486 10.8583928193 16.0689094968 
Si 10.5315013863 14.5427184430 16.8186536495 
Si 14.9064415663 12.2458284220 4.0524637156 
Si 1.3135914030 6.7601382918 12.2354639676 
Si 1.6978252655 14.5064080327 20.1600303453 
Si 2.5886602137 0.0017723846 26.4507566459 
Si 6.7645365919 9.4785972267 9.5061536810 
Si 5.2921649284 8.4818935676 26.3082358200 
Si 14.9155639664 9.5107536870 6.7979370601 
H 3.2983177802 7.2948901267 24.1136776765 
Si 5.3866469293 0.0519989837 29.1323071389 
Si 8.1240511343 10.8414023492 8.1619065863 
Si 15.1508567286 0.2989557117 24.4149407367 
H 13.8645494468 6.3257980179 26.9196311996 
Si 13.5713457341 10.8434548892 8.1822708722 
Si 5.3731750991 2.6501060942 2.8713263818 
Si 5.3755208592 2.6892346746 13.5802362158 
Si 5.3900352493 10.8423797492 10.8390516249 
Si 6.2325214770 11.9187903790 25.3042006704 
H 10.3209694244 8.3855870867 21.9978342083 
Si 14.9432732567 12.1919085215 9.5360582555 
Si 1.3853635147 9.4703544866 14.9550297393 
Si 1.2695774516 12.1974634116 17.5858737439 
Si 8.0698543038 0.0049528116 2.8303469033 
Si 6.7999836322 1.3270045891 12.2814440745 
Si 9.4926554968 9.4411465164 12.1815773831 
Si 12.2996831625 9.0030432523 23.0821303184 
Si 2.6504644742 2.6965163047 16.3388675731 
Si 0.4167780248 7.6880655703 26.5047015809 
Si 7.6787639802 3.1157068785 0.3166179652 
Si 12.1407579210 3.4792182318 19.8625600604 
Si 8.4834085376 0.2364786742 26.8533159821 
Si 11.4341140046 4.7765701337 0.3837179954 
Si 15.0393679675 6.8975933131 27.9541544275 
Si 6.6862142711 1.3293780422 1.4665057479 
Si 10.8470223992 8.0949734840 2.7034931569 
Si 11.8591689785 12.0108614598 25.0039879172 
Si 12.1318310010 14.6158116737 15.0277343244 
Si 13.6189614046 10.5295628763 19.3313089405 
Si 6.8013682822 4.0557702071 4.1108724553 
Si 4.4374612006 10.3202689544 25.1827443350 
Si 11.0373873409 1.9208516576 25.2040714023 
Si 12.2811777223 6.7232740215 1.4186205009 
Si 13.5840845142 5.4223220296 13.6284336374 
H 13.0643194795 12.7023882562 17.4266355314 
Si 0.0066886252 13.5745711541 13.6281418855 
Si 5.6389464516 8.2909096058 19.0009582112 
Si 5.3936679193 16.2504317386 5.5262778498 
Si 9.5392123172 6.8052127222 4.1745619053 
Si 14.8284287556 1.3328787632 15.0105501347 
Si 16.2702729588 10.7883783987 16.2678843245 
Si 8.0994043641 2.7054269347 5.5297205227 
Si 5.5643219609 2.8116866057 26.4507274707 
Si 10.8563891493 5.4125317395 5.5153079766 
Si 12.0249848900 9.3727610957 27.6977336415 
Si 16.2172327183 13.4994579635 19.0072600533 
Si 16.0982994272 13.4669105432 26.4510775731 
Si 6.7493380217 1.3313996312 6.8643981535 
Si 6.8036163022 3.8494247752 20.3104576490 
Si 9.5093853270 6.7735449619 14.9314853572 
Si 12.2105279917 9.4145449461 14.9477942910 
Si 13.8113463063 3.9484028161 25.2977529524 
Si 12.2340670419 6.7759721720 6.8217440189 
Si 5.3915013493 2.6886319446 8.2052317504 
Si 9.3520890855 4.0653324372 17.4748621282 
Si 8.6245125189 2.9651546971 21.4595518665 
Si 9.4937143468 6.7358173216 9.5367876354 
Si 10.8500849192 8.1068163141 13.5586757469 
Si 14.9285145165 6.7486701317 15.0358158533 
Si 3.3502665906 12.8531847876 20.2577672475 
Si 7.7622176510 2.4267864822 27.2613894300 
Si 5.3252824987 8.0845641739 13.4918062007 
Si 8.1312676044 16.2624863387 8.1876682832 
Si 10.8495147692 8.0914711340 8.1793825279 
Si 13.6798045551 0.0380827623 2.9001456391 
Si 4.0548416771 9.4423031064 1.3450085672 
Si 6.7654488319 4.0357172169 9.5478450342 
Si 10.8488305892 5.3846432592 10.9057169447 
Si 13.1411268302 3.0923470183 0.2861336795 
H 15.3841784007 3.5198943622 22.7089212281 
Si 12.2735051322 3.2187737094 23.7011695990 
Si 0.0620245014 10.6620820275 29.1021108124 
Si 5.7190606723 2.3864361518 24.0926715363 
Si 5.4374065697 16.2746549688 10.9046374625 
Si 14.8640875659 4.0629540972 1.5347406933 
Si 12.2232504818 6.7475787017 12.2380605600 
Si 14.9523142067 9.4609388665 17.7098099709 
H 14.7551889149 1.2030539780 26.8024344426 

