&CONTROL
/
&SYSTEM
   ntyp             = 2
   nat              = 407
   ibrav            = 0
/
&ELECTRONS
/
&IONS
/
&CELL
/

ATOMIC_SPECIES
Si 28.085 None
H 1.008 None

K_POINTS gamma

CELL_PARAMETERS angstrom
16.29000014900000 0.00000000000000 0.00000000000000
0.00000000000000 16.29000014900000 0.00000000000000
0.00000000000000 0.00000000000000 29.17519467510000

ATOMIC_POSITIONS angstrom
Si 2.6678784844 10.8120640589 2.7055587607 
Si 8.1387935844 2.7014195947 10.9124272395 
Si 4.7840309538 0.2958198867 23.2856856516 
Si 8.9786408321 10.0314309617 17.2583238333 
Si 15.0074069873 1.3831920577 4.2273690076 
Si 12.2516765320 4.0792929673 15.0030812849 
Si 0.1051972372 0.1431948028 29.0992516434 
Si 1.2869425918 12.1487237311 1.3288250867 
Si 3.9911477765 15.0955847581 24.9956146363 
Si 7.9228696325 2.7249097749 16.2352664568 
Si 8.2105021651 16.2811383889 13.6212565395 
Si 13.5647157041 2.7160154348 5.5071972725 
H 15.0580525977 9.4546183465 21.8665750074 
Si 1.3045325339 4.0599404471 14.9608064278 
Si 0.0193116323 2.6697192544 2.7570471442 
Si 1.3211727691 9.4800633267 4.0798883986 
Si 9.6885753286 3.4295663114 26.3510650057 
Si 14.9333363566 4.0668962772 6.8401535668 
Si 12.2820736723 0.7854223572 26.8092322629 
Si 13.3540045521 10.7138516480 26.3286292810 
Si 1.3433564913 4.3835413001 20.4655529839 
Si 4.0338601569 12.1785507214 4.0623249314 
Si 2.7294058150 16.2806008189 2.7896795995 
Si 6.6424919107 9.5039444669 27.9664955349 
Si 12.8593261176 2.1339085695 21.6376080796 
H 12.4321045737 11.3338653437 18.5146368912 
Si 13.5766236942 16.2686276688 8.1871723049 
Si 2.7870561255 2.7674103853 0.0567008238 
Si 4.0551186071 9.4843964667 6.7897096552 
Si 1.3343872172 9.4828163367 20.2307218420 
Si 7.2249571561 11.1598066921 21.3194234065 
Si 5.3834866692 13.5768517542 2.7414588377 
Si 8.8814221112 9.5262943471 25.1678066353 
Si 14.9073049363 1.3383912992 9.5659920053 
Si 1.4488554193 1.3607085994 1.4049694273 
Si 2.6493404642 5.4163110195 13.5901266068 
Si 8.0865515540 13.6267968946 0.0803026811 
Si 9.3465016155 6.2545618472 20.2068565327 
Si 13.5393521738 2.6853413646 10.9275399904 
Si 16.2583812587 10.8687369694 5.4075639826 
Si 12.9671984986 14.2827789106 0.2359523447 
Si 1.3340044022 12.1995322416 6.7821532798 
Si 4.1731559482 4.0470224770 1.4295378588 
Si 6.7216124415 14.9008378063 4.1431693958 
Si 5.4676896800 13.5850782042 13.5865964082 
Si 9.5988500078 9.6110186379 19.4113364995 
Si 16.1763448179 8.3660390865 24.2974522278 
Si 14.9111819564 15.1328888584 1.2956995707 
Si 2.1066716893 6.9194056233 23.2347165865 
Si 1.3799910726 4.0683297972 4.0714567673 
Si 1.3369773272 9.4864001368 9.5000852405 
Si 8.1076796841 13.5453468939 5.4802102174 
Si 14.9121756464 4.0607875271 12.2488845572 
Si 14.9828416670 6.7366806916 22.9136143939 
Si 13.5681691841 13.5560168440 5.4665270511 
Si 4.0286962269 1.3212281551 4.2117602785 
Si 2.6878663146 10.8403760791 8.1362907654 
Si 3.8297790350 12.4529883539 22.4762490505 
Si 5.3969422094 13.5497126139 8.1562757738 
Si 9.2275194544 0.5549172261 24.5904295327 
H 9.6611592584 8.4157072970 22.1361538062 
Si 14.9262827865 14.9048288563 6.8311384316 
Si 4.0304718369 12.2042074716 9.4950962822 
Si 3.3524005807 10.2335572836 23.0587026370 
Si 0.0354457371 16.2387029385 5.4996408970 
Si 8.1402271045 5.4397849098 13.5997544210 
Si 6.7577599518 14.9125014464 9.5104424346 
Si 13.5959925043 2.7559259352 16.4258971788 
Si 13.6051963544 13.5680877341 10.8704149592 
Si 2.6752578545 2.7173512148 5.5005161529 
Si 1.2675135086 12.2519371721 25.0990115263 
Si 8.1294757043 13.5680225741 10.8548645804 
H 5.1837223974 13.0439895593 22.7566226714 
Si 10.7393129182 5.0820402165 23.3820221444 
Si 11.4925951051 7.0921284949 24.4796221433 
Si 13.4445606630 16.2315353384 13.7205689022 
Si 1.3498562013 1.3350567362 6.8585047642 
Si 0.0110971391 0.0417724474 16.2640915492 
Si 6.7385540416 12.2114239417 12.1656477268 
Si 4.0820133973 14.9323589566 12.2489429076 
Si 10.5067731661 10.5184856762 23.7572734983 
Si 9.2653774147 11.8532394184 22.2524169570 
Si 14.9588139168 12.1791045814 14.9082327270 
Si 4.0654953372 4.0577575871 6.8337933743 
Si 1.3220426551 1.3467741333 12.2769219193 
Si 4.2939788793 6.9359888434 20.3620977436 
Si 12.2053966416 6.7212214815 17.7760084876 
Si 10.9026038797 13.5183380736 13.3897805450 
H 14.5486642931 11.0198430108 23.6632126707 
H 14.1108379591 12.6160186754 28.6571599184 
H 2.8913772864 2.9674515871 19.8465428785 
Si 4.0366294569 1.4241076510 27.7464853919 
Si 2.6759257445 8.1300947244 10.8663887823 
Si 3.9480281461 6.8468825426 14.9229078499 
Si 10.4198823053 0.5265840288 17.0473580006 
Si 16.2611179787 2.6854065246 8.1959248633 
Si 0.0004033909 8.1028904241 13.6335101213 
Si 2.7274021449 1.0506317046 22.4407136634 
H 3.4183750813 2.5709366935 25.0328130095 
Si 2.6997743047 16.2685625088 8.2111543149 
Si 9.4972981469 4.0443834970 12.2850034482 
Si 12.2646596622 12.1328735610 12.1344594437 
Si 14.1557494895 9.7341547490 24.3731618579 
Si 12.7187434163 14.7894956553 27.1130627403 
Si 1.3406702703 4.0499546770 9.5242714769 
Si 6.0485096353 4.8466985843 0.2369203776 
Si 6.6921275412 6.8209814424 17.5042123740 
Si 5.8801524838 5.6132571213 21.5755816157 
Si 9.3118364952 0.8989180462 20.6801948912 
Si 9.4960275268 9.4582673065 1.3388380136 
Si 8.3987656968 13.5710688041 16.1486744790 
Si 4.0523330171 1.3370033912 9.5684135464 
Si 5.4212143096 8.0874637940 2.7224599509 
Si 6.7689837619 6.7597962018 12.2213431734 
H 6.0885667457 11.2312709227 22.3153186767 
Si 10.8197040690 10.8416629892 29.1370043453 
Si 0.0118311013 10.8405389791 10.8893788357 
Si 12.7776154769 13.8449688666 23.8392557954 
Si 2.7074631848 11.0721990713 26.5524613746 
Si 2.6775710345 0.0032990183 18.8645641761 
Si 9.4511322864 1.3995081218 15.0565885919 
Si 8.2235504552 5.4448836798 2.8418477651 
Si 12.1342256310 12.2862927824 1.3255253722 
Si 16.1205189874 10.5457714264 21.6580890663 
Si 16.2493403086 16.2696702288 10.9330541022 
Si 5.7851654929 1.6885399654 19.9118661394 
Si 2.6698821544 2.6944148946 10.9001153074 
Si 5.6013817112 5.0867317365 27.1313555873 
Si 8.0886203840 8.0810781139 0.0143585137 
Si 6.9947305840 12.6831008960 19.4850330413 
Si 12.2241464318 9.5030159369 4.0159363718 
Si 12.9132785981 8.6718023893 20.7921109379 
H 4.8712476145 3.3214495804 18.4446164240 
Si 6.8388841526 6.7060554913 1.4328900886 
Si 4.8481321043 4.4488804907 23.3127018819 
Si 10.8711967594 5.4322426397 16.3321864535 
Si 9.4428243864 12.1025578707 4.1953346439 
Si 16.1928954581 8.0478465136 19.0773096957 
Si 13.5769006242 10.8157618889 13.5730882931 
Si 5.4238858696 5.4026762894 5.4649515906 
Si 0.7532447199 1.1638830436 25.5452169536 
Si 2.7583857252 10.8864279096 13.5811114716 
Si 10.8505899092 2.7098741048 13.6863755740 
Si 9.5017127369 9.4622746465 6.8356314116 
Si 9.4244655562 12.2727883722 27.9126381255 
Si 16.2236346884 2.6912872146 13.6258078699 
Si 4.0242490568 4.0647785772 12.2354056173 
Si 8.1247190243 8.1362034744 5.4783430049 
Si 8.6638039992 0.2318653461 18.5347094251 
Si 10.3883937350 0.7776096731 28.1472650411 
Si 10.7458289183 5.1637345672 27.4668119757 
Si 10.8784295195 10.7824977086 5.4741417769 
Si 10.7858208686 13.6386071447 19.0963027474 
Si 2.6443720142 4.5631222617 22.4924412836 
Si 1.5346955750 9.3818020458 27.7658577211 
Si 6.7731051319 6.7597147518 6.8218898949 
Si 6.8761882529 14.9062949563 14.9443516180 
Si 11.0515922211 7.7749890111 19.5546450558 
Si 12.2131669717 12.1865165315 6.8118244527 
Si 14.9604266268 11.8408427283 27.6600684652 
Si 1.2497883594 1.4051118818 17.7096640949 
Si 5.4032953094 8.1237253343 8.1535624807 
H 8.0114709433 13.9301818574 24.3207340331 
Si 16.1143287874 1.9766774881 27.5403334663 
Si 12.5508912548 5.7319623524 26.0403783576 
Si 12.2227454918 9.4596030865 9.5044906949 
Si 2.7710267653 13.5987943844 16.3466865253 
Si 8.1184473742 5.4037351394 8.1916361097 
Si 7.0071924341 8.0138492833 24.8264860328 
Si 8.0910964640 8.1482580745 16.1756615341 
Si 9.4849014568 12.1965674615 9.5132724285 
H 14.1315099692 1.3960057718 24.4452537640 
Si 1.3473915243 6.8297617525 17.6979648419 
Si 2.7884244855 5.6089239813 19.0592210750 
Si 7.9930306631 2.4164586221 23.6462327074 
Si 5.4044356094 5.4028066094 10.8843315270 
Si 13.5999672644 5.4598216099 2.8969742954 
Si 16.2142842283 13.6057176344 2.6126270131 
Si 2.6289453840 13.6071348644 0.0884530635 
Si 2.7332339650 0.0110505171 13.6046266786 
Si 8.1163785442 8.1054479541 10.8465496499 
Si 5.1885768175 14.1607342295 19.6159129646 
Si 6.8725230029 15.0319397275 27.7984755888 
Si 13.4981710535 8.1527215346 29.1510667891 
Si 4.0561285871 14.9670077869 1.3679606929 
Si 7.4346094580 9.0451854827 20.3629146491 
Si 9.5081147070 3.9850390264 1.5255942697 
Si 9.0378549827 6.7579065618 27.4720635107 
Si 8.9466798518 13.9910087180 23.1282854763 
Si 14.9895857271 6.8061738322 4.1700105749 
H 0.2032275259 5.3462314389 20.7606892533 
Si 3.9008034357 6.7323964216 27.2452555473 
Si 4.0464849070 9.5102975670 12.1771427535 
Si 1.3154028510 14.8933281162 4.0446739386 
Si 11.2236634926 15.8276736548 0.6867782476 
Si 13.5634939540 8.1674965647 5.4366516517 
Si 2.6802914645 13.5472202439 5.4161123147 
Si 10.7680973485 2.6168744939 2.9276432601 
H 11.9263000691 11.2762313231 20.9250914753 
Si 13.5684949841 5.4175816395 8.1853050925 
Si 14.9573152368 9.4634963965 12.2450334315 
Si 13.9473352276 14.0002777280 21.7871309523 
Si 0.0096124684 5.4084103695 16.3816384085 
Si 1.8525639769 5.7214227223 26.5174803162 
Si 4.0125202567 14.8943218062 6.8246031880 
Si 8.0625238037 15.4128325110 21.5347071680 
Si 12.2655393222 1.3872173167 1.6416035963 
Si 14.9286122565 6.7769821520 9.5183780875 
Si 0.0063992170 13.5514393539 8.1715344006 
Si 5.3045290385 5.4772682001 16.2085711537 
Si 7.8813301321 5.2387825979 18.7249608696 
Si 9.4301996363 1.2812427207 4.2512926673 
Si 13.5815921442 8.1237904943 10.8830186433 
Si 13.6730279150 13.5087758435 16.3297357372 
Si 12.1869074915 4.0552977971 4.1523304069 
Si 2.1321981195 2.5379494432 24.2215091960 
Si 1.3249944031 14.9217704565 9.5581438779 
Si 6.6776946011 4.1306227578 14.8832587604 
Si 13.6872165052 0.0956165994 18.9696532274 
Si 13.5168068136 8.1509133446 16.4081878357 
Si 9.4869051268 4.0599078671 6.8505691113 
Si 2.7199901949 13.5753204942 10.8838063735 
Si 7.3665172574 11.8071061380 17.3512176531 
H 6.7677294319 12.1667730513 23.9255268460 
Si 16.1879758781 5.3833237692 0.1784667081 
Si 15.0090034073 12.2868303524 20.5068358844 
Si 7.7399818008 7.0848142848 21.7046818522 
Si 5.5089685404 10.8849780996 16.2349747049 
Si 5.3822486292 13.7845492561 26.4222233055 
Si 10.8684600394 16.2273650984 5.5055051112 
Si 10.8425589392 15.3200283801 23.4982561200 
Si 16.2815619289 8.1209560343 2.7005581323 
Si 2.7561702852 5.4287565796 2.7146497513 
Si 6.7553164518 1.3077270030 17.7537478141 
Si 8.0545417037 10.7741409385 13.4455635172 
Si 12.2134113217 1.3296289082 6.8392491357 
Si 14.5749400633 6.9764857838 20.5470684779 
Si 15.4379516912 4.5955230720 23.8034870067 
Si 0.0308180739 2.6784344045 19.3258240039 
Si 2.8881844464 7.9735804029 29.0832052863 
Si 1.2707910566 14.8435295858 27.8057693874 
Si 9.4820995767 1.3557010534 9.5293479608 
Si 8.5986928686 14.3810076115 19.5242736781 
Si 12.2456329420 1.7242639358 18.0531728370 
Si 1.3997329238 6.7733006119 1.3398883206 
Si 1.4018375918 14.9442832367 14.9695298110 
Si 10.8514369892 2.6952456847 8.1803453094 
Si 10.5585427866 11.6240065363 20.3217484494 
Si 14.8659772060 1.2635110556 20.6635358550 
Si 13.5340090538 5.2805990283 19.1360101874 
Si 1.1580398206 3.9583885862 28.0221326311 
Si 4.0681506072 6.7689023119 4.1141109019 
Si 1.3553817694 4.7914754838 24.4292949325 
Si 12.2100718717 4.0431454570 9.5378671176 
H 13.5747340542 7.0712121347 23.4123643469 
Si 14.9867838471 14.9795999570 17.6159533696 
Si 0.0305808915 5.3962580294 5.4762423909 
H 6.3786753583 7.9488033127 23.4429983013 
Si 6.6987087013 9.4418469864 14.8198610624 
Si 5.5126989504 16.2854552389 16.2740986409 
H 11.6898181369 11.7454484874 16.7052496678 
Si 10.8633938494 0.0121425172 10.8559440626 
Si 2.6901143346 8.1310721244 5.4421365883 
Si 2.4496413524 13.7939160062 23.7955805289 
Si 5.8324064933 15.9230027356 21.2102790032 
Si 12.1689396213 1.3309109312 12.3004663014 
Si 9.3919181359 14.8090436554 1.6306804034 
Si 12.4087447135 14.9364640366 20.2516404566 
Si 1.3637369105 6.7714598419 6.8235528810 
Si 4.0675478772 12.4153910335 27.8992175360 
Si 10.8470386892 10.8114124589 10.8258936121 
Si 10.7980872388 13.4424429629 2.8809950413 
Si 9.5037001169 14.9457493367 12.1788349148 
Si 14.3326914711 14.6289414138 25.4346429658 
Si 3.4881777319 1.6536793651 20.2901808887 
Si 1.3654783115 12.2217355118 12.2356681940 
H 4.7096671031 5.2447773180 24.5913339637 
H 10.2112236934 2.1648595698 28.7567348579 
Si 16.2685787988 8.1350631744 8.1438179656 
Si 12.2216703518 14.9006423263 4.1034036055 
Si 2.7093528248 5.4154639395 8.1850425157 
Si 7.4733144983 5.9766055747 25.8676028548 
Si 4.1797208182 9.6498377083 17.7175705727 
H 9.9751815912 3.1716141590 18.5246148078 
Si 9.4643597666 12.1893184115 14.6048690528 
Si 9.4858299867 14.8881641862 6.8380821279 
Si 10.8577737993 13.5409485938 8.1742476937 
Si 4.0595331971 6.7761024920 9.5341035175 
Si 1.4369881541 15.3598900105 22.3155520783 
Si 5.3394710888 10.9332616600 0.0843589084 
Si 8.7405461899 4.4706765109 24.5270610098 
H 9.9448496109 14.3319584211 25.5641808302 
Si 12.2146167817 14.9086895864 9.5265179669 
Si 2.7399291551 8.2444505254 16.4006022850 
Si 2.6784344045 10.9778473904 18.9824319626 
Si 1.0418790875 10.4024845851 23.6578444349 
Si 8.1346722144 10.8089526689 2.7238866180 
Si 15.4581838714 15.8521412350 22.2121843635 
Si 10.8183682889 13.4964606034 26.4783563801 
Si 4.0741941973 1.3599152764 14.9920530613 
Si 6.7652044819 12.2223545318 1.4194549115 
Si 4.1787108382 14.9952546471 17.6518388591 
Si 11.3671295240 0.2696760655 21.5579014478 
Si 14.8702777660 14.9410903966 12.3142953437 
Si 3.9547070462 4.1868884183 17.6113728641 
Si 6.7727793319 9.4564591165 4.0748119147 
Si 7.8970011122 10.9987963306 26.6459970487 
Si 4.1105697676 12.2565635321 14.9528415997 
Si 10.3571820947 4.4323298505 21.1471438819 
Si 14.8911452562 9.4768867767 1.3424032223 
Si 2.9077161566 8.4117976969 21.5837798454 
Si 5.4099090495 10.8304228891 5.4188839582 
Si 10.4107273252 8.2226219252 26.3131080775 
Si 13.8641259068 2.4586823025 27.2622063354 
Si 16.2649787088 5.4024319394 10.8705608352 
Si 13.5643084541 10.9202459499 2.6567720001 
Si 15.0243974574 4.0288102568 17.8321415622 
Si 6.7469922617 12.1818575914 6.8072731224 
H 8.4737485675 7.2933262867 23.0153191226 
Si 10.7438415383 10.8490586492 15.9856143160 
Si 10.5322833063 14.5064894827 16.8400974176 
Si 14.9117032364 12.2519860421 4.0452574425 
Si 1.3163932830 6.7650090019 12.2220725533 
Si 1.7601019361 14.5749400633 20.1534659265 
Si 2.5910059737 16.2750947988 26.4712959830 
Si 6.7769658620 9.4776361167 9.4907491782 
Si 5.2762495982 8.4771368875 26.3232610452 
Si 14.9201903265 9.5145818370 6.7918394444 
H 3.3006309602 7.2927561367 24.1247642505 
Si 5.3949059593 0.0409126612 29.1403594926 
Si 8.1342975444 10.8435200492 8.1516369178 
Si 15.1697531287 0.2755828195 24.4247144269 
H 13.8626923868 6.2778728374 26.9585217341 
Si 13.5759395142 10.8469083692 8.1751521247 
Si 5.3755208592 2.6507739842 2.8685080580 
Si 5.3818250892 2.7014684647 13.5683035612 
Si 5.4030020894 10.8456703292 10.8135233296 
Si 6.2180396669 11.9056769289 25.3053676782 
H 10.3384811746 8.5933986186 21.8013976225 
Si 14.9493168467 12.1961113415 9.5264012661 
Si 1.4198217520 9.4846408167 14.9122880791 
Si 1.3148978610 12.2139000217 17.5633504936 
Si 8.0710108938 0.0062578524 2.8362490452 
Si 6.8024271322 1.3346641472 12.2739460494 
Si 9.4951641568 9.4484444364 12.1731457518 
Si 12.2744662423 8.9279789316 23.1567021160 
Si 2.6525170143 2.7136045148 16.3288021309 
Si 0.4325907280 7.6710588102 26.5177137177 
Si 7.6812563502 3.1104777884 0.3174232005 
Si 12.1111915708 3.4678478117 19.8599634681 
Si 8.4940133277 0.2194230440 26.8564669031 
Si 11.4225806845 4.7669427436 0.4159390804 
Si 15.0502822676 6.8813684729 27.9655035783 
Si 6.6898469412 1.3270241371 1.4692102885 
Si 10.8512740892 8.0954947640 2.7072450869 
Si 11.8541190784 12.0071962098 25.0159205718 
Si 12.1285078409 14.6615702841 15.0195652699 
Si 13.6964692253 10.6038615670 19.3912056152 
Si 6.7985664022 4.0523167271 4.1167658446 
Si 4.4227187504 10.3067319643 25.1699364245 
Si 11.0335103209 1.8862354073 25.1955814206 
Si 12.2827252723 6.7212377715 1.4240033243 
Si 13.5904701943 5.4313792697 13.6291921925 
H 12.9737959487 12.6811623860 17.3909250931 
Si 0.0224582087 13.5941680243 13.6013007064 
Si 5.6266312115 8.2846868258 18.9818776339 
Si 5.3995648994 16.2540806987 5.5248190900 
Si 9.5422422573 6.8068417222 4.1765166433 
Si 14.8395548257 1.3473198483 14.9957291359 
Si 0.0259690295 10.8148333589 16.2304525497 
Si 8.1019618941 2.7061436948 5.5313251584 
Si 5.5566656608 2.7930834255 26.4640021843 
Si 10.8592561893 5.4159526395 5.5154830277 
Si 12.0158136199 9.3662613857 27.7113876327 
Si 0.0079360971 13.5578901940 18.9777347563 
Si 16.1047828473 13.4635873831 26.4506399452 
Si 6.7516186217 1.3350958322 6.8653025846 
Si 6.7881733821 3.8273355350 20.3145421763 
Si 9.5325171272 6.7813152920 14.9430387343 
Si 12.2083125517 9.4233415462 14.9082035518 
Si 13.7822034960 3.9004613457 25.3252359858 
Si 12.2358915219 6.7837913720 6.8169884622 
Si 5.3968607594 2.6931768546 8.2075657660 
Si 9.3575788156 4.0453608970 17.4555189741 
Si 8.6056161187 2.9368100969 21.4670498915 
Si 9.4950175468 6.7390264516 9.5364667082 
Si 10.8555257793 8.0999582241 13.5361233215 
Si 14.9096344064 6.7840845921 15.0448018133 
Si 3.3603501007 12.8706965377 20.2626686802 
Si 7.7574772610 2.4057235120 27.2650363293 
Si 5.3415399188 8.1003003141 13.5088153392 
Si 8.1360405744 16.2680738088 8.1832628288 
Si 10.8525772893 8.0949083240 8.1801994334 
Si 13.6841702752 0.0454709290 2.8916031421 
Si 4.0533267071 9.4420261763 1.3607019044 
Si 6.7691466619 4.0428685270 9.5497705970 
Si 10.8489609092 5.3824603992 10.8994734531 
Si 13.1360769301 3.1114714785 0.2627013302 
H 15.3702830306 3.5266547123 22.7379213716 
Si 12.2473108120 3.2094721193 23.6945760050 
Si 0.0694476915 10.6556800575 29.1098130638 
Si 5.7002945921 2.3680447417 24.1062963522 
Si 5.4432872598 16.2799329289 10.8986273724 
Si 14.8598195859 4.0564055171 1.5360506595 
Si 12.2311674219 6.7421215517 12.2232395611 
Si 14.9766514670 9.5080984170 17.6984608202 
H 12.4125565735 10.7281216881 17.8522724465 

