&CONTROL
/
&SYSTEM
   ntyp             = 2
   nat              = 407
   ibrav            = 0
/
&ELECTRONS
/
&IONS
/
&CELL
/

ATOMIC_SPECIES
Si 28.085 None
H 1.008 None

K_POINTS gamma

CELL_PARAMETERS angstrom
16.29000014900000 0.00000000000000 0.00000000000000
0.00000000000000 16.29000014900000 0.00000000000000
0.00000000000000 0.00000000000000 29.17519467510000

ATOMIC_POSITIONS angstrom
Si 2.6703219844 10.8087734789 2.6933110139 
Si 8.1364966944 2.6932583046 10.9099473480 
Si 4.7786226737 0.3081970288 23.2808717445 
Si 8.9128943915 10.0010664015 17.2373468683 
Si 15.0069019972 1.3842232147 4.2236054075 
Si 12.2442971620 4.0759046473 15.0001637654 
Si 0.1017400104 0.1544200790 29.0926872245 
Si 1.2847646187 12.1486585711 1.3213533194 
Si 3.9967841166 15.0988753381 24.9893127943 
Si 7.9074267123 2.7407273651 16.2628953662 
Si 8.1988385250 16.2809266189 13.6387616563 
Si 13.5638523341 2.7156896348 5.5058843887 
H 15.1523228286 9.4558400965 21.8777782822 
Si 1.3016980739 4.0338275769 14.9622651876 
Si 0.0160978596 2.6747365745 2.7516380631 
Si 1.3247158441 9.4799004267 4.0750744914 
Si 9.7017376487 3.4512320116 26.3558789129 
Si 14.9326847566 4.0646808372 6.8429252103 
Si 12.2874656624 0.7983403273 26.8028137201 
Si 13.3603413622 10.7003961079 26.2926854412 
Si 1.3376501042 4.3869459101 20.4694624600 
Si 4.0327361469 12.1765470514 4.0566357684 
Si 2.7272392449 16.2845267089 2.7868496056 
Si 6.6621213609 9.4965650969 27.9411422907 
Si 12.8844615878 2.1523325597 21.6538878382 
H 12.4961568543 11.0938647715 18.5355555058 
Si 13.5747340542 16.2663796488 8.1937367237 
Si 2.7839936055 2.7742847654 0.0461501982 
Si 4.0552815071 9.4849503268 6.7920144956 
Si 1.3767493626 9.4865467468 20.2370236840 
Si 7.2203470860 11.1791592122 21.2952663453 
Si 5.3859790393 13.5743593841 2.7363881889 
Si 8.8991619214 9.5258870971 25.1025709000 
Si 14.9056270663 1.3337551652 9.5754739435 
Si 1.4483357682 1.3677719435 1.3994348929 
Si 2.6442905642 5.4037025594 13.5997252458 
Si 8.0892068240 13.6211279746 0.0687481370 
Si 9.4017898760 6.3031549176 20.2329683320 
Si 13.5332597138 2.6678296144 10.9457161366 
Si 16.2604175087 10.8683297194 5.4054925438 
Si 12.9716619586 14.2849617706 0.2285211308 
Si 1.3356187412 12.1979195316 6.7847206969 
Si 4.1717061382 4.0487817970 1.4241492003 
Si 6.7230133815 14.8991762263 4.1412438330 
Si 5.4496403598 13.5727466741 13.5962825729 
Si 9.5746756476 9.6336780281 19.3861583065 
Si 16.1808571480 8.3454648163 24.2744913495 
Si 14.9137394864 15.1370428084 1.2904451182 
Si 2.0860648391 6.9255143733 23.2312739135 
Si 1.3783865076 4.0699425072 4.0697646060 
Si 1.3291581272 9.4864327168 9.5030902855 
Si 8.1083801542 13.5423984039 5.4801226918 
Si 14.9074515463 4.0510949770 12.2554198008 
Si 14.9593677768 6.7568151318 22.8571603922 
Si 13.5676153241 13.5562611940 5.4668188030 
Si 4.0286473568 1.3216973071 4.2124604832 
Si 2.6892020946 10.8398059291 8.1441680680 
Si 3.8132121049 12.4348738737 22.4716101946 
Si 5.3957693294 13.5465360639 8.1623733894 
Si 9.2239845244 0.5783976323 24.5941639576 
H 9.6621040784 8.8037025205 21.9512122472 
Si 14.9251750665 14.9046659563 6.8339976007 
Si 4.0349515869 12.2004607716 9.5079917183 
Si 3.3650579108 10.2256892135 23.0846393851 
Si 0.0337380564 16.2392242185 5.4995825466 
Si 8.1317888844 5.4292289897 13.5893972269 
Si 6.7584930018 14.9086732964 9.5170068534 
Si 13.5981590744 2.7656510653 16.4257513029 
Si 13.6012867544 13.5588513040 10.8801594742 
Si 2.6724559744 2.7170254149 5.5015664599 
Si 1.2796072047 12.2581762421 25.1193758121 
Si 8.1241488743 13.5632007340 10.8695105282 
H 5.1695500973 13.0127127590 22.7453610462 
Si 10.7666312485 5.0930685466 23.3505421094 
Si 11.5357798955 7.1354273153 24.3589243629 
Si 13.4377025729 16.2065627682 13.7525449156 
Si 1.3477792263 1.3334961542 6.8630560946 
Si 16.2707127888 0.0065782116 16.2868773762 
Si 6.7528077918 12.2014218816 12.1983531200 
Si 4.0774684873 14.9261524665 12.2510726968 
Si 10.5147552662 10.5558875165 23.7059251557 
Si 9.2756889848 11.8784726286 22.1997265554 
Si 15.0054521872 12.1908496715 14.8840756658 
Si 4.0648600272 4.0600707671 6.8314301836 
Si 1.3192440331 1.3369528922 12.2798102636 
Si 4.3231542695 6.9339363034 20.3843584171 
Si 12.1896930815 6.7127995514 17.7464831906 
Si 10.8992644297 13.4892441334 13.3980371251 
H 14.6167727837 10.9991384206 23.6740950183 
H 14.0497178785 12.5702600650 28.6142140319 
H 2.8512387261 2.9194775367 19.8358647573 
Si 4.0354565769 1.4312084621 27.7349611900 
Si 2.6646204844 8.1275046143 10.8696564041 
Si 3.9553749362 6.8348931025 14.9208655863 
Si 10.4126658352 0.5753481443 17.0561105590 
Si 16.2585767387 2.6832236645 8.2032186620 
Si 16.2842823589 8.0991111441 13.6406872192 
Si 2.7103139348 1.0305314734 22.4337116167 
H 3.3912196510 2.5887905337 25.0125945996 
Si 2.6942357046 16.2630076187 8.2177770841 
Si 9.4969397669 4.0387797369 12.2771261456 
Si 12.2633564622 12.1136350708 12.1381938686 
Si 14.1723001296 9.7169525089 24.3467583068 
Si 12.7230439764 14.7987972453 27.1053896641 
Si 1.3382104802 4.0511275571 9.5298439391 
Si 6.0456425953 4.8512760744 0.2282649726 
Si 6.6802847111 6.8112563123 17.5237889296 
Si 5.9210403842 5.6322023915 21.5974338365 
Si 9.3061512851 0.9160453524 20.6962704234 
Si 9.5029344869 9.4582347265 1.3249039406 
Si 8.3980978068 13.5873425143 16.1491412821 
Si 4.0500035470 1.3354297772 9.5692596271 
Si 5.4285122296 8.0861931740 2.7029329932 
Si 6.7660352719 6.7525145718 12.2088270149 
H 6.0913197557 11.2405725128 22.3002059259 
Si 10.8296246790 10.8406041391 29.1236421061 
Si 0.0008377768 10.8344628091 10.8960891305 
Si 12.7754489068 13.8492694267 23.8341501363 
Si 2.7175629848 11.0716777913 26.5637813501 
Si 2.6166301439 16.2435899386 18.8816316650 
Si 9.4296457762 1.4253766420 15.0652828000 
Si 8.2304085453 5.4462194598 2.8268167048 
Si 12.1375976610 12.2871561524 1.3193869113 
Si 16.1872428280 10.5624686766 21.6726183132 
Si 16.2395500185 16.2584464187 10.9443449025 
Si 5.7716773728 1.7011158456 19.9211730265 
Si 2.6662169044 2.6906193246 10.9038497323 
Si 5.6071320813 5.0992913266 27.1199772614 
Si 8.1139350442 8.0794328239 29.1584481133 
Si 6.9910653339 12.6917345961 19.4601466002 
Si 12.2233156418 9.5020059569 4.0140983346 
Si 12.9270273582 8.6854696994 20.7433591876 
H 4.8645850045 3.2621376898 18.4236394590 
Si 6.8556139827 6.7106655614 1.4091969130 
Si 4.8394984043 4.4659361208 23.3025197389 
Si 10.8509157092 5.4287402897 16.3138352561 
Si 9.4441112964 12.1008962907 4.1913959926 
Si 16.2482651686 8.0486773036 19.0646476612 
Si 13.5864628543 10.8179936189 13.5827161074 
Si 5.4254008396 5.4046636694 5.4594958292 
Si 0.7486688588 1.1647741066 25.5270116321 
Si 2.7201042249 10.8710990194 13.6100824400 
Si 10.8451164692 2.7061274048 13.6840415585 
Si 9.4965813868 9.4633823666 6.8378779016 
Si 9.4307372063 12.2657510922 27.8996843391 
Si 16.2123457183 2.6704034344 13.6312928065 
Si 4.0215123368 4.0588815971 12.2412698314 
Si 8.1232366343 8.1367736244 5.4743751784 
Si 8.6639017392 0.2476682753 18.5471672333 
Si 10.3918635050 0.7817571072 28.1415467029 
Si 10.7729680585 5.2113991077 27.4191980580 
Si 10.8768656795 10.7811945086 5.4746669304 
Si 10.7921902587 13.6938628252 19.0668358008 
Si 2.6285870040 4.5430366916 22.4952129271 
Si 1.5251219419 9.3784137258 27.7527872339 
Si 6.7722254719 6.7617672918 6.8222399972 
Si 6.8546202927 14.9015708563 14.9507993361 
Si 11.0618386312 7.8270681416 19.5017504278 
Si 12.2120429617 12.1855880014 6.8131373365 
Si 14.9518743767 11.8285274882 27.6369908862 
Si 1.2199955782 1.3846434967 17.7229096333 
Si 5.4033441794 8.1255335243 8.1594558700 
H 8.0413468035 13.9278523874 24.3479544897 
Si 16.1067376473 1.9796422681 27.5219530936 
Si 12.5594272149 5.7988816730 25.9768056084 
Si 12.2226640418 9.4547486665 9.5039947166 
Si 2.7340158850 13.5826021242 16.3722439958 
Si 8.1186591442 5.4042238394 8.1922487888 
Si 6.9998293540 8.0260993634 24.7844445773 
Si 8.0474881336 8.1236601743 16.1593234251 
Si 9.4818878067 12.1960136015 9.5215290086 
H 14.1261342692 1.3817862306 24.4275152456 
Si 1.3915993267 6.8027529322 17.6970895860 
Si 2.8189030758 5.5901090311 19.0839324649 
Si 8.0024137032 2.4495436124 23.6436069399 
Si 5.3975612294 5.3948245093 10.8800135982 
Si 13.5977681144 5.4604406299 2.8898438778 
Si 16.2144797083 13.6070208344 2.6085541559 
Si 2.6305255141 13.6104743145 0.0877712392 
Si 2.7330221950 0.0059534412 13.6121538788 
Si 8.1211840943 8.1083312842 10.8534058207 
Si 5.1730198673 14.1523448794 19.6258617060 
Si 6.8737773329 15.0360285175 27.7942160103 
Si 13.4999629535 8.1586999646 29.1494329782 
Si 4.0569756671 14.9700540169 1.3672634057 
Si 7.4491890081 9.0435727727 20.3878886157 
Si 9.5178072571 3.9974031366 1.4983533904 
Si 9.0716404430 6.8093340923 27.4039394312 
Si 8.9497423719 13.9998053180 23.1313488718 
Si 14.9878101171 6.8054082022 4.1654592445 
H 0.2004533388 5.3530895290 20.7594347199 
Si 3.8884881956 6.7297574416 27.2236367281 
Si 4.0171466167 9.5137021770 12.1911176717 
Si 1.3150672770 14.8939960062 4.0431568285 
Si 11.2255694227 15.8273478548 0.6798433038 
Si 13.5625654240 8.1652485447 5.4358930967 
Si 2.6805683945 13.5457867239 5.4148869565 
Si 10.7670384985 2.6269580040 2.9118799024 
H 11.8375358583 11.2156813926 20.9062442995 
Si 13.5674035541 5.4103651695 8.1939117749 
Si 14.9477530067 9.4558889665 12.2529107341 
Si 13.9231608673 13.9785305778 21.7759860280 
Si 0.0296750046 5.3951340193 16.3843808768 
Si 1.8309145667 5.7209014423 26.5001794257 
Si 4.0110704467 14.8917968562 6.8288627664 
Si 8.0587119437 15.4232744011 21.5416508643 
Si 12.2650506222 1.3912002217 1.6319699470 
Si 14.9275859865 6.7741151119 9.5239797249 
Si 0.0042098410 13.5479695839 8.1740726425 
Si 5.2970193484 5.4650018300 16.2251134891 
Si 7.9164513724 5.2888743484 18.7631511994 
Si 9.4334250563 1.2870810568 4.2409646484 
Si 13.5765096642 8.1190663942 10.8877450248 
Si 13.5779106042 13.4097326426 16.3661755553 
Si 12.1866142715 4.0561448771 4.1475748502 
Si 2.1099296893 2.5495479233 24.1923340013 
Si 1.3189214911 14.9146354364 9.5672465386 
Si 6.6706899010 4.1320562778 14.8905525591 
Si 13.6833720651 0.1003527540 18.9723081701 
Si 13.5421051839 8.1039329841 16.3929583840 
Si 9.4886970268 4.0574480771 6.8530198276 
Si 2.7149565848 13.5658397141 10.8908084203 
Si 7.3455683172 11.8109831580 17.3241430725 
H 6.7709385619 12.1673432013 23.9164241853 
Si 16.1773385080 5.3850667992 0.1598380545 
Si 14.9324241166 12.2047939116 20.5201981236 
Si 7.7941623413 7.0943113549 21.7558259684 
Si 5.4907400302 10.8818178395 16.2142019663 
Si 5.3864514493 13.7836370161 26.4187514574 
Si 10.8674174794 16.2304927784 5.5026459421 
Si 10.8405389791 15.3381591503 23.5176576245 
Si 16.2833864089 8.1197994443 2.6964531824 
Si 2.7526679352 5.4308579897 2.7081495180 
Si 6.7446790817 1.3027259729 17.7669641773 
Si 8.0861443040 10.7795492186 13.4893554844 
Si 12.2138837317 1.3288942292 6.8418457281 
Si 14.6007922935 6.9988519540 20.4958076608 
Si 15.4076685809 4.6219943223 23.7463328003 
Si 0.0200143829 2.6841684845 19.3298501808 
Si 2.8810005564 7.9700780529 29.0667504765 
Si 1.2729999806 14.8527660158 27.8064404169 
Si 9.4881268768 1.3437067263 9.5380713440 
Si 8.5967869386 14.3931273716 19.5286207821 
Si 12.2546250221 1.7447893360 18.0607875628 
Si 1.3937121398 6.7702869619 1.3272963066 
Si 1.4019320738 14.9481276767 14.9841174084 
Si 10.8521048792 2.6919388146 8.1883976631 
Si 10.5370074064 11.6520253366 20.2590217808 
Si 14.8722814360 1.2577818625 20.6689624412 
Si 13.5351004838 5.3013199085 19.1158793031 
Si 1.1502841515 3.9577695662 28.0077200850 
Si 4.0730864773 6.7717041919 4.1026450504 
Si 1.3139172030 4.8106976840 24.4067716822 
Si 12.2116194217 4.0353262569 9.5530382188 
H 13.5173118036 7.0464187544 23.2981434597 
Si 14.9539757868 14.9275696965 17.6331959097 
Si 0.0279604821 5.3966326994 5.4760965149 
H 6.3990867285 7.9344355326 23.3845312112 
Si 6.6773850911 9.4338160163 14.8003720323 
Si 5.4922224202 16.2693281388 16.2990142572 
H 11.4826744950 11.5674802358 17.2025992115 
Si 10.8604290693 16.2848362189 10.8749954648 
Si 2.6943660246 8.1309743844 5.4385480394 
Si 2.4554243025 13.7863411561 23.7996650562 
Si 5.8267864433 15.9250715656 21.2114168358 
Si 12.1680925413 1.3060589069 12.3236022308 
Si 9.3932213359 14.8053458254 1.6221875043 
Si 12.3861504833 14.9776288670 20.2754765906 
Si 1.3632987095 6.7729585219 6.8213063910 
Si 4.0759535173 12.4171177736 27.9054902028 
Si 10.8435200492 10.8008728288 10.8269439191 
Si 10.7996673688 13.4414329829 2.8762103094 
Si 9.4971026669 14.9316584866 12.2037213558 
Si 14.3369268711 14.6275567638 25.4276117439 
Si 3.4634332217 1.6139154748 20.2778106062 
Si 1.3610588345 12.2098926817 12.2387899398 
H 4.6860954729 5.2619143981 24.5783510021 
H 10.2129504334 2.1691927098 28.7522710531 
Si 16.2651741888 8.1337925544 8.1441388928 
Si 12.2215237418 14.9013102163 4.1014196922 
Si 2.7062903047 5.4158548995 8.1857427204 
Si 7.4773218384 5.9959906748 25.8430081657 
Si 4.1899020683 9.6441850782 17.7147405788 
H 9.9949413614 3.2229765295 18.5516602132 
Si 9.5259196771 12.1667241813 14.6867638242 
Si 9.4878662368 14.8865351861 6.8376736752 
Si 10.8570570393 13.5385702538 8.1792074768 
Si 4.0541900771 6.7775685920 9.5365250586 
Si 1.4254303990 15.3325553902 22.3189072257 
Si 5.3550117490 10.9216305999 0.0681713434 
Si 8.7743968102 4.4950300611 24.5220137012 
H 9.9426504609 14.3497471012 25.5852161455 
Si 12.2144050117 14.9030858263 9.5353580509 
Si 2.7561377052 8.2343018553 16.3971887873 
Si 2.6845757346 10.9763975804 18.9645475683 
Si 1.0582472797 10.3997478651 23.6898787986 
Si 8.1394288944 10.8058738588 2.7157525737 
Si 15.4482143913 15.8200988047 22.1971591383 
Si 10.8257639490 13.4974054234 26.4729006187 
Si 4.0713271572 1.3496623503 15.0040440663 
Si 6.7678923319 12.2179236517 1.4118080930 
Si 4.1458050379 14.9785085270 17.6702484069 
Si 11.3632036339 0.3095100028 21.5903150890 
Si 14.8625888859 14.9308439866 12.3298748976 
Si 3.9514001761 4.1565075680 17.6180539836 
Si 6.7721277319 9.4556771965 4.0661760571 
Si 7.9267792325 10.9800302504 26.6141669113 
Si 4.0729887373 12.2549834021 14.9617108589 
Si 10.3842886550 4.4450686306 21.1275089759 
Si 14.8954132362 9.4799330067 1.3398299702 
Si 2.9398889069 8.4112927069 21.6008765095 
Si 5.4094855095 10.8291848490 5.4157330371 
Si 10.4650218957 8.2446948754 26.2270412532 
Si 13.8610633868 2.4859843427 27.2444969923 
Si 16.2616718387 5.3997929594 10.8810055549 
Si 13.5649437641 10.9201807899 2.6540820472 
Si 15.0246255174 4.0365154269 17.8302451745 
Si 6.7453958417 12.1801634314 6.8090528092 
H 8.5161351479 7.1816909157 23.0772288857 
Si 10.7645135484 10.8246888090 16.1192950580 
Si 10.5155534762 14.5713073933 16.8173407658 
Si 14.9117846864 12.2530774721 4.0431860037 
Si 1.3141501500 6.7615392318 12.2344136606 
Si 1.6974343055 14.5160842928 20.1628895144 
Si 2.5888068237 16.2797211589 26.4596550803 
Si 6.7694235919 9.4804379967 9.5072915136 
Si 5.2835475183 8.4681448075 26.3089360246 
Si 14.9191966364 9.5146632870 6.7901764583 
H 3.2827608300 7.2914203567 24.1215258039 
Si 5.3920714993 0.0448460446 29.1338825994 
Si 8.1279281543 10.8423145892 8.1609146297 
Si 15.1704047287 0.2661818604 24.4052837473 
H 13.8560786467 6.3477895180 26.8997337168 
Si 13.5750761442 10.8456540392 8.1766108844 
Si 5.3747389392 2.6518002542 2.8656984867 
Si 5.3778340392 2.6949198846 13.5786899305 
Si 5.3998581194 10.8452304992 10.8439238824 
Si 6.2371641270 11.9093421789 25.3030044874 
H 10.3165059644 8.3857174067 21.9901903073 
Si 14.9463683567 12.1939284815 9.5306608445 
Si 1.3880627677 9.4733355566 14.9507409857 
Si 1.2675574916 12.1993693416 17.5884703362 
Si 8.0728842438 0.0043446734 2.8307553561 
Si 6.7996741222 1.3311194432 12.2788474821 
Si 9.4987642469 9.4486399164 12.1903591167 
Si 12.2947310024 9.0067736624 23.0747489941 
Si 2.6355102541 2.6870192346 16.3408514863 
Si 0.4165418198 7.6702606001 26.5049933328 
Si 7.6787314002 3.1159023585 0.3122212633 
Si 12.1444557511 3.4761068418 19.8658860326 
Si 8.4912440277 0.2337158901 26.8559125744 
Si 11.4255454645 4.7877939438 0.3760215790 
Si 15.0370059175 6.8859948330 27.9517620616 
Si 6.6900098412 1.3285896061 1.4648048341 
Si 10.8513881192 8.0958205640 2.7016930474 
Si 11.8565137084 12.0123275599 24.9993490612 
Si 12.1215031409 14.6332908438 15.0154807426 
Si 13.6532192749 10.5417803764 19.3478512759 
Si 6.8031438922 4.0557702071 4.1085967901 
Si 4.4391227806 10.3134597343 25.1846990730 
Si 11.0349438409 1.9046431074 25.1981780130 
Si 12.2829370423 6.7241862615 1.4169691849 
Si 13.5855343242 5.4248143996 13.6285503382 
H 12.7893605670 13.1738860205 17.6713570643 
Si 0.0465335257 13.6067113244 13.5965451496 
Si 5.6369916515 8.2912842758 18.9981865677 
Si 5.3993368394 16.2511484986 5.5258985722 
Si 9.5424377373 6.8062878622 4.1722570649 
Si 14.8311166056 1.3315723052 15.0146054868 
Si 16.2745246488 10.7983478788 16.2591609413 
Si 8.1033954141 2.7067138447 5.5277074343 
Si 5.5578385408 2.8050565757 26.4535282894 
Si 10.8593376393 5.4148286295 5.5141409688 
Si 12.0297578600 9.3686234357 27.6933865375 
Si 16.2213215084 13.4965909234 19.0177631234 
Si 16.1044570473 13.4687024432 26.4574961159 
Si 6.7549580718 1.3325171252 6.8647190807 
Si 6.7961717722 3.8505650752 20.3143087747 
Si 9.5152985970 6.7813315820 14.9295889695 
Si 12.2294243918 9.4390125263 14.9527540741 
Si 13.7885403061 3.9468389761 25.3112902427 
Si 12.2379114819 6.7784319620 6.8192641274 
Si 5.3949548293 2.6903098146 8.2038021659 
Si 9.3493360755 4.0668962772 17.4747454274 
Si 8.6163023588 2.9644868071 21.4617108309 
Si 9.4964510668 6.7406880317 9.5378962928 
Si 10.8651042994 8.1228130943 13.5676033565 
Si 14.9289869265 6.7537037418 15.0356699774 
Si 3.3437343006 12.8567522976 20.2598970367 
Si 7.7620058810 2.4239846022 27.2575091291 
Si 5.3282146987 8.0886203840 13.4876633231 
Si 8.1381745644 16.2635451887 8.1869097282 
Si 10.8522677793 8.0933607740 8.1769609868 
Si 13.6818733851 0.0480284590 2.8865179056 
Si 4.0545973271 9.4375790063 1.3418284710 
Si 6.7679737819 4.0382584569 9.5466196760 
Si 10.8509645792 5.3881293193 10.9058336455 
Si 13.1308152601 3.1191603585 0.2493242116 
H 15.3378007703 3.5463167424 22.6852017948 
Si 12.2549019521 3.2241819895 23.7011987742 
Si 0.0646019052 10.6586774175 29.0981138108 
Si 5.7015815021 2.3888144918 24.0950930775 
Si 5.4397360397 16.2770170189 10.9017491183 
Si 14.8558611159 4.0593702971 1.5252675075 
Si 12.2239183718 6.7519770018 12.2402486996 
Si 14.9594166468 9.4682204966 17.7088180143 
H 12.9981169189 11.9851721296 16.3899533390 

