&CONTROL
/
&SYSTEM
   ntyp             = 2
   nat              = 407
   ibrav            = 0
/
&ELECTRONS
/
&IONS
/
&CELL
/

ATOMIC_SPECIES
Si 28.085 None
H 1.008 None

K_POINTS gamma

CELL_PARAMETERS angstrom
16.29000014900000 0.00000000000000 0.00000000000000
0.00000000000000 16.29000014900000 0.00000000000000
0.00000000000000 0.00000000000000 29.17519467510000

ATOMIC_POSITIONS angstrom
Si 2.6701753744 10.8089852489 2.6940783216 
Si 8.1370016844 2.6927858946 10.9121354876 
Si 4.8042794239 0.3108979108 23.2944090348 
Si 8.9504591319 10.0364971518 17.2292069890 
Si 15.0066250672 1.3839739777 4.2241305610 
Si 12.2445740920 4.0767843073 15.0002221158 
Si 0.1020280176 0.1548858101 29.0927455749 
Si 1.2846114928 12.1488703411 1.3219864211 
Si 4.0169511367 15.1057334282 25.0056217281 
Si 7.9110919623 2.7387888551 16.2653169073 
Si 8.2009073550 16.2774405589 13.6427294828 
Si 13.5640315241 2.7157710848 5.5068763453 
H 15.1424022185 9.4580066665 21.8825921893 
Si 1.3020043259 4.0379978169 14.9606897270 
Si 0.0159064195 2.6748343145 2.7525687519 
Si 1.3243818991 9.4797049467 4.0751328418 
Si 9.7011349187 3.4521605416 26.3576294245 
Si 14.9327824966 4.0646319672 6.8446173716 
Si 12.2881009724 0.8001126793 26.8022885666 
Si 13.3588101022 10.7001680479 26.2975576987 
Si 1.3380101132 4.3890310301 20.4730801842 
Si 4.0328013069 12.1765307614 4.0573651483 
Si 2.7269948949 16.2847221889 2.7874126869 
Si 6.6632127909 9.4958320468 27.9437680582 
Si 12.8884526379 2.1465007396 21.6601313299 
H 12.4185512936 11.0293237909 18.5285242839 
Si 13.5743919641 16.2652067688 8.1951954835 
Si 2.7838144155 2.7748874954 0.0474149429 
Si 4.0541412071 9.4853901568 6.7927730506 
Si 1.3629794255 9.4827185967 20.2405538826 
Si 7.2236702461 11.1815212623 21.2926697530 
Si 5.3862559693 13.5742616441 2.7371817542 
Si 8.8979564614 9.5257893571 25.1028918271 
Si 14.9064415663 1.3304515532 9.5780413607 
Si 1.4480506932 1.3681352105 1.4001292625 
Si 2.6444208842 5.4051197894 13.5980330846 
Si 8.0936377040 13.6195804246 0.0725207814 
Si 9.4028324360 6.3028616976 20.2327349304 
Si 13.5355566038 2.6715926044 10.9424193396 
Si 16.2600102587 10.8684926194 5.4051132663 
Si 12.9730791886 14.2854830507 0.2222633433 
Si 1.3343269442 12.1983430716 6.7844289449 
Si 4.1715106581 4.0493682370 1.4251849197 
Si 6.7232740215 14.8990947763 4.1419148624 
Si 5.4511716199 13.5744897041 13.5987624644 
Si 9.5707986275 9.6259565680 19.3779600768 
Si 16.1852554480 8.3470123663 24.2758042333 
Si 14.9134788464 15.1367170084 1.2891293169 
Si 2.0881825391 6.9267361234 23.2348332873 
Si 1.3782122046 4.0697796072 4.0709316138 
Si 1.3267765291 9.4873612468 9.5064162577 
Si 8.1081358042 13.5422192139 5.4812021740 
Si 14.9077121863 4.0580996771 12.2505767185 
Si 14.9611433868 6.7570594818 22.8628787304 
Si 13.5684135341 13.5562286140 5.4675481829 
Si 4.0283867168 1.3216614691 4.2131315126 
Si 2.6854553946 10.8393009391 8.1441972432 
Si 3.8367348651 12.4288791537 22.4908074727 
Si 5.3931303493 13.5454935039 8.1652617337 
Si 9.2285294344 0.5756267033 24.5930261250 
H 9.6570378883 8.8036862305 21.9594104769 
Si 14.9255171565 14.9044867663 6.8352521341 
Si 4.0260735368 12.2017476816 9.5094504780 
Si 3.3616533007 10.2230176535 23.0908245264 
Si 0.0336955395 16.2393219585 5.5004578025 
Si 8.1270647843 5.4258569596 13.5904183587 
Si 6.7585581618 14.9084289463 9.5168609774 
Si 13.5970839344 2.7679968253 16.4279686176 
Si 13.6019872244 13.5593074240 10.8837771983 
Si 2.6724559744 2.7168136449 5.5026167669 
Si 1.2854504278 12.2587952621 25.1246856976 
Si 8.1270647843 13.5655790741 10.8687227979 
H 5.2058442176 12.9882940488 22.7514586619 
Si 10.7676738085 5.0938667566 23.3506588102 
Si 11.5360731155 7.1348734553 24.3609958018 
Si 13.4279448628 16.2101954383 13.7484020379 
Si 1.3478378703 1.3333365122 6.8643689783 
Si 0.0087483654 0.0524238269 16.2686720547 
Si 6.7419749417 12.2066021016 12.1865371662 
Si 4.0777454173 14.9267551965 12.2527065077 
Si 10.5155860562 10.5557571965 23.7084342225 
Si 9.2848439649 11.8743186786 22.1953794514 
Si 14.9541223968 12.1613647712 14.9273133043 
Si 4.0649740572 4.0602336671 6.8320428626 
Si 1.3192766131 1.3378390682 12.2790225333 
Si 4.3209876995 6.9350114434 20.3859338777 
Si 12.1927067315 6.7185173415 17.7443242262 
Si 10.8919990896 13.4786556333 13.3920853853 
H 14.6340890538 10.9945120606 23.7016072269 
H 14.0504997985 12.5714655250 28.6151184629 
H 2.8401289460 2.9141344167 19.8386655759 
Si 4.0360755969 1.4323520201 27.7371493296 
Si 2.6659236844 8.1297200544 10.8706483607 
Si 3.9535504562 6.8342252125 14.9221492949 
Si 10.4143925752 0.5626256541 17.0565773621 
Si 16.2581857787 2.6820833645 8.2052901008 
Si 16.2847384789 8.1037537941 13.6448592720 
Si 2.7434803751 1.0469241006 22.4528797196 
H 3.3941681410 2.5997374138 25.0331339367 
Si 2.6938284546 16.2621279587 8.2194692454 
Si 9.4973795969 4.0386982869 12.2795185116 
Si 12.2659139922 12.1107680308 12.1405862346 
Si 14.1744992796 9.7103713488 24.3584867350 
Si 12.7285337064 14.8012733254 27.0952658715 
Si 1.3377722792 4.0521212471 9.5305149685 
Si 6.0461638753 4.8514878444 0.2301225573 
Si 6.6972914712 6.8270576124 17.5204629575 
Si 5.9204539442 5.6327236715 21.5975797125 
Si 9.3055974251 0.9139439424 20.6953951676 
Si 9.5031462569 9.4585605265 1.3260563608 
Si 8.4042880069 13.5756625842 16.1420808850 
Si 4.0507854670 1.3349883182 9.5694346782 
Si 5.4288380296 8.0858999539 2.7046018143 
Si 6.7645203019 6.7526448918 12.2098189715 
H 6.1003769958 11.2338610327 22.3055741617 
Si 10.8305206291 10.8408321991 29.1255384938 
Si 16.2895603190 10.8361569691 10.9020992206 
Si 12.7811829869 13.8440240466 23.8239679934 
Si 2.7183774849 11.0693971912 26.5699664914 
Si 2.6044289338 16.2586907687 18.8771095098 
Si 9.4320078263 1.4210288410 15.0683753706 
Si 8.2307669253 5.4461380098 2.8276686205 
Si 12.1391126310 12.2885245124 1.3188150775 
Si 16.1717510379 10.5660687666 21.6641283316 
Si 16.2387355185 16.2544227887 10.9502091166 
Si 5.7680284127 1.7024027556 19.9210855009 
Si 2.6668359244 2.6907496446 10.9030911772 
Si 5.6081257713 5.1005293667 27.1222529266 
Si 8.1147821242 8.0789278339 29.1602278002 
Si 6.9960012040 12.7025348662 19.4588045413 
Si 12.2233645118 9.5023154669 4.0144192617 
Si 12.9196968582 8.6630220792 20.7545916376 
H 4.8697163545 3.2771896500 18.4339674779 
Si 6.8559560727 6.7108121714 1.4106848480 
Si 4.8420559343 4.4681515609 23.3059624119 
Si 10.8530822793 5.4304018697 16.3137477305 
Si 9.4447303164 12.1011080607 4.1923295988 
Si 16.2378069885 8.0475695836 19.0689072396 
Si 13.5628260640 10.8046683988 13.5999586474 
Si 5.4252705196 5.4045007694 5.4597000555 
Si 0.7460543138 1.1623322356 25.5189301032 
Si 2.7152823848 10.8726302794 13.6161508804 
Si 10.8452793692 2.7049545247 13.6863463988 
Si 9.4967605769 9.4633823666 6.8388698582 
Si 9.4347119663 12.2665655922 27.8999760910 
Si 16.2130136083 2.6790371345 13.6236489055 
Si 4.0220987768 4.0573666271 12.2422909632 
Si 8.1236601743 8.1365781444 5.4752796095 
Si 8.6675506993 0.2406114472 18.5484509418 
Si 10.3931178351 0.7813938401 28.1414008270 
Si 10.7726585485 5.2115457177 27.4209777449 
Si 10.8771751895 10.7811293486 5.4755421862 
Si 10.8202905090 13.6558093849 19.0627804488 
Si 2.6305906741 4.5434276516 22.4995600311 
Si 1.5251480059 9.3774851958 27.7570176371 
Si 6.7721114419 6.7613600418 6.8223275228 
Si 6.8572429827 14.9000070163 14.9583265363 
Si 11.0597698011 7.8272473316 19.4974033238 
Si 12.2127271417 12.1855554214 6.8136333148 
Si 14.9520046967 11.8308080882 27.6363490320 
Si 1.2283637512 1.4123918829 17.7199629386 
Si 5.4022527494 8.1248819243 8.1587848405 
H 8.0380399335 13.9273799774 24.3357009080 
Si 16.1059883073 1.9753905781 27.5172267121 
Si 12.5586452949 5.7994518230 25.9794313760 
Si 12.2231853218 9.4542762565 9.5046365709 
Si 2.7440179451 13.6007654744 16.3653586499 
Si 8.1180727043 5.4021712994 8.1912568322 
Si 6.9992754940 8.0256758234 24.7848822052 
Si 8.0712226638 8.1471829345 16.1619491926 
Si 9.4828977867 12.1956063515 9.5216457094 
H 14.1232835192 1.3587928954 24.4027455053 
Si 1.3872531547 6.8079820223 17.6989276233 
Si 2.8159708758 5.5944584612 19.0847493703 
Si 8.0097279132 2.4504884324 23.6439862174 
Si 5.3973005894 5.3941891993 10.8807721533 
Si 13.5979798844 5.4603917599 2.8904011241 
Si 16.2142190683 13.6073303444 2.6085395683 
Si 2.6303951941 13.6110118845 0.0889487500 
Si 2.7254473449 16.2896091890 13.6118037764 
Si 8.1182030243 8.1040144341 10.8477458329 
Si 5.1600530272 14.1492660694 19.6330679791 
Si 6.8798046329 15.0360773875 27.8010138307 
Si 13.5002073035 8.1583578746 29.1505124604 
Si 4.0571385671 14.9701843369 1.3683749807 
Si 7.4491075581 9.0451203227 20.3823453287 
Si 9.5183448271 3.9974194266 1.4994416252 
Si 9.0715264130 6.8093666723 27.4053106653 
Si 8.9542547019 13.9970360180 23.1249011538 
Si 14.9879078571 6.8054733622 4.1659552229 
H 0.2019015198 5.3575692790 20.7620604874 
Si 3.8891723756 6.7302787216 27.2264083716 
Si 4.0148334367 9.5159827770 12.1959315789 
Si 1.3147659120 14.8941263262 4.0436236316 
Si 11.2270518127 15.8264844847 0.6786179457 
Si 13.5628586440 8.1658024047 5.4360681478 
Si 2.6805195245 13.5459822039 5.4153829348 
Si 10.7675434885 2.6264204340 2.9122124996 
H 11.8360045982 11.1441194219 20.8620730548 
Si 13.5674198441 5.4119615895 8.1944952788 
Si 14.9449348367 9.4626981865 12.2630928770 
Si 13.9400210175 13.9669320977 21.7678169734 
Si 0.0297861024 5.3975612294 16.3847309791 
Si 1.8317616467 5.7220743223 26.5038263251 
Si 4.0110378667 14.8916828262 6.8298255478 
Si 8.0620676837 15.4166117910 21.5337735618 
Si 12.2650832022 1.3903661737 1.6319991222 
Si 14.9264131065 6.7776011720 9.5247966304 
Si 0.0040989876 13.5476926539 8.1758523294 
Si 5.3087318585 5.4771704601 16.2268931759 
Si 7.9175428024 5.2908943084 18.7617216149 
Si 9.4337182763 1.2868415938 4.2411688747 
Si 13.5787088142 8.1235950143 10.8918587273 
Si 13.6926736552 13.5323311838 16.3131934018 
Si 12.1869726515 4.0558027871 4.1479541277 
Si 2.1183190394 2.5573182534 24.2045584079 
Si 1.3183513411 14.9140001264 9.5703099341 
Si 6.6692726710 4.1281466778 14.8935284289 
Si 13.6784199051 0.1226795024 18.9781432090 
Si 13.5463405839 8.1051221541 16.3902742661 
Si 9.4888925068 4.0568453471 6.8520862214 
Si 2.7084894548 13.5651392441 10.8998527306 
Si 7.3483376172 11.8141922880 17.3249891531 
H 6.7755812120 12.1653395313 23.9238638599 
Si 16.1772733480 5.3831608692 0.1586211572 
Si 14.8963091862 12.1853925214 20.5073026875 
Si 7.7936410613 7.0942461949 21.7557092677 
Si 5.4929717602 10.8827626595 16.2174695881 
Si 5.3959159394 13.7816007660 26.4298963817 
Si 10.8677595694 16.2304276184 5.5028793436 
Si 10.8455562992 15.3336956902 23.5124060894 
Si 16.2831746389 8.1195225143 2.6963073064 
Si 2.7521466552 5.4307439597 2.7092290002 
Si 6.7489144817 1.3005545159 17.7708736533 
Si 8.0607807737 10.7652791785 13.4635354371 
Si 12.2143398517 1.3282116781 6.8424875823 
Si 14.6018348535 6.9888173139 20.5018761013 
Si 15.4096885409 4.6228414023 23.7509133059 
Si 0.0199860383 2.6927370246 19.3296751296 
Si 2.8814403863 7.9693287129 29.0696971711 
Si 1.2733534737 14.8534176158 27.8069947456 
Si 9.4866281968 1.3439901723 9.5375170153 
Si 8.6246428389 14.3836628815 19.5247113060 
Si 12.2456003620 1.7531135260 18.0618670450 
Si 1.3928976397 6.7687394119 1.3275530483 
Si 1.3861470637 14.9394125266 14.9786908222 
Si 10.8514695692 2.6911406046 8.1876099328 
Si 10.5338797263 11.6230128463 20.2532742675 
Si 14.8839287861 1.2590084995 20.6721425374 
Si 13.5314841038 5.3014990985 19.1169004349 
Si 1.1494761675 3.9547070462 28.0060279237 
Si 4.0726629372 6.7716553219 4.1034911311 
Si 1.3154403180 4.8151122740 24.4103018808 
Si 12.2109678217 4.0353262569 9.5506166777 
H 13.5185824236 7.0424439944 23.3043577762 
Si 14.9453746667 15.0138415373 17.5916212573 
Si 0.0277739616 5.3966815694 5.4771759971 
H 6.3990052785 7.9322038026 23.3848229631 
Si 6.6752511010 9.4308512362 14.8038147053 
Si 5.4925482202 16.2691489488 16.3054619752 
H 11.6227033363 11.7941881679 16.8950634844 
Si 10.8609503493 16.2876706790 10.8735950554 
Si 2.6939261946 8.1312838944 5.4389856673 
Si 2.4885907428 13.7821709160 23.8256893299 
Si 5.8292788133 15.9258209057 21.2134590994 
Si 12.1684509213 1.3125276660 12.3187007981 
Si 9.3958603159 14.8057693654 1.6242414380 
Si 12.3994757034 14.9674150369 20.2662572291 
Si 1.3629321845 6.7736589919 6.8221524716 
Si 4.0773870373 12.4160100536 27.9100707084 
Si 10.8451816292 10.8012800788 10.8267980431 
Si 10.8014755588 13.4412863729 2.8773248018 
Si 9.5006375969 14.9336295766 12.2038380566 
Si 14.3435406112 14.6263350138 25.4128199202 
Si 3.4597353916 1.6143390148 20.2841707986 
Si 1.3494082263 12.2137534117 12.2529982596 
H 4.6908684429 5.2660031882 24.5811518208 
H 10.2136671934 2.1686225598 28.7525336298 
Si 16.2647343588 8.1350631744 8.1448390974 
Si 12.2225174318 14.9012939263 4.1022949481 
Si 2.7060296647 5.4160992495 8.1860344723 
Si 7.4775824784 5.9963653448 25.8440584727 
Si 4.1897391683 9.6407804682 17.7130192423 
H 9.9988183815 3.2235792595 18.5518060892 
Si 9.4863838468 12.1551908612 14.6435845361 
Si 9.4881105868 14.8866492161 6.8379362520 
Si 10.8573339693 13.5384725138 8.1792366520 
Si 4.0538968571 6.7774708520 9.5374294897 
Si 1.4814826605 15.3481286304 22.3680382535 
Si 5.3562823690 10.9204740099 0.0713167211 
Si 8.7766122503 4.4967568011 24.5228889570 
H 9.9385779609 14.3458700812 25.5819193485 
Si 12.2141606617 14.9017663363 9.5372836137 
Si 2.7526516452 8.2359145653 16.3961968306 
Si 2.6812037045 10.9606614402 18.9716371406 
Si 1.0508385876 10.4092449352 23.6832852046 
Si 8.1399501745 10.8054828988 2.7175351781 
Si 15.4985342017 15.7836092044 22.1533379959 
Si 10.8278979390 13.4991158735 26.4691661938 
Si 4.0682646372 1.3429639023 15.0047734462 
Si 6.7691955319 12.2175652717 1.4137861712 
Si 4.1389795279 14.9864743371 17.6791760165 
Si 11.3652724639 0.3012868108 21.5819418082 
Si 14.8598032959 14.9269832565 12.3389192080 
Si 3.9619072262 4.1703214881 17.6204171744 
Si 6.7722580519 9.4555631665 4.0676639920 
Si 7.9288643525 10.9787107604 26.6178721610 
Si 4.0749109573 12.2555209721 14.9631987938 
Si 10.3862434550 4.4455736207 21.1275965015 
Si 14.8952014662 9.4804705767 1.3402617631 
Si 2.9347901368 8.4129705769 21.6013433126 
Si 5.4093226095 10.8293151690 5.4169000449 
Si 10.4642888457 8.2446297154 26.2281207354 
Si 13.8614217668 2.4870431927 27.2458974016 
Si 16.2635940587 5.4058365494 10.8799260727 
Si 13.5648134441 10.9206206199 2.6542541808 
Si 15.0221820174 4.0406693770 17.8303327001 
Si 6.7444510217 12.1805381014 6.8108324961 
H 8.5123884479 7.1730897956 23.0816343401 
Si 10.7849737886 10.8644364094 16.0707475340 
Si 10.5307031763 14.5472307730 16.8225047752 
Si 14.9117195264 12.2533055321 4.0430984781 
Si 1.3149467310 6.7669963819 12.2362516979 
Si 1.7455223860 14.5266076329 20.2000878876 
Si 2.5888394037 16.2823438489 26.4610263145 
Si 6.7667194519 9.4806171867 9.5062703818 
Si 5.2849158783 8.4671022474 26.3119994201 
Si 14.9191477664 9.5155429470 6.7904973854 
H 3.2845853100 7.2931796767 24.1247350753 
Si 5.3928371293 0.0447860974 29.1353997096 
Si 8.1276186443 10.8423145892 8.1616731848 
Si 15.1835833389 0.2526823373 24.3658097089 
H 13.8555573667 6.3496791581 26.9002880455 
Si 13.5753693642 10.8459472592 8.1778654178 
Si 5.3743968492 2.6519631543 2.8664687119 
Si 5.3759443992 2.6904890046 13.5809364205 
Si 5.3918271493 10.8450024392 10.8395767784 
Si 6.2376528270 11.9069475489 25.3085185992 
H 10.3084424143 8.3817263567 22.0008976037 
Si 14.9462706167 12.1939936415 9.5333157872 
Si 1.3781112066 9.4838588967 14.9632571442 
Si 1.2995820029 12.2253193118 17.5992943335 
Si 8.0732589138 0.0040898163 2.8312805096 
Si 6.8015637622 1.3291907072 12.2817941768 
Si 9.4953922168 9.4441438764 12.1805270761 
Si 12.2948124524 9.0076696124 23.0810800114 
Si 2.6498780342 2.7029345647 16.3376422149 
Si 0.4178336168 7.6710425202 26.5068021949 
Si 7.6793178402 3.1159186485 0.3139834451 
Si 12.1487074411 3.4743312318 19.8732090064 
Si 8.4931499577 0.2332402221 26.8553290705 
Si 11.4259201345 4.7876473338 0.3771885868 
Si 15.0372991375 6.8861903130 27.9523747407 
Si 6.6900587112 1.3288632782 1.4661789858 
Si 10.8516324692 8.0959183040 2.7022794688 
Si 11.8593807485 12.0110732298 24.9985029806 
Si 12.1114033408 14.6249666538 15.0122422960 
Si 13.6042515344 10.5216459362 19.3341681096 
Si 6.8030787322 4.0558190771 4.1088301917 
Si 4.4380476406 10.3114886443 25.1899797833 
Si 11.0343899809 1.9069399974 25.2001619262 
Si 12.2830999423 6.7241211015 1.4177977604 
Si 13.5847035342 5.4258243796 13.6277917831 
H 13.0828900797 12.7268069664 17.4243306910 
Si 0.0091652917 13.5758254842 13.6234155039 
Si 5.6354278115 8.2903394558 18.9985366701 
Si 5.3991250694 16.2509530186 5.5263070250 
Si 9.5426983773 6.8064018923 4.1727822184 
Si 14.8269137856 1.3436057283 15.0018267515 
Si 16.2792324589 10.8133672589 16.2890655158 
Si 8.1034605741 2.7064857847 5.5272406312 
Si 5.5601680109 2.8069787957 26.4580212694 
Si 10.8597285993 5.4148449195 5.5141701440 
Si 12.0284709500 9.3677926457 27.6961290058 
Si 16.1305699175 13.5026345135 18.9808856773 
Si 16.1055810573 13.4702174132 26.4556289035 
Si 6.7548114618 1.3328412962 6.8643106280 
Si 6.7967256322 3.8510374852 20.3143963003 
Si 9.5103464370 6.7764445820 14.9304058750 
Si 12.2124176317 9.4180635861 14.9477067654 
Si 13.7889312661 3.9487449061 25.3139160102 
Si 12.2381558319 6.7789043720 6.8189723754 
Si 5.3952806293 2.6902446546 8.2041814434 
Si 9.3522845655 4.0677922272 17.4756498584 
Si 8.6183874788 2.9642261671 21.4604562975 
Si 9.4964673568 6.7377069616 9.5357081532 
Si 10.8520397192 8.1097973842 13.5582089438 
Si 14.9288728965 6.7534919718 15.0345904952 
Si 3.3602034907 12.8128344572 20.2727924727 
Si 7.7632927910 2.4231212322 27.2599306703 
Si 5.3261458687 8.0876104040 13.4906683682 
Si 8.1373111944 16.2634800287 8.1862678739 
Si 10.8526261593 8.0928883640 8.1774861403 
Si 13.6822154751 0.0475148353 2.8862903391 
Si 4.0548905471 9.4371391763 1.3440953836 
Si 6.7682832919 4.0373950869 9.5479617350 
Si 10.8509157092 5.3861256493 10.9049000393 
Si 13.1308478401 3.1189160085 0.2506300934 
H 15.3422968103 3.5462190024 22.6908617826 
Si 12.2551137221 3.2256806695 23.7037370161 
Si 0.0637440738 10.6600294875 29.0984639131 
Si 5.7117953322 2.3951838819 24.1014532699 
Si 5.4407948898 16.2769355689 10.9027410749 
Si 14.8559751459 4.0592888471 1.5257955786 
Si 12.2247165818 6.7505760617 12.2364850995 
Si 14.9526074268 9.4698169166 17.7135152206 
H 16.2665099688 14.6846857943 20.1775062869 

