&CONTROL
/
&SYSTEM
   ntyp             = 2
   nat              = 407
   ibrav            = 0
/
&ELECTRONS
/
&IONS
/
&CELL
/

ATOMIC_SPECIES
Si 28.085 None
H 1.008 None

K_POINTS gamma

CELL_PARAMETERS angstrom
16.29000014900000 0.00000000000000 0.00000000000000
0.00000000000000 16.29000014900000 0.00000000000000
0.00000000000000 0.00000000000000 29.17519467510000

ATOMIC_POSITIONS angstrom
Si 2.6703382744 10.8090341189 2.6937340543 
Si 8.1365618544 2.6921994546 10.9108517790 
Si 4.7796000737 0.3074151088 23.2801131894 
Si 8.9518274919 10.0334346318 17.2317744061 
Si 15.0070974773 1.3843258417 4.2249182913 
Si 12.2483859520 4.0735914673 14.9933659451 
Si 0.1024227243 0.1536467927 29.0931832029 
Si 1.2849666148 12.1487074411 1.3215692158 
Si 3.9964746066 15.0987450181 24.9888459912 
Si 7.8989884922 2.7768097154 16.2431729346 
Si 8.2060387051 16.2867258590 13.6528824505 
Si 13.5639989441 2.7160317248 5.5071972725 
H 15.1461163385 9.4585116565 21.8745981860 
Si 1.3075494420 4.0348538469 14.9631987938 
Si 0.0161171144 2.6744759345 2.7525308241 
Si 1.3245268801 9.4801121967 4.0751911922 
Si 9.7026498887 3.4482346515 26.3691828016 
Si 14.9327173366 4.0647948672 6.8449091235 
Si 12.2893390124 0.7961884183 26.8072775249 
Si 13.3602273322 10.6999725679 26.2970617204 
Si 1.3396000172 4.3897477902 20.4705419422 
Si 4.0326058269 12.1767914014 4.0572192723 
Si 2.7271577949 16.2842334889 2.7873368314 
Si 6.6616163709 9.4961904268 27.9424551745 
Si 12.8522073875 2.1607870698 21.6409048766 
H 12.4353625737 11.0459070110 18.5328713879 
Si 13.5741639041 16.2654836988 8.1955164106 
Si 2.7837492555 2.7742196054 0.0473563007 
Si 4.0537013771 9.4858136968 6.7921603715 
Si 1.3759951356 9.4895929768 20.2334643103 
Si 7.2288993361 11.1821077023 21.2908025405 
Si 5.3857835593 13.5743593841 2.7367878891 
Si 8.8961319814 9.5274183571 25.1046423388 
Si 14.9058388363 1.3303310072 9.5790624925 
Si 1.4481907872 1.3675585445 1.4002022005 
Si 2.6491449842 5.4052501094 13.6027594661 
Si 8.0887995740 13.6207858846 0.0699641591 
Si 9.4117919361 6.3394327480 20.2816909071 
Si 13.5354425738 2.6704034344 10.9449575816 
Si 16.2600428387 10.8685414894 5.4053466678 
Si 12.9722646886 14.2842938806 0.2296805531 
Si 1.3344067652 12.1982779116 6.7846915217 
Si 4.1712825982 4.0484071270 1.4256575579 
Si 6.7228341915 14.8990621963 4.1416814609 
Si 5.4507480799 13.5750761442 13.5991709171 
Si 9.5799861876 9.6345576881 19.3807608955 
Si 16.1817368080 8.3454811063 24.2726824875 
Si 14.9141141564 15.1369124884 1.2911861681 
Si 2.0858693591 6.9268501534 23.2287356716 
Si 1.3782822516 4.0698284772 4.0705815115 
Si 1.3268205121 9.4873775368 9.5072331632 
Si 8.1075819442 13.5426101739 5.4812605244 
Si 14.9120453264 4.0533592871 12.2522980550 
Si 14.9566473468 6.7550395218 22.8591151303 
Si 13.5677619341 13.5563915140 5.4676065333 
Si 4.0281586568 1.3212118651 4.2133649142 
Si 2.6855042646 10.8392520691 8.1446640463 
Si 3.8151669049 12.4346132337 22.4731856551 
Si 5.3941891993 13.5461288139 8.1678583260 
Si 9.2254994944 0.5745727403 24.6004366245 
H 9.6531934483 8.8060971505 21.9541297666 
Si 14.9250773265 14.9045682163 6.8353104844 
Si 4.0254708068 12.2020734816 9.5102965586 
Si 3.3620605507 10.2261453335 23.0838516549 
Si 0.0339306042 16.2390124485 5.5007203792 
Si 8.1238556543 5.4321286097 13.5728257164 
Si 6.7605618318 14.9079891163 9.5212372566 
Si 13.6027854344 2.7666773353 16.4219293524 
Si 13.6024107644 13.5599753140 10.8835146216 
Si 2.6721138844 2.7166018748 5.5024417157 
Si 1.2788350587 12.2578178621 25.1172168477 
Si 8.1301598844 13.5686741741 10.8775920571 
H 5.1724171373 13.0096013690 22.7483660913 
Si 10.7653606285 5.0984116666 23.4048954971 
Si 11.5387772555 7.1457714654 24.3772172100 
Si 13.4311051228 16.2076704882 13.7520781124 
Si 1.3481148003 1.3328396672 6.8647482559 
Si 0.0094966465 0.0446344375 16.2825886226 
Si 6.7419260717 12.2055269616 12.1887836562 
Si 4.0771101073 14.9262013365 12.2531441356 
Si 10.5164657162 10.5546820565 23.7110599900 
Si 9.2906757850 11.8751494686 22.1954378018 
Si 14.9496589367 12.1682391513 14.9322439122 
Si 4.0651206672 4.0598427071 6.8314010084 
Si 1.3215604711 1.3351056062 12.2795185116 
Si 4.3269987096 6.9347996734 20.3838040885 
Si 12.1803100414 6.7255220415 17.7230555093 
Si 10.9022780797 13.4844385833 13.4049224710 
H 14.6246571438 10.9991058406 23.6905790033 
H 14.0509559185 12.5710582750 28.6154685652 
H 2.8530306261 2.9210739567 19.8354271293 
Si 4.0340882169 1.4303516081 27.7366241761 
Si 2.6658096544 8.1286774943 10.8708817623 
Si 3.9583560062 6.8359193725 14.9293847432 
Si 10.4120142352 0.5641064152 17.0606910646 
Si 16.2573712787 2.6810245145 8.2049983489 
Si 16.2859928089 8.0997790341 13.6407455696 
Si 2.7119429348 1.0318509634 22.4324279081 
H 3.3898024210 2.5883669937 25.0137616074 
Si 2.6946266646 16.2624048887 8.2204612020 
Si 9.4995135869 4.0369878369 12.2759007875 
Si 12.2634704922 12.1152640708 12.1402653074 
Si 14.1731146296 9.7147859388 24.3532935504 
Si 12.7235163864 14.7966469653 27.1063816207 
Si 1.3378390682 4.0505899871 9.5288228073 
Si 6.0452679253 4.8510643044 0.2312743940 
Si 6.7400201416 6.7818039920 17.5345545765 
Si 5.9194602541 5.6357047415 21.6049026864 
Si 9.2997167350 0.9176694654 20.7077362749 
Si 9.5027878769 9.4589026165 1.3269958020 
Si 8.3993521368 13.5728607041 16.1382297593 
Si 4.0520235071 1.3349394482 9.5709517884 
Si 5.4281049796 8.0866004240 2.7039891352 
Si 6.7598124918 6.7576622118 12.1999577557 
H 6.0978846258 11.2456875728 22.2960630482 
Si 10.8289567890 10.8419399192 29.1263553992 
Si 16.2892508090 10.8366782491 10.9022742718 
Si 12.7724189668 13.8470376966 23.8334791068 
Si 2.7169928349 11.0719384313 26.5627310431 
Si 2.6232275940 16.2448116886 18.8869415505 
Si 9.4306720463 1.4407462572 15.0799870981 
Si 8.2306528953 5.4463660698 2.8277211358 
Si 12.1375976610 12.2876285624 1.3210353098 
Si 16.1797005580 10.5659873166 21.6611816369 
Si 16.2387518085 16.2540644087 10.9505883942 
Si 5.7856704829 1.7055793056 19.9221066327 
Si 2.6660377144 2.6902772346 10.9027702501 
Si 5.6039555312 5.0987700466 27.1246744677 
Si 8.1134626342 8.0802799039 29.1615990344 
Si 7.0035271841 12.6984134961 19.4555952699 
Si 12.2234296718 9.5021362769 4.0147693640 
Si 12.9334130383 8.6814949394 20.7524034980 
H 4.9006347748 3.2661287399 18.4194090558 
Si 6.8551741527 6.7109099114 1.4110933007 
Si 4.8389934143 4.4670112608 23.3081213763 
Si 10.8425263592 5.4406645698 16.2676217477 
Si 9.4435737264 12.1010266107 4.1926213508 
Si 16.2447302386 8.0509579036 19.0669816768 
Si 13.5629075140 10.8119988989 13.5984415373 
Si 5.4253845496 5.4044356094 5.4592332524 
Si 0.7478918258 1.1649093136 25.5270408073 
Si 2.7183286149 10.8731841394 13.6117454261 
Si 10.8470549792 2.7037816447 13.6845083616 
Si 9.4967931568 9.4643760566 6.8392783109 
Si 9.4300693162 12.2657999622 27.9009096973 
Si 16.2183404383 2.6740523945 13.6274708560 
Si 4.0206326768 4.0586535371 12.2397527213 
Si 8.1236764643 8.1373600644 5.4753379599 
Si 8.6672737693 0.2510989493 18.5551320614 
Si 10.3923196250 0.7799358851 28.1444350472 
Si 10.7752160785 5.2134027777 27.4216195991 
Si 10.8769634195 10.7813574086 5.4752212591 
Si 10.8172605689 13.6575198349 19.0581124176 
Si 2.6297273041 4.5441769916 22.4965258108 
Si 1.5255699170 9.3790164558 27.7527580587 
Si 6.7721766019 6.7614252018 6.8217148437 
Si 6.8577153927 14.9023201963 14.9560216959 
Si 11.0759783513 7.8440586117 19.4988620836 
Si 12.2122058617 12.1856531614 6.8137791908 
Si 14.9526562968 11.8291953782 27.6379828429 
Si 1.2411399983 1.4040774668 17.7298533296 
Si 5.4020246894 8.1253543343 8.1573260808 
H 8.0436599836 13.9221997573 24.3453287222 
Si 16.1078942373 1.9792675981 27.5231492766 
Si 12.5655848349 5.8006247031 25.9844495094 
Si 12.2230224218 9.4554491365 9.5052200747 
Si 2.7383653150 13.5876846043 16.3715146160 
Si 8.1180564143 5.4021875894 8.1906441531 
Si 6.9970437640 8.0268812834 24.7864868409 
Si 8.0711412138 8.1412696645 16.1664421726 
Si 9.4809755667 12.2003630316 9.5222875636 
H 14.1225993392 1.3796473536 24.4263190626 
Si 1.3930458787 6.8059294822 17.6995986528 
Si 2.8238226558 5.5903533811 19.0844867936 
Si 7.9993023132 2.4449335424 23.6649340072 
Si 5.3944172593 5.3944987093 10.8761041221 
Si 13.5979961744 5.4603754699 2.8908562571 
Si 16.2148543783 13.6069230944 2.6091114021 
Si 2.6306069641 13.6102788345 0.0876160271 
Si 2.7263595849 16.2875892290 13.6145462447 
Si 8.1180401242 8.1073864642 10.8431361522 
Si 5.1785747574 14.1516606994 19.6244029463 
Si 6.8728813829 15.0344972575 27.7952954925 
Si 13.5003213335 8.1590420546 29.1513001907 
Si 4.0567313171 14.9697933769 1.3675930854 
Si 7.4581973782 9.0445664627 20.3808282186 
Si 9.5180353170 3.9975986166 1.4992753266 
Si 9.0707770730 6.8094155423 27.4092784918 
Si 8.9524302219 13.9949834780 23.1289856810 
Si 14.9878752771 6.8054407822 4.1661886244 
H 0.1987412598 5.3526659890 20.7608059540 
Si 3.8871198356 6.7299040516 27.2257373421 
Si 4.0169022667 9.5148098970 12.1944728191 
Si 1.3152692730 14.8938331062 4.0440904347 
Si 11.2267097227 15.8264030347 0.6823757107 
Si 13.5628912240 8.1656069247 5.4364182502 
Si 2.6811222545 13.5460473639 5.4162290155 
Si 10.7671036585 2.6270068740 2.9125480143 
H 11.8656198185 11.1763573322 20.8665368595 
Si 13.5681203141 5.4122385195 8.1954580602 
Si 14.9451791867 9.4648484666 12.2648433887 
Si 13.9209454273 13.9741811478 21.7747023194 
Si 0.0344018739 5.3979521894 16.3821927372 
Si 1.8309960167 5.7214878823 26.5009963312 
Si 4.0118686567 14.8915687962 6.8312259572 
Si 8.0595916037 15.4144452210 21.5372162347 
Si 12.2655556122 1.3912914457 1.6333411812 
Si 14.9273905065 6.7776500420 9.5264012661 
Si 0.0038948576 13.5477415239 8.1756772782 
Si 5.3126251686 5.4780175401 16.2339827483 
Si 7.9862214430 5.2468787280 18.7906634080 
Si 9.4334739263 1.2868969798 4.2410521739 
Si 13.5796536342 8.1251425643 10.8922963552 
Si 13.7117981154 13.5322823138 16.3512086805 
Si 12.1868097515 4.0559819771 4.1483042301 
Si 2.1095550193 2.5494990533 24.1920714246 
Si 1.3180874431 14.9140978664 9.5701348829 
Si 6.6587493309 4.1496494779 14.8743895012 
Si 13.6949053852 0.1065919870 18.9928183319 
Si 13.5441740139 8.1092109442 16.3854020086 
Si 9.4891531468 4.0563566471 6.8524071485 
Si 2.7070233548 13.5651555341 10.9006112857 
Si 7.3486308372 11.8103315580 17.3223925608 
H 6.7714435519 12.1647693813 23.9166575869 
Si 16.1785765480 5.3847409992 0.1613519554 
Si 14.9214935265 12.2102347717 20.5068067092 
Si 7.7799900411 7.1119208450 21.7806540591 
Si 5.4928577302 10.8804494795 16.2165943322 
Si 5.3860930693 13.7832949261 26.4180804279 
Si 10.8675966694 16.2307208384 5.5028501685 
Si 10.8388285291 15.3380288303 23.5142441267 
Si 16.2832723789 8.1198157343 2.6969900060 
Si 2.7525701952 5.4308579897 2.7091210519 
Si 6.7574015718 1.3186364161 17.7573655382 
Si 8.0609110937 10.7630963184 13.4649358464 
Si 12.2143072717 1.3282556612 6.8425167575 
Si 14.6014764735 6.9985750240 20.4960410624 
Si 15.4083364709 4.6224830223 23.7515843354 
Si 0.0197851826 2.6921017146 19.3323008972 
Si 2.8804792763 7.9706319129 29.0676549075 
Si 1.2730178996 14.8522610258 27.8059736138 
Si 9.4870028668 1.3428596463 9.5381880447 
Si 8.6236002789 14.3856665516 19.5249155324 
Si 12.2740264123 1.7172103657 18.0456748120 
Si 1.3940607458 6.7704987319 1.3283699537 
Si 1.3888919287 14.9382885166 14.9849926642 
Si 10.8517627892 2.6906193246 8.1883393127 
Si 10.5517009865 11.6300989964 20.2589634304 
Si 14.8628983959 1.2769649667 20.6824997315 
Si 13.5426753339 5.3277259987 19.0866165828 
Si 1.1508086895 3.9578347262 28.0082452385 
Si 4.0727606772 6.7718670919 4.1032869047 
Si 1.3155315420 4.8117239540 24.4076177628 
Si 12.2121244117 4.0345117569 9.5511126560 
H 13.5149008836 7.0453110344 23.3007692273 
Si 14.9947985271 14.9899603971 17.6477251566 
Si 0.0275957490 5.3963720593 5.4769425956 
H 6.3877325984 7.9412447526 23.3907455276 
Si 6.6765217211 9.4274629162 14.8078117070 
Si 5.4987547103 16.2754531789 16.3017275503 
H 11.6287306364 11.7970552079 16.8737364171 
Si 10.8606734193 16.2861882889 10.8754622679 
Si 2.6937470046 8.1312513144 5.4387522657 
Si 2.4550496325 13.7872045261 23.7986147492 
Si 5.8299304133 15.9254625256 21.2091119954 
Si 12.1690536513 1.3088151750 12.3209181128 
Si 9.3930910159 14.8051666354 1.6229285542 
Si 12.3932040533 14.9639126869 20.2673075361 
Si 1.3623734375 6.7736752820 6.8215689678 
Si 4.0756440073 12.4168408436 27.9049358741 
Si 10.8445300292 10.8061833688 10.8240555748 
Si 10.7992764088 13.4415470129 2.8774969354 
Si 9.5052313769 14.9374740166 12.2157707112 
Si 14.3352490011 14.6256508338 25.4262988601 
Si 3.4737447918 1.6188790378 20.2787442124 
Si 1.3473051873 12.2147145217 12.2545445450 
H 4.6850692029 5.2630221181 24.5836900627 
H 10.2134880034 2.1678080598 28.7541382655 
Si 16.2650112888 8.1348676944 8.1453934261 
Si 12.2216866418 14.9012613463 4.1020615465 
Si 2.7052477447 5.4154639395 8.1844006614 
Si 7.4712456683 5.9988577149 25.8527526807 
Si 4.2039766285 9.6323259581 17.7181540766 
H 9.5645921375 2.5514538533 18.0892042024 
Si 9.4867422268 12.1555818212 14.6411046446 
Si 9.4877033368 14.8872193662 6.8377320256 
Si 10.8571710693 13.5396453938 8.1788865496 
Si 4.0520072171 6.7782853520 9.5344244446 
Si 1.4242298260 15.3344939002 22.3172150644 
Si 5.3546696590 10.9218912399 0.0685080251 
Si 8.7639223401 4.4930426811 24.5437492212 
H 9.9435464109 14.3490629212 25.5846326416 
Si 12.2140303417 14.9021084263 9.5376045408 
Si 2.7571965552 8.2369571253 16.4003397083 
Si 2.6957018047 10.9723413703 18.9637598380 
Si 1.0519251306 10.4038366552 23.6811554154 
Si 8.1388913244 10.8061670788 2.7170625399 
Si 15.4447446213 15.8242364647 22.1985303724 
Si 10.8252426690 13.4970144634 26.4742426777 
Si 4.0692420372 1.3440260103 15.0041024167 
Si 6.7675339519 12.2176630117 1.4125316378 
Si 4.1510341280 14.9832977870 17.6712403635 
Si 11.3557591039 0.2990795157 21.5773613026 
Si 14.8605852159 14.9263642365 12.3397069382 
Si 3.9731310363 4.1603845881 17.6244725265 
Si 6.7718670919 9.4558726765 4.0673722400 
Si 7.9247429825 10.9812194204 26.6161508246 
Si 4.0745688673 12.2548693721 14.9632863194 
Si 10.3816170949 4.4795545610 21.1936783174 
Si 14.8956250062 9.4804705767 1.3407489888 
Si 2.9398563269 8.4133615369 21.5974338365 
Si 5.4091108395 10.8297875790 5.4167249938 
Si 10.4603466657 8.2501031555 26.2354437092 
Si 13.8622199768 2.4850232327 27.2472978110 
Si 16.2647832288 5.4027251594 10.8796343207 
Si 13.5649600541 10.9203762699 2.6548726950 
Si 15.0295613875 4.0381607169 17.8230972518 
Si 6.7436039417 12.1815969514 6.8108616713 
H 8.5022234878 7.1851606857 23.1054412989 
Si 10.7823348086 10.8616671093 16.0670714595 
Si 10.5217762562 14.5463022430 16.8175449921 
Si 14.9116380764 12.2534195621 4.0435361060 
Si 1.3174407300 6.7621582518 12.2359891211 
Si 1.7023864656 14.5117022827 20.1642023981 
Si 2.5884647337 16.2796885789 26.4593633284 
Si 6.7662796219 9.4828489167 9.5031486359 
Si 5.2811040183 8.4687964075 26.3113867410 
Si 14.9193269564 9.5152823070 6.7907599622 
H 3.2801870100 7.2937986967 24.1214382783 
Si 5.3917619893 0.0443788474 29.1345244537 
Si 8.1279607343 10.8450675992 8.1612355569 
Si 15.1686616987 0.2655204864 24.4070342590 
H 13.8613728968 6.3486691781 26.9051603030 
Si 13.5752553342 10.8459635492 8.1775736659 
Si 5.3742665291 2.6512789742 2.8667750514 
Si 5.3731750991 2.6904890046 13.5759474622 
Si 5.3927068093 10.8453933992 10.8389057489 
Si 6.2360238270 11.9086091289 25.3026543851 
H 10.3067482543 8.3868088367 21.9953543167 
Si 14.9459773967 12.1940099315 9.5330823857 
Si 1.3872156877 9.4750948767 14.9536876803 
Si 1.2785581287 12.1990272516 17.5865155982 
Si 8.0727865038 0.0040798957 2.8313242724 
Si 6.8045611222 1.3294660082 12.2846825211 
Si 9.4948872268 9.4485421764 12.1747503875 
Si 12.2950079324 9.0064152824 23.0794170253 
Si 2.6528428143 2.6990412547 16.3430979763 
Si 0.4176283628 7.6713357402 26.5041764274 
Si 7.6780960902 3.1156091385 0.3151650405 
Si 12.1030628607 3.5268339023 19.8208103568 
Si 8.4916838577 0.2309628801 26.8600554520 
Si 11.4261319045 4.7882663538 0.3780317500 
Si 15.0407363276 6.8888292930 27.9551463842 
Si 6.6892930812 1.3278842491 1.4661264704 
Si 10.8515184392 8.0959671740 2.7026587463 
Si 11.8569698284 12.0106985598 25.0027625590 
Si 12.1312282709 14.6216923637 15.0328691587 
Si 13.6230176146 10.5385060864 19.3307837870 
Si 6.8031927622 4.0554606971 4.1087134909 
Si 4.4380313506 10.3131665143 25.1838821676 
Si 11.0338849909 1.9027045974 25.2065221186 
Si 12.2833768723 6.7244306115 1.4184833775 
Si 13.5905027743 5.4252868096 13.6248742637 
H 13.0659484795 12.7040335462 17.4268105825 
Si 0.0096268688 13.5782689842 13.6276459072 
Si 5.6602700618 8.2675823256 18.9904259660 
Si 5.3990110394 16.2506435086 5.5265404265 
Si 9.5425680573 6.8065159223 4.1731614959 
Si 14.8340488057 1.3362068102 15.0050068478 
Si 16.2741825588 10.7949595587 16.2667464919 
Si 8.1033465441 2.7061436948 5.5276199087 
Si 5.5561769608 2.8045515857 26.4578462182 
Si 10.8597123093 5.4149263695 5.5146661223 
Si 12.0289433600 9.3701384057 27.6979670431 
Si 16.2260781884 13.5011684135 19.0086312874 
Si 16.1043267273 13.4685069632 26.4562124073 
Si 6.7548440418 1.3321538582 6.8647190807 
Si 6.8131296623 3.8512166752 20.3396328437 
Si 9.4974610469 6.7900630221 14.9047317037 
Si 12.2133624517 9.4223967262 14.9421926536 
Si 13.7899412461 3.9465294661 25.3158707483 
Si 12.2383676019 6.7788392120 6.8196142297 
Si 5.3951014393 2.6898048246 8.2038896915 
Si 9.4691816066 3.9958392965 17.5477709397 
Si 8.6263044189 2.9640469771 21.4911194271 
Si 9.4964021968 6.7381467916 9.5345994958 
Si 10.8569104293 8.1171604642 13.5468889683 
Si 14.9298665865 6.7541598618 15.0346780207 
Si 3.3517164006 12.8546345976 20.2600720878 
Si 7.7602954310 2.4209383721 27.2619729339 
Si 5.3269277887 8.0875452440 13.4919812519 
Si 8.1370016844 16.2627306887 8.1873765313 
Si 10.8529682493 8.0936539940 8.1775153155 
Si 13.6824272451 0.0480080965 2.8875069448 
Si 4.0545810371 9.4378885163 1.3423827997 
Si 6.7681366819 4.0372810569 9.5468822528 
Si 10.8515021492 5.3863211293 10.9028286005 
Si 13.1311573501 3.1194047085 0.2510370873 
H 15.3399184703 3.5432053524 22.6955881641 
Si 12.2526050621 3.2213312395 23.7082591713 
Si 0.0649894443 10.6586448375 29.0985514387 
Si 5.6970040121 2.3879022518 24.1005780141 
Si 5.4420329298 16.2772939489 10.9055418936 
Si 14.8563172359 4.0595331971 1.5264520204 
Si 12.2274044318 6.7482465917 12.2343844854 
Si 14.9551649568 9.4683508166 17.7082636856 
H 10.7560101684 4.0946381475 18.5608212244 

