&CONTROL
/
&SYSTEM
   ntyp             = 2
   nat              = 407
   ibrav            = 0
/
&ELECTRONS
/
&IONS
/
&CELL
/

ATOMIC_SPECIES
Si 28.085 None
H 1.008 None

K_POINTS gamma

CELL_PARAMETERS angstrom
16.29000014900000 0.00000000000000 0.00000000000000
0.00000000000000 16.29000014900000 0.00000000000000
0.00000000000000 0.00000000000000 29.17519467510000

ATOMIC_POSITIONS angstrom
Si 2.6717880844 10.8098811989 2.6929754992 
Si 8.1313979244 2.6906193246 10.9065922006 
Si 4.7656721236 0.3247134600 23.2770497940 
Si 8.9451811718 10.0338744618 17.2320953333 
Si 15.0084658373 1.3849644097 4.2242764370 
Si 12.2249935118 4.0761815773 14.9825127727 
Si 0.1051341949 0.1548946067 29.0919286695 
Si 1.2873710188 12.1506622411 1.3209127739 
Si 3.9977615166 15.1059126182 24.9868037275 
Si 7.9028329323 2.7368014750 16.2676509229 
Si 8.1965090550 16.2755997889 13.6436339138 
Si 13.5648460241 2.7155104448 5.5071680973 
H 15.1479896885 9.4523377465 21.8723808712 
Si 1.2972688229 4.0390566669 14.9424260552 
Si 0.0178479758 2.6748017345 2.7517255887 
Si 1.3259278201 9.4806334767 4.0742867612 
Si 9.7076834988 3.4542619516 26.3616556014 
Si 14.9325218566 4.0646808372 6.8448215979 
Si 12.2954803425 0.7996761073 26.8108077234 
Si 13.3627848622 10.7003635279 26.2969158444 
Si 1.3388229842 4.4591757708 20.4754725501 
Si 4.0337298369 12.1767262414 4.0569858707 
Si 2.7285098649 16.2844778389 2.7867708326 
Si 6.6663078910 9.5003606669 27.9423676489 
Si 12.8356404574 2.1470220196 21.6530709328 
H 12.4308339537 11.0399285810 18.5309166498 
Si 13.5727140941 16.2637895387 8.1940868261 
Si 2.7878869155 2.7747245954 0.0475602354 
Si 4.0543041071 9.4850317768 6.7911392397 
Si 1.3719535866 9.4831584267 20.2348647196 
Si 7.2252015061 11.1876137223 21.2918820227 
Si 5.3873148193 13.5741313241 2.7370796410 
Si 8.9023547614 9.5258545171 25.1062469745 
Si 14.9040958063 1.3288372142 9.5769035281 
Si 1.4505658693 1.3683469805 1.3995019958 
Si 2.6447141042 5.4062600894 13.5895722781 
Si 8.0919435440 13.6216655446 0.0696347711 
Si 9.4041356360 6.3088889977 20.2338144126 
Si 13.5306858937 2.6680739644 10.9406980032 
Si 16.2602057387 10.8680527894 5.4041504849 
Si 12.9751805987 14.2845219406 0.2292225025 
Si 1.3342243172 12.1980172716 6.7828243092 
Si 4.1741333482 4.0494171070 1.4262177216 
Si 6.7236812715 14.8989970363 4.1418565121 
Si 5.4473434698 13.5730561841 13.5999294722 
Si 9.5708312075 9.6350463881 19.3817528521 
Si 16.1848481980 8.3472078463 24.2774380442 
Si 14.9169486164 15.1378410184 1.2902496444 
Si 2.1004000392 6.9315253834 23.2437900721 
Si 1.3793541336 4.0700239572 4.0698229564 
Si 1.3259408521 9.4846245267 9.5016315258 
Si 8.1077611341 13.5415839038 5.4807937213 
Si 14.9032161463 4.0536036371 12.2477175494 
Si 14.9690603269 6.7458682517 22.8621493505 
Si 13.5681203141 13.5557236240 5.4667312774 
Si 4.0286962269 1.3213584751 4.2131315126 
Si 2.6849178246 10.8383072491 8.1418632276 
Si 3.8134238749 12.4373988237 22.4704140116 
Si 5.3934398593 13.5445486839 8.1658452376 
Si 9.2416917545 0.5771823983 24.6000865221 
H 9.6635375984 8.8082148506 21.9545382194 
Si 14.9248003965 14.9044216063 6.8338225495 
Si 4.0249006568 12.2000209416 9.5079625431 
Si 3.3639827708 10.2279698135 23.0821886688 
Si 0.0341334147 16.2388169685 5.4998159482 
Si 8.1195388043 5.4241465096 13.5913227898 
Si 6.7603011918 14.9064089863 9.5177362333 
Si 13.5823740642 2.7655696153 16.4052703162 
Si 13.5982568144 13.5558050740 10.8802469998 
Si 2.6720813044 2.7163575248 5.5018290366 
Si 1.2829368807 12.2604568421 25.1156413872 
Si 8.1276349343 13.5644876441 10.8733324787 
H 5.1736551773 13.0066365890 22.7439606369 
Si 10.7695471585 5.0924332366 23.3514465404 
Si 11.5384677455 7.1344662052 24.3609666266 
Si 13.4201256627 16.2026857482 13.7408748377 
Si 1.3476098103 1.3326311552 6.8638146497 
Si 16.2797700289 0.0255016694 16.2541136326 
Si 6.7386192016 12.2052663216 12.1873248964 
Si 4.0766865673 14.9230573665 12.2490304332 
Si 10.5186159962 10.5553336565 23.7099805078 
Si 9.2897961250 11.8765504086 22.1940665677 
Si 14.9456678867 12.1606154312 14.9295889695 
Si 4.0643061672 4.0600707671 6.8304090518 
Si 1.3172240730 1.3326360422 12.2754923347 
Si 4.3280086896 6.9297986434 20.3958534439 
Si 12.1759443214 6.7266623415 17.7398020710 
Si 10.8980752597 13.4795515833 13.4026176306 
H 14.6242498937 10.9972487806 23.6881574622 
H 14.0533179685 12.5717098750 28.6150309373 
H 2.8617620662 2.9881561773 19.8014963779 
Si 4.0397734270 1.4300420981 27.7380245854 
Si 2.6645879044 8.1283516943 10.8667097095 
Si 3.9501784261 6.8323681525 14.9221492949 
Si 10.4052538852 0.5609982831 17.0537473682 
Si 16.2567522587 2.6802263045 8.2043856698 
Si 16.2831094789 8.1086733742 13.6277042575 
Si 2.6921668746 1.0565710387 22.4214288598 
H 3.3993646511 2.6055855238 25.0301872420 
Si 2.6930465346 16.2608410487 8.2187398656 
Si 9.4855693467 4.0405553469 12.2723414137 
Si 12.2606686121 12.1111427008 12.1395942779 
Si 14.1756232896 9.7136293488 24.3541104558 
Si 12.7286477364 14.7986506353 27.1052146129 
Si 1.3367655572 4.0497429070 9.5285602305 
Si 6.0500408953 4.8512923644 0.2334934593 
Si 6.6883645512 6.8220565824 17.5235263529 
Si 5.9303256842 5.6406894816 21.6179148232 
Si 9.2923536550 0.9114189923 20.6925651737 
Si 9.5052150869 9.4591469665 1.3259192374 
Si 8.3996127768 13.5748806642 16.1390466648 
Si 4.0497754870 1.3335352502 9.5685010720 
Si 5.4301575197 8.0872194440 2.7036448679 
Si 6.7607573118 6.7510647617 12.2088561901 
H 6.0963044958 11.2505419929 22.2988055165 
Si 10.8319867291 10.8412720292 29.1251300410 
Si 16.2872308490 10.8341858791 10.8935800638 
Si 12.7766706569 13.8462231966 23.8325163254 
Si 2.7204626049 11.0744959613 26.5621767144 
Si 2.5914295137 16.2480045286 18.8612965543 
Si 9.4235044462 1.4208887470 15.0679960931 
Si 8.2325099553 5.4477670098 2.8284709383 
Si 12.1399597110 12.2874167924 1.3204693110 
Si 16.1778597880 10.5628759266 21.6607440090 
Si 16.2359336385 16.2506760886 10.9471457212 
Si 5.7389833425 1.7199633757 19.9173802512 
Si 2.6649137044 2.6883387246 10.9018658190 
Si 5.6130290613 5.0973853966 27.1256955996 
Si 8.1171278842 8.0808826339 29.1586523397 
Si 6.9912119439 12.7017692362 19.4556827954 
Si 12.2244396518 9.5026412669 4.0143317361 
Si 12.9283631382 8.6693100193 20.7514698917 
H 4.8870326247 3.2488776297 18.3713866853 
Si 6.8587416627 6.7129624514 1.4105944049 
Si 4.8563585544 4.4808414710 23.3305571010 
Si 10.8438458492 5.4273067696 16.3115595909 
Si 9.4444370964 12.1009940307 4.1918919709 
Si 16.2399572685 8.0480908636 19.0654937419 
Si 13.5560168440 10.8058901488 13.5991125668 
Si 5.4254171296 5.4044681894 5.4587080989 
Si 0.7501023789 1.1770616538 25.5253486460 
Si 2.7157385048 10.8697306594 13.6114828493 
Si 10.8285332490 2.7006539647 13.6739177659 
Si 9.4963044568 9.4640013866 6.8386072814 
Si 9.4343535863 12.2672171922 27.9009096973 
Si 16.2068396982 2.6703871444 13.6181639689 
Si 4.0219847468 4.0566661571 12.2370977785 
Si 8.1237253343 8.1372786144 5.4749586823 
Si 8.6577604092 0.2380962712 18.5463503278 
Si 10.3983469251 0.7820926812 28.1470316395 
Si 10.7818623986 5.2148688777 27.4207735185 
Si 10.8768656795 10.7808687086 5.4746085800 
Si 10.8090504089 13.6541803849 19.0580832424 
Si 2.6452516742 4.5491454416 22.4972260155 
Si 1.5303103070 9.3819975258 27.7545377456 
Si 6.7718182219 6.7615392318 6.8211021647 
Si 6.8510364927 14.9010169963 14.9594060185 
Si 11.0595091611 7.8378847017 19.4999123906 
Si 12.2117008717 12.1852784914 6.8124954822 
Si 14.9554418868 11.8301076182 27.6376619157 
Si 1.2189416152 1.4037044258 17.6764918986 
Si 5.4016337294 8.1245561243 8.1573552560 
H 8.0455822036 13.9237473073 24.3441325392 
Si 16.1118852874 1.9828351081 27.5245205108 
Si 12.5694944350 5.7971223530 25.9741506657 
Si 12.2209698818 9.4543577065 9.5036446142 
Si 2.7313443250 13.5808102242 16.3690055492 
Si 8.1169324042 5.4017314694 8.1896813717 
Si 7.0050421541 8.0251871234 24.7858158114 
Si 8.0653093938 8.1423773845 16.1662962966 
Si 9.4804054167 12.1954271615 9.5219666365 
H 14.0947597289 1.3586609464 24.4465958229 
Si 1.3930377337 6.8101648823 17.6974688635 
Si 2.8333523059 5.6041673013 19.0785058787 
Si 8.0143705633 2.4431416423 23.6466703353 
Si 5.3960951293 5.3937004993 10.8769793780 
Si 13.5997066244 5.4610759399 2.8914981114 
Si 16.2164507983 13.6075584045 2.6085483209 
Si 2.6327735341 13.6124291145 0.0864709007 
Si 2.7231830349 16.2836144689 13.6077192492 
Si 8.1153522742 8.1022714041 10.8473373802 
Si 5.1672043373 14.1611577695 19.6240236687 
Si 6.8781593429 15.0369407575 27.7943910615 
Si 13.5034327235 8.1591397946 29.1510084387 
Si 4.0590933671 14.9699074069 1.3680365484 
Si 7.4487491781 9.0494371728 20.3862548048 
Si 9.5223195871 3.9992276166 1.5022161862 
Si 9.0757292330 6.8090082923 27.4051939645 
Si 8.9458164818 13.9980297080 23.1217794079 
Si 14.9896671771 6.8062552823 4.1660719236 
H 0.2070263539 5.4439388598 20.7246870630 
Si 3.8980341357 6.7318588516 27.2266709483 
Si 4.0142795767 9.5123501070 12.1935392129 
Si 1.3163134620 14.8943380962 4.0434485804 
Si 11.2299677227 15.8261749747 0.6841378925 
Si 13.5629075140 8.1652811247 5.4356013447 
Si 2.6813991845 13.5457867239 5.4150911829 
Si 10.7697589285 2.6267136540 2.9143743815 
H 11.8610586185 11.1701997122 20.8611686237 
Si 13.5655953641 5.4110493495 8.1943785780 
Si 14.9391193066 9.4695888566 12.2562658814 
Si 13.9181598373 13.9712326578 21.7704135658 
Si 0.0372148311 5.4187545196 16.3575396977 
Si 1.8389944068 5.7276455024 26.5083484802 
Si 4.0115754367 14.8909497762 6.8301172998 
Si 8.0414445435 15.4197068910 21.5333359338 
Si 12.2682597522 1.3919707387 1.6340793136 
Si 14.9242139565 6.7767215120 9.5243298273 
Si 0.0030077693 13.5469433139 8.1732265619 
Si 5.2977686884 5.4725278100 16.2289937900 
Si 7.9134703024 5.2926862084 18.7690445888 
Si 9.4345001963 1.2868155298 4.2416940282 
Si 13.5753367842 8.1233017943 10.8902540916 
Si 13.7074323954 13.5252450337 16.3467157005 
Si 12.1885853615 4.0566009971 4.1491211355 
Si 2.1208114094 2.5658053435 24.1997153256 
Si 1.3170579150 14.9118172664 9.5682093201 
Si 6.6617629809 4.1268597677 14.8956582181 
Si 13.6547179549 0.0991627695 18.9632930349 
Si 13.5379675238 8.1034931541 16.3871816955 
Si 9.4884363868 4.0564706771 6.8515902431 
Si 2.7057853147 13.5618323740 10.8979563430 
Si 7.3448515572 11.8132800480 17.3226843128 
H 6.7708082419 12.1695260613 23.9152280023 
Si 16.1797982980 5.3862233893 0.1598094628 
Si 14.9147820464 12.2036210316 20.5048811464 
Si 7.8020792814 7.1017721749 21.7623320368 
Si 5.4918803302 10.8782014595 16.2163025803 
Si 5.3891067193 13.7874325861 26.4169425953 
Si 10.8682808494 16.2296131184 5.5023833653 
Si 10.8366456691 15.3299815702 23.5136022724 
Si 16.2855366889 8.1198808943 2.6962168633 
Si 2.7536779152 5.4313629797 2.7084120947 
Si 6.7376906716 1.3011491009 17.7763002396 
Si 8.0576368037 10.7630148684 13.4627768820 
Si 12.2140955017 1.3278647011 6.8416706769 
Si 14.6066566936 6.9876444339 20.5003006408 
Si 15.4312890811 4.6072030021 23.7401476591 
Si 0.0941744457 2.6060090638 19.4431958121 
Si 2.8855291764 7.9716093129 29.0675673819 
Si 1.2761423217 14.8548185559 27.8040480509 
Si 9.4848037167 1.3421982723 9.5358540292 
Si 8.6169050888 14.3831090215 19.5260825402 
Si 12.2428147720 1.7465975260 18.0486798570 
Si 1.3964602628 6.7714109719 1.3264881537 
Si 1.3869745957 14.9234809065 14.9696756870 
Si 10.8500686292 2.6897070846 8.1866179762 
Si 10.5472375265 11.6271830863 20.2565418893 
Si 14.7930142953 1.2347201093 20.6706837777 
Si 13.5248052037 5.3079825186 19.1060764377 
Si 1.1555816596 3.9600012962 28.0092663703 
Si 4.0738683973 6.7723557919 4.1023241233 
Si 1.3341526412 4.8277207341 24.4085513691 
Si 12.2081659417 4.0341207969 9.5497705970 
H 13.5261572737 7.0326537043 23.3043577762 
Si 14.9835258470 14.9867838471 17.6418609425 
Si 0.0279352326 5.3955086893 5.4763007413 
H 6.4068081886 7.9427434326 23.3831891522 
Si 6.6741759610 9.4266809962 14.8038147053 
Si 5.4847941802 16.2722766288 16.3030987844 
H 11.6221168963 11.7912396778 16.8794547552 
Si 10.8561122193 16.2831257689 10.8716986678 
Si 2.6942519946 8.1308929344 5.4378478347 
Si 2.4568578225 13.7948771162 23.7952887770 
Si 5.8099914531 15.9464929158 21.2031019053 
Si 12.1607620412 1.3086604200 12.3146454460 
Si 9.3953716159 14.8055087254 1.6234420376 
Si 12.3826970032 14.9586021468 20.2660238275 
Si 1.3628702825 6.7725675619 6.8203436096 
Si 4.0787553973 12.4198219136 27.9042064943 
Si 10.8416955692 10.8001234888 10.8261853641 
Si 10.8011171788 13.4408954129 2.8771468331 
Si 9.5024946569 14.9310883366 12.2108692785 
Si 14.3404943812 14.6259603438 25.4256861810 
Si 3.4105721712 1.6512032851 20.2527782892 
Si 1.3466161203 12.2063903316 12.2474257975 
H 4.7273091732 5.2775853783 24.6128360822 
H 10.2189777335 2.1695347998 28.7578726905 
Si 16.2629913287 8.1322287144 8.1424759067 
Si 12.2231364518 14.9011961863 4.1012738163 
Si 2.7049056547 5.4148123395 8.1846340630 
Si 7.4807427384 5.9938566848 25.8449045533 
Si 4.1904396383 9.6431262282 17.7184166533 
H 9.9934101014 3.2240516695 18.5510475342 
Si 9.4826371467 12.1539528212 14.6418048493 
Si 9.4877196268 14.8860953561 6.8367692442 
Si 10.8551999793 13.5368435138 8.1781863450 
Si 4.0528380071 6.7769169920 9.5345411454 
Si 1.4174564440 15.3461249604 22.3135973402 
Si 5.3569176790 10.9239763599 0.0682941710 
Si 8.7788928503 4.4925051111 24.5247853447 
H 9.9462016810 14.3490792112 25.5853328463 
Si 12.2115542617 14.9001536263 9.5352997005 
Si 2.7556164252 8.2375435653 16.3978306416 
Si 2.6835494645 10.9764138704 18.9662397296 
Si 1.0537707876 10.4052050152 23.6801342836 
Si 8.1406180645 10.8061833688 2.7159451300 
Si 15.4306374811 15.8250020947 22.2003975849 
Si 10.8297875790 13.4979755734 26.4738342249 
Si 4.0641269772 1.3425061533 14.9965752165 
Si 6.7699122919 12.2189987918 1.4123069888 
Si 4.1340110778 14.9831185970 17.6700150054 
Si 11.3436230537 0.2900059857 21.5792285151 
Si 14.8563335259 14.9221939965 12.3342511768 
Si 3.9493476361 4.1600424981 17.6151656394 
Si 6.7733494820 9.4564428265 4.0667303858 
Si 7.9297603025 10.9835163105 26.6145170137 
Si 4.0724348773 12.2506339720 14.9628486915 
Si 10.3829854550 4.4482451807 21.1265461945 
Si 14.8983780163 9.4810895967 1.3403872164 
Si 2.9368426769 8.4099895069 21.6007306335 
Si 5.4097461495 10.8291196890 5.4160247891 
Si 10.4690455257 8.2444342354 26.2291710424 
Si 13.8675956768 2.4905129628 27.2465684311 
Si 16.2599125187 5.4010635794 10.8767168012 
Si 13.5667030841 10.9201644999 2.6544204795 
Si 15.0075861773 4.0685252772 17.7859280538 
Si 6.7439623217 12.1801634314 6.8104240434 
H 8.5219506779 7.1754029756 23.0875860798 
Si 10.7768939486 10.8589792593 16.0681217665 
Si 10.5267609963 14.5455040330 16.8177492185 
Si 14.9127946664 12.2537616521 4.0426024998 
Si 1.3124315550 6.7643248219 12.2276741907 
Si 1.6885562554 14.5162471928 20.1597677685 
Si 2.5897190637 16.2852597589 26.4583421966 
Si 6.7654325419 9.4798189767 9.5055993523 
Si 5.2891675684 8.4724453675 26.3096362293 
Si 14.9188871264 9.5150053770 6.7893595528 
H 3.2932678801 7.3110335169 24.1319121732 
Si 5.3959973893 0.0437230120 29.1359248631 
Si 8.1263154443 10.8419073392 8.1615856592 
Si 15.1669023787 0.2697640315 24.4082012667 
H 13.8579031267 6.3582639882 26.8953282624 
Si 13.5735774641 10.8445951892 8.1757939790 
Si 5.3755697292 2.6514092943 2.8673643903 
Si 5.3745923292 2.6900491746 13.5766184917 
Si 5.3902144393 10.8434874692 10.8386139970 
Si 6.2389397371 11.9116553589 25.3023626331 
H 10.3148280943 8.3860594967 21.9992637928 
Si 14.9440877567 12.1937004215 9.5289686832 
Si 1.3835520667 9.4730260466 14.9523747966 
Si 1.2682677356 12.1981313016 17.5860487951 
Si 8.0744643739 0.0037152440 2.8321061676 
Si 6.8002442722 1.3272733741 12.2798394387 
Si 9.4922645368 9.4424822964 12.1795351195 
Si 12.2981681925 9.0052912724 23.0795045508 
Si 2.6393872741 2.7047590447 16.3208664780 
Si 0.4225446849 7.6745448702 26.5079983779 
Si 7.6833740503 3.1164073485 0.3191562071 
Si 12.1369623510 3.4779639018 19.8549745098 
Si 8.5000569177 0.2326130571 26.8594135978 
Si 11.4297319945 4.7890482738 0.3786240064 
Si 15.0415834076 6.8889759030 27.9521705143 
Si 6.6918669012 1.3284788342 1.4674947870 
Si 10.8531148593 8.0964070041 2.7024516024 
Si 11.8598694485 12.0109429098 25.0018289528 
Si 12.1294852409 14.6156324837 15.0277051492 
Si 13.6175115945 10.5302796363 19.3305212103 
Si 6.8042190322 4.0563240671 4.1083925638 
Si 4.4410124206 10.3154959843 25.1828610358 
Si 11.0447992910 1.9100025175 25.2081267543 
Si 12.2860484324 6.7255383315 1.4187984696 
Si 13.5791812242 5.4237229696 13.6219859194 
H 13.0614035695 12.7010361862 17.4258186259 
Si 0.0033627610 13.5659211641 13.6165009828 
Si 5.6343363815 8.2885312658 19.0047218114 
Si 5.3989132994 16.2502036786 5.5259277474 
Si 9.5440015773 6.8076725123 4.1735699487 
Si 14.8166022155 1.3326002042 14.9919655357 
Si 16.2689045988 10.7895349887 16.2666006159 
Si 8.1032650941 2.7061762748 5.5270364048 
Si 5.5684596209 2.8023198556 26.4628935269 
Si 10.8598100493 5.4147634695 5.5144618959 
Si 12.0324294200 9.3686234357 27.6964499330 
Si 16.2136489183 13.4974542934 19.0064431478 
Si 16.1080245573 13.4690771132 26.4558039546 
Si 6.7540784118 1.3322809202 6.8634937225 
Si 6.7885643421 3.8569996253 20.3255995751 
Si 9.5031462569 6.7748807420 14.9298515463 
Si 12.2062111416 9.4167603861 14.9451685235 
Si 13.8054656163 3.9471159061 25.3078183945 
Si 12.2376997119 6.7790021120 6.8189432002 
Si 5.3929185793 2.6889740346 8.2020516542 
Si 9.3426897554 4.0678248072 17.4772836693 
Si 8.6157973688 2.9631510271 21.4615066046 
Si 9.4941867568 6.7377721216 9.5341326927 
Si 10.8471690092 8.1064579341 13.5570419360 
Si 14.9215423965 6.7674525019 15.0162392977 
Si 3.3423496506 12.8609551176 20.2587300289 
Si 7.7722522911 2.4224044722 27.2664367387 
Si 5.3235394687 8.0846456239 13.4908725945 
Si 8.1362034744 16.2621279587 8.1847799389 
Si 10.8511763492 8.0927417540 8.1767275852 
Si 13.6848218752 0.0476940253 2.8872385330 
Si 4.0573666271 9.4393546163 1.3424907479 
Si 6.7653510919 4.0367923569 9.5438772077 
Si 10.8469083692 5.3853600193 10.9026243741 
Si 13.1345619601 3.1202680785 0.2514504998 
H 15.3996864808 3.5096316621 22.6994392898 
Si 12.2614179521 3.2291178595 23.7058376301 
Si 0.0677009148 10.6602412575 29.0989307162 
Si 5.7131636923 2.3916652419 24.1052168700 
Si 5.4399966798 16.2747527088 10.9008738624 
Si 14.8588096059 4.0613088071 1.5266737519 
Si 12.2205626318 6.7496801117 12.2331591273 
Si 14.9498869967 9.4630728565 17.7078552329 
H 1.0367803175 1.9170886675 20.5685997715 

