&CONTROL
/
&SYSTEM
   ntyp             = 2
   nat              = 407
   ibrav            = 0
/
&ELECTRONS
/
&IONS
/
&CELL
/

ATOMIC_SPECIES
Si 28.085 None
H 1.008 None

K_POINTS gamma

CELL_PARAMETERS angstrom
16.29000014900000 0.00000000000000 0.00000000000000
0.00000000000000 16.29000014900000 0.00000000000000
0.00000000000000 0.00000000000000 29.17519467510000

ATOMIC_POSITIONS angstrom
Si 2.6705663344 10.8083499388 2.6946093101 
Si 8.1370342644 2.6930302446 10.9118437356 
Si 4.7534872035 0.3236985930 23.2525426305 
Si 8.9503288119 10.0363668318 17.2314826542 
Si 15.0072766673 1.3846679317 4.2241305610 
Si 12.2461868020 4.0760675473 15.0013015980 
Si 0.1030076982 0.1489151993 29.0995725705 
Si 1.2851979328 12.1474531111 1.3225232447 
Si 3.9926953265 15.1160775782 24.9762423071 
Si 7.9169563624 2.7392123951 16.2606780514 
Si 8.2038558450 16.2780432889 13.6405705184 
Si 13.5643410341 2.7160643048 5.5070805717 
H 15.1415877185 9.4623235165 21.8743647844 
Si 1.3042588619 4.0332574269 14.9649784807 
Si 0.0163181818 2.6748343145 2.7512354455 
Si 1.3244763811 9.4792976967 4.0754829442 
Si 9.6985448087 3.4522908616 26.3569583951 
Si 14.9328476566 4.0650066372 6.8449966491 
Si 12.2881824224 0.7952794363 26.7926024019 
Si 13.3584191422 10.7019599479 26.2986371809 
Si 1.3366515272 4.3973063502 20.4761435796 
Si 4.0328175969 12.1766773714 4.0574818491 
Si 2.7283306750 16.2842009089 2.7885213442 
Si 6.6615837909 9.4985687669 27.9423676489 
Si 12.8699471977 2.1535868897 21.6656162665 
H 12.4329027837 11.0495071011 18.5307999491 
Si 13.5745874441 16.2651416088 8.1951663083 
Si 2.7854922855 2.7722648053 0.0443314166 
Si 4.0537828271 9.4853575767 6.7925396491 
Si 1.3718037186 9.4854227367 20.2349814204 
Si 7.2297138361 11.1798596822 21.2933116073 
Si 5.3866469293 13.5742616441 2.7375143514 
Si 8.8946821714 9.5272391671 25.1037670830 
Si 14.9065393063 1.3301420432 9.5783331126 
Si 1.4503117453 1.3673435165 1.4009432505 
Si 2.6434434842 5.4023016194 13.5991709171 
Si 8.0887995740 13.6215515146 0.0688239925 
Si 9.4048361060 6.3097523677 20.2311011195 
Si 13.5360941738 2.6702242444 10.9439948002 
Si 16.2599613887 10.8677921494 5.4056967702 
Si 12.9716945386 14.2845056506 0.2296507944 
Si 1.3341249482 12.1981638816 6.7846331713 
Si 4.1713151782 4.0484559970 1.4233556350 
Si 6.7235346615 14.8991599363 4.1421482640 
Si 5.4500801898 13.5732679541 13.5966618504 
Si 9.5782594476 9.6335639981 19.3796814133 
Si 16.1833658080 8.3558089664 24.2789843295 
Si 14.9127783764 15.1347296284 1.2944012745 
Si 2.0867164391 6.9355327234 23.2371964781 
Si 1.3783017996 4.0698447672 4.0701438835 
Si 1.3261656541 9.4871820568 9.5070872872 
Si 8.1079566141 13.5422355039 5.4816106267 
Si 14.9089665164 4.0538316971 12.2545153698 
Si 14.9601985668 6.7751739620 22.8658254250 
Si 13.5678270941 13.5561145840 5.4672856061 
Si 4.0292337968 1.3218504331 4.2134524398 
Si 2.6849992746 10.8390077191 8.1444306447 
Si 3.8272540850 12.4281298137 22.4694804054 
Si 5.3938471093 13.5459822039 8.1666037927 
Si 9.2147155143 0.5776336313 24.5917715916 
H 9.6617619884 8.8098438506 21.9550925481 
Si 14.9252728065 14.9043564463 6.8348728565 
Si 4.0249983968 12.2024318616 9.5092462516 
Si 3.3625655407 10.2255426035 23.0849894874 
Si 0.0337421289 16.2391264785 5.5002244009 
Si 8.1278955743 5.4261501796 13.5897181541 
Si 6.7600405518 14.9079891163 9.5193992194 
Si 13.6017917444 2.7676384453 16.4277352161 
Si 13.6018243244 13.5590467840 10.8845941038 
Si 2.6723093644 2.7167647749 5.5021791390 
Si 1.2810521277 12.2582251121 25.1206595207 
Si 8.1298666644 13.5658397141 10.8720195949 
H 5.1895053475 12.9936045888 22.7392050802 
Si 10.7528661983 5.0989003666 23.3516507668 
Si 11.5324893155 7.1360137553 24.3614334297 
Si 13.4297367628 16.2095112582 13.7522823388 
Si 1.3479437553 1.3329683582 6.8640480512 
Si 0.0065192418 0.0404058793 16.2840182071 
Si 6.7411767317 12.2058201816 12.1849033553 
Si 4.0760186773 14.9266085865 12.2532316612 
Si 10.5146575262 10.5551544665 23.7112642163 
Si 9.2900567650 11.8759965486 22.1957879041 
Si 14.9479484867 12.1682065713 14.9324189634 
Si 4.0648763172 4.0600707671 6.8316344099 
Si 1.3190257471 1.3357702382 12.2809480961 
Si 4.3247181096 6.9354512734 20.3874509878 
Si 12.1937818715 6.7165136714 17.7464831906 
Si 10.9016101897 13.4813923533 13.4024134043 
H 14.6221159037 11.0022661006 23.6921252886 
H 14.0528129785 12.5736158050 28.6151476381 
H 2.9023893265 2.9034807566 19.7516943206 
Si 4.0399689070 1.4313599591 27.7357489202 
Si 2.6648485444 8.1272439743 10.8696272289 
Si 3.9528499861 6.8367501625 14.9173937382 
Si 10.4225049953 0.5614250811 17.0544475729 
Si 16.2580880387 2.6813503145 8.2048816481 
Si 16.2838099489 8.0973355341 13.6411831975 
Si 2.5661963035 1.0779712119 22.3735231901 
H 3.4019710511 2.5565363334 25.0384146469 
Si 2.6937470046 16.2620790887 8.2197318222 
Si 9.4979497469 4.0389752169 12.2789350077 
Si 12.2640080622 12.1115499508 12.1405862346 
Si 14.1709317696 9.7182231289 24.3556567411 
Si 12.7216593263 14.7974451753 27.1067608982 
Si 1.3379921942 4.0502316070 9.5302815670 
Si 6.0455122753 4.8512597844 0.2279029085 
Si 6.6962814912 6.8278884025 17.5185957450 
Si 5.9234350142 5.6372034216 21.6008473343 
Si 9.3034145651 0.9167816604 20.6945199117 
Si 9.5024620769 9.4584139165 1.3262430820 
Si 8.4038318869 13.5757277442 16.1396009935 
Si 4.0505899871 1.3347553712 9.5700181821 
Si 5.4284307797 8.0869262240 2.7030263538 
Si 6.7648786819 6.7522865118 12.2089145405 
H 6.1011589158 11.2355877728 22.3004685026 
Si 10.8284517990 10.8408647791 29.1251592162 
Si 16.2885340490 10.8361080991 10.9027994253 
Si 12.7691935468 13.8488784667 23.8333624061 
Si 2.7163575248 11.0719058513 26.5662028913 
Si 2.6220058440 16.2226247084 18.8769344587 
Si 9.4368459563 1.4201589550 15.0665665085 
Si 8.2297406553 5.4465452598 2.8275023219 
Si 12.1371415410 12.2871398624 1.3200054254 
Si 16.1769149679 10.5675022866 21.6603647315 
Si 16.2383282685 16.2538689287 10.9506759197 
Si 5.7991097330 1.6965057755 19.9093570726 
Si 2.6663472244 2.6894627346 10.9045791122 
Si 5.6053238913 5.1007248467 27.1200064366 
Si 8.1122897542 8.0810618239 29.1599943987 
Si 7.0053190841 12.6943409961 19.4567622776 
Si 12.2233319318 9.5020711169 4.0145067873 
Si 12.9244372482 8.6771780894 20.7503320592 
H 4.9148885250 3.2767335300 18.3848948005 
Si 6.8548809327 6.7106492714 1.4096112008 
Si 4.8387001943 4.4776812110 23.3089382818 
Si 10.8542877393 5.4300109097 16.3146521615 
Si 9.4437366264 12.1012709607 4.1919794965 
Si 16.2424170585 8.0501922736 19.0645309604 
Si 13.5607572340 10.8086594489 13.6018258599 
Si 5.4249935896 5.4046636694 5.4591165516 
Si 0.7452284108 1.1586050836 25.5420076822 
Si 2.7167484849 10.8696492094 13.6094405857 
Si 10.8470712692 2.7057527347 13.6852960918 
Si 9.4970700869 9.4636267165 6.8384905807 
Si 9.4299227062 12.2658814122 27.9006179453 
Si 16.2136814983 2.6734822445 13.6295131196 
Si 4.0221639368 4.0573177571 12.2419700361 
Si 8.1236275943 8.1369365244 5.4749003319 
Si 8.6759889194 0.2352618112 18.5464086782 
Si 10.3949097351 0.7801492841 28.1368786718 
Si 10.7653280485 5.2121484477 27.4253540241 
Si 10.8769959995 10.7815040186 5.4749003319 
Si 10.8200461590 13.6600447849 19.0617884921 
Si 2.6299553641 4.5604018317 22.4995600311 
Si 1.5255634010 9.3785114658 27.7555880526 
Si 6.7721440219 6.7612948818 6.8217148437 
Si 6.8591814927 14.8988830063 14.9519079935 
Si 11.0647382512 7.8333886616 19.4969948711 
Si 12.2123524717 12.1855717114 6.8136333148 
Si 14.9532753168 11.8317529082 27.6364657327 
Si 1.2367873103 1.4016013868 17.7296491033 
Si 5.4021387194 8.1246538643 8.1579679350 
H 8.0334624435 13.9262559674 24.3428780059 
Si 16.1011501773 1.9751950981 27.5360155375 
Si 12.5502233648 5.8046320431 25.9876587809 
Si 12.2232016118 9.4546183465 9.5053076003 
Si 2.7336737950 13.5776010942 16.3658254530 
Si 8.1181215743 5.4022527494 8.1909359050 
Si 6.9966528040 8.0274840134 24.7852031323 
Si 8.0723303838 8.1472969645 16.1624451709 
Si 9.4822624767 12.1958995715 9.5215873590 
H 14.1475556194 1.4118152169 24.4369388335 
Si 1.3947546998 6.8025737422 17.7034497785 
Si 2.8277648359 5.5884963211 19.0878711162 
Si 7.9923301931 2.4499508624 23.6407185956 
Si 5.3970725294 5.3941891993 10.8802469998 
Si 13.5983545544 5.4599519299 2.8902552481 
Si 16.2152942083 13.6056036044 2.6102959150 
Si 2.6329201441 13.6080796845 0.0903433243 
Si 2.7242093049 16.2875566490 13.6148379967 
Si 8.1181704442 8.1037700841 10.8469872779 
Si 5.1812951874 14.1486796294 19.6176343011 
Si 6.8732886329 15.0361099675 27.7935158057 
Si 13.4997674735 8.1583252946 29.1502790588 
Si 4.0580019371 14.9699888569 1.3687192480 
Si 7.4541574582 9.0461954627 20.3807990434 
Si 9.5165692170 3.9965886365 1.5003664789 
Si 9.0681706729 6.8121359723 27.4053398405 
Si 8.9473803218 13.9949671880 23.1302985648 
Si 14.9879730171 6.8053267522 4.1658968725 
H 0.2264717271 5.3943195193 20.7509447382 
Si 3.8875922456 6.7318425616 27.2269043499 
Si 4.0161040567 9.5145003870 12.1907092190 
Si 1.3154957040 14.8937842362 4.0442071355 
Si 11.2255857127 15.8277225248 0.6787200588 
Si 13.5627934840 8.1654766047 5.4361848486 
Si 2.6810245145 13.5458844639 5.4162290155 
Si 10.7668755985 2.6263552740 2.9128164261 
H 11.8617753785 11.1689616721 20.8627440842 
Si 13.5673872641 5.4121570695 8.1952538338 
Si 14.9443321067 9.4645389566 12.2662437980 
Si 13.9188114373 13.9802898979 21.7750524217 
Si 0.0347716569 5.3956064293 16.3888738568 
Si 1.8306702167 5.7195493723 26.5029802444 
Si 4.0116405967 14.8917642762 6.8306132781 
Si 8.0625400937 15.4186969110 21.5393168488 
Si 12.2644478922 1.3906707967 1.6326351415 
Si 14.9260547265 6.7773731120 9.5266054925 
Si 0.0036818984 13.5475786239 8.1758523294 
Si 5.3086829886 5.4821389101 16.2195118517 
Si 7.9191392224 5.2952111584 18.7613715126 
Si 9.4337019863 1.2864180538 4.2418399042 
Si 13.5790346142 8.1250611143 10.8935508886 
Si 13.7097129954 13.5341556638 16.3510044541 
Si 12.1869889415 4.0557539171 4.1479833029 
Si 2.1124057693 2.5548421734 24.2342004057 
Si 1.3178968500 14.9139023864 9.5703099341 
Si 6.6702826510 4.1282444178 14.8922447203 
Si 13.6878029452 0.1233962624 18.9948022452 
Si 13.5428708139 8.1014406141 16.3898949886 
Si 9.4890879868 4.0564869671 6.8523196229 
Si 2.7067790048 13.5647971541 10.9007279865 
Si 7.3487122872 11.8126121580 17.3210505018 
H 6.7694235919 12.1643621313 23.9172994411 
Si 16.1776968880 5.3846106792 0.1590205656 
Si 14.9136743264 12.2094039817 20.5075069139 
Si 7.7964755213 7.0984978849 21.7558551436 
Si 5.4934115902 10.8808241495 16.2146979446 
Si 5.3836332792 13.7931177961 26.4115451843 
Si 10.8676129594 16.2301506884 5.5036670739 
Si 10.8332899291 15.3367093403 23.5172491717 
Si 16.2830117389 8.1198157343 2.6964269247 
Si 2.7525701952 5.4303692897 2.7080474048 
Si 6.7620279318 1.2906339058 17.7582116189 
Si 8.0609436737 10.7658981985 13.4619016262 
Si 12.2145679117 1.3282524032 6.8425751079 
Si 14.6030891836 6.9986076040 20.5012050718 
Si 15.3955976908 4.6453216025 23.7724737748 
Si 0.0192816587 2.6918410746 19.3475303488 
Si 2.8810657164 7.9707459429 29.0696388208 
Si 1.2750297147 14.8491007658 27.8106124697 
Si 9.4871820568 1.3433516043 9.5385089719 
Si 8.6254899189 14.3821316215 19.5301087171 
Si 12.2567264321 1.7482916860 18.0626547753 
Si 1.3932527617 6.7698145519 1.3278156250 
Si 1.3873867327 14.9367246766 14.9850510146 
Si 10.8517790792 2.6907985146 8.1882809623 
Si 10.5496647365 11.6299198064 20.2579714738 
Si 14.8718741860 1.2729820616 20.6973499056 
Si 13.5396942638 5.3029814885 19.1177465155 
Si 1.1504014395 3.9548210762 28.0087120416 
Si 4.0727443873 6.7718833819 4.1022657729 
Si 1.3104099660 4.8108442940 24.4094266249 
Si 12.2117823217 4.0345769169 9.5515502839 
H 13.5146239536 7.0551827745 23.3025197389 
Si 14.9846009870 14.9965578472 17.6518096839 
Si 0.0279454953 5.3965023794 5.4770009460 
H 6.3976206285 7.9312264025 23.3851730655 
Si 6.6772873511 9.4302973762 14.8025018215 
Si 5.4936722302 16.2664610988 16.2958925114 
H 11.6256681163 11.7955402379 16.8779959955 
Si 10.8620254893 16.2867584390 10.8747037128 
Si 2.6939261946 8.1305671344 5.4389273169 
Si 2.4694662826 13.7765671560 23.8009779400 
Si 5.8302725033 15.9200379556 21.2059318992 
Si 12.1694446113 1.3109149560 12.3205096601 
Si 9.3932213359 14.8060951654 1.6215806602 
Si 12.3925687433 14.9738495869 20.2681244416 
Si 1.3627692845 6.7733006119 6.8224442236 
Si 4.0773544573 12.4213531736 27.9016390771 
Si 10.8441064892 10.8016058788 10.8266521672 
Si 10.7990157688 13.4419053929 2.8763270101 
Si 9.5068440870 14.9316421966 12.2083893870 
Si 14.3312579511 14.6338284138 25.4266781377 
Si 3.5014377920 1.6095611577 20.2381323414 
Si 1.3465867983 12.2143724317 12.2543986690 
H 4.6777061228 5.2632175981 24.5895251016 
H 10.2162410134 2.1680035398 28.7473404452 
Si 16.2644411387 8.1343627044 8.1456851781 
Si 12.2211327818 14.9010007063 4.1022074225 
Si 2.7057527347 5.4151870095 8.1859177716 
Si 7.4742756084 5.9983364349 25.8447295021 
Si 4.1921337983 9.6409759482 17.7129900671 
H 9.9967169714 3.2261856595 18.5539358784 
Si 9.4867910968 12.1554026312 14.6416589733 
Si 9.4878010768 14.8866166361 6.8386364566 
Si 10.8573339693 13.5384888038 8.1796451047 
Si 4.0538479871 6.7769169920 9.5362916571 
Si 1.4190544930 15.2805577098 22.3197533063 
Si 5.3544415990 10.9247582799 0.0668873431 
Si 8.7655350502 4.4937757311 24.5242310160 
H 9.9409074309 14.3488022812 25.5849535688 
Si 12.2147308117 14.9016360163 9.5374294897 
Si 2.7551928852 8.2330475253 16.3981515687 
Si 2.6862373146 10.9707286603 18.9614258225 
Si 1.0518567126 10.4096033152 23.6797841813 
Si 8.1390053544 10.8061507888 2.7164790360 
Si 15.4484587413 15.8150163246 22.2072537556 
Si 10.8243630090 13.4973891334 26.4740968017 
Si 4.0674012672 1.3443355203 15.0034022121 
Si 6.7679737819 12.2183960617 1.4120706697 
Si 4.1518812080 14.9657534569 17.6603288407 
Si 11.3584306639 0.3024857548 21.5869015913 
Si 14.8593960459 14.9271298665 12.3401153909 
Si 3.9704757663 4.1699631081 17.6118688424 
Si 6.7719974119 9.4557912265 4.0670221377 
Si 7.9240099325 10.9830276104 26.6151005175 
Si 4.0741941973 12.2505525220 14.9582390107 
Si 10.3844189750 4.4504769107 21.1264586689 
Si 14.8950222762 9.4802588067 1.3397716198 
Si 2.9386182869 8.4141923269 21.5992135234 
Si 5.4091597095 10.8292988790 5.4168125193 
Si 10.4621874357 8.2468451554 26.2282666113 
Si 13.8572841067 2.4816186227 27.2462766791 
Si 16.2620302187 5.4014382494 10.8796051455 
Si 13.5646668341 10.9201319199 2.6543358714 
Si 15.0307831375 4.0362222069 17.8336878475 
Si 6.7439134517 12.1807010014 6.8110075473 
H 8.5127631179 7.1798990157 23.0822178439 
Si 10.7818135286 10.8612109893 16.0679175402 
Si 10.5314525163 14.5454062930 16.8203458108 
Si 14.9115566264 12.2523281321 4.0438278579 
Si 1.3143049050 6.7617021318 12.2338593319 
Si 1.7046019056 14.4864039125 20.1562375700 
Si 2.5906638837 16.2794605189 26.4657235208 
Si 6.7673058919 9.4801284867 9.5047240964 
Si 5.2822606083 8.4705883075 26.3113283906 
Si 14.9189848664 9.5149076370 6.7911100645 
H 3.2770593300 7.3040613968 24.1364635035 
Si 5.3938633993 0.0444291835 29.1355747607 
Si 8.1277652543 10.8425752292 8.1609729801 
Si 15.1693458787 0.2755160305 24.4112938374 
H 13.8536351467 6.3574983581 26.8948322841 
Si 13.5750435642 10.8459472592 8.1778945930 
Si 5.3744131391 2.6519957342 2.8656430539 
Si 5.3762701992 2.6909777046 13.5804112670 
Si 5.3922995593 10.8449372792 10.8363966822 
Si 6.2337758070 11.9131377490 25.3039964440 
H 10.3117655743 8.3857825667 21.9964921493 
Si 14.9457982067 12.1939284815 9.5335200136 
Si 1.3854987217 9.4720812266 14.9525498477 
Si 1.2699618956 12.1957203815 17.5831604508 
Si 8.0734055238 0.0041835653 2.8314672308 
Si 6.8019384322 1.3291760462 12.2815024248 
Si 9.4950989968 9.4437203364 12.1798268714 
Si 12.2939979524 9.0086144324 23.0803798067 
Si 2.6506110842 2.6979498247 16.3445859113 
Si 0.4186285688 7.6707004302 26.5063353918 
Si 7.6785033402 3.1155602685 0.3123437992 
Si 12.1461010411 3.4785666318 19.8684826249 
Si 8.4903969476 0.2332923501 26.8557666984 
Si 11.4239979145 4.7872400838 0.3795080148 
Si 15.0375434875 6.8870536830 27.9516745360 
Si 6.6907591812 1.3286954911 1.4660506149 
Si 10.8513718292 8.0958857240 2.7023378192 
Si 11.8558132384 12.0114478999 25.0023541063 
Si 12.1313748809 14.6194443437 15.0277926748 
Si 13.6180654545 10.5362743564 19.3297918304 
Si 6.8027855122 4.0556724671 4.1087134909 
Si 4.4369236306 10.3154308243 25.1860703072 
Si 11.0258377308 1.9027045974 25.1980613122 
Si 12.2830184923 6.7239582015 1.4182616460 
Si 13.5861207643 5.4247981096 13.6288420901 
H 13.0636678795 12.7060535062 17.4268105825 
Si 0.0081212818 13.5778780242 13.6271207536 
Si 5.6382134016 8.2913168558 18.9988867724 
Si 5.3994997394 16.2509204386 5.5267446529 
Si 9.5424214473 6.8062552823 4.1726655176 
Si 14.8304324256 1.3355519522 15.0104917844 
Si 16.2697516788 10.7903006187 16.2637706220 
Si 8.1032650941 2.7063554648 5.5274448576 
Si 5.5582457908 2.8066367057 26.4522445809 
Si 10.8596471493 5.4147308895 5.5142284944 
Si 12.0277053200 9.3684768257 27.6959539547 
Si 16.2150172783 13.4951085334 19.0033214020 
Si 16.1034633573 13.4731984832 26.4545785964 
Si 6.7548929118 1.3327044602 6.8649816574 
Si 6.7963509622 3.8571136553 20.3129958910 
Si 9.5112423870 6.7761024920 14.9307851525 
Si 12.2114402317 9.4170536061 14.9468898600 
Si 13.7716312860 3.9495105361 25.3217641376 
Si 12.2380743819 6.7787251820 6.8192057770 
Si 5.3948570893 2.6901306246 8.2043273194 
Si 9.3523334355 4.0695515472 17.4758249096 
Si 8.6170191188 2.9676470671 21.4608063999 
Si 9.4968420269 6.7376906716 9.5353288757 
Si 10.8519093992 8.1090317542 13.5571878120 
Si 14.9305344765 6.7505597717 15.0376247154 
Si 3.3614904007 12.8425148375 20.2557249838 
Si 7.7613705710 2.4234633222 27.2576550051 
Si 5.3272372987 8.0891579540 13.4879842502 
Si 8.1372134544 16.2633497087 8.1872890057 
Si 10.8529030893 8.0932956140 8.1775444907 
Si 13.6811729151 0.0483029455 2.8881663041 
Si 4.0554769871 9.4395826763 1.3419014090 
Si 6.7682344219 4.0374602469 9.5475824574 
Si 10.8516650492 5.3863374193 10.9046374625 
Si 13.1287627201 3.1186227885 0.2501845881 
H 15.3019953499 3.5705073927 22.7113719444 
Si 12.2373739119 3.2310563696 23.7077923682 
Si 0.0641246082 10.6596222375 29.0982013363 
Si 5.6871322720 2.3920073319 24.0879159796 
Si 5.4402084498 16.2764794489 10.9035871555 
Si 14.8555027359 4.0592725571 1.5243893342 
Si 12.2259220418 6.7499407517 12.2368935522 
Si 14.9515974467 9.4659724766 17.7076510065 
H 1.3115209440 1.6612867952 21.6586725702 

