&CONTROL
/
&SYSTEM
   ntyp             = 2
   nat              = 407
   ibrav            = 0
/
&ELECTRONS
/
&IONS
/
&CELL
/

ATOMIC_SPECIES
Si 28.085 None
H 1.008 None

K_POINTS gamma

CELL_PARAMETERS angstrom
16.29000014900000 0.00000000000000 0.00000000000000
0.00000000000000 16.29000014900000 0.00000000000000
0.00000000000000 0.00000000000000 29.17519467510000

ATOMIC_POSITIONS angstrom
Si 2.6697355444 10.8101255489 2.6936523637 
Si 8.1339554544 2.6919062346 10.9072340549 
Si 4.7937723738 0.3246222360 23.2876987400 
Si 8.9506220319 10.0367089218 17.2275731781 
Si 15.0076676273 1.3844252107 4.2238388091 
Si 12.2281049018 4.0792766773 14.9778447415 
Si 0.1037451465 0.1550855255 29.0904115594 
Si 1.2847776507 12.1506948211 1.3211345054 
Si 4.0027625466 15.1050655381 24.9874164066 
Si 7.9095607023 2.7356611750 16.2636830964 
Si 8.2010213850 16.2759907489 13.6413582486 
Si 13.5650577941 2.7157385048 5.5072847980 
H 15.1450086185 9.4597822765 21.8744523100 
Si 1.3052818739 4.0321659969 14.9553506664 
Si 0.0170662187 2.6745736745 2.7513784039 
Si 1.3245350251 9.4801121967 4.0748119147 
Si 9.7103550588 3.4495704316 26.3627642588 
Si 14.9327336266 4.0647948672 6.8456093282 
Si 12.2919454124 0.7967113273 26.8100199932 
Si 13.3616119822 10.6995816079 26.2963323405 
Si 1.1694623687 4.3485666698 20.3768312169 
Si 4.0324917969 12.1767099514 4.0576860754 
Si 2.7267179649 16.2853412089 2.7864819982 
Si 6.6643368010 9.5035046369 27.9502449515 
Si 12.8753554778 2.1541570397 21.6545005173 
H 12.4394676538 11.0409874310 18.5321420080 
Si 13.5744082541 16.2648483888 8.1948162059 
Si 2.7866814555 2.7738286454 0.0421520295 
Si 4.0539783071 9.4853087068 6.7925396491 
Si 1.3820989986 9.4736124866 20.2488688131 
Si 7.2318315361 11.1794361422 21.2919987235 
Si 5.3858487193 13.5751738842 2.7385063080 
Si 8.8971745414 9.5152008570 25.1104482026 
Si 14.9063438263 1.3295018462 9.5780997110 
Si 1.4495330833 1.3690881755 1.3973897118 
Si 2.6459032742 5.4038165894 13.5963117481 
Si 8.0905914740 13.6202808946 0.0687574730 
Si 9.4275280762 6.3049468177 20.2159300183 
Si 13.5349212938 2.6695237744 10.9427402668 
Si 16.2598473587 10.8683622994 5.4049673903 
Si 12.9734212787 14.2842124306 0.2275668102 
Si 1.3342194302 12.1981801716 6.7840788426 
Si 4.1680897581 4.0462079770 1.4294269930 
Si 6.7232088615 14.8992088063 4.1429359943 
Si 5.4492982698 13.5726815141 13.5996377203 
Si 9.5818106676 9.6338735081 19.3737004984 
Si 16.1826653380 8.3432819563 24.2756583573 
Si 14.9152707464 15.1372708684 1.2891526570 
Si 2.0961483492 6.9506661336 23.3041535498 
Si 1.3774042206 4.0697144472 4.0711358402 
Si 1.3269426871 9.4859440168 9.5054826515 
Si 8.1078262941 13.5417793838 5.4814939259 
Si 14.9088850664 4.0535873471 12.2507809448 
Si 14.9648412169 6.7367458516 22.8617992482 
Si 13.5678596741 13.5563589340 5.4673439565 
Si 4.0273604468 1.3202360941 4.2145902724 
Si 2.6851947546 10.8389425591 8.1438471408 
Si 3.8148085249 12.4323163437 22.4714351434 
Si 5.3939774293 13.5454772139 8.1670122454 
Si 9.2478493746 0.5696401282 24.6007575516 
H 9.6609474884 8.8060319905 21.9475653478 
Si 14.9253705465 14.9045356363 6.8346102798 
Si 4.0255359668 12.2011775316 9.5093046020 
Si 3.3617347508 10.2223497635 23.0858647433 
Si 0.0339009564 16.2392730885 5.5001952257 
Si 8.1235624343 5.4252053596 13.5915270161 
Si 6.7607573118 14.9075981563 9.5189615914 
Si 13.5626631640 2.7530263152 16.3891072583 
Si 13.6010424044 13.5569127940 10.8820558619 
Si 2.6717717944 2.7167647749 5.5026167669 
Si 1.2800942757 12.2653764222 25.1160498399 
Si 8.1294105443 13.5655139141 10.8729532011 
H 5.1730361573 13.0058220889 22.7449817687 
Si 10.7636338884 5.0920748566 23.3550350894 
Si 11.5288729354 7.1346616853 24.3633881677 
Si 13.4268860128 16.2038423382 13.7439382331 
Si 1.3477955163 1.3327810232 6.8644856791 
Si 0.0004629341 0.0240815072 16.2602404235 
Si 6.7405251317 12.2059342116 12.1864788158 
Si 4.0777128373 14.9242302465 12.2513936239 
Si 10.5168729662 10.5487362065 23.7144443126 
Si 9.2950089250 11.8695619986 22.1947667723 
Si 14.9493494267 12.1630100612 14.9344904022 
Si 4.0645016472 4.0602173771 6.8312843076 
Si 1.3199884861 1.3336769732 12.2788474821 
Si 4.3154653895 6.9155774732 20.4023886875 
Si 12.1917944915 6.7192503915 17.7372930043 
Si 10.9017079297 13.4816204133 13.4027635066 
H 14.6213176937 10.9991058406 23.6877490094 
H 14.0493920785 12.5720519650 28.6135430024 
H 2.8470196160 2.9792618373 19.8652150031 
Si 4.0402621270 1.4298515051 27.7357489202 
Si 2.6661028744 8.1285797543 10.8698314553 
Si 3.9532572362 6.8344369825 14.9215074406 
Si 10.4121119752 0.5578380231 17.0545059233 
Si 16.2580880387 2.6812037045 8.2052317504 
Si 16.2857810389 8.1031347741 13.6358733120 
Si 2.7306601450 1.0491525726 22.4372418153 
H 3.3769170309 2.5901263137 25.0817689862 
Si 2.6937958746 16.2615740987 8.2197901726 
Si 9.4896418468 4.0404901869 12.2731874944 
Si 12.2641220922 12.1115499508 12.1412280888 
Si 14.1730005996 9.7146556188 24.3524766449 
Si 12.7278983964 14.7971193753 27.1026180206 
Si 1.3385590862 4.0502641870 9.5298439391 
Si 6.0443393953 4.8502498044 0.2442926576 
Si 6.6911175612 6.8253797424 17.5208130598 
Si 5.9577743345 5.6312901515 21.5727516218 
Si 9.3074219051 0.9118115813 20.6938780575 
Si 9.5030973869 9.4583976265 1.3265231639 
Si 8.4032291568 13.5738381041 16.1402136726 
Si 4.0508017571 1.3342780742 9.5695805542 
Si 5.4281538496 8.0879199140 2.7057483994 
Si 6.7638524119 6.7520910318 12.2093813436 
H 6.1064042958 11.2438142228 22.3031817957 
Si 10.8294454890 10.8410765491 29.1253926178 
Si 16.2893322590 10.8351795691 10.8995026283 
Si 12.7818508769 13.8462231966 23.8320203471 
Si 2.7138162848 11.0793829613 26.5646566060 
Si 2.6149848539 16.2626492387 18.8948188530 
Si 9.4306231763 1.4191408300 15.0666540341 
Si 8.2318583553 5.4477018498 2.8305686348 
Si 12.1381352310 12.2873842124 1.3201308787 
Si 16.1825024380 10.5632994666 21.6625528711 
Si 16.2385400385 16.2524028286 10.9493922112 
Si 5.7798549529 1.7000407055 19.9240905460 
Si 2.6668359244 2.6891043546 10.9038497323 
Si 5.6082398013 5.1042434867 27.1418586574 
Si 8.1147169642 8.0787812239 29.1614239832 
Si 6.9987867940 12.6969636861 19.4581626870 
Si 12.2236251518 9.5024457869 4.0149444152 
Si 12.9381208483 8.6674855393 20.7505654607 
H 4.9089752549 3.2564850598 18.3867911881 
Si 6.8565099327 6.7128972914 1.4150056943 
Si 5.0622152863 4.5621774417 23.4275062729 
Si 10.8512089292 5.4308091197 16.3075042388 
Si 9.4440624264 12.1007985507 4.1923879492 
Si 16.2521584786 8.0373231735 19.0718539343 
Si 13.5610178740 10.8075517288 13.6017091591 
Si 5.4252053596 5.4043541594 5.4592624276 
Si 0.7574589429 1.1837535858 25.5146413496 
Si 2.7180353949 10.8697143694 13.6165593332 
Si 10.8335668591 2.7025924747 13.6741803427 
Si 9.4968257369 9.4640828366 6.8391907853 
Si 9.4325779763 12.2657022222 27.8990424848 
Si 16.2129158683 2.6719998544 13.6239114822 
Si 4.0233856868 4.0569756671 12.2404529259 
Si 8.1233669543 8.1376044144 5.4758922886 
Si 8.6666873293 0.2356136752 18.5476632116 
Si 10.3950889251 0.7790790311 28.1459813325 
Si 10.7771382986 5.2124742477 27.4237202132 
Si 10.8770122895 10.7813085386 5.4753379599 
Si 10.8178958789 13.6566890449 19.0610591123 
Si 2.8636679962 4.6332995824 22.6407387981 
Si 1.5249020269 9.3832192758 27.7539834169 
Si 6.7719811219 6.7614089118 6.8218023693 
Si 6.8572429827 14.8983780163 14.9561092215 
Si 11.0759783513 7.8395137017 19.4892050941 
Si 12.2123524717 12.1856205814 6.8133415629 
Si 14.9529658068 11.8321275782 27.6362323312 
Si 1.2320273723 1.3848731857 17.6888913563 
Si 5.4023830694 8.1249307943 8.1582305118 
H 8.0515606336 13.9194630373 24.3452995470 
Si 16.1076010173 1.9792513081 27.5191230997 
Si 12.5593457649 5.8010971131 25.9788770473 
Si 12.2228595218 9.4554328465 9.5046073957 
Si 2.7347326450 13.5843288642 16.3766202750 
Si 8.1182030243 5.4024645194 8.1904399267 
Si 6.9912771039 8.0210657534 24.8067636012 
Si 8.0676388638 8.1465476245 16.1635830035 
Si 9.4820018367 12.1959484415 9.5222292133 
H 14.0868427888 1.3589118124 24.4540063224 
Si 1.3995732818 6.7867072821 17.7110936795 
Si 2.8038674056 5.5556882608 19.1208974365 
Si 8.0347656435 2.4345568123 23.6491502269 
Si 5.3973657494 5.3944172593 10.8792550432 
Si 13.5986966444 5.4607827199 2.8912501222 
Si 16.2146263183 13.6077864645 2.6090442992 
Si 2.6294829541 13.6139766645 0.0871544755 
Si 2.7253496049 16.2841846189 13.6113661485 
Si 8.1181541542 8.1034279941 10.8478625337 
Si 5.1760498073 14.1557331995 19.6267077866 
Si 6.8762208329 15.0356212675 27.7945077623 
Si 13.4989855535 8.1597262346 29.1533424543 
Si 4.0572037271 14.9699562769 1.3685850421 
Si 7.4523492682 9.0486226728 20.3655695918 
Si 9.5209512271 3.9991950366 1.5041534191 
Si 9.0750124730 6.8080634723 27.4089283895 
Si 8.9560140219 13.9911553280 23.1253679569 
Si 14.9882988171 6.8058969022 4.1664220260 
H 0.1253065907 5.3662518491 20.7673703728 
Si 3.8828844355 6.7379350216 27.2219445668 
Si 4.0158108367 9.5147447370 12.1946478703 
Si 1.3153051110 14.8944847062 4.0435944564 
Si 11.2279477627 15.8252138647 0.6833618323 
Si 13.5628097740 8.1656395047 5.4363598998 
Si 2.6807638745 13.5462591339 5.4158205627 
Si 10.7687489485 2.6262249540 2.9149841431 
H 11.8670370485 11.1706884122 20.8605267694 
Si 13.5672895241 5.4121407795 8.1955455858 
Si 14.9437782467 9.4667706866 12.2626844243 
Si 13.9287320474 13.9785794478 21.7721932526 
Si 0.0360092082 5.4029532194 16.3693556515 
Si 1.8252293567 5.7219765823 26.4984872644 
Si 4.0115591467 14.8910475162 6.8310509060 
Si 8.0627844437 15.4162859910 21.5373912859 
Si 12.2657673822 1.3906479907 1.6342572823 
Si 14.9261850465 6.7775848820 9.5261095141 
Si 0.0039704921 13.5477252339 8.1750062487 
Si 5.2997560685 5.4748084101 16.2303941993 
Si 7.9306073825 5.2955369584 18.7519187495 
Si 9.4335065063 1.2863431198 4.2418107290 
Si 13.5785133342 8.1256801343 10.8918879025 
Si 13.7096478354 13.5285356137 16.3513545564 
Si 12.1881292415 4.0561285871 4.1491211355 
Si 2.1469405696 2.5743738835 24.1848943267 
Si 1.3185126121 14.9126643464 9.5701057077 
Si 6.6653630710 4.1284561878 14.8968252259 
Si 13.6803584151 0.1143857746 18.9867498914 
Si 13.5486863439 8.1021573741 16.3876776738 
Si 9.4891042768 4.0564380971 6.8522320974 
Si 2.7069744848 13.5626794540 10.9005821105 
Si 7.3478652072 11.8123189380 17.3235595686 
H 6.7665728419 12.1726537413 23.9158406814 
Si 16.1775339880 5.3843663292 0.1578970288 
Si 14.9240347665 12.2082799717 20.5073610379 
Si 7.8161701315 7.0946371549 21.7156225502 
Si 5.4926622502 10.8790322495 16.2181989679 
Si 5.3882107693 13.7846469961 26.4184597054 
Si 10.8679876294 16.2301018184 5.5029668692 
Si 10.8454585592 15.3308938102 23.5125811406 
Si 16.2833212489 8.1197179943 2.6963510692 
Si 2.7502570151 5.4313629797 2.7096782982 
Si 6.7484094917 1.2955306798 17.7694148936 
Si 8.0605852937 10.7653117585 13.4621933781 
Si 12.2147308117 1.3280895031 6.8421666552 
Si 14.6100775936 6.9755246738 20.4972372453 
Si 15.4167909810 4.6007032921 23.7447865150 
Si 16.2324475785 2.6774732945 19.2095316780 
Si 2.8791760763 7.9729125129 29.0688510905 
Si 1.2766684887 14.8583209059 27.8018890865 
Si 9.4869702868 1.3429280643 9.5365542338 
Si 8.6235676989 14.3805352015 19.5278330519 
Si 12.2483696620 1.7415476259 18.0560320061 
Si 1.3924561807 6.7698308419 1.3262022367 
Si 1.3893724837 14.9247352365 14.9745479445 
Si 10.8520071392 2.6907985146 8.1875807576 
Si 10.5525480665 11.6262545563 20.2567752908 
Si 14.8701637360 1.2811482387 20.6696334707 
Si 13.5259943737 5.2972311185 19.1034506701 
Si 1.1506311285 3.9559613762 28.0066114276 
Si 4.0723534272 6.7717041919 4.1031993791 
Si 1.3397270793 4.8167249841 24.4002364386 
Si 12.2110818517 4.0346746569 9.5512585319 
H 13.5311420138 7.0548243945 23.3044744770 
Si 14.9855620971 14.9923224471 17.6473167039 
Si 0.0272950355 5.3963557694 5.4775260995 
H 6.4149857687 7.9491942727 23.3964638658 
Si 6.6757723810 9.4307534963 14.8030269750 
Si 5.4914730802 16.2678131688 16.3006480681 
H 11.6282419363 11.7936343079 16.8779084699 
Si 10.8602824593 16.2852108889 10.8723988724 
Si 2.6937307146 8.1312024444 5.4388689665 
Si 2.4608651625 13.7926779661 23.7968350623 
Si 5.8316571533 15.9285739157 21.2139259025 
Si 12.1662680613 1.3095368220 12.3170086368 
Si 9.3937100359 14.8044498754 1.6227389154 
Si 12.3938556534 14.9658349069 20.2676576384 
Si 1.3628882015 6.7731702919 6.8219482453 
Si 4.0757906173 12.4209133436 27.9067155610 
Si 10.8441553592 10.8017687788 10.8270606199 
Si 10.7999768788 13.4410583129 2.8771701733 
Si 9.5062576469 14.9315281666 12.2090312413 
Si 14.3429053012 14.6302771938 25.4233521655 
Si 3.4645083617 1.6553572351 20.2751848387 
Si 1.3488869463 12.2083940017 12.2531149604 
H 5.2956509884 5.4676571000 24.6241268825 
H 10.2162410134 2.1664885698 28.7565598067 
Si 16.2644411387 8.1339228744 8.1447223967 
Si 12.2222079218 14.9011473163 4.1015655682 
Si 2.7060296647 5.4156594195 8.1858010708 
Si 7.4740475484 5.9891814548 25.8607466840 
Si 4.1885174183 9.6403406382 17.7169870688 
H 9.9986066114 3.2260227595 18.5513976365 
Si 9.4867422268 12.1551419912 14.6411629950 
Si 9.4880291368 14.8863071261 6.8376736752 
Si 10.8566497893 13.5378860738 8.1790324256 
Si 4.0540434671 6.7775360120 9.5363208323 
Si 1.4332251641 15.3501811704 22.3201034086 
Si 5.3537899990 10.9263384099 0.0728525034 
Si 8.7740547202 4.4923910811 24.5317290410 
H 9.9441654309 14.3489651812 25.5867040804 
Si 12.2141769517 14.9007400663 9.5361749563 
Si 2.7533521152 8.2268736152 16.4049493891 
Si 2.6858137746 10.9706472103 18.9729208492 
Si 1.0489929306 10.4080557652 23.6847731396 
Si 8.1394451844 10.8060530488 2.7168583136 
Si 15.4530851013 15.8373010448 22.1969549119 
Si 10.8287938890 13.4962651234 26.4719670125 
Si 4.0707407172 1.3411133583 14.9979756258 
Si 6.7687231219 12.2202042518 1.4145680664 
Si 4.1387351779 14.9897160471 17.6775713808 
Si 11.3637737839 0.3000650607 21.5829921152 
Si 14.8599336159 14.9227804365 12.3362934404 
Si 3.9603922562 4.1558885480 17.6252019063 
Si 6.7722091819 9.4568663665 4.0682183207 
Si 7.9278706625 10.9804212104 26.6141960865 
Si 4.0739824273 12.2541363221 14.9666414668 
Si 10.3919775350 4.4486850107 21.1282967062 
Si 14.8958367762 9.4812036267 1.3408248443 
Si 2.9320371268 8.3848703267 21.6302559306 
Si 5.4089968095 10.8298690290 5.4173668481 
Si 10.4675957157 8.2430984554 26.2329054673 
Si 13.8616986968 2.4869617427 27.2508280095 
Si 16.2629424587 5.4021550094 10.8785548385 
Si 13.5648948941 10.9205554599 2.6548230971 
Si 14.9737681369 4.0495800070 17.7542437924 
Si 6.7440763517 12.1806684214 6.8114743504 
H 8.4799061876 7.1524666554 23.0701684885 
Si 10.7832796286 10.8612598593 16.0664004300 
Si 10.5306543063 14.5429790830 16.8197331317 
Si 14.9116380764 12.2535987521 4.0432443540 
Si 1.3154403180 6.7629238818 12.2323713970 
Si 1.6994868455 14.5208898428 20.1667114649 
Si 2.5907453337 16.2881430890 26.4525363328 
Si 6.7670452519 9.4800307467 9.5060078050 
Si 5.2755165482 8.4837017576 26.3247198049 
Si 14.9192943764 9.5151031170 6.7904973854 
H 3.2243611795 7.3631615173 24.2676060036 
Si 5.3938471093 0.0429964780 29.1354580599 
Si 8.1274068743 10.8425100692 8.1619941119 
Si 15.1675539787 0.2774089285 24.4071217845 
H 13.8579357067 6.3594042882 26.8915063119 
Si 13.5751413042 10.8457843592 8.1769609868 
Si 5.3735334791 2.6497314242 2.8686364288 
Si 5.3782738692 2.6908799646 13.5783106530 
Si 5.3917945693 10.8442693892 10.8384097706 
Si 6.2364799470 11.9080552689 25.3018666548 
H 10.3176625544 8.3927709768 21.9936329802 
Si 14.9462869067 12.1935375215 9.5316819763 
Si 1.3861503217 9.4700123966 14.9582390107 
Si 1.2720307256 12.1979195316 17.5926132139 
Si 8.0734543938 0.0030674722 2.8318873536 
Si 6.8026389022 1.3282817252 12.2801020155 
Si 9.4953759268 9.4436877564 12.1801769737 
Si 12.2970441825 9.0005508823 23.0799130036 
Si 2.6517025143 2.6946755346 16.3307860442 
Si 0.4130068898 7.6763530602 26.5111492989 
Si 7.6812074803 3.1171241085 0.3238475784 
Si 12.1447815511 3.4750479918 19.8618890309 
Si 8.4966685977 0.2319060711 26.8579840132 
Si 11.4277934845 4.7880545838 0.3800390034 
Si 15.0350836975 6.8887641330 27.9556423625 
Si 6.6894722712 1.3271316511 1.4679149098 
Si 10.8513555392 8.0964232941 2.7034931569 
Si 11.8602929885 12.0095908398 25.0000492659 
Si 12.1328084010 14.6175709937 15.0287846314 
Si 13.6262267446 10.5324462063 19.3321258460 
Si 6.8030135722 4.0554444071 4.1087426661 
Si 4.4334864406 10.3211323244 25.1860119568 
Si 11.0463794210 1.9071843474 25.2048883077 
Si 12.2830510723 6.7248215715 1.4198954569 
Si 13.5861859243 5.4261501796 13.6224818977 
H 13.0630162795 12.7016877862 17.4281526415 
Si 0.0067380491 13.5689185241 13.6217816930 
Si 5.6224283914 8.2805654557 19.0047509865 
Si 5.3989132994 16.2503991586 5.5272989816 
Si 9.5434965873 6.8075747723 4.1751454092 
Si 14.8261481556 1.3299107252 14.9967794429 
Si 16.2731725788 10.7902191687 16.2711519463 
Si 8.1032162241 2.7063228848 5.5275615583 
Si 5.5754317410 2.8062620357 26.4765766932 
Si 10.8602987493 5.4147471795 5.5151037502 
Si 12.0306375200 9.3693890657 27.6971501377 
Si 16.2223640684 13.5070816835 19.0107319015 
Si 16.1063303973 13.4730844532 26.4564458089 
Si 6.7545834018 1.3326002042 6.8645440295 
Si 6.8200040424 3.8434626351 20.2999545790 
Si 9.5064857069 6.7777966520 14.9293847432 
Si 12.2129063317 9.4162391061 14.9470649111 
Si 13.7928408661 3.9496571461 25.3199261003 
Si 12.2383838919 6.7789858220 6.8197309305 
Si 5.3938796893 2.6897559546 8.2031311364 
Si 9.3554611156 4.0638826272 17.4675683295 
Si 8.6298230589 2.9631021571 21.4643074232 
Si 9.4964021968 6.7381467916 9.5349204229 
Si 10.8515835992 8.1088525642 13.5578588415 
Si 14.9318213866 6.7568802918 15.0263339151 
Si 3.3468619806 12.8584953276 20.2606264165 
Si 7.7762270511 2.4217202921 27.2738764133 
Si 5.3266508587 8.0873334740 13.4903182658 
Si 8.1371645844 16.2628284287 8.1860052971 
Si 10.8527076093 8.0935725440 8.1774861403 
Si 13.6834860951 0.0473213101 2.8867483897 
Si 4.0546624871 9.4387355963 1.3436810959 
Si 6.7665891319 4.0377860469 9.5450733907 
Si 10.8502641092 5.3864677393 10.9038789075 
Si 13.1320207201 3.1192906785 0.2538609544 
H 15.3193930701 3.4922665219 22.7335159172 
Si 12.2593002521 3.2275540195 23.7047581479 
Si 0.0634418943 10.6617399375 29.0988723658 
Si 5.7480731626 2.3898570519 24.1259896086 
Si 5.4406645698 16.2757952689 10.9026243741 
Si 14.8575064059 4.0606409171 1.5266329066 
Si 12.2246025518 6.7513254017 12.2344428358 
Si 14.9608175868 9.4579089265 17.7141862501 
H 1.2569657335 3.5763880827 21.7096416353 

