&CONTROL
/
&SYSTEM
   ntyp             = 2
   nat              = 407
   ibrav            = 0
/
&ELECTRONS
/
&IONS
/
&CELL
/

ATOMIC_SPECIES
Si 28.085 None
H 1.008 None

K_POINTS gamma

CELL_PARAMETERS angstrom
16.29000014900000 0.00000000000000 0.00000000000000
0.00000000000000 16.29000014900000 0.00000000000000
0.00000000000000 0.00000000000000 29.17519467510000

ATOMIC_POSITIONS angstrom
Si 2.6681879944 10.8083662288 2.6938799303 
Si 8.1388913244 2.6965814647 10.9053084920 
Si 4.7775638237 0.3299832750 23.3218337178 
Si 8.9617318120 10.0244914217 17.2037078689 
Si 15.0041164072 1.3846777057 4.2236054075 
Si 12.2464963120 4.0765073773 14.9974504723 
Si 0.0955990062 0.1577513840 29.0943793858 
Si 1.2769649667 12.1475019811 1.3276843366 
Si 3.9898119965 15.0971811781 25.0001659667 
Si 7.9098376323 2.7375345250 16.2666297911 
Si 8.2051753350 16.2846081589 13.6308260034 
Si 13.5620604340 2.7174489549 5.5049216073 
H 15.1349413984 9.4530870864 21.8724975719 
Si 1.3048208669 4.0364502669 14.9595518945 
Si 0.0126998796 2.6755510745 2.7524608036 
Si 1.3212998311 9.4799167167 4.0739950092 
Si 9.7019168387 3.4503686416 26.3533406709 
Si 14.9305507666 4.0660980672 6.8426918087 
Si 12.2836049323 0.7993177273 26.8036306255 
Si 13.3585983322 10.6953299178 26.3012921236 
Si 1.3450343613 4.3879721801 20.4701626647 
Si 4.0305695769 12.1773126814 4.0556438118 
Si 2.7230038449 16.2864163490 2.7891486109 
Si 6.6606226809 9.4943333668 27.9381955961 
Si 12.8933233479 2.1656577798 21.6512328955 
H 12.4471076638 11.0382995810 18.5103189624 
Si 13.5731865041 16.2666891588 8.1908775546 
Si 2.7797744954 2.7755228054 0.0486093754 
Si 4.0523004371 9.4869865768 6.7889511001 
Si 1.3746430656 9.4870354468 20.2349230700 
Si 7.2658939265 11.1075320816 21.3897356257 
Si 5.3837310192 13.5744571241 2.7351978410 
Si 8.8813243712 9.5259033871 25.0815355846 
Si 14.9046170863 1.3318915892 9.5739568334 
Si 1.4444196522 1.3687167635 1.4008294672 
Si 2.6452842542 5.4058039694 13.5977705078 
Si 8.0852809339 13.6200528346 0.0654495895 
Si 9.4126878861 6.3128148877 20.2271624682 
Si 13.5355403138 2.6710387444 10.9417483102 
Si 16.2572083787 10.8688184194 5.4034794554 
Si 12.9693161986 14.2868514107 0.2286319966 
Si 1.3325106092 12.1984245216 6.7817740022 
Si 4.1679757281 4.0498732270 1.4259405573 
Si 6.7207490715 14.8995183163 4.1394349709 
Si 5.4507643698 13.5766562742 13.5867714594 
Si 9.5772657576 9.6359097581 19.3615344422 
Si 16.1720931279 8.3327423262 24.2770879419 
Si 14.9102697164 15.1379550484 1.2918688677 
Si 2.0674779489 6.9181350033 23.2424771883 
Si 1.3753712286 4.0702031472 4.0702022339 
Si 1.3254146851 9.4867259368 9.5021858545 
Si 8.1056271441 13.5432617739 5.4785180561 
Si 14.9092923164 4.0538805671 12.2516562007 
Si 14.9535033768 6.7462755017 22.8554974061 
Si 13.5643899041 13.5572711740 5.4660602480 
Si 4.0261549868 1.3226209501 4.2130148119 
Si 2.6839404245 10.8396756091 8.1410754973 
Si 3.8071685148 12.3919334333 22.4888527346 
Si 5.3934235693 13.5470899239 8.1638613244 
Si 9.2148784143 0.5753041613 24.5943681840 
H 9.6877934086 8.7840730703 21.9504245169 
Si 14.9233180065 14.9048125663 6.8323346146 
Si 4.0249658168 12.2023178316 9.5053659507 
Si 3.3379676405 10.1915779532 23.1042159407 
Si 0.0314398632 16.2401690385 5.4992616195 
Si 8.1282050843 5.4252379396 13.5862171307 
Si 6.7603337718 14.9095203764 9.5156647945 
Si 13.6017265844 2.7676384453 16.4227462578 
Si 13.5986966444 13.5593562940 10.8747620632 
Si 2.6701916644 2.7177421749 5.5011871823 
Si 1.2720144356 12.2541526121 25.1206303455 
Si 8.1307789044 13.5675012941 10.8677600165 
H 5.2044106976 12.8839403078 22.7667172887 
Si 10.7656049785 5.0952025366 23.3514757156 
Si 11.5300458155 7.1340915352 24.3630964158 
Si 13.4324734828 16.2124434583 13.7472933805 
Si 1.3460590023 1.3339034042 6.8622100139 
Si 0.0088062438 0.0421278952 16.2776871899 
Si 6.7419749417 12.2066509716 12.1790683163 
Si 4.0758069073 14.9291172465 12.2450917819 
Si 10.5357693664 10.5469443065 23.7156696707 
Si 9.3304070953 11.8631437385 22.1981219197 
Si 14.9514508367 12.1660074213 14.9248625880 
Si 4.0640129472 4.0605920471 6.8288335912 
Si 1.3184555971 1.3384385402 12.2743836773 
Si 4.3275851496 6.9342783934 20.3880636669 
Si 12.1932443015 6.7179960614 17.7380223841 
Si 10.9101135698 13.4875662634 13.3905974504 
H 14.6219530037 10.9861227105 23.6975518748 
H 14.0415565884 12.5676862449 28.6190571142 
H 2.8571194161 2.9191191567 19.8431877311 
Si 4.0301297469 1.4328895901 27.7370909792 
Si 2.6638385644 8.1258430343 10.8632962117 
Si 3.9571994162 6.8334107125 14.9223826964 
Si 10.4254860653 0.5665450282 17.0427483198 
Si 16.2562635587 2.6830607645 8.2016432015 
Si 16.2866118290 8.0991111441 13.6385574300 
Si 2.7183449049 1.0256558764 22.4353162524 
H 3.3938586310 2.5940196237 25.0121277965 
Si 2.6930628246 16.2633822887 8.2164058500 
Si 9.4983407069 4.0402458369 12.2749963564 
Si 12.2662072122 12.1106051308 12.1327381072 
Si 14.1683742396 9.7035947087 24.3603539475 
Si 12.7271327664 14.8010289754 27.1057105912 
Si 1.3366922522 4.0522026971 9.5258177622 
Si 6.0432642553 4.8523023444 0.2331982063 
Si 6.6959068212 6.8364080725 17.5243724335 
Si 5.9271002642 5.6348413715 21.6036773282 
Si 9.3251617153 0.9271404715 20.6885389968 
Si 9.4999859969 9.4606130665 1.3242883440 
Si 8.4185743370 13.5870492943 16.1212497960 
Si 4.0499546770 1.3368274592 9.5657002533 
Si 5.4256940596 8.0867470340 2.7037265585 
Si 6.7663284919 6.7513091118 12.2044507357 
H 6.1470641362 11.1608166721 22.4096420811 
Si 10.8210235590 10.8451164692 29.1199660316 
Si 16.2871168190 10.8356356891 10.8957098530 
Si 12.7964304270 13.8456041766 23.8350837425 
Si 2.6966629147 11.0668070812 26.5778729691 
Si 2.5882366737 16.2539177987 18.8666064398 
Si 9.4314865463 1.4262497860 15.0630946604 
Si 8.2287632553 5.4476692698 2.8270676115 
Si 12.1323848610 12.2886059624 1.3166065152 
Si 16.1731845579 10.5581844066 21.6618234912 
Si 16.2376115085 16.2559051787 10.9443740777 
Si 5.7779978928 1.7222439758 19.9256660065 
Si 2.6660051344 2.6926881546 10.8992400515 
Si 5.6043464913 5.0999592166 27.1268917825 
Si 8.1121594342 8.0803939339 29.1594400700 
Si 7.3368368771 12.4789709041 19.4777100674 
Si 12.2196992618 9.5023969169 4.0134273051 
Si 12.9329569183 8.6710693393 20.7421046543 
H 4.8736096646 3.2673179099 18.4279865630 
Si 6.8536428927 6.7125226214 1.4107927962 
Si 4.8370060342 4.4734458109 23.3080630259 
Si 10.8534243693 5.4282352996 16.3108885614 
Si 9.4408695863 12.1014990207 4.1898497073 
Si 16.2476950186 8.0488564936 19.0640933325 
Si 13.5631192840 10.8091481489 13.5948529883 
Si 5.4238207096 5.4057388094 5.4576869671 
Si 0.7457008208 1.1689215407 25.5259613251 
Si 2.7145330448 10.8669776494 13.5970411279 
Si 10.8456866192 2.7080496248 13.6822910468 
Si 9.4957343068 9.4640665466 6.8366525434 
Si 9.4219406062 12.2673638022 27.8872848814 
Si 16.2146914783 2.6741338445 13.6268290017 
Si 4.0208770268 4.0653324372 12.2333050032 
Si 8.1220474643 8.1385003644 5.4727121924 
Si 8.6853230894 0.2493396293 18.5374518934 
Si 10.3871719850 0.7823663532 28.1412841262 
Si 10.7694657085 5.2119692577 27.4191980580 
Si 10.8740800895 10.7821230386 5.4728580683 
Si 10.8531148593 13.6760578551 19.0544363431 
Si 2.6258665740 4.5336210715 22.5007853893 
Si 1.5109268358 9.3718162757 27.7610146388 
Si 6.7713295219 6.7627446919 6.8188556747 
Si 6.8624883628 14.9036071063 14.9409672954 
Si 11.0678170612 7.8387969417 19.4864334506 
Si 12.2097786517 12.1857671914 6.8110075473 
Si 14.9469547967 11.8283645882 27.6427383996 
Si 1.2241560442 1.4252821600 17.7122898624 
Si 5.4019269494 8.1274394543 8.1532999039 
H 8.1413022445 13.9088582472 24.3287280364 
Si 16.1013456573 1.9810594981 27.5215446409 
Si 12.5547031148 5.7997124630 25.9782060178 
Si 12.2227943618 9.4549115665 9.5028568840 
Si 2.7158525348 13.5722905541 16.3416683918 
Si 8.1180564143 5.4045659294 8.1874932321 
Si 6.9846470739 8.0164882633 24.7784344872 
Si 8.0714670138 8.1393311544 16.1518254000 
Si 9.4819692567 12.1966326215 9.5180571604 
H 14.1240980192 1.3786096806 24.4203089725 
Si 1.3949322608 6.8046425722 17.6972938124 
Si 2.8255982658 5.5921615711 19.0834948370 
Si 8.0027720832 2.4562388025 23.6413896251 
Si 5.3979847694 5.3984734694 10.8723988724 
Si 13.5941680243 5.4613528699 2.8896513216 
Si 16.2088270782 13.6080796845 2.6119355610 
Si 2.6190899339 13.6144653645 0.0991696960 
Si 2.7258708849 0.0010855086 13.6064355406 
Si 8.1183659242 8.1056108541 10.8446532623 
Si 4.9214208150 14.4181651019 19.7211770670 
Si 6.8648829928 15.0378367075 27.7997009469 
Si 13.4909382934 8.1593189846 29.1490245255 
Si 4.0527402671 14.9722694569 1.3713625206 
Si 7.4699261783 9.0186816525 20.3938111802 
Si 9.5155429470 3.9985271466 1.4991761309 
Si 9.0702395030 6.8114680823 27.4058941692 
Si 9.0191214825 13.9995120980 23.0977098723 
Si 14.9844706670 6.8054570722 4.1653425438 
H 0.2063600929 5.3530732390 20.7582385369 
Si 3.8792843455 6.7222477515 27.2304637236 
Si 4.0167067867 9.5101835370 12.1835029459 
Si 1.3120829490 14.8943380962 4.0442071355 
Si 11.2219204626 15.8278691348 0.6789680480 
Si 13.5600567640 8.1663073947 5.4345802129 
Si 2.6792326145 13.5465034839 5.4143326278 
Si 10.7644809684 2.6274792840 2.9116902636 
H 11.8855587787 11.1732948122 20.8278213762 
Si 13.5666542141 5.4132322095 8.1937367237 
Si 14.9465801267 9.4644900866 12.2619550444 
Si 13.9324787474 13.9713466878 21.7706177921 
Si 0.0339734469 5.3968281794 16.3828054163 
Si 1.8219061967 5.7156886423 26.5053434352 
Si 4.0104840067 14.8922203962 6.8281625618 
Si 8.0905263140 15.4162371210 21.5227745134 
Si 12.2614016621 1.3911220297 1.6317015352 
Si 14.9259244065 6.7776337520 9.5249425064 
Si 0.0026812363 13.5484094139 8.1719720285 
Si 5.3133093486 5.4797768601 16.2298690458 
Si 7.9210940224 5.3022973085 18.7611964614 
Si 9.4307534963 1.2867699178 4.2389223847 
Si 13.5791323542 8.1257290043 10.8910418218 
Si 13.7168317254 13.5317121638 16.3439732322 
Si 12.1841056114 4.0566335771 4.1466995944 
Si 2.1128944693 2.5484239133 24.1911961687 
Si 1.3170790920 14.9148472064 9.5655835525 
Si 6.6720908410 4.1312091978 14.8939368816 
Si 13.6929342952 0.1270115022 18.9834530944 
Si 13.5449559339 8.1008053041 16.3835931465 
Si 9.4881268768 4.0577412971 6.8496646802 
Si 2.7064532047 13.5657093941 10.8947470715 
Si 7.3609623673 11.7941067179 17.2603660969 
H 6.6778249211 12.2074491816 23.9331999222 
Si 16.1712786279 5.3850505093 0.1627354431 
Si 14.9199459765 12.2025621816 20.5009424951 
Si 7.8091328514 7.0848957348 21.7624779128 
Si 5.4788320401 10.8692582494 16.2021234357 
Si 5.3635965791 13.7800695060 26.4390282177 
Si 10.8653812294 16.2314538884 5.5005745033 
Si 10.8803680295 15.3621706105 23.5298528558 
Si 16.2781410289 8.1203858843 2.6967128417 
Si 2.7488723651 5.4313955597 2.7094128039 
Si 6.7525960218 1.2930285358 17.7747539542 
Si 8.0602920737 10.7703290785 13.4613181223 
Si 12.2127108517 1.3293796712 6.8391032598 
Si 14.6080413436 6.9899739039 20.4932110685 
Si 15.4027164209 4.6139796422 23.7485792903 
Si 0.0248339423 2.6952293947 19.3324467731 
Si 2.8750384163 7.9682209929 29.0704557262 
Si 1.2675330566 14.8549651659 27.8119253535 
Si 9.4878988168 1.3453878543 9.5337825903 
Si 8.6750278093 14.3990569317 19.5218813122 
Si 12.2547064721 1.7510935660 18.0571698387 
Si 1.3882647637 6.7694561719 1.3298345485 
Si 1.3776013296 14.9401781566 14.9647450791 
Si 10.8519745592 2.6930791146 8.1848674645 
Si 10.5587545566 11.6338131164 20.2364693553 
Si 14.8846618361 1.2688215956 20.6766355174 
Si 13.5364525538 5.3043172685 19.1082937525 
Si 1.1435449785 3.9562057262 28.0123005905 
Si 4.0701868572 6.7722580519 4.1023824736 
Si 1.3070444519 4.8053219839 24.4107978591 
Si 12.2114239417 4.0357335069 9.5496538962 
H 13.5098835636 7.0348691443 23.2914623402 
Si 14.9873865771 14.9963297872 17.6453911411 
Si 0.0253097732 5.3974309094 5.4755130110 
H 6.3872438984 7.8489130318 23.3856106934 
Si 6.6750882011 9.4246447462 14.7931949344 
Si 5.5027457603 16.2833701189 16.2816550164 
H 11.6298872264 11.7924451378 16.8783752730 
Si 10.8634427194 16.2899349890 10.8693646522 
Si 2.6914501146 8.1319354944 5.4370892797 
Si 2.4644000925 13.7745797760 23.8029618532 
Si 5.8607022236 15.9983928563 21.2792783386 
Si 12.1685975313 1.3125732780 12.3184673965 
Si 9.3896701159 14.8042869754 1.6193545928 
Si 12.4115954635 14.9808054170 20.2715379393 
Si 1.3608991925 6.7740173720 6.8196142297 
Si 4.0561448771 12.4120841635 27.9200486250 
Si 10.8427707092 10.8015570088 10.8230927934 
Si 10.7961487287 13.4421986129 2.8747486321 
Si 9.5085871170 14.9352259966 12.2016790922 
Si 14.3454628312 14.6317432938 25.4312878184 
Si 3.4669029917 1.6073799267 20.2701083548 
Si 1.3445749833 12.2142421117 12.2450042563 
H 4.6670687527 5.2610836081 24.5862283046 
H 10.2091059934 2.1687528798 28.7546342438 
Si 16.2626003687 8.1343789944 8.1425634323 
Si 12.2184286417 14.9014568263 4.1000484581 
Si 2.7048242047 5.4160829595 8.1814831420 
Si 7.4757254184 5.9970006548 25.8506812419 
Si 4.1969556384 9.6468403482 17.7245726194 
H 9.9915204614 3.2335324496 18.5578453545 
Si 9.4977379769 12.1615439612 14.6277424054 
Si 9.4855693467 14.8876917762 6.8346102798 
Si 10.8545972493 13.5393847538 8.1748895480 
Si 4.0536199271 6.7789206620 9.5290853840 
Si 1.4368643501 15.3227488101 22.3215038180 
Si 5.3513953689 10.9183888899 0.0669211863 
Si 8.7730284502 4.5001451212 24.5230056578 
H 9.9772667112 14.3761369015 25.5879294386 
Si 12.2120103817 14.9031998563 9.5305441437 
Si 2.7618554953 8.2365824553 16.4006898106 
Si 2.6818553045 10.9780265804 18.9584499526 
Si 1.0304972644 10.3958382651 23.6904039521 
Si 8.1357147744 10.8069327088 2.7144834527 
Si 15.4577766214 15.8164335547 22.1935705893 
Si 10.8323451091 13.4970144634 26.4715585597 
Si 4.0708873272 1.3553247544 14.9870932782 
Si 6.7639012819 12.2173209217 1.4091852430 
Si 4.1123779576 15.0031227172 17.6149614130 
Si 11.3820837441 0.3161172269 21.5861138610 
Si 14.8536130958 14.9295896565 12.3281535611 
Si 3.9681462963 4.1662652781 17.6188417139 
Si 6.7697005219 9.4568174965 4.0655050276 
Si 7.9143988324 10.9799813804 26.6006879714 
Si 4.0714737672 12.2500149520 14.9425719312 
Si 10.3907232050 4.4550381107 21.1257001138 
Si 14.8861279361 9.4786460967 1.3420502025 
Si 2.9238921267 8.3920216368 21.6046401096 
Si 5.4076447395 10.8310256191 5.4144785038 
Si 10.4493834956 8.2509013655 26.2200975568 
Si 13.8556388167 2.4873852828 27.2454305985 
Si 16.2625514987 5.4021224294 10.8778254586 
Si 13.5584766340 10.9217934999 2.6535714813 
Si 15.0277369074 4.0392358569 17.8275610566 
Si 6.7428546017 12.1816621114 6.8084693054 
H 8.5183668779 7.1862846957 23.0891615403 
Si 10.7904635187 10.8651368794 16.0554597320 
Si 10.5486221765 14.5507657031 16.8111264493 
Si 14.9063438263 12.2528819921 4.0433610548 
Si 1.3156048470 6.7627121118 12.2314086156 
Si 1.6929056855 14.5033292226 20.1599719949 
Si 2.5806781136 16.2817736989 26.4629227021 
Si 6.7675339519 9.4807963767 9.5012814235 
Si 5.2775690883 8.4539887973 26.3165215752 
Si 14.9171440964 9.5151031170 6.7884551218 
H 3.2573810098 7.2869080266 24.1415108122 
Si 5.3858650093 0.0482144908 29.1378212507 
Si 8.1270647843 10.8437481092 8.1580554606 
Si 15.1729785488 0.2669751834 24.3997696355 
H 13.8463698066 6.3524647481 26.9000254687 
Si 13.5730724741 10.8461916092 8.1742476937 
Si 5.3716764191 2.6534292543 2.8669209274 
Si 5.3795281992 2.7035861647 13.5689162403 
Si 5.3924624593 10.8446277692 10.8324580309 
Si 6.1938001467 11.9052370989 25.3178254863 
H 10.3424885146 8.3695251466 21.9858140281 
Si 14.9448045167 12.1940588015 9.5276266243 
Si 1.3913794117 9.4719509066 14.9504200585 
Si 1.2631200955 12.1981475916 17.5793093251 
Si 8.0703430038 0.0041175745 2.8285117836 
Si 6.8022968122 1.3352538452 12.2734792463 
Si 9.4929487168 9.4468480164 12.1783389365 
Si 12.3035438925 8.9945235823 23.0760910531 
Si 2.6554003443 2.7037001947 16.3336452133 
Si 0.4075481107 7.6640052401 26.5088736337 
Si 7.6766788602 3.1177594185 0.3144998460 
Si 12.1456123411 3.4837631419 19.8612763518 
Si 8.4839623976 0.2350923951 26.8584508163 
Si 11.4219942445 4.7878916838 0.3756860643 
Si 15.0284373774 6.8841214830 27.9556423625 
Si 6.6868332912 1.3309369952 1.4660885427 
Si 10.8481789892 8.0972215040 2.7004735242 
Si 11.8686497585 12.0112849999 25.0019456536 
Si 12.1419470910 14.6181411437 15.0185441381 
Si 13.6248583846 10.5309801063 19.3220020534 
Si 6.8014986022 4.0569919571 4.1077215343 
Si 4.4134986104 10.2949380042 25.2048007821 
Si 11.0309527909 1.8984529074 25.1931307043 
Si 12.2782781023 6.7238604615 1.4170975558 
Si 13.5855017442 5.4254985796 13.6241740590 
H 13.0695159895 12.7026000262 17.4185248273 
Si 16.2903259490 13.5779268942 13.6112202725 
Si 5.6433610416 8.3012700459 19.0121031356 
Si 5.3977892894 16.2515557486 5.5244689877 
Si 9.5407924473 6.8078028323 4.1715568602 
Si 14.8315238556 1.3361025542 15.0070491114 
Si 16.2712666488 10.7881503387 16.2588400141 
Si 8.1020759241 2.7073002848 5.5254025939 
Si 5.5564701808 2.8085915057 26.4622516726 
Si 10.8581647593 5.4163761795 5.5125946835 
Si 12.0171331099 9.3680207057 27.6930072600 
Si 16.2136489183 13.5000932735 19.0026211973 
Si 16.1033330373 13.4677739132 26.4638271332 
Si 6.7537851918 1.3334163332 6.8620641380 
Si 6.8030624422 3.8624079053 20.3137252708 
Si 9.5133275070 6.7718019319 14.9240748577 
Si 12.2172231817 9.4178843961 14.9398002877 
Si 13.7818614060 3.9472788061 25.3137117839 
Si 12.2368363419 6.7793116220 6.8179804188 
Si 5.3946290293 2.6915478546 8.2008262960 
Si 9.3488310855 4.0716855372 17.4744828506 
Si 8.6239423689 2.9712634472 21.4587057859 
Si 9.4963533269 6.7390590316 9.5331115609 
Si 10.8513066692 8.1116870242 13.5545620445 
Si 14.9313326866 6.7509507317 15.0309727710 
Si 3.3282099304 12.8295479973 20.2925149043 
Si 7.7612728310 2.4269168022 27.2602515974 
Si 5.3250707287 8.0825767939 13.4822659121 
Si 8.1370505544 16.2650112888 8.1839046831 
Si 10.8520560092 8.0942078540 8.1755022270 
Si 13.6783221651 0.0490480501 2.8868300802 
Si 4.0517465771 9.4364061263 1.3422456763 
Si 6.7683484519 4.0395290769 9.5425059735 
Si 10.8516324692 5.3883085093 10.9019533446 
Si 13.1265309901 3.1193884185 0.2502035520 
H 15.3355527503 3.5364612923 22.6896947748 
Si 12.2510412220 3.2247521395 23.7009945478 
Si 0.0562902584 10.6576348575 29.1047657551 
Si 5.7047091822 2.4032800120 24.1086595430 
Si 5.4407623098 16.2797211589 10.8980438685 
Si 14.8510881458 4.0585883771 1.5268342155 
Si 12.2249283518 6.7521724817 12.2341510839 
Si 14.9572012068 9.4603035565 17.7021660699 
H 6.0997253958 13.3962608125 19.8919103062 

