&CONTROL
/
&SYSTEM
   ntyp             = 2
   nat              = 407
   ibrav            = 0
/
&ELECTRONS
/
&IONS
/
&CELL
/

ATOMIC_SPECIES
Si 28.085 None
H 1.008 None

K_POINTS gamma

CELL_PARAMETERS angstrom
16.29000014900000 0.00000000000000 0.00000000000000
0.00000000000000 16.29000014900000 0.00000000000000
0.00000000000000 0.00000000000000 29.17519467510000

ATOMIC_POSITIONS angstrom
Si 2.6698984444 10.8080078488 2.6941308369 
Si 8.1352586544 2.6981941747 10.9093638441 
Si 4.7928764238 0.2996887617 23.2882530687 
Si 8.9413693118 10.0159228816 17.2273689517 
Si 15.0053055772 1.3832588466 4.2233720060 
Si 12.2377322919 4.0926181874 14.9906234768 
Si 0.1021441653 0.1496717069 29.0909658881 
Si 1.2834109197 12.1462476511 1.3217821947 
Si 4.0087735567 15.0927177180 25.0001367915 
Si 7.9006012023 2.7449627651 16.2638289724 
Si 8.1957597150 16.2820180489 13.6371278454 
Si 13.5634450840 2.7167810649 5.5056801623 
H 15.1310969584 9.3970006159 21.9234374618 
Si 1.2981598859 4.0396105269 14.9646867287 
Si 0.0157445784 2.6722767844 2.7522244846 
Si 1.3236618811 9.4797212367 4.0748702651 
Si 9.6985610987 3.4449440715 26.3586505564 
Si 14.9310720466 4.0672383672 6.8426334583 
Si 12.2842565323 0.7922266902 26.7980581634 
Si 13.3595757322 10.6916646678 26.2974118227 
Si 1.3394110533 4.3760804800 20.4701918399 
Si 4.0320030969 12.1764656014 4.0569566955 
Si 2.7264736149 16.2831420589 2.7874535321 
Si 6.6622516809 9.4883712268 27.9491654693 
Si 12.8715273277 2.1536357597 21.6580890663 
H 12.4224120236 10.9784664104 18.5484801170 
Si 13.5734797241 16.2692955588 8.1930948694 
Si 2.7836678055 2.7691697053 0.0476168352 
Si 4.0540923371 9.4868236768 6.7919269700 
Si 1.3803331626 9.4856670868 20.2428003726 
Si 7.2363764462 11.1792243722 21.2958790244 
Si 5.3858650093 13.5732190841 2.7369308475 
Si 8.8941446013 9.5265224071 25.1038837838 
Si 14.9044704763 1.3365000302 9.5748612644 
Si 1.4466416082 1.3639861475 1.3994932433 
Si 2.6411791742 5.4064392794 13.5999586474 
Si 8.0926603040 13.6178536845 0.0742298643 
Si 9.3884483659 6.3107460577 20.2319763754 
Si 13.5321194138 2.6757139745 10.9406104776 
Si 16.2599939687 10.8705940294 5.4033919298 
Si 12.9701306986 14.2820947306 0.2196629582 
Si 1.3338431312 12.2001512616 6.7833786379 
Si 4.1702074581 4.0465989370 1.4244059420 
Si 6.7223780715 14.8991762263 4.1411854826 
Si 5.4496240698 13.5783015642 13.5973912303 
Si 9.5837654677 9.6316417781 19.3784852303 
Si 16.1943941381 8.3161102361 24.2864531794 
Si 14.9112308264 15.1339314184 1.2861680346 
Si 2.0848267991 6.9199594833 23.2370214269 
Si 1.3769171496 4.0690791372 4.0700271828 
Si 1.3259278201 9.4896255568 9.5034112127 
Si 8.1086245042 13.5436038639 5.4797142391 
Si 14.8995346063 4.0785599173 12.2359599460 
Si 14.9546436768 6.7329339916 22.8716312888 
Si 13.5680225741 13.5578576140 5.4667604526 
Si 4.0271649668 1.3218602071 4.2121687312 
Si 2.6857486146 10.8414675092 8.1424467315 
Si 3.8744136354 12.4249858436 22.5006395133 
Si 5.3949711193 13.5487515039 8.1614106080 
Si 9.2185436643 0.5697166912 24.5942806584 
H 9.6634724384 8.8139652206 21.9594688273 
Si 14.9243931465 14.9068488163 6.8343477030 
Si 4.0292175069 12.2043377916 9.5043156437 
Si 3.3776337909 10.2163550434 23.0937128707 
Si 0.0331283217 16.2397617885 5.4991740939 
Si 8.1288241043 5.4326661797 13.5889595990 
Si 6.7591446018 14.9112471164 9.5147020130 
Si 13.5842962842 2.7910471755 16.4233589369 
Si 13.6011564344 13.5650740841 10.8807138029 
Si 2.6720650144 2.7179050749 5.5013914087 
Si 1.2857403898 12.2452582720 25.1257360046 
Si 8.1262828643 13.5689185241 10.8684893963 
H 5.2392875879 13.0037369689 22.7815674628 
Si 10.7593659084 5.0909671366 23.3610160043 
Si 11.5279281154 7.1274452152 24.3713238207 
Si 13.4254362028 16.2125249083 13.7511736814 
Si 1.3465281543 1.3352212652 6.8620933132 
Si 0.0267698459 0.1081900360 16.2057703350 
Si 6.7409812517 12.2107234717 12.1865663414 
Si 4.0794069973 14.9317399366 12.2485052797 
Si 10.5163191062 10.5499253765 23.7091927775 
Si 9.3019321751 11.8733249886 22.1844095782 
Si 14.9862136971 12.1546532912 14.8975254306 
Si 4.0640781072 4.0624653972 6.8301172998 
Si 1.3156146210 1.3448307363 12.2746754293 
Si 4.3235126495 6.9267849934 20.3885012948 
Si 12.1925601215 6.7189408815 17.7468916433 
Si 10.8924877896 13.4839010133 13.3894596178 
H 14.6473654040 10.9638379903 23.7173910072 
H 14.0527641085 12.5679468849 28.6123759946 
H 2.8166876358 2.8821245664 19.8280458051 
Si 4.0344628869 1.4262253510 27.7359823218 
Si 2.6638874344 8.1319192044 10.8688978491 
Si 3.9516771061 6.8373366025 14.9199611553 
Si 10.3938671751 0.5821019783 17.0496920162 
Si 16.2574853087 2.6855531346 8.2019057782 
Si 16.2842660689 8.1039981441 13.6413582486 
Si 2.7205929249 1.0233345514 22.4482116885 
H 3.3942984610 2.5815251936 25.0209678805 
Si 2.6930302446 16.2651416088 8.2167559523 
Si 9.4955714068 4.0452142870 12.2754048092 
Si 12.2650017522 12.1157364808 12.1362391306 
Si 14.1799727197 9.6833625286 24.3698067105 
Si 12.7177823063 14.7928351053 27.0925525784 
Si 1.3372281932 4.0557050471 9.5261678645 
Si 6.0461638753 4.8475456643 0.2309035772 
Si 6.6836567411 6.8242068624 17.5208422350 
Si 5.9213987642 5.6289281015 21.6033564011 
Si 9.3150293352 0.9175798704 20.6843085936 
Si 9.5027715869 9.4565079865 1.3276726666 
Si 8.4087188869 13.5867886543 16.1423142866 
Si 4.0492216270 1.3389647072 9.5660795309 
Si 5.4289520597 8.0846130439 2.7056229461 
Si 6.7640641819 6.7567988418 12.2084769126 
H 6.1189475960 11.2295278927 22.3164273341 
Si 10.8315631891 10.8375904891 29.1281642613 
Si 16.2888761390 10.8385515991 10.8980438685 
Si 12.7680043768 13.8455878866 23.8254559283 
Si 2.7184426449 11.0617083112 26.5751596760 
Si 2.6073122638 16.2149358283 18.8941478235 
Si 9.4198554862 1.4324155511 15.0594769362 
Si 8.2305877353 5.4445741698 2.8288764735 
Si 12.1391777910 12.2871724424 1.3192935507 
Si 16.1646485978 10.5034988761 21.7043901002 
Si 16.2368132985 16.2604500887 10.9457744870 
Si 5.7639559127 1.7020769556 19.9228943630 
Si 2.6658585244 2.6950502046 10.8996776794 
Si 5.6076696513 5.0932314466 27.1232740584 
Si 8.1150264742 8.0741059938 29.1645749042 
Si 7.0193773542 12.6876620960 19.4538155830 
Si 12.2225663018 9.5027227169 4.0140108090 
Si 12.9210652182 8.6422523290 20.7711047978 
H 4.8559350144 3.2668129199 18.4318668639 
Si 6.8544411027 6.7071469213 1.4126775138 
Si 4.8396124343 4.4606744508 23.3071585949 
Si 10.8474948092 5.4353214497 16.3159066949 
Si 9.4446162864 12.1016945007 4.1916585694 
Si 16.2494217586 8.0486610136 19.0730792925 
Si 13.5684624041 10.8125364689 13.5928398999 
Si 5.4255148696 5.4061134794 5.4595250043 
Si 0.7449449648 1.1549854456 25.5205347389 
Si 2.7157059248 10.8729723694 13.6129124338 
Si 10.8425100692 2.7114379448 13.6811240390 
Si 9.4961252668 9.4659887666 6.8382280039 
Si 9.4341418163 12.2619229421 27.9053443269 
Si 16.2104723683 2.7070559348 13.6013007064 
Si 4.0190525468 4.0625142672 12.2401903492 
Si 8.1234158243 8.1379790844 5.4756588870 
Si 8.6548607891 0.2414308342 18.5431118812 
Si 10.3920915650 0.7766746271 28.1404963959 
Si 10.7681787985 5.2048016576 27.4236035124 
Si 10.8770611595 10.7825139986 5.4748419816 
Si 10.8152406089 13.6688413850 19.0505268670 
Si 2.6294177941 4.5320572314 22.4976928186 
Si 1.5252620359 9.3698940557 27.7608395876 
Si 6.7711340419 6.7640804719 6.8225317492 
Si 6.8557605927 14.9044704763 14.9564593238 
Si 11.0602585012 7.8225232315 19.5046679473 
Si 12.2113913617 12.1883735915 6.8124079566 
Si 14.9526074268 11.8248296581 27.6341608924 
Si 1.2380416403 1.3883087467 17.7315746661 
Si 5.4028880594 8.1286286243 8.1593683444 
H 7.9717722129 13.9297746074 24.2747831015 
Si 16.1051086473 1.9703895480 27.5173434129 
Si 12.5556642248 5.7915674630 25.9856165172 
Si 12.2216214818 9.4596030865 9.5028860592 
Si 2.7417047651 13.5959599243 16.3634622622 
Si 8.1173559442 5.4064555695 8.1917236353 
Si 6.9980863240 8.0219942834 24.7881498270 
Si 8.0562684437 8.1387121344 16.1598194034 
Si 9.4816760367 12.1993367616 9.5208579791 
H 14.1279261692 1.3726736046 24.4116147645 
Si 1.3900077937 6.8047403122 17.7002113318 
Si 2.8158568457 5.5882356811 19.0865874076 
Si 8.0024462832 2.4436140524 23.6418272530 
Si 5.3958670694 5.3987666894 10.8797218463 
Si 13.5970350644 5.4594143599 2.8906637008 
Si 16.2131439283 13.6064995544 2.6065760777 
Si 2.6288476440 13.6082262945 0.0891561857 
Si 2.7265550649 0.0058652146 13.6050643065 
Si 8.1197342843 8.1098136742 10.8507217028 
Si 5.2107800877 14.1550327295 19.6154169863 
Si 6.8760253529 15.0313044175 27.8019766121 
Si 13.4993602235 8.1554256746 29.1521462713 
Si 4.0556398871 14.9679200269 1.3684304135 
Si 7.4578552882 9.0460814327 20.3816451240 
Si 9.5172371070 3.9953180165 1.5005065198 
Si 9.0690503329 6.8045937022 27.4089575647 
Si 8.9482111118 13.9928169080 23.1110429363 
Si 14.9864743371 6.8058643222 4.1654008942 
H 0.2047929949 5.3439834189 20.7638693495 
Si 3.8884393256 6.7214169615 27.2306971252 
Si 4.0141003867 9.5181167670 12.1918762268 
Si 1.3131825240 14.8934910162 4.0424566238 
Si 11.2268237527 15.8243179147 0.6787463165 
Si 13.5620930140 8.1670730247 5.4353387680 
Si 2.6800308245 13.5468292839 5.4141575766 
Si 10.7672013985 2.6252149740 2.9126121998 
H 11.8743186786 11.1677725021 20.8445971131 
Si 13.5657419741 5.4145679895 8.1928322927 
Si 14.9447556467 9.4637896166 12.2595335033 
Si 13.9154882773 13.9705973478 21.7608441019 
Si 0.0250144355 5.4041423894 16.3832722194 
Si 1.8331462968 5.7097590822 26.5069772461 
Si 4.0101419167 14.8937353662 6.8278708098 
Si 8.0729819838 15.4205051010 21.5218992575 
Si 12.2638940322 1.3883787937 1.6324338326 
Si 14.9230247865 6.7854529521 9.5186698395 
Si 0.0040530009 13.5506574339 8.1741309929 
Si 5.3001470285 5.4750201801 16.2247050363 
Si 7.9052927223 5.2946410084 18.7627135715 
Si 9.4324802363 1.2873156328 4.2415481523 
Si 13.5759883842 8.1286937843 10.8895830621 
Si 13.7193729655 13.5050943035 16.2874317049 
Si 12.1853273614 4.0560960071 4.1480416533 
Si 2.1147841093 2.5434228833 24.1989567705 
Si 1.3177681591 14.9180237564 9.5679467433 
Si 6.6661612810 4.1360147478 14.8890354489 
Si 13.5784318842 0.2062411759 18.9695657018 
Si 13.5430337139 8.1126807142 16.3965177578 
Si 9.4869051268 4.0602825371 6.8519695206 
Si 2.7137837048 13.5698470541 10.8922088296 
Si 7.3608320473 11.8097614080 17.3178995808 
H 6.7720625719 12.1602244712 23.9392391875 
Si 16.1766706179 5.3775896892 0.1625787723 
Si 14.8889135262 12.1369134810 20.5772064540 
Si 7.7879721412 7.0998336649 21.7623903872 
Si 5.4941609302 10.8836911895 16.2195410269 
Si 5.3911755493 13.7772839160 26.4320845213 
Si 10.8679061794 16.2325616085 5.5025875917 
Si 10.8327686491 15.3304702702 23.5199332897 
Si 16.2826533589 8.1187894642 2.6965173678 
Si 2.7522769752 5.4287728697 2.7095440923 
Si 6.7375440616 1.3047247559 17.7694148936 
Si 8.0594449937 10.7723816185 13.4670948109 
Si 12.2124665017 1.3324878032 6.8424584071 
Si 14.6125373836 6.9822687339 20.5089364984 
Si 15.4110080309 4.6007847421 23.7587322581 
Si 0.0128594890 2.6867260146 19.3180925774 
Si 2.8824340764 7.9639855928 29.0732273697 
Si 1.2718450196 14.8473414458 27.8040480509 
Si 9.4847385567 1.3492062303 9.5349787733 
Si 8.6270211789 14.3832393415 19.5159295725 
Si 12.1742990313 1.8387989268 18.0551567503 
Si 1.3916889217 6.7656931819 1.3294698585 
Si 1.3909770487 14.9382396466 14.9672541459 
Si 10.8506387792 2.6974611247 8.1879892104 
Si 10.5594061566 11.6322492764 20.2422460439 
Si 14.8573597959 1.2666843476 20.6557460780 
Si 13.5358661138 5.3072657585 19.1212475389 
Si 1.1475979305 3.9480770161 28.0096164726 
Si 4.0718158572 6.7712643619 4.1033744303 
Si 1.3180222830 4.8029925139 24.4113813630 
Si 12.2077098216 4.0432757770 9.5529506932 
H 13.5083848835 7.0038366941 23.3122059036 
Si 14.7610858950 15.2372588894 17.4213839963 
Si 0.0271381628 5.3976915494 5.4755421862 
H 6.3958450185 7.9266163325 23.3892575927 
Si 6.6713740810 9.4337508563 14.8013639889 
Si 5.4872051002 16.2744757788 16.2983140525 
H 11.3920206442 11.7780936477 17.1339499784 
Si 10.8589303893 0.0026924438 10.8700065065 
Si 2.6940239346 8.1321798444 5.4382562874 
Si 2.4820258727 13.7647894859 23.8156530629 
Si 5.8393460334 15.9252181756 21.2104540544 
Si 12.1663983813 1.3136125800 12.3175921407 
Si 9.3949969459 14.8053458254 1.6247257462 
Si 12.3902718533 14.9700377269 20.2492772658 
Si 1.3616306135 6.7755812120 6.8201393832 
Si 4.0760349673 12.4118561035 27.9126381255 
Si 10.8430802192 10.8049453288 10.8260978385 
Si 10.8016547488 13.4413026629 2.8770447199 
Si 9.5000348669 14.9386306066 12.2015040410 
Si 14.3360472111 14.6211547937 25.4138410520 
Si 3.4559886916 1.5948838676 20.2834705940 
Si 1.3577128684 12.2142909817 12.2404529259 
H 4.6849551728 5.2560662881 24.5832524348 
H 10.2136997734 2.1649084398 28.7488867305 
Si 16.2637569587 8.1399990445 8.1401418911 
Si 12.2219147018 14.9023364863 4.1017989698 
Si 2.7062251447 5.4195038596 8.1834962304 
Si 7.4755788084 5.9920973648 25.8470926929 
Si 4.1978352984 9.6383043882 17.7203130410 
H 9.9647397011 3.2366438396 18.5667729641 
Si 9.4859603068 12.1672128813 14.6429135066 
Si 9.4875893068 14.8889461062 6.8365358426 
Si 10.8564543093 13.5414372938 8.1781571698 
Si 4.0529031671 6.7812012620 9.5357665036 
Si 1.4404758432 15.3263814802 22.3621156890 
Si 5.3564126890 10.9174277798 0.0728837208 
Si 8.7684835402 4.4888398610 24.5265942067 
H 9.9166679107 14.3052428208 25.5549031182 
Si 12.2127434317 14.9065555963 9.5346286710 
Si 2.7571802652 8.2354258653 16.4008940370 
Si 2.7054432247 10.9741332704 18.9717246662 
Si 1.0676743028 10.3795156849 23.7048456735 
Si 8.1401293645 10.8046032388 2.7182032900 
Si 15.4592590114 15.8056984446 22.1655624025 
Si 10.8193945590 13.4894559034 26.4635353812 
Si 4.0649414772 1.3498301373 15.0000178895 
Si 6.7689023119 12.2155616017 1.4149181687 
Si 4.1504313980 14.9778895070 17.6728741744 
Si 11.3650932739 0.2947496337 21.5891480813 
Si 14.8588258959 14.9340205366 12.3350680823 
Si 3.9554563862 4.1654670681 17.6175580053 
Si 6.7718508019 9.4554817165 4.0678098680 
Si 7.9284733925 10.9721621803 26.6274124497 
Si 4.0755625573 12.2544621221 14.9601937487 
Si 10.3700511948 4.4609188008 21.1384204987 
Si 14.8941100362 9.4788578667 1.3408190093 
Si 2.9431631969 8.4047929969 21.6060696942 
Si 5.4092248695 10.8301459590 5.4160539643 
Si 10.4578380056 8.2431310354 26.2326720657 
Si 13.8587339167 2.4769108126 27.2469768838 
Si 16.2630890687 5.4155290995 10.8687811483 
Si 13.5648948941 10.9201970799 2.6544729948 
Si 15.0200643174 4.0464523270 17.8282029109 
Si 6.7449560117 12.1820856514 6.8085276557 
H 8.5137568079 7.1798990157 23.0830347494 
Si 10.7634058284 10.8877962696 16.1012647877 
Si 10.5388807564 14.5682937432 16.8126727346 
Si 14.9109701864 12.2544458321 4.0422815726 
Si 1.3136484180 6.7671104119 12.2338009815 
Si 1.8022930365 14.4819241624 20.2460679944 
Si 2.5885136037 16.2746712588 26.4583130214 
Si 6.7679412019 9.4843475967 9.5071164624 
Si 5.2853068383 8.4578821074 26.3183596125 
Si 14.9174047364 9.5195991571 6.7877257419 
H 3.2816368200 7.2830635866 24.1282360986 
Si 5.3916805393 0.0419899189 29.1362749654 
Si 8.1274557443 10.8453282392 8.1609438049 
Si 15.1716753488 0.2560364483 24.3810683357 
H 13.8501002167 6.3453134380 26.9055687557 
Si 13.5745222841 10.8499708892 8.1761732565 
Si 5.3740221791 2.6514255843 2.8663753512 
Si 5.3743805591 2.6966629147 13.5770269444 
Si 5.3921203693 10.8487980092 10.8384389458 
Si 6.2351441670 11.8992423788 25.3224643423 
H 10.3065527743 8.3803417066 22.0072286210 
Si 14.9454072467 12.1982127516 9.5312735236 
Si 1.3847168017 9.4761700167 14.9594351937 
Si 1.2983928329 12.1917782015 17.5692730581 
Si 8.0729168238 0.0038247454 2.8315197462 
Si 6.7983220522 1.3344149102 12.2770386201 
Si 9.4952618968 9.4516209864 12.1857494359 
Si 12.2964088725 8.9935787622 23.0934794691 
Si 2.6429710742 2.6961090547 16.3414058150 
Si 0.4203113258 7.6563163600 26.5177720681 
Si 7.6794481602 3.1124814585 0.3142693620 
Si 12.1309839209 3.5081004021 19.8879716549 
Si 8.4915535377 0.2252092521 26.8573713341 
Si 11.4250893445 4.7841124038 0.3788048926 
Si 15.0349045075 6.8784688529 27.9579472029 
Si 6.6888858312 1.3270290241 1.4666312013 
Si 10.8513718292 8.0947942940 2.7032451677 
Si 11.8606513685 12.0032214498 24.9976860751 
Si 12.1213565309 14.6084648836 15.0097040541 
Si 13.6151658345 10.4841626459 19.3527235334 
Si 6.8019547222 4.0557376271 4.1092094692 
Si 4.4407517806 10.3033925142 25.1986448161 
Si 11.0287373509 1.8989904774 25.1972152315 
Si 12.2813732023 6.7218893715 1.4183258315 
Si 13.5795396042 5.4413813298 13.6220150946 
H 13.1666858404 12.7090834462 17.4231345080 
Si 0.0221078108 13.5833840442 13.6037222475 
Si 5.6381971116 8.2877819258 19.0061513959 
Si 5.3987178194 16.2522399286 5.5248482652 
Si 9.5413300173 6.8067928523 4.1731031455 
Si 14.8170420455 1.3855003507 14.9716596002 
Si 16.2682041288 10.7908870587 16.2767244085 
Si 8.1030207441 2.7078541448 5.5274448576 
Si 5.5591906108 2.7992736256 26.4572043640 
Si 10.8587511993 5.4162132795 5.5138492168 
Si 12.0270048500 9.3639807856 27.6975002400 
Si 0.1027053558 13.2954908716 19.2283205033 
Si 16.1041149573 13.4638968931 26.4509608723 
Si 6.7535408418 1.3345908422 6.8631727954 
Si 6.7945264821 3.8492455852 20.3157091841 
Si 9.5102649870 6.7842637821 14.9311352548 
Si 12.2196015218 9.4560355765 14.9744312437 
Si 13.7840768461 3.9394433160 25.3193717716 
Si 12.2365105419 6.7812664220 6.8180387692 
Si 5.3946290293 2.6934863646 8.2019933038 
Si 9.3392525654 4.0757743273 17.4751830553 
Si 8.6167421888 2.9611473571 21.4599894944 
Si 9.4951315768 6.7435713617 9.5358248540 
Si 10.8561610893 8.1377836044 13.5795943615 
Si 14.9235297765 6.7625003419 15.0345029696 
Si 3.4296803414 12.8240256873 20.2827120389 
Si 7.7618429810 2.4156441221 27.2611852036 
Si 5.3238001087 8.0904611540 13.4876341479 
Si 8.1372786144 16.2664448088 8.1843714862 
Si 10.8521374593 8.0964232941 8.1766692348 
Si 13.6824435351 0.0460357033 2.8847673940 
Si 4.0546461971 9.4349726063 1.3456241638 
Si 6.7658560819 4.0417770970 9.5462112233 
Si 10.8505899092 5.3985060494 10.9088970410 
Si 13.1298704401 3.1151367285 0.2505624069 
H 15.3416126303 3.5214093322 22.7029986636 
Si 12.2481578920 3.2249313295 23.7065086596 
Si 0.0636862443 10.6559569875 29.0986097891 
Si 5.7044974122 2.3845302218 24.0992651303 
Si 5.4405179598 16.2812361289 10.8975187150 
Si 14.8536782558 4.0554118271 1.5277853268 
Si 12.2160177217 6.7725186919 12.2439247741 
Si 14.9536336968 9.4630239866 17.7195544859 
H 15.6893063935 14.6481310340 18.6668438818 

