&CONTROL
/
&SYSTEM
   ntyp             = 2
   nat              = 407
   ibrav            = 0
/
&ELECTRONS
/
&IONS
/
&CELL
/

ATOMIC_SPECIES
Si 28.085 None
H 1.008 None

K_POINTS gamma

CELL_PARAMETERS angstrom
16.29000014900000 0.00000000000000 0.00000000000000
0.00000000000000 16.29000014900000 0.00000000000000
0.00000000000000 0.00000000000000 29.17519467510000

ATOMIC_POSITIONS angstrom
Si 2.6712179344 10.8075191488 2.6921760989 
Si 8.1382397244 2.6930628246 10.9093054937 
Si 4.7796000737 0.3017771398 23.2801131894 
Si 8.9518926519 10.0376374518 17.2333790419 
Si 15.0073092473 1.3825388286 4.2238971595 
Si 12.2432220220 4.0807427773 14.9959917126 
Si 0.1028936682 0.1500988307 29.0911117640 
Si 1.2854031868 12.1465897411 1.3198478793 
Si 3.9947804465 15.0912679080 24.9869496035 
Si 7.9108801923 2.7412486451 16.2630412422 
Si 8.2042142250 16.2786460189 13.6390242331 
Si 13.5645853841 2.7153312548 5.5053008848 
H 15.1317485584 9.3782996958 21.9744065269 
Si 1.3018283939 4.0368738069 14.9597561208 
Si 0.0168837707 2.6716903444 2.7517255887 
Si 1.3253902501 9.4788415767 4.0735282061 
Si 9.7001086487 3.4494075315 26.3590006587 
Si 14.9333363566 4.0641432672 6.8427501591 
Si 12.2862439124 0.7952240503 26.8020843402 
Si 13.3606345822 10.7012757679 26.2891844178 
Si 1.3433499753 4.3842254801 20.4715630740 
Si 4.0335017769 12.1752112714 4.0557313374 
Si 2.7280048749 16.2820832089 2.7861960812 
Si 6.6652164610 9.4947080368 27.9427761016 
Si 12.8698331677 2.1652993998 21.6550840212 
H 12.4167431036 11.0357257609 18.5209095581 
Si 13.5753367842 16.2647669388 8.1930073439 
Si 2.7847755255 2.7703751653 0.0467835917 
Si 4.0554444071 9.4845430767 6.7901472831 
Si 1.3623946145 9.4877196268 20.2384532686 
Si 7.2320433061 11.1877440423 21.2919111979 
Si 5.3865980593 13.5727955441 2.7356354689 
Si 8.9009375314 9.5262128971 25.1019582209 
Si 14.9068162363 1.3297364222 9.5761741482 
Si 1.4484465402 1.3641457895 1.3988572240 
Si 2.6454960242 5.4033115994 13.5964867992 
Si 8.0886366740 13.6199225146 0.0687644751 
Si 9.3970494859 6.3115768477 20.2318888498 
Si 13.5356706338 2.6692468444 10.9420692373 
Si 16.2610691087 10.8675803794 5.4034211050 
Si 12.9725579086 14.2837726006 0.2294483185 
Si 1.3352685062 12.1973493816 6.7826784333 
Si 4.1719504882 4.0467129670 1.4236269643 
Si 6.7236486915 14.8978404463 4.1402518763 
Si 5.4573292399 13.5754182342 13.5885511463 
Si 9.5843356177 9.6367894181 19.3816653266 
Si 16.1857115680 8.3214696461 24.2832147327 
Si 14.9147494664 15.1354626784 1.2904859634 
Si 2.0854783991 6.9215559033 23.2321783446 
Si 1.3789354806 4.0680202872 4.0690060509 
Si 1.3279266031 9.4865956168 9.5039363662 
Si 8.1088525642 13.5415513238 5.4795100127 
Si 14.9078099263 4.0565521271 12.2483594037 
Si 14.9495611967 6.7380653416 22.8716021136 
Si 13.5691628741 13.5557073340 5.4650391161 
Si 4.0292012168 1.3198874881 4.2112351250 
Si 2.6868726246 10.8384375691 8.1418048772 
Si 3.8001963948 12.4298076837 22.4720478225 
Si 5.3956064293 13.5451839939 8.1642989523 
Si 9.2163933843 0.5841300833 24.5969064259 
H 9.6721550085 8.7982453705 21.9489657572 
Si 14.9260221465 14.9033953363 6.8334140968 
Si 4.0271486768 12.2013730116 9.5068830609 
Si 3.3724047008 10.2163387534 23.0840850564 
Si 0.0345910008 16.2368784585 5.4983280133 
Si 8.1296874743 5.4275674096 13.5884344455 
Si 6.7618487418 14.9075004163 9.5166567511 
Si 13.5968232944 2.7736657454 16.4221335787 
Si 13.6030949444 13.5594540340 10.8820850371 
Si 2.6733519244 2.7152823848 5.5003119265 
Si 1.2740914107 12.2448836020 25.1149703577 
Si 8.1341998044 13.5665564741 10.8678183669 
H 5.1519243171 13.0146023990 22.7533550496 
Si 10.7600663784 5.0957726866 23.3562896227 
Si 11.5344604055 7.1340100852 24.3651678546 
Si 13.4325386428 16.2096089982 13.7523990396 
Si 1.3488804303 1.3310265902 6.8611888821 
Si 0.0067046708 0.0506961095 16.2749155464 
Si 6.7468293617 12.2054780916 12.1793600683 
Si 4.0770123673 14.9273905065 12.2497014626 
Si 10.5194956562 10.5565554065 23.7070046379 
Si 9.2946831250 11.8813396687 22.1931329614 
Si 14.9523142067 12.1670011113 14.9310185541 
Si 4.0661632272 4.0588164371 6.8290961680 
Si 1.3192863871 1.3385460542 12.2756965611 
Si 4.3254511596 6.9354675634 20.3791360573 
Si 12.1944823415 6.7238930415 17.7437407223 
Si 10.9033532197 13.4801380233 13.3999043375 
H 14.6206823837 10.9988940706 23.7059835061 
H 14.0488545085 12.5672952849 28.6112673372 
H 2.8495608561 2.9167245267 19.8430418551 
Si 4.0358964069 1.4280270251 27.7346986132 
Si 2.6675038144 8.1269018843 10.8658052784 
Si 3.9562383062 6.8329545925 14.9201653816 
Si 10.4111508652 0.5648606422 17.0539515946 
Si 16.2583649687 2.6792326145 8.2011472232 
Si 16.2859276489 8.0961137840 13.6355523849 
Si 2.7090433148 1.0226552583 22.4364249098 
H 3.3941192710 2.5818021236 25.0114275918 
Si 2.6950502046 16.2613297487 8.2172811058 
Si 9.4982592569 4.0395453669 12.2765718169 
Si 12.2669402622 12.1108820608 12.1383689198 
Si 14.1792396697 9.7041811487 24.3554233396 
Si 12.7235815464 14.7966958353 27.1067900734 
Si 1.3391927672 4.0487492170 9.5245340536 
Si 6.0460172653 4.8496796544 0.2285380524 
Si 6.6966887413 6.8308694725 17.5152697728 
Si 5.9200955641 5.6367310116 21.5981340412 
Si 9.2894051650 0.9249722725 20.6910188884 
Si 9.5059644269 9.4577134465 1.3244342200 
Si 8.4062916769 13.5769169142 16.1375587299 
Si 4.0519420571 1.3344833282 9.5668380859 
Si 5.4294081797 8.0849062639 2.7028658902 
Si 6.7662470419 6.7525471518 12.2071640288 
H 6.1012403658 11.2525130829 22.2980177863 
Si 10.8321659191 10.8397081891 29.1223583975 
Si 0.0005345368 10.8359614891 10.8996193291 
Si 12.7637526867 13.8699903069 23.8373010573 
Si 2.7165530048 11.0648197012 26.5623517656 
Si 2.6254267440 16.2526308886 18.8802896061 
Si 9.4314050963 1.4237036590 15.0657204279 
Si 8.2309786953 5.4450465798 2.8265745507 
Si 12.1385261910 12.2861298824 1.3190543140 
Si 16.1370859176 10.4999802360 21.6970671264 
Si 16.2394522785 16.2537874787 10.9477000499 
Si 5.7736973328 1.7025982356 19.9208812745 
Si 2.6680088044 2.6904401346 10.9001153074 
Si 5.6074904613 5.0964405766 27.1204148893 
Si 8.1157106542 8.0781133339 29.1611030561 
Si 7.0007415940 12.6972894861 19.4520942465 
Si 12.2247817418 9.5012240369 4.0129896772 
Si 12.9213258582 8.6508697391 20.7546499880 
H 4.8643732345 3.2643205498 18.4265278033 
Si 6.8558746227 6.7091017214 1.4095499329 
Si 4.8405409643 4.4651379108 23.3024322134 
Si 10.8545809593 5.4319657097 16.3155857678 
Si 9.4444859664 12.0999514707 4.1906374376 
Si 16.2448442686 8.0474555536 19.0663981729 
Si 13.5650252141 10.8090341189 13.6000753482 
Si 5.4264759796 5.4030835394 5.4572493392 
Si 0.7522787229 1.1627134216 25.5291705965 
Si 2.7194526249 10.8703008094 13.6063480150 
Si 10.8454585592 2.7061599848 13.6838665073 
Si 9.4984058669 9.4628773765 6.8360982147 
Si 9.4308349463 12.2644967622 27.9009680477 
Si 16.2135185983 2.6786624645 13.6219567442 
Si 4.0234019768 4.0572200171 12.2391692174 
Si 8.1247841843 8.1362360544 5.4729455939 
Si 8.6625822492 0.2396926912 18.5445122905 
Si 10.3911956150 0.7792012061 28.1414883526 
Si 10.7699055385 5.2095257576 27.4228449573 
Si 10.8783969395 10.7806732286 5.4729455939 
Si 10.8228154590 13.6642313150 19.0613800394 
Si 2.6297273041 4.5386546815 22.4987139504 
Si 1.5256790600 9.3734452757 27.7536041394 
Si 6.7737078620 6.7600405518 6.8190890762 
Si 6.8601426027 14.9003328163 14.9518496431 
Si 11.0602096312 7.8273287816 19.4969365207 
Si 12.2139488917 12.1851318814 6.8108616713 
Si 14.9517929267 11.8263772082 27.6339566660 
Si 1.2385042763 1.4073077739 17.7250394225 
Si 5.4041912594 8.1237090443 8.1549045396 
H 8.0372580135 13.9263699974 24.3440158385 
Si 16.1071611873 1.9763191081 27.5227699991 
Si 12.5567393648 5.7959331830 25.9833116769 
Si 12.2241627218 9.4546509265 9.5018357522 
Si 2.7525376152 13.5937770643 16.3465698245 
Si 8.1192130043 5.4016988894 8.1890103422 
Si 7.0013769040 8.0266043534 24.7842695261 
Si 8.0749856538 8.1491377345 16.1605779585 
Si 9.4855041867 12.1953782915 9.5183489124 
H 14.1354521493 1.3969603658 24.4433865515 
Si 1.3912621237 6.8052778822 17.6966519581 
Si 2.8191962958 5.5918683511 19.0828238075 
Si 7.9979013732 2.4525083924 23.6425566329 
Si 5.3988155594 5.3941240393 10.8781463858 
Si 13.5980124644 5.4598704799 2.8892866316 
Si 16.2157503283 13.6051311944 2.6072967050 
Si 2.6308187341 13.6080959745 0.0863807494 
Si 2.7247794549 0.0012504416 13.6087695562 
Si 8.1200275043 8.1037863741 10.8454118173 
Si 5.1748769273 14.1502923394 19.6218063539 
Si 6.8722134929 15.0331614775 27.7936325064 
Si 13.5003213335 8.1586673846 29.1494038030 
Si 4.0572525971 14.9677245469 1.3662889542 
Si 7.4568778882 9.0521576028 20.3813825473 
Si 9.5179049970 3.9958067165 1.4989952447 
Si 9.0706141730 6.8088779723 27.4059816948 
Si 8.9471196818 14.0007175580 23.1284897027 
Si 14.9885757471 6.8043982222 4.1646131639 
H 0.2016343638 5.3414910489 20.7665242922 
Si 3.8896122056 6.7261084815 27.2258248677 
Si 4.0188896468 9.5131971870 12.1884919042 
Si 1.3160674830 14.8917316962 4.0422523974 
Si 11.2258789327 15.8255396647 0.6797266031 
Si 13.5638523341 8.1648087147 5.4347552641 
Si 2.6821322345 13.5446952939 5.4143909782 
Si 10.7674946185 2.6253778740 2.9116727585 
H 11.8791242286 11.1638140321 20.8732179791 
Si 13.5680877341 5.4114403095 8.1929198183 
Si 14.9462869067 9.4643597666 12.2625677235 
Si 13.9138592773 14.0257878683 21.7794870513 
Si 0.0299750664 5.3989621694 16.3820468612 
Si 1.8332440368 5.7138478723 26.5048474569 
Si 4.0128297667 14.8906239762 6.8286585401 
Si 8.0583698537 15.4190715810 21.5328983059 
Si 12.2649854622 1.3893317587 1.6318853390 
Si 14.9269832565 6.7775523020 9.5228127171 
Si 0.0049774258 13.5469433139 8.1736933650 
Si 5.3105726286 5.4749224401 16.2247342115 
Si 7.9146920524 5.2974917584 18.7601169792 
Si 9.4341255263 1.2853771228 4.2401769181 
Si 13.5803703942 8.1257615843 10.8896122373 
Si 13.7003951153 13.5200322336 16.3489038401 
Si 12.1871844215 4.0550534471 4.1465537184 
Si 2.1126338293 2.5449704333 24.1925382277 
Si 1.3192098241 14.9134788464 9.5677716921 
Si 6.6708853810 4.1287494078 14.8890062737 
Si 13.6678965650 0.1450003864 18.9887629799 
Si 13.5477741039 8.1051873141 16.3858979869 
Si 9.4898861968 4.0555747271 6.8508025128 
Si 2.7086523548 13.5644387741 10.8975478902 
Si 7.3486959972 11.8134755280 17.3180746320 
H 6.7674525019 12.1655675913 23.9164533605 
Si 16.1772244780 5.3807010792 0.1631899927 
Si 14.7828004652 12.1573900112 20.5820495363 
Si 7.7917514213 7.1028961850 21.7585392615 
Si 5.4926785402 10.8791951495 16.2141436159 
Si 5.3849527692 13.7796133860 26.4188389830 
Si 10.8686392294 16.2293850584 5.5014205839 
Si 10.8267413490 15.3532274004 23.5157320616 
Si 16.2838262389 8.1186754342 2.6955283288 
Si 2.7534335652 5.4288543197 2.7079569617 
Si 6.7463406617 1.3019701169 17.7659722206 
Si 8.0639573237 10.7670384985 13.4610847208 
Si 12.2150566117 1.3276138351 6.8406495451 
Si 14.6098006636 6.9860317239 20.5045602192 
Si 15.4096070909 4.6068934921 23.7573610239 
Si 0.0222063653 2.6963696947 19.3269910117 
Si 2.8820594064 7.9670155329 29.0682967618 
Si 1.2727279376 14.8477812758 27.8032603207 
Si 9.4884689668 1.3428303243 9.5368459858 
Si 8.6238934989 14.3833370815 19.5240111014 
Si 12.2371295619 1.7678885562 18.0557694294 
Si 1.3938978457 6.7677945919 1.3279206557 
Si 1.3858880527 14.9424424667 14.9770570113 
Si 10.8526913193 2.6901794946 8.1865012754 
Si 10.5698643367 11.6287632164 20.2639523887 
Si 14.8681274860 1.2884021758 20.6748558305 
Si 13.5348724238 5.3077055885 19.1149748720 
Si 1.1498801595 3.9533223962 28.0110460572 
Si 4.0736729173 6.7703521219 4.1017114442 
Si 1.3166848740 4.8062505140 24.4105936327 
Si 12.2123850517 4.0341859569 9.5495080203 
H 13.5013638935 7.0007741740 23.3162904308 
Si 14.9403899266 15.0302944375 17.6194835682 
Si 0.0286699116 5.3953294993 5.4750462079 
H 6.3978975585 7.9382148126 23.3853481166 
Si 6.6786394211 9.4305091462 14.8005762587 
Si 5.4949265602 16.2705661788 16.2960383873 
H 11.6264989063 11.8010299679 16.8717816790 
Si 10.8634752994 16.2867584390 10.8735075298 
Si 2.6950013347 8.1302576244 5.4368558781 
Si 2.4471001124 13.7813727060 23.8023199989 
Si 5.8266887033 15.9225629056 21.2072739582 
Si 12.1699496013 1.3102829040 12.3207430617 
Si 9.3932864959 14.8038960154 1.6216156704 
Si 12.3811657432 14.9933324271 20.2629312569 
Si 1.3637841515 6.7727141719 6.8195558793 
Si 4.0743245173 12.4126054435 27.9042064943 
Si 10.8463545092 10.8011986288 10.8246390787 
Si 10.8000420388 13.4401786529 2.8754109090 
Si 9.5084893770 14.9317236466 12.2074266056 
Si 14.3370246111 14.6321179638 25.4269990648 
Si 3.4673916917 1.6139887798 20.2838206963 
Si 1.3483689243 12.2145190417 12.2515103247 
H 4.6875452829 5.2596663781 24.5792846083 
H 10.2126735034 2.1667654998 28.7518626004 
Si 16.2658420788 8.1341183544 8.1425342571 
Si 12.2222079218 14.9000721763 4.1001068085 
Si 2.7073654448 5.4148286295 8.1823000474 
Si 7.4757905784 5.9966585648 25.8447295021 
Si 4.1835326783 9.6485345082 17.7191752084 
H 9.9804106813 3.2281730395 18.5605002972 
Si 9.4910753668 12.1551908612 14.6423300028 
Si 9.4888273468 14.8860301961 6.8363316163 
Si 10.8594353793 13.5383747738 8.1764941837 
Si 4.0560145571 6.7759721720 9.5329365097 
Si 1.4175102010 15.3284014402 22.3222915482 
Si 5.3555818990 10.9194314499 0.0673815709 
Si 8.7707152702 4.4941829811 24.5268859587 
H 9.9443446209 14.3469778012 25.5811607935 
Si 12.2154638617 14.9016848863 9.5352997005 
Si 2.7568055952 8.2350511953 16.3966636338 
Si 2.6669173744 10.9847380605 18.9652185978 
Si 1.0614694417 10.3791084349 23.6897037475 
Si 8.1409601544 10.8047987188 2.7142588037 
Si 15.4532154213 15.8482642149 22.1953794514 
Si 10.8249820290 13.4965257634 26.4748261815 
Si 4.0686393072 1.3449415083 14.9996386119 
Si 6.7680063619 12.2161317517 1.4111662387 
Si 4.1476946779 14.9820434570 17.6678268658 
Si 11.3460339738 0.3215238779 21.5845675757 
Si 14.8606015059 14.9276511465 12.3376063242 
Si 3.9622493162 4.1666236581 17.6167119247 
Si 6.7736264119 9.4548301165 4.0648631733 
Si 7.9283919425 10.9786293104 26.6149254664 
Si 4.0848152774 12.2525724821 14.9483486197 
Si 10.3772839549 4.4562761508 21.1320894815 
Si 14.8964232162 9.4793302767 1.3388963640 
Si 2.9376245969 8.4083116369 21.5947788938 
Si 5.4107724195 10.8283540590 5.4144785038 
Si 10.4639793357 8.2451509954 26.2306006269 
Si 13.8604769468 2.4806412227 27.2469185334 
Si 16.2634148687 5.4004119794 10.8733616538 
Si 13.5660351941 10.9193174199 2.6529821423 
Si 15.0233060274 4.0437156070 17.8280278597 
Si 6.7452981017 12.1798213414 6.8087610573 
H 8.5144735679 7.1798827257 23.0822470191 
Si 10.7830678586 10.8609340593 16.0696388767 
Si 10.5344335863 14.5486642931 16.8176325177 
Si 14.9126969264 12.2521489421 4.0416397183 
Si 1.3166604390 6.7598939418 12.2280826434 
Si 1.7159723257 14.5340358729 20.1703875394 
Si 2.5910059737 16.2750947988 26.4590424012 
Si 6.7697819719 9.4789881867 9.5014856498 
Si 5.2868380983 8.4639419874 26.3124370480 
Si 14.9202066165 9.5147773170 6.7886885234 
H 3.2801381400 7.2913877767 24.1229845636 
Si 5.3923810093 0.0426740989 29.1337950738 
Si 8.1298666644 10.8422820092 8.1584639134 
Si 15.1708282687 0.2735921815 24.4098642528 
H 13.8499861867 6.3505913981 26.9025928859 
Si 13.5764282142 10.8459472592 8.1752980007 
Si 5.3752765092 2.6499757742 2.8647736331 
Si 5.3781272592 2.6906519046 13.5764142653 
Si 5.3953457893 10.8437155292 10.8335375131 
Si 6.2377179870 11.9064262689 25.3038797433 
H 10.3235595344 8.3778330466 22.0100294396 
Si 14.9469873767 12.1937818715 9.5312443484 
Si 1.3876131637 9.4710549566 14.9478234662 
Si 1.2969690869 12.2083614217 17.5441823907 
Si 8.0735032638 0.0029808420 2.8301251719 
Si 6.8032905022 1.3284332221 12.2779138759 
Si 9.4970863769 9.4439483964 12.1785139876 
Si 12.2969301525 9.0038903324 23.0788918718 
Si 2.6492753042 2.7005399347 16.3352790242 
Si 0.4184070248 7.6599816101 26.5129873362 
Si 7.6788454302 3.1145339985 0.3130527564 
Si 12.1342093410 3.4927226419 19.8655942806 
Si 8.4895498676 0.2315085951 26.8577797869 
Si 11.4257572345 4.7862301038 0.3780930179 
Si 15.0359144875 6.8808309029 27.9566051439 
Si 6.6904496712 1.3266005971 1.4643088558 
Si 10.8524958393 8.0949409040 2.7017689029 
Si 11.8573770784 12.0176055199 24.9968691697 
Si 12.1332319410 14.6160234437 15.0231538188 
Si 13.6032415544 10.4970806160 19.3068893026 
Si 6.8038932322 4.0539783071 4.1070213296 
Si 4.4422667506 10.3080840343 25.1867413366 
Si 11.0327772709 1.9036494174 25.1991407944 
Si 12.2831651023 6.7238278815 1.4165315570 
Si 13.5843288642 5.4264759796 13.6226861241 
H 13.0383206392 12.6908549361 17.4147904023 
Si 0.0089072581 13.5779594742 13.6243199350 
Si 5.6400378816 8.2961224059 18.9957942018 
Si 5.4001350494 16.2499104586 5.5247315644 
Si 9.5432359473 6.8052127222 4.1713526339 
Si 14.8307256456 1.3450653123 15.0038398400 
Si 16.2765771889 10.7961487287 16.2623993879 
Si 8.1043402341 2.7054106447 5.5259277474 
Si 5.5575779008 2.8022546956 26.4534407639 
Si 10.8601847193 5.4138023595 5.5128280850 
Si 12.0326574800 9.3698126057 27.6911983979 
Si 16.2774731389 13.5801097542 18.9313753719 
Si 16.1038706073 13.4637665731 26.4514568506 
Si 6.7558051518 1.3318052522 6.8627351675 
Si 6.7908123621 3.8579281553 20.3092614661 
Si 9.5134904070 6.7774056920 14.9297348455 
Si 12.2143561417 9.4205233762 14.9459270785 
Si 13.7853800461 3.9426850261 25.3187882677 
Si 12.2388074319 6.7779269720 6.8171343382 
Si 5.3963068993 2.6896907946 8.2018474278 
Si 9.3484075455 4.0719624672 17.4757957344 
Si 8.6082550987 2.9746843472 21.4610106262 
Si 9.4976565269 6.7373322916 9.5331699113 
Si 10.8545320893 8.1108073642 13.5565751329 
Si 14.9282864565 6.7520747418 15.0298641136 
Si 3.3424311006 12.8588862876 20.2608306429 
Si 7.7607678410 2.4215573921 27.2590554144 
Si 5.3283450187 8.0870565440 13.4881301262 
Si 8.1386958444 16.2631216487 8.1849841653 
Si 10.8537175893 8.0925462740 8.1752104751 
Si 13.6826064351 0.0469441966 2.8860102573 
Si 4.0556561771 9.4357708163 1.3417496980 
Si 6.7692444019 4.0370692869 9.5453067922 
Si 10.8523818093 5.3864840293 10.9022742718 
Si 13.1304731701 3.1171241085 0.2501023141 
H 15.3399673403 3.5285117723 22.7001978449 
Si 12.2486140120 3.2308608896 23.7054583526 
Si 0.0652142463 10.6570484175 29.0959548464 
Si 5.6985026921 2.3856705218 24.0944803984 
Si 5.4415442298 16.2763002589 10.8999110810 
Si 14.8551606459 4.0558516571 1.5272864310 
Si 12.2256776918 6.7525634418 12.2326923242 
Si 14.9670729469 9.4660865066 17.7011157629 
H 16.2727327488 12.2610595721 19.9990707963 

