&CONTROL
/
&SYSTEM
   ntyp             = 2
   nat              = 407
   ibrav            = 0
/
&ELECTRONS
/
&IONS
/
&CELL
/

ATOMIC_SPECIES
Si 28.085 None
H 1.008 None

K_POINTS gamma

CELL_PARAMETERS angstrom
16.29000014900000 0.00000000000000 0.00000000000000
0.00000000000000 16.29000014900000 0.00000000000000
0.00000000000000 0.00000000000000 29.17519467510000

ATOMIC_POSITIONS angstrom
Si 2.6705011744 10.8087734789 2.6932409935 
Si 8.1379627944 2.6936655546 10.9107059030 
Si 4.7862301038 0.3060011368 23.2834975120 
Si 8.9360750617 10.0191157216 17.2305490480 
Si 15.0069182872 1.3840423957 4.2237804587 
Si 12.2435152420 4.0778268673 14.9998136631 
Si 0.1021878225 0.1537227041 29.0922204214 
Si 1.2847092328 12.1484305111 1.3213649895 
Si 4.0025181966 15.0984843781 24.9937765991 
Si 7.9092511923 2.7386748250 16.2646167027 
Si 8.2009399350 16.2773591089 13.6414749494 
Si 13.5642758741 2.7160805948 5.5062928414 
H 15.1430701085 9.4396641263 21.8956626765 
Si 1.2993751199 4.0339253169 14.9631987938 
Si 0.0161619282 2.6743293245 2.7517781041 
Si 1.3247484241 9.4798352667 4.0745785131 
Si 9.7000109087 3.4510854016 26.3576002493 
Si 14.9327336266 4.0650555072 6.8439755173 
Si 12.2871887324 0.7973156863 26.8023469170 
Si 13.3589078422 10.6994349979 26.2961281142 
Si 1.3426739403 4.3864572101 20.4699584383 
Si 4.0329967869 12.1762701214 4.0566065932 
Si 2.7271903749 16.2841520389 2.7867562450 
Si 6.6621539409 9.4958483369 27.9419591962 
Si 12.8839403078 2.1517135397 21.6617651408 
H 12.4165639136 11.0047096006 18.5396692082 
Si 13.5747666342 16.2657117588 8.1940284757 
Si 2.7840750555 2.7735191354 0.0465811158 
Si 4.0549068371 9.4846245267 6.7917810940 
Si 1.3688421965 9.4914174568 20.2355065739 
Si 7.2288993361 11.1809185323 21.2935741840 
Si 5.3861093593 13.5740335841 2.7362656531 
Si 8.8973048614 9.5254798471 25.1026584256 
Si 14.9064578563 1.3312611662 9.5769035281 
Si 1.4481875292 1.3671903905 1.3994669856 
Si 2.6417493242 5.4017477594 13.5998419466 
Si 8.0905751840 13.6203460546 0.0701715947 
Si 9.3992160560 6.3039531276 20.2318596746 
Si 13.5345792038 2.6698332844 10.9431487195 
Si 16.2601242887 10.8683297194 5.4045005872 
Si 12.9717271186 14.2846196806 0.2263569149 
Si 1.3347130172 12.1978217916 6.7836995651 
Si 4.1717061382 4.0485374470 1.4240850149 
Si 6.7233717615 14.8988667163 4.1408645554 
Si 5.4508783998 13.5735123041 13.5961366969 
Si 9.5757182076 9.6275855680 19.3789520335 
Si 16.1850599680 8.3392420363 24.2791593807 
Si 14.9136743264 15.1364237884 1.2892197600 
Si 2.0882639891 6.9254329233 23.2318282422 
Si 1.3783343796 4.0696981572 4.0698521316 
Si 1.3267977061 9.4865304568 9.5056285275 
Si 8.1085756342 13.5420074439 5.4798601150 
Si 14.9058225463 4.0615857371 12.2463754905 
Si 14.9602963068 6.7527100518 22.8646875925 
Si 13.5681691841 13.5561471640 5.4669063286 
Si 4.0285170368 1.3215897931 4.2120228552 
Si 2.6857486146 10.8380466091 8.1428843594 
Si 3.8265536150 12.4290746337 22.4806545049 
Si 5.3947756393 13.5452817339 8.1633361709 
Si 9.2244406444 0.5767898093 24.5944265343 
H 9.6628371284 8.8084754906 21.9570181109 
Si 14.9255986065 14.9043564463 6.8343768782 
Si 4.0278491468 12.2006236716 9.5062412066 
Si 3.3634289108 10.2226918535 23.0873526782 
Si 0.0339538989 16.2390124485 5.4996117218 
Si 8.1297037643 5.4276162796 13.5886970223 
Si 6.7629564618 14.9074026763 9.5133307789 
Si 13.5941680243 2.7688764853 16.4278810921 
Si 13.6021664144 13.5588350140 10.8817932851 
Si 2.6726840344 2.7169113848 5.5014789343 
Si 1.2797782497 12.2535661721 25.1225559084 
Si 8.1276512243 13.5643573241 10.8694813530 
H 5.1854980074 13.0042582489 22.7517212387 
Si 10.7633080884 5.0929219366 23.3527594242 
Si 11.5326033455 7.1324951152 24.3636215693 
Si 13.4235302728 16.2039726582 13.7455720440 
Si 1.3480887363 1.3333039322 6.8631436202 
Si 0.0037579076 0.0796488154 16.2228961743 
Si 6.7418283317 12.2049079416 12.1860120127 
Si 4.0827301573 14.9264782665 12.2457336362 
Si 10.5159607262 10.5530367665 23.7075589666 
Si 9.2929238050 11.8746933486 22.1895152373 
Si 14.9756414870 12.1527636511 14.9037980974 
Si 4.0654138872 4.0606734971 6.8304090518 
Si 1.3197001531 1.3380426932 12.2763092402 
Si 4.3224537995 6.9347345134 20.3853211986 
Si 12.1921202915 6.7166765714 17.7450827813 
Si 10.8943937196 13.4799425433 13.3971910444 
H 14.6343334038 10.9866277005 23.6982520795 
H 14.0508744685 12.5704718350 28.6158478428 
H 2.8333523059 2.9008417765 19.8328597122 
Si 4.0352122269 1.4306269091 27.7351362411 
Si 2.6646693544 8.1278955743 10.8701523824 
Si 3.9512535661 6.8328568525 14.9218575429 
Si 10.4113626352 0.5677570042 17.0571025156 
Si 16.2583975487 2.6822625545 8.2038021659 
Si 16.2840868789 8.0993554941 13.6422626797 
Si 2.7164878448 1.0284675304 22.4387297502 
H 3.3923436610 2.5882692537 25.0167374773 
Si 2.6943171546 16.2622582787 8.2180104857 
Si 9.4985036069 4.0393498869 12.2780305767 
Si 12.2646922422 12.1125110608 12.1396526283 
Si 14.1749716896 9.7061359488 24.3586326110 
Si 12.7224738264 14.7977546853 27.1025013198 
Si 1.3383538322 4.0526588171 9.5278600258 
Si 6.0458869453 4.8508525344 0.2285838575 
Si 6.6888532512 6.8218122324 17.5216883156 
Si 5.9208449041 5.6318603015 21.5972004350 
Si 9.3069332051 0.9142387914 20.6937905319 
Si 9.5028530369 9.4578600565 1.3254495167 
Si 8.4025775568 13.5770961042 16.1420517098 
Si 4.0510949770 1.3356366602 9.5677425169 
Si 5.4287402897 8.0858836639 2.7033939612 
Si 6.7642759519 6.7524494118 12.2091187669 
H 6.1028042058 11.2395136628 22.3038236500 
Si 10.8295269390 10.8404086591 29.1248674643 
Si 16.2893159690 10.8352121491 10.9008446872 
Si 12.7662450568 13.8508169767 23.8377386853 
Si 2.7178887849 11.0691528412 26.5669030959 
Si 2.5965119938 16.2252636884 18.8888962885 
Si 9.4306720463 1.4220876910 15.0672958884 
Si 8.2306854753 5.4463334898 2.8268838077 
Si 12.1380537810 12.2873842124 1.3190980768 
Si 16.1707736379 10.5507072965 21.6772863444 
Si 16.2386540685 16.2547974587 10.9482252034 
Si 5.7662202227 1.6996823255 19.9202977706 
Si 2.6669173744 2.6916618846 10.9011656144 
Si 5.6073764313 5.0985908566 27.1205024149 
Si 8.1135929542 8.0791070239 29.1594108948 
Si 7.0036737941 12.6948785661 19.4572290808 
Si 12.2234622518 9.5019407969 4.0140108090 
Si 12.9229711482 8.6594871492 20.7579176098 
H 4.8662140045 3.2652816599 18.4257108978 
Si 6.8554022127 6.7102908914 1.4096170358 
Si 4.8419907743 4.4653008108 23.3038034475 
Si 10.8514858592 5.4305810597 16.3135435041 
Si 9.4445511264 12.1005216207 4.1913376422 
Si 16.2435573586 8.0472274936 19.0699867218 
Si 13.5653021441 10.8054014488 13.5942111341 
Si 5.4260198596 5.4049894694 5.4587372741 
Si 0.7471750658 1.1626189396 25.5247651421 
Si 2.7151520648 10.8707895094 13.6127957331 
Si 10.8450350192 2.7051662947 13.6856753694 
Si 9.4971352469 9.4633497865 6.8384322303 
Si 9.4311118763 12.2649854622 27.9004137190 
Si 16.2123457183 2.6848526646 13.6147796463 
Si 4.0213657268 4.0576761371 12.2419992113 
Si 8.1238230743 8.1367410444 5.4749003319 
Si 8.6646999492 0.2401406662 18.5475465108 
Si 10.3919775350 0.7809083981 28.1414300022 
Si 10.7709480985 5.2106008977 27.4216195991 
Si 10.8772566395 10.7809990286 5.4748128064 
Si 10.8202579290 13.6652575850 19.0582291184 
Si 2.6314051741 4.5421244515 22.4976636434 
Si 1.5258224119 9.3769150458 27.7555297022 
Si 6.7725675619 6.7614903618 6.8221524716 
Si 6.8558583327 14.8995834763 14.9556715936 
Si 11.0611707412 7.8250156016 19.5001457921 
Si 12.2126619817 12.1853436514 6.8130789861 
Si 14.9514834167 11.8282668482 27.6376035653 
Si 1.2341385563 1.3962468638 17.7197878875 
Si 5.4031161194 8.1250936943 8.1587848405 
H 8.0392616835 13.9234377973 24.3347673017 
Si 16.1065910373 1.9775571481 27.5206402099 
Si 12.5577819248 5.7982952330 25.9815319900 
Si 12.2231038718 9.4546020565 9.5047532716 
Si 2.7399617351 13.5955200943 16.3625286560 
Si 8.1183659242 5.4025296794 8.1914610585 
Si 6.9990474340 8.0254640534 24.7842987013 
Si 8.0598848237 8.1370994244 16.1598485786 
Si 9.4830769767 12.1953457115 9.5214414830 
H 14.1238373792 1.3723836426 24.4174206283 
Si 1.3883576167 6.8047891822 17.6988109225 
Si 2.8199293458 5.5930412311 19.0830863843 
Si 8.0041893132 2.4479146124 23.6426733337 
Si 5.3967793094 5.3941729093 10.8803053502 
Si 13.5979147244 5.4602125699 2.8901356298 
Si 16.2143819683 13.6069068044 2.6081486207 
Si 2.6300693940 13.6104091545 0.0877554846 
Si 2.7340484650 0.0026935678 13.6043641018 
Si 8.1191967143 8.1043239441 10.8489128407 
Si 5.1826961274 14.1525729394 19.6229733617 
Si 6.8754552029 15.0353932075 27.7965792011 
Si 13.5000118235 8.1583252946 29.1503374092 
Si 4.0568779271 14.9696630569 1.3672604882 
Si 7.4514858981 9.0454135427 20.3825787303 
Si 9.5177909671 3.9970121766 1.4990185849 
Si 9.0700440230 6.8085195923 27.4054273661 
Si 8.9541895419 13.9943644580 23.1228588901 
Si 14.9879567271 6.8052778822 4.1655175949 
H 0.2053435969 5.3514116589 20.7640444007 
Si 3.8894493056 6.7292361615 27.2251830134 
Si 4.0142632867 9.5144678070 12.1934516873 
Si 1.3150721640 14.8936539162 4.0430693029 
Si 11.2261558627 15.8268754447 0.6795544694 
Si 13.5627934840 8.1653625747 5.4357180455 
Si 2.6809104845 13.5456075339 5.4148286061 
Si 10.7672828485 2.6265996240 2.9120432835 
H 11.8538258584 11.1521666820 20.8509864808 
Si 13.5673383941 5.4117009495 8.1944952788 
Si 14.9448859667 9.4597171165 12.2611964893 
Si 13.9075876272 13.9786446078 21.7812959134 
Si 0.0282504441 5.3976589694 16.3840599497 
Si 1.8328693668 5.7195819523 26.5027468429 
Si 4.0117383367 14.8915362162 6.8288044160 
Si 8.0644786038 15.4163185710 21.5327524299 
Si 12.2650669122 1.3906072657 1.6322471114 
Si 14.9255986065 6.7780735820 9.5241256009 
Si 0.0042977744 13.5473016939 8.1747436720 
Si 5.3046104885 5.4728047400 16.2249092627 
Si 7.9143825424 5.2901612584 18.7616049141 
Si 9.4337182763 1.2867177898 4.2407312468 
Si 13.5774870642 8.1226501943 10.8917712017 
Si 13.7071391754 13.4915410234 16.3001229146 
Si 12.1867445915 4.0559493971 4.1477499014 
Si 2.1120310993 2.5489777733 24.1948138929 
Si 1.3186461901 14.9140652864 9.5685010720 
Si 6.6713415010 4.1302969578 14.8917487420 
Si 13.6575687049 0.1454185507 18.9938978141 
Si 13.5444835239 8.1059203641 16.3939503407 
Si 9.4890228268 4.0570408271 6.8522612726 
Si 2.7112587548 13.5649926341 10.8951263491 
Si 7.3494779172 11.8095822180 17.3231219407 
H 6.7703521219 12.1664146713 23.9201877854 
Si 16.1772733480 5.3836984392 0.1600449067 
Si 14.8678179760 12.1779805714 20.5572214456 
Si 7.7923378613 7.0954842349 21.7559718444 
Si 5.4911472802 10.8815246195 16.2165359818 
Si 5.3891718793 13.7824478460 26.4227192839 
Si 10.8690953494 16.2309488984 5.5016248103 
Si 10.8374438791 15.3382243103 23.5174825733 
Si 16.2834352789 8.1194573543 2.6962927189 
Si 2.7526842252 5.4303692897 2.7082545487 
Si 6.7462917917 1.2992594609 17.7694732440 
Si 8.0604875537 10.7650999885 13.4649358464 
Si 12.2144864617 1.3292004812 6.8422250056 
Si 14.6057933236 6.9860968839 20.5027513571 
Si 15.4093301609 4.6201209722 23.7549978332 
Si 0.0251436152 2.6904890046 19.3192304100 
Si 2.8819290864 7.9689866229 29.0685009882 
Si 1.2725601506 14.8519352258 27.8054776355 
Si 9.4867748068 1.3442964243 9.5358832044 
Si 8.6249849289 14.3821804915 19.5232817215 
Si 12.2327801319 1.7695990062 18.0635883815 
Si 1.3935362077 6.7693095619 1.3274830278 
Si 1.3920326407 14.9434687367 14.9717471258 
Si 10.8523980993 2.6926229946 8.1882517871 
Si 10.5459506164 11.6282093563 20.2464180967 
Si 14.8824138161 1.2649673816 20.6760520135 
Si 13.5332108438 5.3003425085 19.1170463109 
Si 1.1499778995 3.9558473462 28.0079534865 
Si 4.0728909973 6.7715412919 4.1024991744 
Si 1.3168819830 4.8101926940 24.4094266249 
Si 12.2112610417 4.0366457469 9.5527756421 
H 13.5174258336 7.0379316644 23.3046787033 
Si 14.8987038163 15.0727461779 17.5598494703 
Si 0.0279663465 5.3965512494 5.4763882669 
H 6.3991355985 7.9338653826 23.3838018313 
Si 6.6716510110 9.4292873962 14.8017432665 
Si 5.4905282602 16.2689697588 16.3018150759 
H 11.4942566851 11.7664788776 17.0354836964 
Si 10.8595168293 16.2867095690 10.8717278429 
Si 2.6941542546 8.1310395444 5.4380812363 
Si 2.4658499026 13.7780658360 23.8096721480 
Si 5.8318689233 15.9243548056 21.2110375583 
Si 12.1655513013 1.3096948350 12.3180589438 
Si 9.3941987359 14.8052480854 1.6227330804 
Si 12.3912166733 14.9702332069 20.2688538214 
Si 1.3626780605 6.7739685019 6.8212188654 
Si 4.0760512573 12.4162869836 27.9070073130 
Si 10.8446440592 10.8012637888 10.8270897951 
Si 10.8004492888 13.4412537929 2.8764495460 
Si 9.5019082169 14.9322449266 12.2046841373 
Si 14.3360472111 14.6243639237 25.4237022678 
Si 3.4553370916 1.6012174196 20.2756808170 
Si 1.3534758394 12.2129877817 12.2467839432 
H 4.6888973529 5.2616211781 24.5795471851 
H 10.2130318834 2.1685899798 28.7516291988 
Si 16.2642945287 8.1349654344 8.1442264184 
Si 12.2227454918 14.9011310263 4.1009237139 
Si 2.7068604548 5.4169300395 8.1842256103 
Si 7.4763607284 5.9956811648 25.8435624944 
Si 4.1894296583 9.6431588082 17.7170162440 
H 9.9946318514 3.2257458295 18.5529730970 
Si 9.4861069168 12.1570967912 14.6454225734 
Si 9.4900165168 14.8860627761 6.8355730612 
Si 10.8576271893 13.5382281638 8.1788865496 
Si 4.0541086271 6.7776826220 9.5367292850 
Si 1.4360449631 15.3274403302 22.3413137752 
Si 5.3554352890 10.9210604499 0.0689681179 
Si 8.7723442702 4.4936942811 24.5233265849 
H 9.9386757009 14.3428075612 25.5799062601 
Si 12.2146656517 14.9021572963 9.5359999051 
Si 2.7541991952 8.2348557153 16.3988225982 
Si 2.6880292146 10.9782546404 18.9653644737 
Si 1.0548524436 10.3971740451 23.6904039521 
Si 8.1396243744 10.8054014488 2.7161843666 
Si 15.4588680514 15.8033201045 22.1892818357 
Si 10.8243792990 13.4956135234 26.4715585597 
Si 4.0704149172 1.3455132873 15.0022060291 
Si 6.7683484519 12.2174023717 1.4123157414 
Si 4.1415044779 14.9819131370 17.6745079853 
Si 11.3637900739 0.3032041438 21.5883895262 
Si 14.8603408659 14.9265922965 12.3361767397 
Si 3.9595940462 4.1639520981 17.6176747061 
Si 6.7724861119 9.4551722065 4.0665553346 
Si 7.9268118125 10.9792483304 26.6156840214 
Si 4.0744874173 12.2537616521 14.9588808650 
Si 10.3812912949 4.4481474407 21.1296679403 
Si 14.8953480762 9.4798841367 1.3401713200 
Si 2.9361584969 8.4134918569 21.5986300195 
Si 5.4096484095 10.8288427590 5.4157330371 
Si 10.4626435557 8.2444342354 26.2292585680 
Si 13.8608190368 2.4841272827 27.2465684311 
Si 16.2632193887 5.4056084894 10.8765417501 
Si 13.5648948941 10.9202296599 2.6539799340 
Si 15.0226707174 4.0397571369 17.8283196117 
Si 6.7452003617 12.1799516614 6.8091986852 
H 8.5132843979 7.1752074956 23.0797379524 
Si 10.7639922684 10.8635241694 16.0895363594 
Si 10.5309312363 14.5547730431 16.8188578759 
Si 14.9117032364 12.2531263421 4.0427192005 
Si 1.3142902440 6.7631682318 12.2351430405 
Si 1.7261535758 14.4837486425 20.2001754132 
Si 2.5887253737 16.2792650389 26.4590132260 
Si 6.7681203919 9.4805194467 9.5062412066 
Si 5.2837755783 8.4672814374 26.3100738572 
Si 14.9191640564 9.5152823070 6.7897096552 
H 3.2853509400 7.2910456867 24.1214674535 
Si 5.3921203693 0.0444865243 29.1341743514 
Si 8.1280910543 10.8424286192 8.1610313305 
Si 15.1721477588 0.2600600784 24.3970563424 
H 13.8550035067 6.3496465781 26.9011049509 
Si 13.5752227542 10.8454096892 8.1769609868 
Si 5.3748529692 2.6517839642 2.8656372188 
Si 5.3785996692 2.6927207346 13.5788941568 
Si 5.3918434393 10.8440087492 10.8383222450 
Si 6.2362030170 11.9079575289 25.3058636565 
H 10.3077582343 8.3771651566 22.0030857433 
Si 14.9464172267 12.1932280115 9.5318570275 
Si 1.3824166536 9.4750134267 14.9575971564 
Si 1.2895555078 12.1988806416 17.5674350209 
Si 8.0731937538 0.0041168577 2.8305161195 
Si 6.8029647022 1.3297022132 12.2798977891 
Si 9.4964021968 9.4444859664 12.1828027413 
Si 12.2958550125 9.0021798823 23.0839975308 
Si 2.6472390542 2.6952782647 16.3378756165 
Si 0.4187768078 7.6677193601 26.5088152833 
Si 7.6789268802 3.1154951085 0.3128543651 
Si 12.1425498211 3.4812707718 19.8751929197 
Si 8.4917001477 0.2322269841 26.8558250488 
Si 11.4255291745 4.7871749238 0.3774132358 
Si 15.0372176875 6.8855061330 27.9533375221 
Si 6.6899609712 1.3283436271 1.4650207305 
Si 10.8515184392 8.0956413740 2.7019585416 
Si 11.8559924284 12.0089555298 24.9996699884 
Si 12.1227574709 14.6140197737 15.0203821754 
Si 13.6105883445 10.5145923662 19.3401198493 
Si 6.8034696922 4.0558516571 4.1081008118 
Si 4.4384548906 10.3120750843 25.1867121614 
Si 11.0331193609 1.9049851974 25.2004536781 
Si 12.2829859123 6.7238441715 1.4175205961 
Si 13.5838238742 5.4269972596 13.6276167320 
H 13.0784266196 12.6900567261 17.3960599274 
Si 0.0200730269 13.5816898842 13.6142253176 
Si 5.6362260215 8.2914797558 18.9992660499 
Si 5.3993368394 16.2509367286 5.5250524916 
Si 9.5425843473 6.8062715723 4.1724612913 
Si 14.8132138955 1.3595389774 14.9793326764 
Si 16.2685462188 10.7925649287 16.2729024580 
Si 8.1038515341 2.7067952948 5.5267738281 
Si 5.5583272408 2.8044375556 26.4545785964 
Si 10.8595982793 5.4149263695 5.5140826184 
Si 12.0284057900 9.3677111957 27.6954288012 
Si 16.2580880387 13.4027931026 19.0738378475 
Si 16.1035285173 13.4673340832 26.4563874585 
Si 6.7548114618 1.3329602132 6.8630269194 
Si 6.7948197021 3.8492944552 20.3134918693 
Si 9.5112586770 6.7784971220 14.9301432982 
Si 12.2155616017 9.4362269363 14.9631987938 
Si 13.7872045261 3.9468552661 25.3166584785 
Si 12.2380906719 6.7787414720 6.8190015506 
Si 5.3954435293 2.6907985146 8.2027226837 
Si 9.3494826855 4.0686555972 17.4749788290 
Si 8.6162860688 2.9628903871 21.4601061952 
Si 9.4967931568 6.7381305016 9.5361166059 
Si 10.8561936693 8.1212655443 13.5689454155 
Si 14.9266900365 6.7546322718 15.0354949262 
Si 3.3749133609 12.8393219974 20.2673367113 
Si 7.7617289510 2.4222252821 27.2587636625 
Si 5.3233276987 8.0855252840 13.4888595061 
Si 8.1397221144 16.2637895387 8.1826793249 
Si 10.8527401893 8.0930675540 8.1774569651 
Si 13.6827041751 0.0476857174 2.8858818864 
Si 4.0550697371 9.4373183663 1.3426162013 
Si 6.7679412019 4.0376557269 9.5473490559 
Si 10.8523655193 5.3897908993 10.9073215805 
Si 13.1306034901 3.1186064985 0.2503138342 
H 15.3376704503 3.5450461224 22.6945670323 
Si 12.2523770021 3.2270001595 23.7061585573 
Si 0.0645654156 10.6583841975 29.0984639131 
Si 5.7045951522 2.3882606318 24.0966977132 
Si 5.4455515698 16.2778315189 10.8969935615 
Si 14.8557633759 4.0588327271 1.5257518158 
Si 12.2225988818 6.7566522318 12.2423784888 
Si 14.9528517768 9.4654837766 17.7172204703 
H 16.2670638288 14.9682784069 18.4746376993 

