&CONTROL
/
&SYSTEM
   ntyp             = 2
   nat              = 407
   ibrav            = 0
/
&ELECTRONS
/
&IONS
/
&CELL
/

ATOMIC_SPECIES
Si 28.085 None
H 1.008 None

K_POINTS gamma

CELL_PARAMETERS angstrom
16.29000014900000 0.00000000000000 0.00000000000000
0.00000000000000 16.29000014900000 0.00000000000000
0.00000000000000 0.00000000000000 29.17519467510000

ATOMIC_POSITIONS angstrom
Si 2.6703382744 10.8089363789 2.6933664468 
Si 8.1376695744 2.6929325046 10.9107642534 
Si 4.7815874537 0.3070811638 23.2805216422 
Si 8.9519089419 10.0333531818 17.2318911069 
Si 15.0067553872 1.3841531677 4.2239555099 
Si 12.2466103420 4.0759698073 14.9991718088 
Si 0.1019555271 0.1548415013 29.0921620710 
Si 1.2847515867 12.1485771211 1.3212220310 
Si 3.9949922165 15.0945259080 24.9848489895 
Si 7.9117598524 2.7400431851 16.2641498995 
Si 8.2045400250 16.2782876389 13.6389658827 
Si 13.5640478141 2.7159014048 5.5067596445 
H 15.1583012586 9.4557912265 21.8945540191 
Si 1.3014178859 4.0361407569 14.9627319907 
Si 0.0160560920 2.6744922245 2.7519006399 
Si 1.3245399121 9.4798678467 4.0747827395 
Si 9.7004833187 3.4512157216 26.3567541687 
Si 14.9326847566 4.0646645472 6.8447924227 
Si 12.2873353424 0.7982165233 26.8021426906 
Si 13.3575883522 10.6996793479 26.2988997577 
Si 1.3397612883 4.3915885602 20.4701918399 
Si 4.0327524369 12.1766447914 4.0567524692 
Si 2.7270763449 16.2843475189 2.7866978946 
Si 6.6615675009 9.4971678269 27.9413173419 
Si 12.8767238378 2.1565353797 21.6580598911 
H 12.4163032736 11.0182465908 18.5298663428 
Si 13.5748806642 16.2650601588 8.1947286803 
Si 2.7841402155 2.7732910754 0.0456416745 
Si 4.0541412071 9.4853249968 6.7920436708 
Si 1.3846728187 9.4966791268 20.2279793737 
Si 7.2284432161 11.1821891523 21.2917944971 
Si 5.3858975893 13.5744571241 2.7363415086 
Si 8.8964740714 9.5246816371 25.1050507916 
Si 14.9065230163 1.3295295392 9.5785081638 
Si 1.4482249963 1.3676921225 1.3993911301 
Si 2.6437367042 5.4018617894 13.5971578287 
Si 8.0887832840 13.6212582946 0.0685713353 
Si 9.4025229260 6.3087749677 20.2306051412 
Si 13.5355728938 2.6697844144 10.9437322234 
Si 16.2599125187 10.8682971394 5.4048506895 
Si 12.9718900186 14.2850595106 0.2268371386 
Si 1.3342878482 12.1981964616 6.7840204922 
Si 4.1715432381 4.0483908370 1.4237057373 
Si 6.7231111215 14.8990784863 4.1413021833 
Si 5.4555210499 13.5746363141 13.5912352642 
Si 9.5825925876 9.6326843381 19.3803232676 
Si 16.1723048979 8.3420764963 24.2802680381 
Si 14.9138046464 15.1369776484 1.2896398828 
Si 2.0851363091 6.9246021333 23.2317407167 
Si 1.3782692196 4.0698610572 4.0698813068 
Si 1.3267423201 9.4867748068 9.5060661554 
Si 8.1081520942 13.5423984039 5.4807937213 
Si 14.9086895864 4.0530986471 12.2536984643 
Si 14.9552952768 6.7547300118 22.8634330591 
Si 13.5683483741 13.5563915140 5.4663519999 
Si 4.0285170368 1.3213845391 4.2122562568 
Si 2.6853413646 10.8390565891 8.1437596152 
Si 3.8082436548 12.4293352737 22.4627701106 
Si 5.3945964493 13.5457378539 8.1659035880 
Si 9.2232514744 0.5784562763 24.5940180816 
H 9.6621366584 8.8110818906 21.9537504891 
Si 14.9255334465 14.9042749963 6.8344935790 
Si 4.0261549868 12.2018291316 9.5085168718 
Si 3.3536223307 10.2241253735 23.0921082349 
Si 0.0337448982 16.2388169685 5.4995533715 
Si 8.1283028243 5.4261664696 13.5898348549 
Si 6.7607247318 14.9079076663 9.5186990147 
Si 13.5985011644 2.7674918353 16.4280269680 
Si 13.6037791244 13.5594214540 10.8851192573 
Si 2.6723256544 2.7165204248 5.5014789343 
Si 1.2775416327 12.2577852821 25.1212430246 
Si 8.1334504644 13.5665890541 10.8692187762 
H 5.1619263772 13.0069949690 22.7490662960 
Si 10.7635687284 5.0933454766 23.3529636505 
Si 11.5330431755 7.1332933252 24.3616376560 
Si 13.4315775328 16.2093809382 13.7531867698 
Si 1.3478899983 1.3326832832 6.8632019706 
Si 0.0122538268 0.0427777033 16.2842224335 
Si 6.7452492317 12.2059016316 12.1802936745 
Si 4.0756277173 14.9278954965 12.2533775372 
Si 10.5145760762 10.5531019265 23.7114100923 
Si 9.2913762550 11.8755404286 22.1948542979 
Si 14.9545622268 12.1684835013 14.9370869946 
Si 4.0649903472 4.0597612571 6.8307883293 
Si 1.3186543351 1.3364462732 12.2810356217 
Si 4.3255326096 6.9374875234 20.3839499644 
Si 12.1930651115 6.7174422014 17.7444992774 
Si 10.9038582097 13.4804475333 13.4011880461 
H 14.6167727837 10.9971021706 23.6997983648 
H 14.0507115685 12.5708953750 28.6160228939 
H 2.8536007761 2.9203734867 19.8414080442 
Si 4.0347235269 1.4302669001 27.7331231527 
Si 2.6660051344 8.1269344643 10.8681101188 
Si 3.9542020562 6.8304948025 14.9199028049 
Si 10.4124051952 0.5639484022 17.0543600473 
Si 16.2577622387 2.6804543645 8.2042981442 
Si 16.2855203989 8.0980034241 13.6396369122 
Si 2.7132135548 1.0282134064 22.4323695578 
H 3.3910078810 2.5852067336 25.0079849189 
Si 2.6938121646 16.2620302187 8.2188857415 
Si 9.4977868469 4.0388448969 12.2785265550 
Si 12.2663212422 12.1106540008 12.1396818035 
Si 14.1685045596 9.7097523288 24.3587784870 
Si 12.7234675164 14.7989112753 27.1028514221 
Si 1.3382316572 4.0492053370 9.5290562088 
Si 6.0455611453 4.8512272044 0.2282028295 
Si 6.6981711313 6.8241579924 17.5174870876 
Si 5.9216919842 5.6326910915 21.5953915729 
Si 9.3080409251 0.9161007384 20.6923609473 
Si 9.5024294969 9.4582835965 1.3255078671 
Si 8.4089958169 13.5776662542 16.1384923361 
Si 4.0507040171 1.3346820662 9.5688803495 
Si 5.4283819096 8.0862420439 2.7030351063 
Si 6.7652696419 6.7512113717 12.2080392846 
H 6.0926555357 11.2399372028 22.2920952218 
Si 10.8283703490 10.8411742891 29.1247215883 
Si 16.2894625790 10.8358963291 10.9018658190 
Si 12.7685745268 13.8441543666 23.8349670418 
Si 2.7167321949 11.0724922913 26.5661153657 
Si 2.6260946340 16.2506923786 18.8764384804 
Si 9.4316820263 1.4225258920 15.0665081581 
Si 8.2304085453 5.4462520398 2.8266095609 
Si 12.1375487910 12.2876122724 1.3190630666 
Si 16.1832354880 10.5690661267 21.6641283316 
Si 16.2388332585 16.2534779686 10.9509384965 
Si 5.7747398928 1.7014579356 19.9207062234 
Si 2.6663635144 2.6888111346 10.9037913819 
Si 5.6066759613 5.0992913266 27.1200356118 
Si 8.1132834442 8.0798889439 29.1588273909 
Si 7.0056937541 12.6944550261 19.4541656853 
Si 12.2235111218 9.5019896669 4.0137190570 
Si 12.9253657782 8.6684629393 20.7542415352 
H 4.8679570345 3.2714229899 18.4296495491 
Si 6.8553207627 6.7106818514 1.4092756861 
Si 4.8389445443 4.4662130509 23.3003024241 
Si 10.8549067593 5.4283167497 16.3139811321 
Si 9.4440624264 12.1010591907 4.1916293942 
Si 16.2453655486 8.0572132637 19.0712412552 
Si 13.5647808641 10.8115916489 13.6038097731 
Si 5.4252705196 5.4042564194 5.4585038725 
Si 0.7476002348 1.1615144776 25.5235397840 
Si 2.7180516849 10.8710827294 13.6078359500 
Si 10.8458006492 2.7056387047 13.6856170190 
Si 9.4974121769 9.4632194665 6.8376445000 
Si 9.4297435162 12.2657999622 27.8994509375 
Si 16.2119058883 2.6731890245 13.6298632219 
Si 4.0225060268 4.0564218071 12.2406571523 
Si 8.1237579143 8.1367573344 5.4740834265 
Si 8.6667524893 0.2378063092 18.5469046565 
Si 10.3918309250 0.7814052431 28.1410215494 
Si 10.7715996985 5.2107312177 27.4209193945 
Si 10.8773543795 10.7812433786 5.4743460032 
Si 10.8197040690 13.6594583449 19.0586667463 
Si 2.6275444440 4.5451218116 22.4959131318 
Si 1.5250828460 9.3779250258 27.7528455843 
Si 6.7725349819 6.7609202118 6.8207812375 
Si 6.8614946728 14.8992088063 14.9521413950 
Si 11.0651780812 7.8297722816 19.4983952805 
Si 12.2132321317 12.1854902614 6.8124371318 
Si 14.9518092167 11.8288532882 27.6380703684 
Si 1.2406187183 1.4073126609 17.7265565326 
Si 5.4028228994 8.1243117743 8.1569759784 
H 8.0469016936 13.9226070073 24.3454745982 
Si 16.1069168373 1.9779318181 27.5193273261 
Si 12.5579611149 5.7984092630 25.9800148799 
Si 12.2243256218 9.4541133565 9.5036446142 
Si 2.7716946554 13.6133576445 16.3633747366 
Si 8.1182681843 5.4021061394 8.1903524011 
Si 6.9982818040 8.0258550134 24.7857866362 
Si 8.0743992139 8.1440878345 16.1619491926 
Si 9.4846245267 12.1955086115 9.5195742705 
H 14.1270953792 1.3737357126 24.4178874314 
Si 1.3882224097 6.8107513223 17.7010282373 
Si 2.8192451658 5.5967879312 19.0837865889 
Si 8.0017783932 2.4492015224 23.6420314794 
Si 5.3974634894 5.3934724393 10.8791383424 
Si 13.5977518244 5.4602940199 2.8901648050 
Si 16.2145611583 13.6070208344 2.6081807134 
Si 2.6297761740 13.6111259145 0.0878768534 
Si 2.7216191949 16.2872797190 13.6156549021 
Si 8.1189197843 8.1034442841 10.8467830515 
Si 5.1868989474 14.1543159695 19.6283707727 
Si 6.8732886329 15.0361914175 27.7938367328 
Si 13.4997837635 8.1580646546 29.1505708108 
Si 4.0568942171 14.9701843369 1.3670562618 
Si 7.4564869282 9.0479059128 20.3793694589 
Si 9.5176606471 3.9970936266 1.4985634518 
Si 9.0704349830 6.8085521723 27.4055148917 
Si 8.9547108219 13.9962866780 23.1286064035 
Si 14.9878752771 6.8052127222 4.1656926461 
H 0.2022322069 5.3575041190 20.7599890486 
Si 3.8881135256 6.7297085715 27.2238701296 
Si 4.0180099868 9.5126759070 12.1906216934 
Si 1.3152399510 14.8936864962 4.0432151788 
Si 11.2257160327 15.8271360847 0.6792860576 
Si 13.5628423540 8.1656232147 5.4358055711 
Si 2.6809756445 13.5458844639 5.4154704604 
Si 10.7671688185 2.6267136540 2.9118565622 
H 11.8670207585 11.1615660121 20.8643778951 
Si 13.5673546841 5.4121407795 8.1949037315 
Si 14.9450162867 9.4654674866 12.2663021484 
Si 13.9060400772 13.9731385878 21.7784659195 
Si 0.0311650509 5.3984408894 16.3871525203 
Si 1.8311589167 5.7190769623 26.5015798351 
Si 4.0118197867 14.8914384762 6.8301464750 
Si 8.0667266238 15.4189086810 21.5366910812 
Si 12.2649691722 1.3908043747 1.6319086791 
Si 14.9263642365 6.7770147320 9.5262845653 
Si 0.0040654953 13.5476112039 8.1753855263 
Si 5.3085363786 5.4743197101 16.2257261682 
Si 7.9185202024 5.2924581484 18.7609338846 
Si 9.4336042463 1.2866640328 4.2405853708 
Si 13.5797187942 8.1255009443 10.8929965599 
Si 13.7059011353 13.5289428637 16.3448484880 
Si 12.1868097515 4.0557864971 4.1477499014 
Si 2.1092780893 2.5464691133 24.1889788539 
Si 1.3182764071 14.9140815764 9.5697264302 
Si 6.6699242710 4.1276579778 14.8916028661 
Si 13.6694929850 0.1338313107 18.9921181273 
Si 13.5438645039 8.1022388241 16.3885821048 
Si 9.4892671768 4.0562914871 6.8520570462 
Si 2.7084405848 13.5654161741 10.8992400515 
Si 7.3552282873 11.8142248680 17.3191832894 
H 6.7657420519 12.1673269113 23.9144402721 
Si 16.1772081880 5.3837310192 0.1604095966 
Si 14.8764353861 12.1981801716 20.5344064434 
Si 7.7930220413 7.0972435549 21.7534627777 
Si 5.5076164704 10.8822739595 16.2025902388 
Si 5.3849527692 13.7843863561 26.4187222822 
Si 10.8677106994 16.2304439084 5.5025584165 
Si 10.8402946291 15.3386967203 23.5196707129 
Si 16.2832723789 8.1195225143 2.6963714919 
Si 2.7525213252 5.4306136397 2.7078811062 
Si 6.7508041217 1.3013005979 17.7682187106 
Si 8.0654560038 10.7662565785 13.4574669966 
Si 12.2144701717 1.3280927611 6.8422833560 
Si 14.6087092336 6.9970111840 20.5018761013 
Si 15.4072450409 4.6214404623 23.7518177369 
Si 0.0228064889 2.6905052946 19.3338471825 
Si 2.8808376564 7.9699803129 29.0669255277 
Si 1.2729950936 14.8535316458 27.8057110370 
Si 9.4877033368 1.3428661623 9.5378962928 
Si 8.6255550789 14.3822130715 19.5267243945 
Si 12.2389214619 1.7610467561 18.0615752931 
Si 1.3934791927 6.7699122919 1.3270920802 
Si 1.3872580417 14.9357472766 14.9875309062 
Si 10.8519908492 2.6907822246 8.1880475608 
Si 10.5548449565 11.6277532363 20.2596052847 
Si 14.8722651460 1.2714133346 20.6822371548 
Si 13.5365177138 5.3063698085 19.1177756907 
Si 1.1496553575 3.9560265362 28.0080410121 
Si 4.0727118073 6.7716879019 4.1023824736 
Si 1.3144091610 4.8078958040 24.4088431210 
Si 12.2117660317 4.0346909469 9.5513752327 
H 13.5118383636 7.0395769544 23.3028406661 
Si 14.9532590268 15.0195756174 17.6280902506 
Si 0.0277166208 5.3962417393 5.4767383692 
H 6.3988423785 7.9344844026 23.3851438903 
Si 6.6852531611 9.4258013362 14.7949454461 
Si 5.5000090403 16.2729282288 16.2958049858 
H 11.6135646462 11.8022354279 16.8842394872 
Si 10.8632146594 16.2866444090 10.8740910337 
Si 2.6938936146 8.1309580944 5.4384605138 
Si 2.4537301424 13.7812912560 23.7945010467 
Si 5.8351432134 15.9269774957 21.2122337412 
Si 12.1693957413 1.3106429130 12.3212390400 
Si 9.3932702059 14.8053621154 1.6217644639 
Si 12.3877469033 14.9723509069 20.2678618648 
Si 1.3627709135 6.7732354519 6.8216856685 
Si 4.0758231973 12.4178182436 27.9067447362 
Si 10.8464196692 10.8012963688 10.8249308307 
Si 10.7996184988 13.4415958829 2.8761140312 
Si 9.5090106570 14.9313001066 12.2081559854 
Si 14.3353467411 14.6235982937 25.4223310336 
Si 3.4674405617 1.6145752198 20.2792693659 
Si 1.3487615133 12.2143072717 12.2519187774 
H 4.6846293728 5.2613442481 24.5763670888 
H 10.2127875334 2.1688343298 28.7518042500 
Si 16.2645225888 8.1340694844 8.1450724990 
Si 12.2217355118 14.9012450563 4.1012738163 
Si 2.7057364447 5.4147634695 8.1848966397 
Si 7.4765399184 5.9958114848 25.8438542463 
Si 4.2166013786 9.6300779381 17.6930050588 
H 9.9913412714 3.2263974295 18.5560073173 
Si 9.4891694368 12.1553863412 14.6409295934 
Si 9.4882734868 14.8867143761 6.8378779016 
Si 10.8589792593 13.5388634738 8.1783322209 
Si 4.0545321671 6.7762165220 9.5348912477 
Si 1.4325833381 15.3326042602 22.3164565093 
Si 5.3547836890 10.9218260799 0.0686553599 
Si 8.7721325002 4.4940852411 24.5229764826 
H 9.9413635509 14.3495842012 25.5850119192 
Si 12.2161154617 14.9012287663 9.5374294897 
Si 2.7566426952 8.2327543053 16.3940962166 
Si 2.7262944249 10.9624370503 18.9484428608 
Si 1.0434038315 10.3992265851 23.6923878654 
Si 8.1392171244 10.8060204688 2.7161114286 
Si 15.4509511113 15.8112207546 22.1898945148 
Si 10.8246399390 13.4978778334 26.4733965970 
Si 4.0680202872 1.3435617453 15.0018851019 
Si 6.7678760419 12.2180213917 1.4119189587 
Si 4.1630072781 14.9900581371 17.6793510677 
Si 11.3622913939 0.3045839068 21.5884478766 
Si 14.8620187359 14.9262176265 12.3420409538 
Si 3.9614022362 4.1685458781 17.6193376922 
Si 6.7719974119 9.4557260665 4.0664386338 
Si 7.9246289525 10.9815452204 26.6139043346 
Si 4.0821274273 12.2506502620 14.9533084028 
Si 10.3812098449 4.4515520507 21.1294637140 
Si 14.8954458162 9.4798678467 1.3398387227 
Si 2.9383087769 8.4138828170 21.6005555824 
Si 5.4092900295 10.8293477490 5.4161414899 
Si 10.4634906357 8.2441898854 26.2293752687 
Si 13.8610959668 2.4849743627 27.2454889489 
Si 16.2621442487 5.3999721494 10.8784089625 
Si 13.5648134441 10.9202785299 2.6535656462 
Si 15.0253259874 4.0397897169 17.8327834164 
Si 6.7444347317 12.1806032614 6.8101906418 
H 8.5126327978 7.1754355556 23.0782500175 
Si 10.7811619286 10.8615530793 16.0690845480 
Si 10.5356553364 14.5487457431 16.8175741673 
Si 14.9117521064 12.2530611821 4.0424566238 
Si 1.3150444710 6.7610668218 12.2314086156 
Si 1.7187579157 14.5224211028 20.1621017841 
Si 2.5891163337 16.2778640989 26.4561540570 
Si 6.7685928019 9.4794443067 9.5035570887 
Si 5.2820814183 8.4691059175 26.3096945797 
Si 14.9193595364 9.5150379570 6.7904390350 
H 3.2812295700 7.2908013367 24.1226636365 
Si 5.3916316693 0.0450304474 29.1332407451 
Si 8.1286123343 10.8425100692 8.1600101987 
Si 15.1724898488 0.2588823114 24.3972022183 
H 13.8556876867 6.3490438481 26.8995586656 
Si 13.5757603242 10.8462404792 8.1771360379 
Si 5.3746086191 2.6515559042 2.8654213224 
Si 5.3770358292 2.6901632046 13.5784857041 
Si 5.3936842093 10.8438295592 10.8353755504 
Si 6.2350138470 11.9108082789 25.3020125308 
H 10.3081329043 8.3813353966 21.9998764719 
Si 14.9464986767 12.1939773515 9.5331407361 
Si 1.3868149537 9.4742803767 14.9533084028 
Si 1.3047019499 12.1942705715 17.5394851844 
Si 8.0728027938 0.0041753225 2.8304198413 
Si 6.8025085822 1.3286417342 12.2794893364 
Si 9.4985198969 9.4428895464 12.1775512062 
Si 12.2935581224 9.0039880723 23.0806132082 
Si 2.6501549642 2.7008331547 16.3376713901 
Si 0.4163300498 7.6677682301 26.5078816771 
Si 7.6786010802 3.1158209085 0.3122095933 
Si 12.1405787310 3.4862229319 19.8698830342 
Si 8.4909508077 0.2335285551 26.8556208224 
Si 11.4255780445 4.7872889538 0.3769756079 
Si 15.0363380275 6.8846590530 27.9536876244 
Si 6.6897654912 1.3284299641 1.4644634843 
Si 10.8513718292 8.0957716940 2.7016697072 
Si 11.8545751984 12.0090858498 25.0033168877 
Si 12.1330038810 14.6178153437 15.0242041259 
Si 13.6086824145 10.5282270963 19.3339638833 
Si 6.8032253422 4.0554932771 4.1079841110 
Si 4.4375426506 10.3151538943 25.1865371103 
Si 11.0334125809 1.9049037474 25.1993158455 
Si 12.2828067223 6.7238441715 1.4175060085 
Si 13.5853551342 5.4249772996 13.6262163226 
H 13.0640588395 12.7002216862 17.4184956521 
Si 0.0123913307 13.5751575942 13.6283461118 
Si 5.6449248816 8.2891665758 18.9961151289 
Si 5.3990924894 16.2508389886 5.5258985722 
Si 9.5426169273 6.8060760922 4.1720528385 
Si 14.8315075656 1.3354069712 15.0124465224 
Si 16.2598799387 10.7821881986 16.2763159557 
Si 8.1035583141 2.7063554648 5.5268905289 
Si 5.5572195208 2.8052031857 26.4528572600 
Si 10.8595656993 5.4146820195 5.5139367424 
Si 12.0276075800 9.3674505557 27.6968583857 
Si 16.1727284379 13.5578413240 19.0781849515 
Si 16.1028117573 13.4696309732 26.4578462182 
Si 6.7548440418 1.3326425582 6.8639605256 
Si 6.7981428622 3.8517053752 20.3121206351 
Si 9.5137347570 6.7750599320 14.9299974223 
Si 12.2135416417 9.4201649961 14.9469773856 
Si 13.7870253361 3.9465946261 25.3145286893 
Si 12.2381558319 6.7786111520 6.8186806235 
Si 5.3950362793 2.6900817546 8.2034520635 
Si 9.3514374855 4.0689162372 17.4750371793 
Si 8.6177032988 2.9644705171 21.4602520712 
Si 9.4969071869 6.7372997116 9.5348037222 
Si 10.8539619393 8.1103675342 13.5579755423 
Si 14.9296222365 6.7512928217 15.0337152393 
Si 3.3529218607 12.8548300776 20.2430629493 
Si 7.7611588010 2.4235773522 27.2576258299 
Si 5.3268463387 8.0851180339 13.4889178565 
Si 8.1373600644 16.2634800287 8.1863553995 
Si 10.8529030893 8.0929046540 8.1769609868 
Si 13.6821014451 0.0478958584 2.8862582464 
Si 4.0544181371 9.4375464263 1.3419568419 
Si 6.7686090919 4.0370367069 9.5466488512 
Si 10.8515021492 5.3864514493 10.9044332362 
Si 13.1307501001 3.1187531085 0.2497665076 
H 15.3372306203 3.5464307724 22.6906283810 
Si 12.2519534621 3.2269187095 23.7044080456 
Si 0.0648952881 10.6583190375 29.0981721611 
Si 5.7009950621 2.3891077118 24.0942469968 
Si 5.4400455497 16.2764957389 10.9023326222 
Si 14.8555841859 4.0588490171 1.5258451764 
Si 12.2256451118 6.7510321817 12.2358140700 
Si 14.9470199567 9.4686603266 17.7157617106 
H 0.8018263873 12.1026719007 19.1277536073 

