&CONTROL
/
&SYSTEM
   ntyp             = 2
   nat              = 407
   ibrav            = 0
/
&ELECTRONS
/
&IONS
/
&CELL
/

ATOMIC_SPECIES
Si 28.085 None
H 1.008 None

K_POINTS gamma

CELL_PARAMETERS angstrom
16.29000014900000 0.00000000000000 0.00000000000000
0.00000000000000 16.29000014900000 0.00000000000000
0.00000000000000 0.00000000000000 29.17519467510000

ATOMIC_POSITIONS angstrom
Si 2.6652232144 10.8133183889 2.6982387043 
Si 8.1370831344 2.6938447446 10.9121646628 
Si 4.7802353837 0.3018439288 23.2772248452 
Si 8.9508500919 10.0354383018 17.2352170791 
Si 15.0065110372 1.3855638817 4.2224383997 
Si 12.2447695720 4.0763770573 15.0008056197 
Si 0.1037585043 0.1563725984 29.0949920649 
Si 1.2837807027 12.1526984911 1.3219134831 
Si 4.0011009666 15.0935810880 24.9871538299 
Si 7.9109616424 2.7369317950 16.2652585569 
Si 8.2023571650 16.2775220089 13.6411540223 
Si 13.5636568540 2.7159339848 5.5057968631 
H 15.1408709585 9.4620302965 21.8747148867 
Si 1.3016394299 4.0348864269 14.9630820930 
Si 0.0157475269 2.6761700945 2.7502697465 
Si 1.3238980861 9.4821484467 4.0812888079 
Si 9.7329655790 3.4871025919 26.3670238372 
Si 14.9320331566 4.0651043772 6.8442089188 
Si 12.2904793124 0.8008131493 26.8034847496 
Si 13.3472604921 10.6758307876 26.3067478850 
Si 1.3418236023 4.3909532502 20.4690248321 
Si 4.0327035669 12.1795444114 4.0586488568 
Si 2.7269623149 16.2872960090 2.7874126869 
Si 6.6191483405 9.5574734074 27.9394209542 
Si 12.8817900278 2.1457025296 21.6509411436 
H 12.4319253837 11.0492301711 18.5306248979 
Si 13.5736589141 16.2659235288 8.1953121842 
Si 2.7882127155 2.7777219554 0.0437050251 
Si 4.0541737871 9.4875404368 6.7968284027 
Si 1.3711504895 9.4918735768 20.2332017335 
Si 7.2270911461 11.1813420723 21.2923780010 
Si 5.3857672693 13.5817387542 2.7418235277 
Si 8.9537008419 9.4295806162 25.2023500658 
Si 14.9057410963 1.3306926452 9.5786832150 
Si 1.4514797383 1.3722679836 1.3989359971 
Si 2.6436389642 5.4033930494 13.5999294722 
Si 8.0925625640 13.6240113046 0.0654078689 
Si 9.4078171760 6.3035295876 20.2311594699 
Si 13.5347909738 2.6703545644 10.9443449025 
Si 16.2581531987 10.8705125794 5.4086726400 
Si 12.9805074287 14.2820784406 0.2276452915 
Si 1.3346511152 12.1996462716 6.7860627558 
Si 4.1758600882 4.0567313171 1.4201872089 
Si 6.7257663915 14.9067022063 4.1427609431 
Si 5.4500801898 13.5740498741 13.5985582381 
Si 9.5778196176 9.6314462981 19.3842035685 
Si 16.1851414180 8.3483155663 24.2737619697 
Si 14.9155802564 15.1408709585 1.2933422150 
Si 2.0978425092 6.9250256733 23.2304861833 
Si 1.3775052186 4.0706429772 4.0697937812 
Si 1.3254456361 9.4873123768 9.5083126454 
Si 8.1066045441 13.5501035739 5.4863661835 
Si 14.9084452363 4.0539457271 12.2539610411 
Si 14.9721554269 6.7622397018 22.8490205129 
Si 13.5662632541 13.5599590240 5.4681316868 
Si 4.0275559268 1.3246523131 4.2127230599 
Si 2.6843150946 10.8403923691 8.1471439378 
Si 3.8033566548 12.4345643637 22.4708224643 
Si 5.3929837393 13.5481487739 8.1687919323 
Si 9.2394926045 0.5795525933 24.5966146739 
H 9.6684897584 8.8069931006 21.9656539685 
Si 14.9253705465 14.9058062563 6.8357481124 
Si 4.0250961368 12.2031649116 9.5113760408 
Si 3.3559680907 10.2264385535 23.0815468145 
Si 0.0328364049 16.2403482285 5.4996117218 
Si 8.1272439743 5.4261664696 13.5906517603 
Si 6.7608713418 14.9098624664 9.5194867449 
Si 13.5973771544 2.7655859053 16.4268016099 
Si 13.6017591644 13.5591771040 10.8850609069 
Si 2.6713808344 2.7185240949 5.5027042925 
Si 1.2768965487 12.2571173921 25.1180045780 
Si 8.1297852143 13.5664261541 10.8723113468 
H 5.1598575472 13.0103018390 22.7422976508 
Si 10.7689932985 5.0801179965 23.3537805560 
Si 11.5370505155 7.1213853351 24.3541979814 
Si 13.4292480628 16.2087293382 13.7528658427 
Si 1.3471862703 1.3338105512 6.8640188760 
Si 0.0090994149 0.0431452057 16.2815091404 
Si 6.7410952816 12.2065369416 12.1860703631 
Si 4.0767680173 14.9267714865 12.2535525883 
Si 10.5003874860 10.5192350162 23.7554354611 
Si 9.2891771050 11.8533697384 22.2197990894 
Si 14.9482905767 12.1666753113 14.9314561820 
Si 4.0667170872 4.0611133271 6.8304382269 
Si 1.3189508131 1.3359966692 12.2809772713 
Si 4.3204012595 6.9353372434 20.3810907953 
Si 12.1904098415 6.7179146114 17.7466582418 
Si 10.9015124497 13.4815063833 13.4036679376 
H 14.6181574337 10.9942025505 23.7010237230 
H 14.0467042285 12.5621150649 28.6169856754 
H 2.8543826961 2.9178485367 19.8383446488 
Si 4.0323940569 1.4224949410 27.7358364458 
Si 2.6652069244 8.1281562143 10.8706775359 
Si 3.9546093062 6.8330360425 14.9226452732 
Si 10.4133663052 0.5585482671 17.0558771574 
Si 16.2572409587 2.6819530445 8.2050275241 
Si 16.2840705889 8.0988667941 13.6418250518 
Si 2.7119592248 1.0276514014 22.4337991423 
H 3.3926368810 2.5826654936 25.0142867609 
Si 2.6934537846 16.2629587487 8.2195275958 
Si 9.4975424969 4.0391706969 12.2798102636 
Si 12.2638288722 12.1119572008 12.1413156144 
Si 14.1731634996 9.7071133488 24.3619877584 
Si 12.7307328564 14.7992207853 27.1045435834 
Si 1.3382674952 4.0503619270 9.5301648662 
Si 6.0480698053 4.8720458246 0.2261173865 
Si 6.6981874213 6.8250213624 17.5184498690 
Si 5.9162022541 5.6290095515 21.5901692131 
Si 9.3051575951 0.9097508963 20.6970289785 
Si 9.5018756369 9.4808941167 1.3381582315 
Si 8.4039784969 13.5746526041 16.1403011982 
Si 4.0507691771 1.3353173762 9.5696389046 
Si 5.4137534895 8.0944359140 2.7226320846 
Si 6.7643411119 6.7524168318 12.2098773219 
H 6.0783692056 11.2620427330 22.2758738135 
Si 10.8348700591 10.8424449092 29.1287185900 
Si 16.2882245390 10.8364664791 10.9036746811 
Si 12.7696985368 13.8309105965 23.8336541580 
Si 2.7232319049 11.0752453013 26.5578296104 
Si 2.6201813640 16.2422052885 18.8844908341 
Si 9.4320241163 1.4200107160 15.0683170202 
Si 8.2299687153 5.4560097499 2.8082787861 
Si 12.1424846611 12.2884919324 1.3225465849 
Si 16.1753022579 10.5682190467 21.6609482354 
Si 16.2380024685 16.2542924687 10.9508217957 
Si 5.7755055228 1.6982488055 19.9209688001 
Si 2.6663635144 2.6896582146 10.9046666377 
Si 5.5740633810 5.0743676264 27.1199772614 
Si 8.0404508535 8.1806100148 0.0120771885 
Si 7.0045208741 12.6945690561 19.4576375335 
Si 12.2209047218 9.5010122669 4.0110057639 
Si 12.9252191682 8.6772432494 20.7523451476 
H 4.8689344345 3.2672853299 18.4274614095 
Si 6.8385420625 6.7400853016 1.4165169694 
Si 4.8470406743 4.4597785008 23.3018778847 
Si 10.8526913193 5.4298154297 16.3144479352 
Si 9.4447466064 12.1116965608 4.1994775215 
Si 16.2426288285 8.0537597837 19.0639474565 
Si 13.5601382140 10.8078286588 13.6019717358 
Si 5.4281049796 5.4046147994 5.4566366601 
Si 0.7507735269 1.1600760706 25.5234814336 
Si 2.7173349248 10.8720764194 13.6116579005 
Si 10.8448069592 2.7050848447 13.6871924795 
Si 9.4971352469 9.4640665466 6.8377320256 
Si 9.4340766563 12.2623301921 27.9012889748 
Si 16.2125249083 2.6733845044 13.6289587909 
Si 4.0217403968 4.0575946871 12.2425243648 
Si 8.1247678943 8.1369365244 5.4728872435 
Si 8.6673552193 0.2357765752 18.5495304240 
Si 10.3921893050 0.7656984250 28.1390084610 
Si 10.8840658595 5.2760704082 27.3309722693 
Si 10.8769797095 10.7825628686 5.4740542513 
Si 10.8164460689 13.6524536449 19.0654937419 
Si 2.6393058241 4.5429063715 22.4921787068 
Si 1.5324214910 9.3836428158 27.7512701238 
Si 6.7730888419 6.7619139018 6.8208395879 
Si 6.8589045627 14.8991273563 14.9548838633 
Si 11.0647056712 7.8323298116 19.5014878511 
Si 12.2121569917 12.1865654015 6.8134874388 
Si 14.9436805067 11.8169127181 27.6374576893 
Si 1.2412409963 1.4035301228 17.7264106567 
Si 5.4031975694 8.1245398343 8.1587556653 
H 8.0559915137 13.9156185973 24.3622503351 
Si 16.1140355674 1.9751950981 27.5203484579 
Si 12.6633085458 5.8135589632 25.9154209988 
Si 12.2228106518 9.4553188165 9.5058619290 
Si 2.7354005350 13.5847035342 16.3708144113 
Si 8.1182193143 5.4026111294 8.1905566275 
Si 7.0130242541 8.0110474033 24.8310665384 
Si 8.0726724738 8.1471829345 16.1633496019 
Si 9.4823927967 12.1975122816 9.5207121031 
H 14.1188689291 1.3664410505 24.4347798691 
Si 1.3877516287 6.8078028323 17.6964477317 
Si 2.8178442258 5.5938883112 19.0801688648 
Si 8.0093369532 2.4382872223 23.6440445678 
Si 5.3967955994 5.3944335493 10.8807721533 
Si 13.5965300743 5.4564007099 2.8895813011 
Si 16.2138932683 13.6094480445 2.6108794189 
Si 2.6230321140 13.6193686546 0.0873928369 
Si 2.7249260649 16.2878987390 13.6141961424 
Si 8.1180727043 8.1037537941 10.8477750081 
Si 5.1803340774 14.1495592894 19.6247822238 
Si 6.8778661229 15.0377389675 27.7870097373 
Si 13.5174909936 8.1591560846 29.1716353013 
Si 4.0553955371 14.9712594769 1.3682378572 
Si 7.4511600981 9.0440451827 20.3842125412 
Si 9.5268319171 4.0205838068 1.4516876666 
Si 8.9215118016 6.6841943111 27.5432509857 
Si 8.9529515019 13.9838248279 23.1365420564 
Si 14.9845358270 6.8038769422 4.1658676973 
H 0.2034344089 5.3548488490 20.7643069774 
Si 3.8800173955 6.7293501915 27.2293842414 
Si 4.0163158267 9.5144189370 12.1937434393 
Si 1.3157221350 14.8957227462 4.0441779603 
Si 11.2356040628 15.8219395747 0.6757412715 
Si 13.5609852940 8.1664702947 5.4355429943 
Si 2.6808453245 13.5480184539 5.4170750961 
Si 10.7651488585 2.6492753042 2.8928839331 
H 11.8679818685 11.1731807822 20.8585136810 
Si 13.5665564741 5.4122710995 8.1946411548 
Si 14.9439411467 9.4644412166 12.2663313236 
Si 13.9169217973 13.9690823778 21.7740604651 
Si 0.0290963838 5.3957856193 16.3854603590 
Si 1.8279172067 5.7238499324 26.4953071682 
Si 4.0125039667 14.8938331062 6.8304674021 
Si 8.0646903738 15.4108451309 21.5437514783 
Si 12.2631284022 1.3982163248 1.6240080364 
Si 14.9245886265 6.7767378020 9.5276849747 
Si 0.0035853802 13.5485397339 8.1766692348 
Si 5.3091553986 5.4744826101 16.2262804969 
Si 7.9206704824 5.2907802784 18.7602920304 
Si 9.4388170463 1.3017713789 4.2279525115 
Si 13.5781875342 8.1250936943 10.8940760421 
Si 13.7107718454 13.5321519938 16.3496332199 
Si 12.1858323514 4.0573992071 4.1476332006 
Si 2.1126175393 2.5474953833 24.1917504974 
Si 1.3181281681 14.9146517264 9.5707475620 
Si 6.6703315210 4.1270389577 14.8930324506 
Si 13.6821503151 0.1150714208 18.9838323720 
Si 13.5421703439 8.1017012541 16.3906535437 
Si 9.4886155768 4.0580833871 6.8500439578 
Si 2.7065835248 13.5655627841 10.9017491183 
Si 7.3489566372 11.8123515180 17.3222758600 
H 6.7938423021 12.1492613011 23.9040247276 
Si 16.1841477280 5.3840405292 0.1583524536 
Si 14.9167857164 12.2090130217 20.5045893944 
Si 7.7907088612 7.0866224748 21.7421136269 
Si 5.4934441702 10.8814268795 16.2156315508 
Si 5.3985060494 13.7766160260 26.4088318912 
Si 10.8655929994 16.2389147085 5.4964024504 
Si 10.8404249491 15.3288738502 23.5159654632 
Si 16.2871005290 8.1183170542 2.7040620732 
Si 2.7538245252 5.4311512097 2.7095265872 
Si 6.7497941417 1.2961382968 17.7690356161 
Si 8.0605690037 10.7655561085 13.4624851301 
Si 12.2141280817 1.3290245491 6.8415831513 
Si 14.6033172436 6.9979885840 20.4934444700 
Si 15.4283731711 4.6201535522 23.7147944149 
Si 0.0241342868 2.6895116046 19.3310755390 
Si 2.8781823863 7.9729613829 29.0718269604 
Si 1.2640860926 14.8521795758 27.8038438246 
Si 9.4876218868 1.3450653123 9.5388298990 
Si 8.6248871889 14.3808121315 19.5308672721 
Si 12.2489235220 1.7444798260 18.0591829271 
Si 1.3942969508 6.7707105019 1.3312262053 
Si 1.3883185207 14.9372133766 14.9842049340 
Si 10.8511437692 2.6919876846 8.1866763266 
Si 10.5452338564 11.6258961763 20.2722964944 
Si 14.8757512060 1.2613070185 20.6735137716 
Si 13.5332922938 5.3019226385 19.1162294054 
Si 1.1532407866 3.9569876462 28.0022643236 
Si 4.0632310272 6.7720625719 4.1135857484 
Si 1.3231992451 4.8111049340 24.4005573657 
Si 12.2110492717 4.0347398169 9.5510543056 
H 13.5323474738 7.0515989745 23.2909371867 
Si 14.9870933571 14.9951731971 17.6460913457 
Si 0.0269122205 5.3972028494 5.4769134204 
H 6.4214528987 7.9633177028 23.4216712340 
Si 6.6769941311 9.4300530262 14.8036980045 
Si 5.4939980303 16.2682367088 16.2991601332 
H 11.6256518263 11.7963547379 16.8778209443 
Si 10.8616671093 16.2871331090 10.8750538151 
Si 2.6896582146 8.1341672244 5.4477090505 
Si 2.4512377724 13.7881819261 23.8007153632 
Si 5.8330092234 15.9210153556 21.2097538497 
Si 12.1684020513 1.3109361330 12.3219100695 
Si 9.3977825360 14.8099070254 1.6173473394 
Si 12.3930900233 14.9659652269 20.2663155795 
Si 1.3593467554 6.7731051319 6.8260327725 
Si 4.0669288572 12.4342385637 27.8993342368 
Si 10.8437155292 10.8028764988 10.8266229920 
Si 10.8004329988 13.4448701730 2.8760177531 
Si 9.5067137669 14.9318376766 12.2092646428 
Si 14.3352815811 14.6173266437 25.4204346460 
Si 3.4678478117 1.6129234137 20.2803780233 
Si 1.3467806493 12.2146167817 12.2549529977 
H 4.6927580829 5.2536064980 24.5802473897 
H 10.1990876433 2.1149958793 28.8136848379 
Si 16.2619161887 8.1349002744 8.1479024929 
Si 12.2214748718 14.9055781963 4.1007194876 
Si 2.7064694947 5.4152358795 8.1857718956 
Si 7.4213656879 5.9461595644 25.8310171607 
Si 4.1911563983 9.6440384682 17.7149448052 
H 9.9972382514 3.2244263395 18.5540234040 
Si 9.4866933568 12.1545881312 14.6423008276 
Si 9.4896907168 14.8946150262 6.8374986241 
Si 10.8566823693 13.5412418138 8.1778362426 
Si 4.0538154071 6.7773894020 9.5368168106 
Si 1.4233192150 15.3319852402 22.3172442396 
Si 5.3264879587 10.9568332902 0.0863582845 
Si 8.7750321202 4.4815256510 24.5227139058 
H 9.9532715410 14.3614107413 25.6006789987 
Si 12.2145516217 14.9018152063 9.5378087672 
Si 2.7560562552 8.2353281253 16.3975972400 
Si 2.6847223445 10.9785315704 18.9618926256 
Si 1.0485596166 10.4058891952 23.6803968604 
Si 8.1367736244 10.8203067990 2.7290126997 
Si 15.4442396312 15.8156027646 22.1980052189 
Si 10.8317912491 13.4964768934 26.4796400887 
Si 4.0688673672 1.3437832893 15.0028187082 
Si 6.7691140819 12.2297664818 1.4175205961 
Si 4.1483136979 14.9777917670 17.6712403635 
Si 11.3627963839 0.2971556667 21.5847134517 
Si 14.8594937859 14.9271950265 12.3404946685 
Si 3.9628031762 4.1661186681 17.6183457356 
Si 6.7699122919 9.4620791665 4.0739950092 
Si 7.9447471027 10.9720644403 26.6086236243 
Si 4.0738683973 12.2538593921 14.9622943628 
Si 10.3849239650 4.4439609106 21.1289677356 
Si 14.9090642564 9.4863023968 1.3512929042 
Si 2.9346109468 8.4135081470 21.5953040473 
Si 5.4073840994 10.8342836191 5.4219181784 
Si 10.4985467160 8.0837822539 26.3345810207 
Si 13.8719451069 2.4830521427 27.2353359811 
Si 16.2624374687 5.4017151794 10.8800135982 
Si 13.5671917841 10.9217283399 2.6582365949 
Si 15.0239576274 4.0372321869 17.8313246567 
Si 6.7441415117 12.1845617314 6.8139834172 
H 8.5133658479 7.1556432054 23.0633998434 
Si 10.7812596686 10.8609014793 16.0694930007 
Si 10.5305728563 14.5428161830 16.8229424032 
Si 14.9112145364 12.2564332121 4.0465995014 
Si 1.3144987560 6.7626632419 12.2345595366 
Si 1.6979230055 14.5116859927 20.1628311640 
Si 2.5885950537 16.2719019588 26.4572627144 
Si 6.7677131419 9.4806171867 9.5055701771 
Si 5.2748160782 8.4718915075 26.3205477521 
Si 14.9174210264 9.5152497270 6.7916060428 
H 3.2974544102 7.2933262867 24.1151072610 
Si 5.3914850593 0.0387692230 29.1304691017 
Si 8.1279118643 10.8430639292 8.1610605057 
Si 15.1699323187 0.2583838374 24.4061590031 
H 13.9045576872 6.4086652486 26.8342645799 
Si 13.5743919641 10.8468920792 8.1784489217 
Si 5.3713180391 2.6524518543 2.8613426302 
Si 5.3767263192 2.6908799646 13.5797110623 
Si 5.3923321393 10.8446929292 10.8381763691 
Si 6.2565166472 11.8987210988 25.2907217305 
H 10.3179394844 8.3841046967 22.0184610709 
Si 14.9458633667 12.1942705715 9.5339868167 
Si 1.3855084957 9.4744758567 14.9536585051 
Si 1.2688281116 12.2030508816 17.5848817873 
Si 8.0771522239 0.0086490941 2.8273739510 
Si 6.8020524622 1.3292102552 12.2810647969 
Si 9.4950989968 9.4442416164 12.1799435722 
Si 12.2949590624 9.0044767723 23.0894241170 
Si 2.6500409342 2.6990738347 16.3384299452 
Si 0.4211779539 7.6771349802 26.5048474569 
Si 7.6677193601 3.1155928485 0.3106545554 
Si 12.1426149811 3.4756833018 19.8657401566 
Si 8.4909345177 0.2446220452 26.8506026890 
Si 11.4458916747 4.8130271540 0.3199235147 
Si 15.0529049577 6.8989616731 27.9616524526 
Si 6.6856929911 1.3243004491 1.4618289642 
Si 10.8493192892 8.0943381740 2.6941541771 
Si 11.8509913984 11.9971778597 25.0116901686 
Si 12.1310165009 14.6191837037 15.0298057632 
Si 13.6161758145 10.5371540164 19.3311047142 
Si 6.8041375822 4.0590282071 4.0973351650 
Si 4.4428531906 10.3131013543 25.1759465146 
Si 11.0393910110 1.9155248275 25.2036921247 
Si 12.2890132124 6.7223454915 1.4164411139 
Si 13.5847686942 5.4246677896 13.6277626079 
H 13.0653457495 12.7061186662 17.4275399624 
Si 0.0082229477 13.5776662542 13.6274708560 
Si 5.6385392016 8.2896226958 18.9957942018 
Si 5.3992553894 16.2553838987 5.5267446529 
Si 9.5411182473 6.8065159223 4.1647882151 
Si 14.8294713156 1.3359412832 15.0101125068 
Si 16.2702892488 10.7930210487 16.2666589663 
Si 8.1030370341 2.7109166648 5.5213180667 
Si 5.5537334608 2.7890923755 26.4497355141 
Si 10.8581484693 5.4180051795 5.5116610772 
Si 12.0321036200 9.3355058654 27.7259460548 
Si 16.2180960883 13.5052246235 19.0083687107 
Si 16.0971591272 13.4594660131 26.4578753934 
Si 6.7564730418 1.3369300862 6.8625892915 
Si 6.7992994522 3.8485125352 20.3117121824 
Si 9.5106396570 6.7764445820 14.9307851525 
Si 12.2107723417 9.4170373161 14.9478234662 
Si 13.8316762265 3.9198138659 25.2814148434 
Si 12.2370155319 6.7797025820 6.8189723754 
Si 5.3952806293 2.6911568946 8.2041230930 
Si 9.3526266555 4.0658537172 17.4744245003 
Si 8.6178661988 2.9606749471 21.4615066046 
Si 9.4964673568 6.7379350216 9.5354164012 
Si 10.8515673092 8.1093086842 13.5575087392 
Si 14.9280421065 6.7520095818 15.0353490502 
Si 3.3486375906 12.8570129376 20.2571545684 
Si 7.7711445711 2.4432393823 27.2490483226 
Si 5.3266508587 8.0871868640 13.4911059961 
Si 8.1370016844 16.2670801188 8.1871431297 
Si 10.8524795493 8.0941426940 8.1778945930 
Si 13.6779800751 0.0546905804 2.8836033037 
Si 4.0479998770 9.4426940664 1.3490405791 
Si 6.7682344219 4.0382584569 9.5478158590 
Si 10.8509645792 5.3861745193 10.9045791122 
Si 13.1383249502 3.1228418986 0.2367540790 
H 15.3535369104 3.5516272825 22.6468364138 
Si 12.2653764222 3.2169166494 23.6972892981 
Si 0.0691681551 10.6606647975 29.0975594821 
Si 5.7064196322 2.3797898318 24.0908334991 
Si 5.4401432897 16.2770495989 10.9034704548 
Si 14.8576855959 4.0611784871 1.5212471657 
Si 12.2247002918 6.7500384917 12.2367185010 
Si 14.9498055467 9.4679435666 17.7081178096 
H 8.8495262909 5.5887406711 28.6613903217 

