&CONTROL
/
&SYSTEM
   ntyp             = 2
   nat              = 407
   ibrav            = 0
/
&ELECTRONS
/
&IONS
/
&CELL
/

ATOMIC_SPECIES
Si 28.085 None
H 1.008 None

K_POINTS gamma

CELL_PARAMETERS angstrom
16.29000014900000 0.00000000000000 0.00000000000000
0.00000000000000 16.29000014900000 0.00000000000000
0.00000000000000 0.00000000000000 29.17519467510000

ATOMIC_POSITIONS angstrom
Si 2.6701916644 10.8092295989 2.6940053836 
Si 8.1370016844 2.6929162146 10.9115519837 
Si 4.7772380237 0.3043574758 23.2794129848 
Si 8.9501984919 10.0351450818 17.2318911069 
Si 15.0055010572 1.3836074526 4.2241889114 
Si 12.2442320020 4.0766214073 14.9996386119 
Si 0.1021130514 0.1542698852 29.0936500060 
Si 1.2853771228 12.1493101711 1.3215633808 
Si 3.9966537965 15.0971811781 24.9901005245 
Si 7.9098539223 2.7391309450 16.2656378345 
Si 8.2018684650 16.2778478089 13.6409206207 
Si 13.5641944241 2.7158525348 5.5082184043 
H 15.1387858385 9.4643434766 21.8804040497 
Si 1.3021265009 4.0350004569 14.9623818883 
Si 0.0178188167 2.6729283845 2.7540216765 
Si 1.3254717001 9.4805031567 4.0762706744 
Si 9.6902206186 3.4458888915 26.3592924106 
Si 14.9330268466 4.0646808372 6.8456676786 
Si 12.2809822423 0.8098133744 26.8014424859 
Si 13.3591847722 10.7079383779 26.2960405886 
Si 1.3444348893 4.3910021202 20.4655821591 
Si 4.0325080869 12.1767099514 4.0573359731 
Si 2.7278419750 16.2832723789 2.7875731504 
Si 6.6546605409 9.5026249769 27.9418133202 
Si 12.8884852179 2.1319700595 21.6184399767 
H 12.4354766037 11.0563326111 18.5254608884 
Si 13.5745385741 16.2648972588 8.1953413594 
Si 2.7856226055 2.7720856153 0.0495526094 
Si 4.0540108871 9.4854716068 6.7930939778 
Si 1.3743205236 9.4905377968 20.2337560622 
Si 7.2275309761 11.1800551622 21.2959665500 
Si 5.3853925993 13.5745874441 2.7370242081 
Si 8.9122102115 9.5083753470 25.1172460229 
Si 14.9062460863 1.3300019492 9.5786248646 
Si 1.4488831123 1.3661608625 1.4010511987 
Si 2.6444534642 5.4038654594 13.6002795745 
Si 8.0887507040 13.6203460546 0.0682165649 
Si 9.4145449461 6.2988543576 20.2514070550 
Si 13.5353774138 2.6699636044 10.9442573769 
Si 16.2593260787 10.8686229394 5.4051424415 
Si 12.9700655386 14.2883012207 0.2248978634 
Si 1.3339539032 12.1982290416 6.7845164705 
Si 4.1728953082 4.0490913070 1.4244817975 
Si 6.7222966215 14.8987526863 4.1421774392 
Si 5.4499335798 13.5742290641 13.5984415373 
Si 9.5765327076 9.6294263381 19.3793313110 
Si 16.1877803980 8.3425326163 24.2725366115 
Si 14.9128761164 15.1369287784 1.2899724800 
Si 2.0806728490 6.9323235934 23.2315948407 
Si 1.3788947556 4.0698936372 4.0704939859 
Si 1.3262910871 9.4872472168 9.5072623384 
Si 8.1076145241 13.5428219439 5.4818440283 
Si 14.9084126563 4.0540271771 12.2538151651 
Si 14.9529983868 6.7597473318 22.8532509161 
Si 13.5679899941 13.5562286140 5.4669646790 
Si 4.0285659068 1.3215555841 4.2126938847 
Si 2.6848689546 10.8390728791 8.1444889951 
Si 3.8141080549 12.4360793337 22.4721353481 
Si 5.3937656593 13.5458030139 8.1667788438 
Si 9.2404700045 0.5886521874 24.5909838614 
H 9.6736373985 8.7926741904 21.9382292855 
Si 14.9253705465 14.9041935463 6.8349895573 
Si 4.0252101668 12.2019105816 9.5096255292 
Si 3.3620279707 10.2279861035 23.0829763990 
Si 0.0333238017 16.2390776085 5.5000493498 
Si 8.1271462343 5.4260198596 13.5899807308 
Si 6.7602360318 14.9077773463 9.5193700442 
Si 13.5996903344 2.7653578453 16.4219293524 
Si 13.6018569044 13.5589653340 10.8845941038 
Si 2.6727491944 2.7167647749 5.5022666645 
Si 1.2773347497 12.2583065621 25.1178003516 
Si 8.1297200544 13.5659048741 10.8727781500 
H 5.1699410573 13.0139996690 22.7468198060 
Si 10.7950410087 5.0999429266 23.3552393157 
Si 11.5345255655 7.1772763256 24.3210257850 
Si 13.4296227328 16.2087944982 13.7515529589 
Si 1.3476603093 1.3330840172 6.8637562993 
Si 0.0099835384 0.0431103451 16.2802546070 
Si 6.7407206116 12.2063088816 12.1860995383 
Si 4.0765562473 14.9262827865 12.2529399093 
Si 10.5065613961 10.5674371266 23.7140650350 
Si 9.2871245649 11.8851026587 22.1934830638 
Si 14.9493005567 12.1662191913 14.9303183494 
Si 4.0646319672 4.0598264171 6.8324221402 
Si 1.3193434021 1.3357914152 12.2803645922 
Si 4.3239361896 6.9363635134 20.3863131552 
Si 12.1889763215 6.7195110314 17.7442950510 
Si 10.9016101897 13.4813271933 13.4028218570 
H 14.6451825439 11.0183280408 23.7037078409 
H 14.0516889685 12.5740230550 28.6165772226 
H 2.8518088761 2.9182394967 19.8377903201 
Si 4.0322311569 1.4285401601 27.7351362411 
Si 2.6651091844 8.1281236343 10.8704441344 
Si 3.9557658962 6.8330197525 14.9238414562 
Si 10.4114115052 0.5574535791 17.0508298488 
Si 16.2581043287 2.6811548345 8.2053776264 
Si 16.2841194589 8.0988830841 13.6415332998 
Si 2.7093039548 1.0291305334 22.4342075950 
H 3.3885318010 2.5852393136 25.0115442926 
Si 2.6935352346 16.2621605387 8.2194692454 
Si 9.4972492769 4.0389263469 12.2789350077 
Si 12.2639591922 12.1117943008 12.1407029353 
Si 14.1810152797 9.7302451490 24.3505802573 
Si 12.7220339964 14.8090110754 27.1029389477 
Si 1.3378749062 4.0504596670 9.5305733189 
Si 6.0458706553 4.8505430244 0.2255913578 
Si 6.6989530513 6.8275626024 17.5232929513 
Si 5.9228811542 5.6373500316 21.5998845529 
Si 9.3049132451 0.9094886273 20.6912522899 
Si 9.5006538869 9.4605804865 1.3294290133 
Si 8.4032780268 13.5743919641 16.1397176943 
Si 4.0502967670 1.3347521132 9.5699598317 
Si 5.4255963196 8.0858347939 2.7059555433 
Si 6.7642107919 6.7523028017 12.2094980444 
H 6.0952130657 11.2506071529 22.2983678886 
Si 10.8262363590 10.8412557392 29.1252759170 
Si 16.2887132390 10.8362221291 10.9027702501 
Si 12.7731194368 13.8456856266 23.8305907626 
Si 2.7128551748 11.0687944612 26.5629644447 
Si 2.6201487840 16.2423518985 18.8849284620 
Si 9.4302322162 1.4222782840 15.0668290853 
Si 8.2268736152 5.4463986498 2.8301776872 
Si 12.1370926710 12.2885408024 1.3176247295 
Si 16.1775665680 10.5671276166 21.6599854539 
Si 16.2383934285 16.2537711887 10.9506175693 
Si 5.7733389528 1.7033964456 19.9217857056 
Si 2.6663960944 2.6897885346 10.9045207618 
Si 5.6029292612 5.0971736266 27.1175265450 
Si 8.0987690541 8.0907380840 29.1683385043 
Si 7.0004320840 12.6929563461 19.4579876358 
Si 12.2232993518 9.5044494569 4.0161405982 
Si 12.9294545682 8.6817555794 20.7425131070 
H 4.8681850945 3.2664708299 18.4266736793 
Si 6.8503848927 6.7093786514 1.4126279159 
Si 4.8450044243 4.4692104109 23.3061082879 
Si 10.8516976292 5.4297828497 16.3136602049 
Si 9.4442416164 12.1027370607 4.1925338252 
Si 16.2447791086 8.0541996137 19.0634223030 
Si 13.5607083640 10.8079589788 13.6010381296 
Si 5.4229573396 5.4049243094 5.4594666540 
Si 0.7422522278 1.1637217726 25.5261363763 
Si 2.7176444348 10.8721578694 13.6108993454 
Si 10.8446766392 2.7053291947 13.6860254717 
Si 9.4970049269 9.4638221965 6.8390157342 
Si 9.4299878662 12.2653275522 27.8985465065 
Si 16.2134534383 2.6735636944 13.6278209583 
Si 4.0216426568 4.0578064571 12.2423201384 
Si 8.1228456743 8.1372786144 5.4760673397 
Si 8.6656773493 0.2355061612 18.5450957944 
Si 10.3879539050 0.7959619873 28.1398545417 
Si 10.7152688780 5.1946529875 27.4927195486 
Si 10.8767679395 10.7828723786 5.4762132157 
Si 10.8160713989 13.6551903649 19.0585208703 
Si 2.6374324741 4.5465553316 22.4915076774 
Si 1.5190164499 9.3728751257 27.7525538323 
Si 6.7711829119 6.7612623018 6.8218898949 
Si 6.8584158627 14.8996812163 14.9549713889 
Si 11.0636468212 7.8283387616 19.5031508372 
Si 12.2125805317 12.1863536315 6.8142168187 
Si 14.9522164667 11.8323882182 27.6380120180 
Si 1.2428194974 1.4033949158 17.7246893202 
Si 5.4021061394 8.1248167643 8.1586681397 
H 8.0442790036 13.9277546474 24.3466999564 
Si 16.1058905673 1.9806848281 27.5254541170 
Si 12.4488832739 5.7286066124 25.9524734961 
Si 12.2231853218 9.4548789865 9.5053659507 
Si 2.7353027950 13.5845732142 16.3702017322 
Si 8.1175840042 5.4021875894 8.1909067298 
Si 6.9904626039 8.0317682835 24.7827815912 
Si 8.0713204038 8.1468245545 16.1627369229 
Si 9.4820181267 12.1959321515 9.5221125125 
H 14.1063907890 1.3867530517 24.4091932234 
Si 1.3899996487 6.8072978423 17.6972354620 
Si 2.8224380058 5.5959571412 19.0815984493 
Si 7.9964515631 2.4377333623 23.6362256156 
Si 5.3968444694 5.3941729093 10.8805095765 
Si 13.6027854344 5.4606523999 2.8964783171 
Si 16.2138606883 13.6069068044 2.6085687435 
Si 2.6294992440 13.6116146145 0.0871737312 
Si 2.7251704149 16.2877847090 13.6136709889 
Si 8.1178446442 8.1036071841 10.8474249058 
Si 5.1791611974 14.1519050494 19.6235276904 
Si 6.8755855229 15.0354420775 27.7920570459 
Si 13.5011684135 8.1623489247 29.1559682218 
Si 4.0573503371 14.9698096669 1.3666448916 
Si 7.4524470082 9.0480199428 20.3814700729 
Si 9.5124967170 3.9898282865 1.5109133118 
Si 9.0493720128 6.8148564023 27.4202775402 
Si 8.9536519719 14.0032913781 23.1309112439 
Si 14.9911495671 6.8070209122 4.1698355237 
H 0.2037390319 5.3541809590 20.7499819568 
Si 3.8872175755 6.7303764615 27.2260582692 
Si 4.0162995367 9.5142886170 12.1932766361 
Si 1.3147887180 14.8935398862 4.0437695076 
Si 11.2212362826 15.8305895648 0.6722460831 
Si 13.5626142940 8.1663236847 5.4370017541 
Si 2.6806335545 13.5459007539 5.4159956139 
Si 10.7668430185 2.6213379540 2.9192699792 
H 11.8612378085 11.1673000921 20.8583969802 
Si 13.5674687141 5.4120756195 8.1955164106 
Si 14.9443809767 9.4644249266 12.2656019437 
Si 13.9200331873 13.9712652378 21.7712888216 
Si 0.0307160985 5.3962743193 16.3849352055 
Si 1.8342540168 5.7190443823 26.5036804491 
Si 4.0114614067 14.8916176662 6.8305841029 
Si 8.0604549737 15.4160905110 21.5351156207 
Si 12.2621021321 1.3893056947 1.6322091836 
Si 14.9262013365 6.7772590820 9.5268388940 
Si 0.0037830593 13.5475786239 8.1759690302 
Si 5.3116314786 5.4759324201 16.2284394613 
Si 7.9247755625 5.2993813985 18.7700365454 
Si 9.4312910663 1.2825556947 4.2443489709 
Si 13.5789531642 8.1249959543 10.8932591366 
Si 13.7116515054 13.5315818438 16.3476201315 
Si 12.1871355515 4.0555258571 4.1501422673 
Si 2.1064924993 2.5481306933 24.1916337967 
Si 1.3180125090 14.9139512564 9.5702807589 
Si 6.6697450810 4.1279349078 14.8925948227 
Si 13.6860110452 0.1115772157 18.9785516617 
Si 13.5421540539 8.1024994641 16.3894573607 
Si 9.4889413768 4.0562100371 6.8529031268 
Si 2.7070722248 13.5647971541 10.9004654097 
Si 7.3483864872 11.8120582980 17.3222175096 
H 6.7746526820 12.1649322813 23.9167451124 
Si 16.1655771278 5.3894325193 0.1501218395 
Si 14.9183169764 12.2082962617 20.5040350657 
Si 7.7923215713 7.1028636050 21.7512162877 
Si 5.4932812702 10.8811499495 16.2151355725 
Si 5.3879989993 13.7806396560 26.4179637271 
Si 10.8679061794 16.2289615184 5.5044548041 
Si 10.8444974492 15.3415963403 23.5167531934 
Si 16.2856181389 8.1194573543 2.6983933329 
Si 2.7485954351 5.4308905697 2.7040620732 
Si 6.7482628817 1.2988359209 17.7695607696 
Si 8.0602757837 10.7652303085 13.4620475022 
Si 12.2143561417 1.3279754731 6.8430419110 
Si 14.6056304236 6.9948771940 20.4898267459 
Si 15.4288292911 4.6305465724 23.7437070328 
Si 0.0277956273 2.6905867446 19.3275161652 
Si 2.8790620463 7.9703549829 29.0680341850 
Si 1.2712732406 14.8528800458 27.8057402122 
Si 9.4871820568 1.3431512373 9.5385673223 
Si 8.6218246688 14.3801442415 19.5258783138 
Si 12.2517905621 1.7374099659 18.0482422291 
Si 1.3870348687 6.7697331019 1.3216654940 
Si 1.3886410627 14.9370667666 14.9833588533 
Si 10.8517464992 2.6906356146 8.1885727143 
Si 10.5468302765 11.6271830863 20.2565127141 
Si 14.8858510061 1.2562554895 20.6650529651 
Si 13.5333085838 5.3031932585 19.1096358114 
Si 1.1533287526 3.9570528062 28.0138177007 
Si 4.0686067272 6.7705313119 4.1022365977 
Si 1.3309288502 4.8139719740 24.4056630248 
Si 12.2115868417 4.0345443369 9.5516669847 
H 13.5048662435 7.0309106743 23.2729652667 
Si 14.9900744271 14.9922247071 17.6434072278 
Si 0.0292164411 5.3958996494 5.4786639321 
H 6.3820148084 7.9569483128 23.3863984236 
Si 6.6763751111 9.4298412562 14.8029977998 
Si 5.4937862602 16.2695073288 16.2993060091 
H 11.6248373263 11.7957520079 16.8775291924 
Si 10.8616996893 16.2866606990 10.8751413407 
Si 2.6935352346 8.1310884144 5.4400359743 
Si 2.4552614025 13.7859501961 23.8000443337 
Si 5.8290996233 15.9244525456 21.2094912729 
Si 12.1683857613 1.3109279880 12.3212973904 
Si 9.3933516559 14.8043358454 1.6213239185 
Si 12.3952240134 14.9628864168 20.2607722925 
Si 1.3630396985 6.7734960920 6.8235528810 
Si 4.0720276272 12.4168571336 27.9035646400 
Si 10.8440739092 10.8017199088 10.8268563935 
Si 10.8003841288 13.4421171629 2.8758718771 
Si 9.5065182869 14.9318865466 12.2092938180 
Si 14.3327729211 14.6286319038 25.4234105158 
Si 3.4661536517 1.6141190998 20.2809323520 
Si 1.3470787563 12.2144864617 12.2540485667 
H 4.6875452829 5.2630872781 24.5832524348 
H 10.2128852734 2.1744706699 28.7704180242 
Si 16.2642945287 8.1345581844 8.1460352804 
Si 12.2216377718 14.9012939263 4.1017989698 
Si 2.7059156348 5.4153499095 8.1866179762 
Si 7.4675641283 6.0002749449 25.8395363175 
Si 4.1912215583 9.6446900682 17.7153532579 
H 9.9898588814 3.2292970495 18.5557155653 
Si 9.4861883668 12.1548487712 14.6412796957 
Si 9.4878173668 14.8862256761 6.8392783109 
Si 10.8571873593 13.5384562238 8.1803453094 
Si 4.0537665371 6.7772916620 9.5369918618 
Si 1.4246826880 15.3310241302 22.3189947512 
Si 5.3502550689 10.9257193899 0.0697193792 
Si 8.7574552101 4.4879764911 24.5099059954 
H 9.9383173209 14.3584296713 25.5936769520 
Si 12.2145842017 14.9017174663 9.5378379424 
Si 2.7565123752 8.2356865053 16.3978306416 
Si 2.6867097246 10.9791668804 18.9636431373 
Si 1.0520424186 10.4062475752 23.6794632541 
Si 8.1379953744 10.8078449488 2.7185417223 
Si 15.4469274813 15.8169385447 22.1992014019 
Si 10.8247702590 13.5039377135 26.4759348389 
Si 4.0689813972 1.3440781383 15.0021185035 
Si 6.7669963819 12.2185915417 1.4124236896 
Si 4.1474014579 14.9785248170 17.6701025309 
Si 11.3624705839 0.2922458607 21.5755816157 
Si 14.8596078159 14.9268529365 12.3398236390 
Si 3.9635688063 4.1671123581 17.6181998596 
Si 6.7711503319 9.4556934865 4.0677515176 
Si 7.9308028625 10.9741495604 26.6133500059 
Si 4.0739009773 12.2537942321 14.9619150852 
Si 10.3868136050 4.4205521804 21.1177352857 
Si 14.9012124763 9.4808941167 1.3414404409 
Si 2.9369404169 8.4138828170 21.5990092971 
Si 5.4087850395 10.8296083890 5.4171334465 
Si 10.4836739459 8.2135646851 26.2391489590 
Si 13.8580660267 2.4913926228 27.2535996530 
Si 16.2624700487 5.4019269494 10.8802469998 
Si 13.5643573241 10.9199201499 2.6521243916 
Si 15.0249513174 4.0368900969 17.8284946628 
Si 6.7439297417 12.1807498714 6.8110950729 
H 8.4788799175 7.2306586561 23.0847560859 
Si 10.7810804786 10.8610643793 16.0677133138 
Si 10.5305402763 14.5428813430 16.8182451968 
Si 14.9106443864 12.2526376421 4.0423399230 
Si 1.3148571360 6.7626632419 12.2347054126 
Si 1.6987212155 14.5114742227 20.1642023981 
Si 2.5856954337 16.2790206889 26.4580504446 
Si 6.7672081519 9.4803239667 9.5054243011 
Si 5.2784487483 8.4698715475 26.3112116898 
Si 14.9191640564 9.5155103670 6.7913726413 
H 3.2766683700 7.3005916268 24.1219342566 
Si 5.3925276193 0.0438701107 29.1325405405 
Si 8.1275697743 10.8426566792 8.1614397832 
Si 15.1575844986 0.2707479475 24.4035332356 
H 13.8725804169 6.2621204073 26.9525991695 
Si 13.5751250142 10.8462404792 8.1780696442 
Si 5.3749344192 2.6519142843 2.8662674030 
Si 5.3766448692 2.6911406046 13.5792150840 
Si 5.3921529493 10.8445788992 10.8377970915 
Si 6.2400474571 11.9053185489 25.3025376843 
H 10.3322583945 8.3878025267 22.0347116543 
Si 14.9459122367 12.1940099315 9.5336367144 
Si 1.3864614607 9.4741826366 14.9527540741 
Si 1.2705076106 12.2023178316 17.5854944664 
Si 8.0719231338 0.0024539256 2.8306561604 
Si 6.8016452122 1.3289170351 12.2805396434 
Si 9.4949035168 9.4437692064 12.1798560466 
Si 12.2986080225 9.0504471528 23.0663173629 
Si 2.6509531742 2.6998720447 16.3376130397 
Si 0.4061781217 7.6619527001 26.5076774508 
Si 7.6778680302 3.1127909685 0.3101644121 
Si 12.1426475611 3.4696071317 19.8420790737 
Si 8.4946486377 0.2323621911 26.8496107323 
Si 11.4309537445 4.7878265238 0.4197347732 
Si 14.9859530571 6.8577805527 27.9165767768 
Si 6.6888369612 1.3276496731 1.4651053386 
Si 10.8486676892 8.0992740441 2.7079482091 
Si 11.8532882884 12.0164326399 25.0036086397 
Si 12.1324011510 14.6187438737 15.0279385508 
Si 13.6203949246 10.5396952564 19.3238400907 
Si 6.8014008622 4.0554769871 4.1109308057 
Si 4.4364023506 10.3143556843 25.1837362916 
Si 11.0537425011 1.9177728475 25.1770259968 
Si 12.2889480524 6.7339765516 1.4323532650 
Si 13.5847686942 5.4250261696 13.6274125056 
H 13.0643520595 12.7078616962 17.4254976988 
Si 0.0086285199 13.5776662542 13.6265664249 
Si 5.6374314816 8.2930598859 18.9990909988 
Si 5.3988807194 16.2511159186 5.5265696017 
Si 9.5407435773 6.8057828722 4.1746202557 
Si 14.8310025756 1.3353711332 15.0075742649 
Si 16.2723092088 10.7934282987 16.2654044329 
Si 8.1030696141 2.7060622448 5.5280867118 
Si 5.5499867608 2.8025804956 26.4515443762 
Si 10.8592887693 5.4147960495 5.5153371518 
Si 12.0353779101 9.3720932057 27.7017889936 
Si 16.2199694383 13.5045241535 19.0083395355 
Si 16.1022253173 13.4712925532 26.4545494212 
Si 6.7544530818 1.3325317862 6.8651275334 
Si 6.7970514322 3.8553869153 20.3143671251 
Si 9.5100857970 6.7764934520 14.9301724734 
Si 12.2110818517 9.4176563361 14.9466856336 
Si 13.8212994964 3.9370486860 25.3122821993 
Si 12.2380906719 6.7789043720 6.8197017553 
Si 5.3948407993 2.6899514346 8.2046482465 
Si 9.3476582055 4.0712294172 17.4754164569 
Si 8.6128000088 2.9556576270 21.4594059905 
Si 9.4962718769 6.7376418016 9.5353580509 
Si 10.8516161792 8.1092598142 13.5572169872 
Si 14.9283190365 6.7519932917 15.0352323494 
Si 3.3501525606 12.8574201876 20.2594885839 
Si 7.7507820709 2.4148622021 27.2549125368 
Si 5.3262598987 8.0868773540 13.4906100178 
Si 8.1371645844 16.2633497087 8.1872598305 
Si 10.8527727693 8.0933281940 8.1779821186 
Si 13.6807656651 0.0475597957 2.8858935565 
Si 4.0536362171 9.4376441663 1.3428116751 
Si 6.7679900719 4.0374602469 9.5477866838 
Si 10.8509971592 5.3861582293 10.9044915866 
Si 13.1291048101 3.1221088485 0.2575985886 
H 15.3680024306 3.5506498825 22.6830720056 
Si 12.3062969025 3.2021579093 23.6627166924 
Si 0.0653106831 10.6604693175 29.0972677301 
Si 5.6983397921 2.3845790918 24.0941302961 
Si 5.4400455497 16.2762676789 10.9029453012 
Si 14.8590702459 4.0584580571 1.5295008283 
Si 12.2250098018 6.7503317117 12.2361058219 
Si 14.9529169368 9.4670801966 17.7050544142 
H 11.3522730438 4.7470200734 25.1593458288 

