&CONTROL
/
&SYSTEM
   ntyp             = 2
   nat              = 407
   ibrav            = 0
/
&ELECTRONS
/
&IONS
/
&CELL
/

ATOMIC_SPECIES
Si 28.085 None
H 1.008 None

K_POINTS gamma

CELL_PARAMETERS angstrom
16.29000014900000 0.00000000000000 0.00000000000000
0.00000000000000 16.29000014900000 0.00000000000000
0.00000000000000 0.00000000000000 29.17519467510000

ATOMIC_POSITIONS angstrom
Si 2.6648485444 10.8130088789 2.6997674845 
Si 8.1378813444 2.6941542546 10.9119312612 
Si 4.7890156938 0.3112465168 23.2849854469 
Si 8.9506546119 10.0357315218 17.2299947193 
Si 15.0047354272 1.3845115477 4.2236637579 
Si 12.2477017720 4.0755625573 14.9995802616 
Si 0.1012900806 0.1555530485 29.0966550510 
Si 1.2802490307 12.1516070611 1.3256070628 
Si 4.0034793066 15.1046908681 24.9951478332 
Si 7.9132422424 2.7389843351 16.2624285631 
Si 8.2034323050 16.2782387689 13.6394326858 
Si 13.5623862340 2.7163086548 5.5067888197 
H 15.1476964685 9.4677155066 21.8743647844 
Si 1.3038353219 4.0357172169 14.9619734356 
Si 0.0147425316 2.6758605845 2.7529713695 
Si 1.3210799161 9.4817737767 4.0803260265 
Si 9.7220512789 3.4696885817 26.3422832721 
Si 14.9303552865 4.0644527772 6.8466012848 
Si 12.2924666924 0.7957257823 26.8083570071 
Si 13.3503881721 10.6852138277 26.3052599501 
Si 1.3412045823 4.4041807303 20.4687622553 
Si 4.0304229669 12.1793000614 4.0611287484 
Si 2.7242581749 16.2879801890 2.7899888565 
Si 6.6444630008 9.5060132969 27.9524039159 
Si 12.8930627079 2.1354235395 21.6470316675 
H 12.4398749038 11.0513967411 18.5252566621 
Si 13.5738706841 16.2660701388 8.1961290897 
Si 2.7865348455 2.7787156454 0.0468906646 
Si 4.0526099471 9.4872635068 6.7967117019 
Si 1.3810271166 9.4916292268 20.2357108003 
Si 7.2349917962 11.1772044122 21.2893729560 
Si 5.3826884592 13.5793115442 2.7421006920 
Si 8.9061503315 9.5113075470 25.1347511397 
Si 14.9062460863 1.3303994252 9.5794417700 
Si 1.4492822172 1.3721946786 1.4001555202 
Si 2.6460661742 5.4046799594 13.6003379249 
Si 8.0892719840 13.6243533946 0.0761046623 
Si 9.4109448561 6.3062011477 20.2327057552 
Si 13.5362082038 2.6709084244 10.9444907785 
Si 16.2572083787 10.8705288694 5.4090519176 
Si 12.9685179886 14.2825508506 0.2248392213 
Si 1.3332127082 12.1997277216 6.7867337853 
Si 4.1717712982 4.0505248270 1.4308828352 
Si 6.7221988815 14.9034604963 4.1448615571 
Si 5.4517417699 13.5746688941 13.5980330846 
Si 9.5769562476 9.6304851881 19.3775807993 
Si 16.1818997080 8.3581873064 24.2738494953 
Si 14.9094877964 15.1378898884 1.2904947160 
Si 2.0973863892 6.9332032534 23.2371089525 
Si 1.3747668696 4.0701705672 4.0741992356 
Si 1.3259131591 9.4878988168 9.5087794485 
Si 8.1059366541 13.5476600739 5.4865120594 
Si 14.9098298864 4.0543692671 12.2539902163 
Si 14.9650692769 6.7763305520 22.8527257626 
Si 13.5659374541 13.5582159940 5.4697071473 
Si 4.0257966068 1.3217771281 4.2179162446 
Si 2.6838426846 10.8408484891 8.1471147626 
Si 3.8462970952 12.4453157638 22.4783204894 
Si 5.3930163193 13.5471062139 8.1696380129 
Si 9.2429460845 0.5617231881 24.5974899298 
H 9.6373106981 8.8585998210 21.9956168935 
Si 14.9246374965 14.9053501363 6.8366817186 
Si 4.0251938768 12.2024970216 9.5116969680 
Si 3.3712155308 10.2359682036 23.0829763990 
Si 0.0316260579 16.2407391885 5.5015372847 
Si 8.1291010344 5.4269483896 13.5893680517 
Si 6.7609039218 14.9091131264 9.5203036504 
Si 13.6034696144 2.7661723453 16.4243508935 
Si 13.6028994644 13.5596495140 10.8853526589 
Si 2.6702242444 2.7182960349 5.5056218119 
Si 1.2858935158 12.2578341521 25.1178003516 
Si 8.1305345544 13.5664913141 10.8727781500 
H 5.2095094676 13.0279601991 22.7495039239 
Si 10.8011986288 5.0720870264 23.3172532123 
Si 11.5300621055 7.1179155651 24.3427029547 
Si 13.4325875129 16.2103094683 13.7510278054 
Si 1.3461974673 1.3336346192 6.8661486652 
Si 0.0130005604 0.0442902298 16.2815966660 
Si 6.7420075217 12.2066509716 12.1858953119 
Si 4.0780386373 14.9267063265 12.2530566100 
Si 10.5071641261 10.5489316865 23.7257351129 
Si 9.2936079850 11.8695945786 22.1973341895 
Si 14.9533567668 12.1644435813 14.9303766998 
Si 4.0651043772 4.0609341371 6.8331515201 
Si 1.3204739281 1.3362296162 12.2804229426 
Si 4.3276177296 6.9347996734 20.3842417164 
Si 12.1945475015 6.7155036914 17.7438865983 
Si 10.9040048197 13.4809851033 13.4012463965 
H 14.6196561137 11.0053449107 23.6969391958 
H 14.0459385985 12.5689242850 28.6171023761 
H 2.8515971061 2.9203246167 19.8430710303 
Si 4.0313352069 1.4278234001 27.7358364458 
Si 2.6656793344 8.1290358744 10.8710859887 
Si 3.9567107162 6.8338668325 14.9240748577 
Si 10.4209900253 0.5587763271 17.0436527509 
Si 16.2569477387 2.6822788445 8.2066613350 
Si 16.2864977990 8.0995021041 13.6424085557 
Si 2.7166833248 1.0279267024 22.4388172758 
H 3.3852249310 2.5935635037 25.0140825346 
Si 2.6930465346 16.2632845487 8.2212197571 
Si 9.4987153769 4.0400666469 12.2783806790 
Si 12.2661746322 12.1108983508 12.1405278842 
Si 14.1689280996 9.7177181389 24.3542271566 
Si 12.7197371063 14.7921509253 27.0962870033 
Si 1.3382316572 4.0509157871 9.5311276476 
Si 6.0449909953 4.8542245644 0.2280178587 
Si 6.7003702813 6.8268947124 17.5197627528 
Si 5.9264160842 5.6291561615 21.5946913682 
Si 9.3192973152 0.9053965793 20.6721425374 
Si 9.4964021968 9.4635452665 1.3363318643 
Si 8.4071550469 13.5746363141 16.1360707949 
Si 4.0506388571 1.3355617262 9.5707767372 
Si 5.4175816395 8.0890276340 2.7144075972 
Si 6.7652370619 6.7527426318 12.2095855700 
H 6.0994973358 11.2477238229 22.2878648185 
Si 10.8272952090 10.8346745791 29.1291562179 
Si 16.2892182290 10.8370692091 10.9041414842 
Si 12.7704967468 13.8263982665 23.8308241641 
Si 2.7154615748 11.0751801413 26.5705208201 
Si 2.6213868240 16.2439646086 18.8874958791 
Si 9.4336368263 1.4230064470 15.0631821859 
Si 8.2314348153 5.4462031698 2.8214513865 
Si 12.1368646110 12.2854782824 1.3216071436 
Si 16.1838545080 10.5702390067 21.6595478260 
Si 16.2391264785 16.2545205287 10.9510260221 
Si 5.7749679528 1.7023375956 19.9191307629 
Si 2.6671128544 2.6907170646 10.9050750905 
Si 5.5445296107 5.0932966066 27.1313555873 
Si 8.0824464739 8.0905426040 0.0022447307 
Si 7.0020610840 12.6907734861 19.4535530062 
Si 12.2209698818 9.5026575569 4.0171033796 
Si 12.9205765182 8.6804197994 20.7480272188 
H 4.8677941345 3.2636037898 18.4234935830 
Si 6.8409529826 6.7099162214 1.4188568200 
Si 4.8499240044 4.4684610709 23.3077129236 
Si 10.8553791693 5.4283819096 16.3126682483 
Si 9.4429872864 12.1070864907 4.1991857696 
Si 16.2472226086 8.0560240937 19.0674484799 
Si 13.5626794540 10.8072259288 13.6017966847 
Si 5.4254334196 5.4049405994 5.4603710850 
Si 0.7373473087 1.1693157587 25.5241524631 
Si 2.7190127949 10.8728746294 13.6114536741 
Si 10.8473156192 2.7068278748 13.6840123833 
Si 9.4959297869 9.4637896166 6.8399493404 
Si 9.4306557562 12.2645619222 27.9113252418 
Si 16.2150009883 2.6742152945 13.6278793087 
Si 4.0228969868 4.0584906371 12.2425243648 
Si 8.1221940743 8.1372297444 5.4760965149 
Si 8.6703199993 0.2330480001 18.5294870653 
Si 10.3910652950 0.7853914062 28.1411382502 
Si 10.8347723191 5.2376260079 27.3964414061 
Si 10.8757253795 10.7826606086 5.4777595010 
Si 10.8211050090 13.6522907449 19.0517230500 
Si 2.6395664641 4.5498459116 22.4967300372 
Si 1.5192917509 9.3840826458 27.7568134108 
Si 6.7713946819 6.7619953518 6.8233486546 
Si 6.8603543727 14.9002024963 14.9540086075 
Si 11.0660577412 7.8323949716 19.4925310663 
Si 12.2117171617 12.1864025015 6.8157922792 
Si 14.9438596967 11.8187046181 27.6428551004 
Si 1.2434678394 1.4057146119 17.7278985916 
Si 5.4020083994 8.1255661043 8.1598643227 
H 7.9579582928 13.9414219575 24.2693273401 
Si 16.1070960273 1.9794956581 27.5267378256 
Si 12.6123208453 5.8068474831 25.9474845378 
Si 12.2235111218 9.4548952765 9.5065037833 
Si 2.7386585350 13.5856483543 16.3706393601 
Si 8.1178446442 5.4031975694 8.1920445624 
Si 6.9996012940 8.0531407636 24.7902212658 
Si 8.0735195538 8.1464824645 16.1614240391 
Si 9.4827023067 12.1967629415 9.5222583885 
H 14.0146455082 1.2333142823 24.5188336049 
Si 1.3921515577 6.8092526423 17.6988400977 
Si 2.8258589058 5.5946213612 19.0797604121 
Si 8.0178077533 2.4042411220 23.6133814382 
Si 5.3975286494 5.3950199893 10.8808305037 
Si 13.5979147244 5.4605546599 2.8942726724 
Si 16.2100162483 13.6096598145 2.6116729842 
Si 2.6230321140 13.6171857945 0.0925396330 
Si 2.7264899049 16.2880453490 13.6131458354 
Si 8.1185288242 8.1043565241 10.8480667601 
Si 5.1844228674 14.1549024095 19.6236735664 
Si 6.8749827929 15.0397589275 27.8000510493 
Si 13.4966235034 8.1571361246 29.1571935800 
Si 4.0535384771 14.9732794369 1.3712516549 
Si 7.4555583982 9.0396143027 20.3845334683 
Si 9.5146958670 4.0036096266 1.4758301402 
Si 9.0424813427 6.7816736720 27.4202483650 
Si 8.9403756218 13.9952115380 23.1092632494 
Si 14.9844706670 6.8057991622 4.1719653130 
H 0.2203059620 5.3975286494 20.7386328061 
Si 3.8614142153 6.7424799317 27.2289757887 
Si 4.0171629067 9.5147773170 12.1938601400 
Si 1.3125781650 14.8958530662 4.0452574425 
Si 11.2252599127 15.8261423947 0.6759309102 
Si 13.5598612840 8.1671381847 5.4400067991 
Si 2.6785647245 13.5485886039 5.4182712791 
Si 10.7611252284 2.6358849241 2.9057939568 
H 11.8634206685 11.1681471721 20.8499361738 
Si 13.5665564741 5.4127272195 8.1967125936 
Si 14.9459936867 9.4640665466 12.2663313236 
Si 13.9186159573 13.9622405777 21.7716680991 
Si 0.0344489520 5.3975286494 16.3857521110 
Si 1.8138589366 5.7261794024 26.4974077822 
Si 4.0105817467 14.8922529762 6.8333265712 
Si 8.0701638138 15.4136144310 21.5085953688 
Si 12.2588278421 1.3926793537 1.6309079699 
Si 14.9257777965 6.7771124720 9.5283268289 
Si 0.0033245610 13.5489144039 8.1775444907 
Si 5.3128858086 5.4757532301 16.2263388472 
Si 7.9247918525 5.2940219884 18.7598252273 
Si 9.4333761863 1.2932044678 4.2393600126 
Si 13.5795721842 8.1253217543 10.8944553196 
Si 13.7164081854 13.5302623537 16.3466865253 
Si 12.1843499614 4.0567801871 4.1483334053 
Si 2.1046680193 2.5543046034 24.1879577221 
Si 1.3183545991 14.9144888264 9.5714769419 
Si 6.6721560010 4.1286190878 14.8913986397 
Si 13.6864020052 0.1073898712 18.9799520711 
Si 13.5461776839 8.1020270541 16.3907702444 
Si 9.4884689668 4.0573992071 6.8536033315 
Si 2.7076097948 13.5656931041 10.9015740671 
Si 7.3500317772 11.8126447380 17.3175494785 
H 6.7657257619 12.1581556412 23.9261978755 
Si 16.1766869079 5.3861582293 0.1626029877 
Si 14.9228781765 12.2072862816 20.5022262036 
Si 7.7998638413 7.0865573148 21.7563802971 
Si 5.4951057503 10.8806449595 16.2132391848 
Si 5.3896442893 13.7864714761 26.4253450514 
Si 10.8660816994 16.2344023785 5.5015664599 
Si 10.8357660091 15.3194256501 23.5132521701 
Si 16.2786785989 8.1205813643 2.7043800828 
Si 2.7489538151 5.4318842597 2.7140604124 
Si 6.7501199417 1.2998996579 17.7657096439 
Si 8.0616278537 10.7650674085 13.4610555456 
Si 12.2139163117 1.3288421012 6.8429543855 
Si 14.6029262836 7.0032339640 20.4949032298 
Si 15.4154714910 4.6361829124 23.7201626507 
Si 0.0261348617 2.6916293046 19.3341389344 
Si 2.8675450162 7.9777506430 29.0780121016 
Si 1.2657183506 14.8525542458 27.8058860882 
Si 9.4880780068 1.3444723563 9.5395884541 
Si 8.6250012189 14.3758762615 19.5045220713 
Si 12.2566612721 1.7397394359 18.0535812898 
Si 1.3871244637 6.7708408219 1.3363843797 
Si 1.3910682727 14.9376857866 14.9841757588 
Si 10.8517627892 2.6916293046 8.1886602398 
Si 10.5477099365 11.6274437263 20.2540911729 
Si 14.8826581661 1.2465238434 20.6703336754 
Si 13.5397268438 5.3025253685 19.1144788937 
Si 1.1482804815 3.9592845362 28.0087412168 
Si 4.0651695372 6.7724535319 4.1122728647 
Si 1.3145997540 4.8208300641 24.3988652044 
Si 12.2115868417 4.0348538469 9.5522796638 
H 13.5227689537 7.0624969846 23.2940297573 
Si 14.9941795071 14.9910844071 17.6435822790 
Si 0.0253309502 5.3970725294 5.4810562980 
H 6.4028171386 7.9850485630 23.3885573880 
Si 6.6782158811 9.4292873962 14.8016557409 
Si 5.4948451102 16.2700286088 16.2976721982 
H 11.6295777164 11.7953610479 16.8748450745 
Si 10.8627422493 16.2872797190 10.8752872167 
Si 2.6889740346 8.1338902944 5.4461627652 
Si 2.4711278626 13.7859013261 23.8045664889 
Si 5.8362672234 15.9280689257 21.2095496233 
Si 12.1701613713 1.3112651910 12.3208014121 
Si 9.3941987359 14.8087830154 1.6263362169 
Si 12.3962502834 14.9591397168 20.2623185778 
Si 1.3597360864 6.7736589919 6.8268205028 
Si 4.0694375172 12.4267451637 27.9105083363 
Si 10.8448721192 10.8023226388 10.8270606199 
Si 10.7994230188 13.4423289329 2.8787077060 
Si 9.5080495470 14.9318050966 12.2088270149 
Si 14.3378228211 14.5875485234 25.4254527795 
Si 3.4674242717 1.6161830428 20.2836164699 
Si 1.3483070223 12.2149914517 12.2548362969 
H 4.7341346833 5.2653027182 24.5949225127 
H 10.2233597435 2.1458165596 28.8080248501 
Si 16.2626166587 8.1355844544 8.1486902231 
Si 12.2205952118 14.9028903463 4.1031118535 
Si 2.7059319248 5.4161969895 8.1874057065 
Si 7.3831819275 5.9258133542 25.7555117568 
Si 4.1957338884 9.6454394082 17.7167536672 
H 9.9977758214 3.2184967794 18.5496471248 
Si 9.4892834668 12.1535781512 14.6391790817 
Si 9.4885504168 14.8912755762 6.8401243916 
Si 10.8568126893 13.5403784438 8.1803161342 
Si 4.0538479871 6.7779432620 9.5378379424 
Si 1.4299671641 15.3288249802 22.3253257685 
Si 5.3427127989 10.9340598700 0.0792042350 
Si 8.7988806805 4.4566345308 24.4517014820 
H 9.9067798806 14.3027993208 25.5604464052 
Si 12.2151217717 14.9018803663 9.5384506215 
Si 2.7593794152 8.2370385753 16.3994936276 
Si 2.6947569847 10.9816592504 18.9681652924 
Si 1.0589982487 10.4097662152 23.6782087208 
Si 8.1351934944 10.8127971089 2.7261972934 
Si 15.4455102513 15.8079790446 22.2078080843 
Si 10.8143283689 13.4947501534 26.4708875303 
Si 4.0698773472 1.3444984203 15.0011557221 
Si 6.7653673819 12.2232993518 1.4192331800 
Si 4.1491933579 14.9809031570 17.6712403635 
Si 11.3665267940 0.2895156566 21.5815625306 
Si 14.8615137459 14.9271624465 12.3402029165 
Si 3.9652303863 4.1661512481 17.6154865665 
Si 6.7682670019 9.4580555365 4.0720986216 
Si 7.9268769725 10.9775053004 26.6321388312 
Si 4.0759046473 12.2544295421 14.9616233333 
Si 10.3951866651 4.4359788106 21.1039937690 
Si 14.8929371562 9.4798189767 1.3461493174 
Si 2.9446455869 8.4160005170 21.6018392909 
Si 5.4066999195 10.8323939791 5.4213930249 
Si 10.4630670957 8.1993109350 26.2270996036 
Si 13.8651033068 2.4882160728 27.2429798821 
Si 16.2635288987 5.4026274194 10.8809472045 
Si 13.5630541240 10.9207998099 2.6583503782 
Si 15.0296917075 4.0379000769 17.8300992985 
Si 6.7432455617 12.1830141814 6.8142459939 
H 8.5373284381 7.1524014954 23.0741654902 
Si 10.7835565586 10.8606082593 16.0673340363 
Si 10.5366327364 14.5433537530 16.8117391284 
Si 14.9090805464 12.2547716321 4.0464536255 
Si 1.3161896580 6.7632171018 12.2351722157 
Si 1.7047159356 14.5112787427 20.1692497068 
Si 2.5810364936 16.2801772789 26.4586631237 
Si 6.7675991119 9.4808452467 9.5062703818 
Si 5.2781392383 8.4691873675 26.3183887877 
Si 14.9175839264 9.5160479370 6.7936191313 
H 3.2857744801 7.3045826768 24.1346546415 
Si 5.3897583193 0.0465709927 29.1370918708 
Si 8.1275209043 10.8434874692 8.1624317398 
Si 15.1604026687 0.2300213181 24.4232264920 
H 13.8938551571 6.3605445882 26.8706752229 
Si 13.5746200241 10.8472667492 8.1800827326 
Si 5.3722302791 2.6515721942 2.8712505263 
Si 5.3780783892 2.6919225246 13.5791275584 
Si 5.3928045493 10.8449698592 10.8385848218 
Si 6.2382392670 11.9072733489 25.3155206459 
H 10.2758624140 8.4165217970 21.9942748345 
Si 14.9464335167 12.1945475015 9.5348328974 
Si 1.3890043297 9.4745410167 14.9539502571 
Si 1.2768867747 12.2023667016 17.5880035331 
Si 8.0719557138 0.0080465107 2.8322870538 
Si 6.8027366422 1.3297624862 12.2803645922 
Si 9.4966465469 9.4436388864 12.1800310978 
Si 12.2893553024 9.0070994624 23.0797963028 
Si 2.6512138143 2.6995136647 16.3368836599 
Si 0.4091624497 7.6807024902 26.5056643623 
Si 7.6738932702 3.1169449185 0.3032965713 
Si 12.1580579012 3.4673591117 19.8590590370 
Si 8.4872529776 0.2458682302 26.8565544287 
Si 11.4325827446 4.7899930938 0.3694133975 
Si 15.0397100575 6.8935533931 27.9595810138 
Si 6.6878595612 1.3319681522 1.4661760682 
Si 10.8492541292 8.0956576640 2.7049665042 
Si 11.8517081584 11.9989045997 25.0122153221 
Si 12.1385913510 14.6169356837 15.0242624762 
Si 13.6218121546 10.5373657864 19.3279829684 
Si 6.8039746822 4.0574480771 4.1073422567 
Si 4.4353435006 10.3175648144 25.1915552438 
Si 11.0501424111 1.8941523473 25.1961357493 
Si 12.2826438223 6.7230622515 1.4233147897 
Si 13.5872284843 5.4253519696 13.6280543599 
H 13.0693205095 12.7052390062 17.4238055375 
Si 0.0106407584 13.5782689842 13.6273541552 
Si 5.6420089716 8.2913331458 18.9987992468 
Si 5.3978870294 16.2525494386 5.5306541290 
Si 9.5401734273 6.8054733622 4.1730739703 
Si 14.8337555857 1.3358907842 15.0085953967 
Si 16.2764794489 10.7939495787 16.2681760764 
Si 8.1022062441 2.7088478348 5.5282034126 
Si 5.5495958007 2.8072068557 26.4503481932 
Si 10.8583113693 5.4157245795 5.5155122029 
Si 12.0160090999 9.3475767555 27.7005636354 
Si 16.2261759284 13.5052409135 19.0097691200 
Si 16.1050271973 13.4514024630 26.4625434246 
Si 6.7546974318 1.3349150132 6.8663237164 
Si 6.8017592422 3.8502392752 20.3077151807 
Si 9.5127084870 6.7758581420 14.9302016486 
Si 12.2136882517 9.4164020061 14.9477067654 
Si 13.8156794464 3.9361853160 25.2938726515 
Si 12.2362661919 6.7791487220 6.8215981430 
Si 5.3946616093 2.6913197946 8.2058736047 
Si 9.3547606456 4.0657722672 17.4739285219 
Si 8.6277868089 2.9515688370 21.4368535651 
Si 9.4964999369 6.7382608216 9.5363791827 
Si 10.8536524293 8.1092598142 13.5576546151 
Si 14.9313163966 6.7521236118 15.0357283278 
Si 3.3599102707 12.8595867576 20.2666365066 
Si 7.7648077610 2.4417081223 27.2422213271 
Si 5.3271069787 8.0868610640 13.4903474410 
Si 8.1371971644 16.2659398188 8.1888061158 
Si 10.8520397192 8.0942893040 8.1793533528 
Si 13.6773610551 0.0504721220 2.8857681031 
Si 4.0479021370 9.4423682664 1.3496386706 
Si 6.7684299019 4.0383073269 9.5484577133 
Si 10.8520885892 5.3872659493 10.9046666377 
Si 13.1320370101 3.1175965185 0.2485233526 
H 15.3513377604 3.5917169729 22.6244298643 
Si 12.2792229223 3.2022719393 23.6939925011 
Si 0.0602443302 10.6592475675 29.1052909086 
Si 5.7186697123 2.3899059219 24.0948305007 
Si 5.4407460198 16.2773753989 10.9034121044 
Si 14.8543787259 4.0603476971 1.5269334111 
Si 12.2265736418 6.7501362317 12.2369810778 
Si 14.9558328468 9.4674059966 17.7077677073 
H 8.4807532676 5.1261698269 26.7609764909 

