&CONTROL
/
&SYSTEM
   ntyp             = 2
   nat              = 407
   ibrav            = 0
/
&ELECTRONS
/
&IONS
/
&CELL
/

ATOMIC_SPECIES
Si 28.085 None
H 1.008 None

K_POINTS gamma

CELL_PARAMETERS angstrom
16.29000014900000 0.00000000000000 0.00000000000000
0.00000000000000 16.29000014900000 0.00000000000000
0.00000000000000 0.00000000000000 29.17519467510000

ATOMIC_POSITIONS angstrom
Si 2.6702405344 10.8093273389 2.6932234884 
Si 8.1500011045 2.6965977547 10.9004362345 
Si 4.7701844536 0.3147065129 23.2744823769 
Si 8.9492210918 10.0363016718 17.2324746108 
Si 15.0075047273 1.3841271037 4.2231677796 
Si 12.2524910321 4.0741453273 15.0096165285 
Si 0.1015051086 0.1553575685 29.0917536183 
Si 1.2848200048 12.1494730711 1.3215283706 
Si 3.9949433465 15.1036971781 24.9859868221 
Si 7.9082737923 2.7371924350 16.2672716454 
Si 8.2118542351 16.2784179589 13.6387908315 
Si 13.5652369841 2.7164226848 5.5048632569 
H 15.1274805784 9.4686440366 21.8981133929 
Si 1.2944099278 4.0425101470 14.9380497760 
Si 0.0163584181 2.6742478745 2.7512646207 
Si 1.3244584621 9.4800959067 4.0743742868 
Si 9.6937718387 3.4538547016 26.3603718928 
Si 14.9326684666 4.0649414772 6.8439755173 
Si 12.2872538924 0.7977718063 26.8060521667 
Si 13.3585494622 10.7000214379 26.2989289329 
Si 1.3265289211 4.5702572818 20.5508904284 
Si 4.0328338869 12.1768402714 4.0561397901 
Si 2.7269948949 16.2841031689 2.7866220391 
Si 6.6636689109 9.4986176369 27.9449642412 
Si 12.8249053473 2.1474292696 21.6883145680 
H 12.4330982637 11.0481224510 18.5328422127 
Si 13.5744897041 16.2647017788 8.1928614679 
Si 2.7845963355 2.7737960654 0.0484293644 
Si 4.0547113571 9.4850317768 6.7895929544 
Si 1.3700411405 9.4783202967 20.2431796501 
Si 7.2348288962 11.1756079922 21.3022100416 
Si 5.3857183993 13.5747992142 2.7360555917 
Si 8.8951382913 9.5243395471 25.1054008939 
Si 14.9055130363 1.3296647462 9.5763491994 
Si 1.4482510603 1.3671170855 1.3995019958 
Si 2.6462616542 5.4108049995 13.5884344455 
Si 8.0882945840 13.6214537746 0.0689794963 
Si 9.4026043760 6.3107134777 20.2290588559 
Si 13.5328687538 2.6696215144 10.9407271784 
Si 16.2594563987 10.8682482694 5.4037712073 
Si 12.9707985886 14.2844242006 0.2307241498 
Si 1.3342243172 12.1980987216 6.7817156518 
Si 4.1719993582 4.0490587270 1.4250040335 
Si 6.7229970915 14.8990459063 4.1407770298 
Si 5.4536639899 13.5746037341 13.5969536024 
Si 9.5756530476 9.6422791482 19.3828323343 
Si 16.1848644880 8.3508730964 24.2799471109 
Si 14.9138698064 15.1373686084 1.2899608099 
Si 2.0931346991 6.9625252537 23.2758244358 
Si 1.3784598126 4.0693886472 4.0691811021 
Si 1.3273369051 9.4825719867 9.4969926699 
Si 8.1081032241 13.5418608338 5.4793349615 
Si 14.9065555963 4.0549394171 12.2477175494 
Si 14.9596609968 6.7629727518 22.8589692543 
Si 13.5673546841 13.5559842640 5.4661769487 
Si 4.0280934968 1.3214936821 4.2119645049 
Si 2.6857486146 10.8385841791 8.1396459128 
Si 3.8160465649 12.4357698237 22.4753446195 
Si 5.3955901394 13.5438807939 8.1625484406 
Si 9.2213129643 0.5782982633 24.5961478708 
H 9.6592859083 8.8097135306 21.9566971838 
Si 14.9251913565 14.9037537163 6.8333849216 
Si 4.0284030068 12.1985548416 9.5041114174 
Si 3.3634452008 10.2277417535 23.0863315464 
Si 0.0337084086 16.2388821285 5.4994074955 
Si 8.1302576244 5.4268180696 13.5891054750 
Si 6.7632171018 14.9047799863 9.5139434580 
Si 13.6140906945 2.7724765754 16.4469033190 
Si 13.6010098244 13.5592422640 10.8812389564 
Si 2.6724559744 2.7168136449 5.5013914087 
Si 1.2791673747 12.2641220922 25.1148244818 
Si 8.1308114844 13.5651066641 10.8717570181 
H 5.1747954773 13.0095036290 22.7495914495 
Si 10.7558309784 5.0981347366 23.3546558118 
Si 11.5321798055 7.1361114953 24.3630964158 
Si 13.4213311227 16.2105701083 13.7457179200 
Si 1.3478720793 1.3329602132 6.8628810434 
Si 16.2632193887 16.2562472687 16.1899865547 
Si 6.7427731517 12.2053803516 12.1853118080 
Si 4.0826487073 14.9196201765 12.2413281818 
Si 10.5146086562 10.5549264065 23.7147652397 
Si 9.2934125050 11.8776581286 22.1991138763 
Si 14.9472317267 12.1658282313 14.9334400952 
Si 4.0656256572 4.0600218971 6.8303215262 
Si 1.3220573161 1.3308832382 12.2712619315 
Si 4.3299309096 6.9331055134 20.3765686402 
Si 12.1762049614 6.7376906716 17.7432447440 
Si 10.9046564197 13.4796819033 13.4033178353 
H 14.6202751337 11.0090753207 23.7006152703 
H 14.0515260685 12.5719216450 28.6159061932 
H 2.7114542348 2.8753479263 19.7971200987 
Si 4.0344628869 1.4320017851 27.7353112923 
Si 2.6673572044 8.1303390744 10.8639672412 
Si 3.9563849162 6.8325147625 14.9220617693 
Si 10.4174876753 0.5667633142 17.0639878616 
Si 16.2577133687 2.6811874145 8.2036271147 
Si 16.2841683289 8.0959345940 13.6408039199 
Si 2.7043355047 1.0342716575 22.4122678486 
H 3.3821135409 2.5994604838 24.9918802114 
Si 2.6943823146 16.2616555487 8.2173686314 
Si 9.5019082169 4.0392195669 12.2805688186 
Si 12.2654741622 12.1111427008 12.1390107740 
Si 14.1721860996 9.7191353689 24.3545189085 
Si 12.7190203463 14.7971193753 27.1091532642 
Si 1.3382903012 4.0506062770 9.5277725002 
Si 6.0451050253 4.8515204244 0.2286967655 
Si 6.6982688713 6.8269924524 17.5184790442 
Si 5.9257970642 5.6394514416 21.5995928010 
Si 9.2934287950 0.9142339044 20.6952492916 
Si 9.5029019069 9.4580718265 1.3258608870 
Si 8.4080021269 13.5751413042 16.1394551175 
Si 4.0527891371 1.3342145432 9.5661670564 
Si 5.4286914196 8.0863397840 2.7027025091 
Si 6.7662796219 6.7510973417 12.2078642335 
H 6.1006050558 11.2410449228 22.3034151973 
Si 10.8288753390 10.8405878491 29.1251883914 
Si 16.2853086289 10.8241186590 10.8901665660 
Si 12.7694053168 13.8450991866 23.8339459099 
Si 2.7145330448 11.0749846613 26.5615348601 
Si 2.6868074646 16.1988901781 18.8767302323 
Si 9.4352495363 1.4226236320 15.0722848467 
Si 8.2304411253 5.4463986498 2.8263878294 
Si 12.1372881510 12.2867163224 1.3200666933 
Si 16.1723700579 10.5627130266 21.6659080184 
Si 16.2379861785 16.2504154486 10.9453076839 
Si 5.7481871926 1.7155650757 19.9280583724 
Si 2.6686278244 2.6893487046 10.8995901539 
Si 5.6047700313 5.0999917966 27.1212609700 
Si 8.1145214842 8.0793350839 29.1597026467 
Si 7.0208923242 12.6832963760 19.4642603027 
Si 12.2231527418 9.5019570869 4.0136898818 
Si 12.9202832982 8.6819836394 20.7541831849 
H 4.8456397343 3.2331740696 18.4058717655 
Si 6.8553533427 6.7107470114 1.4092260882 
Si 4.8511131744 4.4844089810 23.3138980649 
Si 10.8528705093 5.4291312497 16.3159358701 
Si 9.4437692064 12.1003587207 4.1910167151 
Si 16.2409346685 8.0452238236 19.0678861078 
Si 13.5603825640 10.8080241388 13.6014174071 
Si 5.4257592196 5.4048265694 5.4584455221 
Si 0.7515766239 1.1715800687 25.5273325593 
Si 2.7198435849 10.8664889494 13.6058228615 
Si 10.8488957492 2.7067627148 13.6910144300 
Si 9.4973633069 9.4631868865 6.8384614055 
Si 9.4301507662 12.2655067422 27.9016682523 
Si 16.2126389383 2.6696540944 13.6134084121 
Si 4.0257640268 4.0584417671 12.2345887118 
Si 8.1241162943 8.1374903844 5.4738792001 
Si 8.6606600292 0.2412272092 18.5482758907 
Si 10.3902507950 0.7819134912 28.1429471123 
Si 10.7721046885 5.2119366777 27.4196648611 
Si 10.8765724595 10.7807058086 5.4741126017 
Si 10.8250797690 13.6673427050 19.0639766317 
Si 2.6344188241 4.5933239220 22.5326155267 
Si 1.5248124320 9.3809060958 27.7536041394 
Si 6.7730888419 6.7620116418 6.8202852592 
Si 6.8677500328 14.9004468463 14.9507118105 
Si 11.0573914611 7.8423155817 19.5013419751 
Si 12.2117334517 12.1849201114 6.8119995039 
Si 14.9521350167 11.8279573382 27.6390039747 
Si 1.4444620062 1.1921575969 17.4404353985 
Si 5.4035559494 8.1260873843 8.1557797954 
H 8.0336416335 13.9237147273 24.3448910943 
Si 16.1081874573 1.9833726781 27.5230617510 
Si 12.5600136549 5.7964707530 25.9772140612 
Si 12.2233319318 9.4538852965 9.5054534763 
Si 2.7415581551 13.5731539241 16.3667882344 
Si 8.1197017043 5.4036536894 8.1890103422 
Si 6.9964573240 8.0259201734 24.7856991106 
Si 8.0751485538 8.1456353845 16.1629119740 
Si 9.4826697267 12.1953782915 9.5210913807 
H 14.1141611191 1.3722256295 24.4609791939 
Si 1.4025315458 6.8098390823 17.7001529815 
Si 2.8387280060 5.5877306911 19.0723207374 
Si 7.9993674732 2.4487942724 23.6419439538 
Si 5.3992228094 5.3962580294 10.8749079392 
Si 13.5971328044 5.4604569199 2.8903486087 
Si 16.2143168083 13.6074606644 2.6084170325 
Si 2.6297598840 13.6114517145 0.0871118798 
Si 2.7305949850 16.2783853789 13.5978288582 
Si 8.1191315543 8.1037212141 10.8468414019 
Si 5.1968521375 14.1310864292 19.6328929279 
Si 6.8722460729 15.0357352975 27.7941576599 
Si 13.4979267034 8.1585696446 29.1510959643 
Si 4.0567150271 14.9702332069 1.3667294997 
Si 7.4563077382 9.0459836927 20.3850877970 
Si 9.5176769371 3.9974845866 1.4980674735 
Si 9.0697833829 6.8085521723 27.4051939645 
Si 8.9424770318 13.9967427980 23.1288398050 
Si 14.9875983471 6.8052615922 4.1654008942 
H 0.3401873311 5.7143854423 20.6722008878 
Si 3.8893352756 6.7333412416 27.2273419778 
Si 4.0200951068 9.5105256270 12.1907092190 
Si 1.3150591320 14.8939634262 4.0430401277 
Si 11.2252273327 15.8276084948 0.6809811364 
Si 13.5623536540 8.1655906347 5.4351053664 
Si 2.6810733845 13.5461288139 5.4143326278 
Si 10.7673968785 2.6270720340 2.9110629969 
H 11.8652451485 11.1738812522 20.8637943912 
Si 13.5671266241 5.4124991595 8.1935324974 
Si 14.9437782467 9.4626330265 12.2661270972 
Si 13.9222649173 13.9779278478 21.7774156125 
Si 0.0478544818 5.3966978594 16.3924332305 
Si 1.8286502567 5.7238499324 26.5125497083 
Si 4.0120967167 14.8909497762 6.8289211168 
Si 8.0496872836 15.4200326910 21.5380039650 
Si 12.2658162522 1.3919397877 1.6310859386 
Si 14.9255986065 6.7780084220 9.5240380753 
Si 0.0033644063 13.5458844639 8.1729348099 
Si 5.3113545486 5.4733097301 16.2270390519 
Si 7.9159952524 5.2927676584 18.7621884180 
Si 9.4339789163 1.2868236748 4.2397101150 
Si 13.5789694542 8.1235461443 10.8936384141 
Si 13.7111302254 13.5338461538 16.3577439241 
Si 12.1864350815 4.0560471371 4.1474873246 
Si 2.0999602092 2.5579861434 24.1716487883 
Si 1.3184946931 14.9115566264 9.5657877789 
Si 6.6738990310 4.1273321777 14.8900274055 
Si 13.7019100853 0.1387587100 18.9944521428 
Si 13.5455586639 8.1054642441 16.3898074630 
Si 9.4892183068 4.0571059871 6.8501314834 
Si 2.7093365348 13.5601545040 10.8917712017 
Si 7.3496408172 11.8134266580 17.3209338011 
H 6.7696190719 12.1634336012 23.9191666536 
Si 16.1756443479 5.3867772493 0.1635374692 
Si 14.9195387264 12.2107234717 20.5075360891 
Si 7.7984954813 7.0976833849 21.7565553483 
Si 5.4950405903 10.8806449595 16.2144937182 
Si 5.3843826192 13.7863737361 26.4168550697 
Si 10.8679713394 16.2301181084 5.5010413064 
Si 10.8306835291 15.3308612302 23.5220047285 
Si 16.2830931889 8.1197994443 2.6967040891 
Si 2.7525539052 5.4309557297 2.7081611880 
Si 6.7399386916 1.3066013640 17.7777881745 
Si 8.0620188137 10.7650511185 13.4624559549 
Si 12.2164575517 1.3276219801 6.8386364566 
Si 14.6026330636 7.0100431841 20.5078861914 
Si 15.4102424009 4.6353847024 23.7489585679 
Si 16.0981528172 2.9554295670 19.6544825720 
Si 2.8809516863 7.9723586529 29.0682384114 
Si 1.2725585216 14.8542158259 27.8051858835 
Si 9.4918572868 1.3424540253 9.5285310553 
Si 8.6273143989 14.3853081716 19.5303421186 
Si 12.2585183321 1.7547425261 18.0715532097 
Si 1.3940330528 6.7713783919 1.3279702535 
Si 1.3965058748 14.8872030762 14.9353656581 
Si 10.8551673993 2.6916944646 8.1821541714 
Si 10.5527109665 11.6358819464 20.2600720878 
Si 14.8113568355 1.2657900266 20.7498944312 
Si 13.5164647236 5.3386891688 19.1249236134 
Si 1.1500430595 3.9589750262 28.0152472852 
Si 4.0731842172 6.7717367719 4.1019448457 
Si 1.3072317870 4.8170019141 24.4250061789 
Si 12.2110492717 4.0352448069 9.5488369908 
H 13.5163506936 7.0258607743 23.3066334414 
Si 14.9934790371 14.9982520072 17.6604455415 
Si 0.0274396908 5.3952969193 5.4750462079 
H 6.3997709085 7.9338490926 23.3832475026 
Si 6.6790792511 9.4282937062 14.8033187270 
Si 5.5066716504 16.2682855788 16.2977013734 
H 11.6237133163 11.7927220679 16.8793380545 
Si 10.8597611793 16.2850154089 10.8691020754 
Si 2.6940402246 8.1307137444 5.4370892797 
Si 2.4543165825 13.7939160062 23.7940634188 
Si 5.8199609332 15.9320599757 21.2050274682 
Si 12.1617231512 1.3113189480 12.3153456507 
Si 9.3927163459 14.8051992154 1.6222779473 
Si 12.4050143035 14.9799909170 20.2657320756 
Si 1.3633231445 6.7714109719 6.8187097987 
Si 4.0745851573 12.4184698436 27.9040606183 
Si 10.8443834192 10.8012800788 10.8263312400 
Si 10.7991949588 13.4411071829 2.8761957218 
Si 9.5106559470 14.9291172465 12.2074266056 
Si 14.3303782911 14.6187601637 25.4327465781 
Si 3.4277255414 1.6372590450 20.2564251885 
Si 1.3520944474 12.1937330015 12.2321963458 
H 4.6991600530 5.2781066583 24.5920049932 
H 10.2118915834 2.1706099398 28.7514249724 
Si 16.2635777687 8.1311372844 8.1397042632 
Si 12.2217680918 14.9009844163 4.1003110348 
Si 2.7063391748 5.4153499095 8.1837879823 
Si 7.4736402984 5.9966422748 25.8451963053 
Si 4.1932903884 9.6444782982 17.7156450098 
H 9.9945992714 3.2210705995 18.5520394908 
Si 9.4892345968 12.1538225012 14.6418631996 
Si 9.4884526768 14.8859487461 6.8354563604 
Si 10.8564217293 13.5375602738 8.1774861403 
Si 4.0551674771 6.7780898720 9.5322654802 
Si 1.4265120550 15.3366767603 22.3033276717 
Si 5.3540017690 10.9236179799 0.0682617865 
Si 8.7664635802 4.4947531311 24.5239392640 
H 9.9367697709 14.3477434312 25.5871125332 
Si 12.2143398517 14.9006586163 9.5338117655 
Si 2.7599169852 8.2386512854 16.3959342539 
Si 2.6838426846 10.9685946703 18.9689821979 
Si 1.0519006956 10.4089680052 23.6827017008 
Si 8.1389727744 10.8059227288 2.7153791312 
Si 15.4442559212 15.8165964547 22.2313524664 
Si 10.8227502990 13.4976660634 26.4747678312 
Si 4.1125571476 1.3339620482 14.9526373733 
Si 6.7674687919 12.2184612217 1.4120035668 
Si 4.1973791784 14.9326195966 17.6614374981 
Si 11.3417497037 0.2897828126 21.5882436502 
Si 14.8590213759 14.9258103765 12.3368185939 
Si 3.9614022362 4.1541455180 17.6089513229 
Si 6.7724046619 9.4555468765 4.0657092539 
Si 7.9261765025 10.9810728104 26.6164717517 
Si 4.0773381673 12.2478483820 14.9550880897 
Si 10.3813401649 4.4540932907 21.1285592829 
Si 14.8950222762 9.4794931767 1.3400400316 
Si 2.9430165869 8.4070247269 21.6060113438 
Si 5.4096158295 10.8291196890 5.4144493286 
Si 10.4624969457 8.2444668154 26.2297253711 
Si 13.8619919168 2.4868965827 27.2428631814 
Si 16.2623885987 5.4030183794 10.8759874214 
Si 13.5647645741 10.9199364399 2.6539128311 
Si 15.0130433273 4.0860858974 17.8491507007 
Si 6.7454610017 12.1791534514 6.8082359038 
H 8.5132355279 7.1765106956 23.0834723773 
Si 10.7811945086 10.8582787893 16.0689678472 
Si 10.5338471463 14.5505865131 16.8221838481 
Si 14.9112796964 12.2532566621 4.0422523974 
Si 1.3151454690 6.7678108819 12.2261279053 
Si 1.7060191356 14.5056749827 20.1530282986 
Si 2.5883995737 16.2824741689 26.4590715764 
Si 6.7683810319 9.4799655867 9.5045198701 
Si 5.2849973283 8.4727874575 26.3143042604 
Si 14.9184798764 9.5153148870 6.7890386257 
H 3.2830377600 7.3203188170 24.1801095948 
Si 5.3915339293 0.0453298576 29.1336491979 
Si 8.1282213743 10.8422820092 8.1605061770 
Si 15.1648335487 0.2632138224 24.4313663713 
H 13.8555410767 6.3429188080 26.9023886595 
Si 13.5737403641 10.8450838892 8.1762316069 
Si 5.3746574891 2.6517025143 2.8659727336 
Si 5.4071886195 2.6927207346 13.5471807202 
Si 5.3938796893 10.8441064892 10.8368634853 
Si 6.2363333370 11.9103847389 25.3060095325 
H 10.3124823343 8.3906044067 22.0003140998 
Si 14.9446090367 12.1930814015 9.5304566181 
Si 1.3867807447 9.4726025066 14.9497782042 
Si 1.2750443757 12.1954271615 17.5846775609 
Si 8.0726887638 0.0042606170 2.8304811092 
Si 6.8231805924 1.3235087551 12.2605254599 
Si 9.4961741368 9.4431664764 12.1799435722 
Si 12.2921734724 9.0092497424 23.0819552672 
Si 2.7096297548 2.7198435849 16.2411598461 
Si 0.4126566548 7.6730787702 26.5109158974 
Si 7.6776236802 3.1160163885 0.3134641266 
Si 12.1484142211 3.4883406319 19.8788106438 
Si 8.4891263276 0.2333672841 26.8571962830 
Si 11.4253825645 4.7878102338 0.3759690637 
Si 15.0335850175 6.8851151730 27.9544170043 
Si 6.6894722712 1.3283305951 1.4651374313 
Si 10.8513066692 8.0957554040 2.7019031088 
Si 11.8552105084 12.0104216298 25.0050965746 
Si 12.1341441810 14.6180108237 15.0299224640 
Si 13.6210465246 10.5368607964 19.3304045095 
Si 6.8033230822 4.0558842371 4.1078090599 
Si 4.4385689206 10.3161150043 25.1874415413 
Si 11.0267011008 1.9059625974 25.2102857187 
Si 12.2821551223 6.7236812715 1.4177014823 
Si 13.5890203843 5.4220288096 13.6325181647 
H 13.0584387894 12.6991791261 17.4264313050 
Si 0.0056267941 13.5452980239 13.5949988643 
Si 5.6441592516 8.2957803159 18.9969903848 
Si 5.3987341094 16.2506760886 5.5247607396 
Si 9.5422911273 6.8065322122 4.1717319114 
Si 14.8175144555 1.3466926833 14.9943870769 
Si 16.2736286988 10.7912780187 16.2634496949 
Si 8.1038678241 2.7064694947 5.5256943459 
Si 5.5544665108 2.8062131657 26.4527697344 
Si 10.8595168293 5.4155128095 5.5130614866 
Si 12.0273469400 9.3675645857 27.6959247795 
Si 16.2259315784 13.4965746334 19.0065890238 
Si 16.1038543173 13.4676273032 26.4583421966 
Si 6.7547951718 1.3325448182 6.8617723860 
Si 6.7952432421 3.8570973653 20.3169637174 
Si 9.5131971870 6.7753531520 14.9295889695 
Si 12.2123198917 9.4172327961 14.9459854289 
Si 13.7913258961 3.9467901061 25.3089854023 
Si 12.2377322919 6.7791975920 6.8182721708 
Si 5.3966815694 2.6903423946 8.2018474278 
Si 9.3494826855 4.0672546572 17.4769627422 
Si 8.6159439788 2.9667511171 21.4601937208 
Si 9.4978682969 6.7373322916 9.5358832044 
Si 10.8538641993 8.1081683841 13.5565459577 
Si 14.9337436066 6.7480022417 15.0417092427 
Si 3.3544694107 12.8468479775 20.2604513654 
Si 7.7573469409 2.4227954322 27.2596389183 
Si 5.3295830587 8.0849225539 13.4902599154 
Si 8.1375718344 16.2627143987 8.1823875730 
Si 10.8530496993 8.0930023940 8.1776028411 
Si 13.6821177351 0.0483635443 2.8860131748 
Si 4.0551348971 9.4387355963 1.3423507070 
Si 6.7705964719 4.0382910369 9.5440814341 
Si 10.8537012993 5.3865003193 10.9052501416 
Si 13.1313854101 3.1199585685 0.2478143953 
H 15.3521033904 3.5359237223 22.7079584467 
Si 12.2382861519 3.2333695496 23.7192873949 
Si 0.0646036971 10.6590195075 29.0998643224 
Si 5.6972320721 2.3941739019 24.0934009162 
Si 5.4449488398 16.2740522388 10.8953014002 
Si 14.8549651659 4.0589630471 1.5267116797 
Si 12.2287565018 6.7476764417 12.2387315894 
Si 14.9572826568 9.4669335866 17.7093723430 
H 0.7389323258 2.0151381784 18.6839697211 

