&CONTROL
/
&SYSTEM
   ntyp             = 2
   nat              = 407
   ibrav            = 0
/
&ELECTRONS
/
&IONS
/
&CELL
/

ATOMIC_SPECIES
Si 28.085 None
H 1.008 None

K_POINTS gamma

CELL_PARAMETERS angstrom
16.29000014900000 0.00000000000000 0.00000000000000
0.00000000000000 16.29000014900000 0.00000000000000
0.00000000000000 0.00000000000000 29.17519467510000

ATOMIC_POSITIONS angstrom
Si 2.6716740544 10.8102232889 2.6925145311 
Si 8.1371482944 2.6925741246 10.9039372579 
Si 4.7817014837 0.3169284689 23.2826514314 
Si 8.9459956718 10.0339396218 17.2320661581 
Si 15.0087427673 1.3848226867 4.2236637579 
Si 12.2351258919 4.0720764972 14.9935993466 
Si 0.1052547409 0.1559559002 29.0903240338 
Si 1.2873351808 12.1511835211 1.3203526102 
Si 3.9986248866 15.1043813581 24.9875622826 
Si 7.9026863223 2.7382349950 16.2680302004 
Si 8.2016078250 16.2765934789 13.6400453649 
Si 13.5654813341 2.7158036648 5.5061469655 
H 15.1404474185 9.4589189065 21.8778074574 
Si 1.2985557329 4.0325243769 14.9441765669 
Si 0.0181009595 2.6747528645 2.7515242799 
Si 1.3259017561 9.4808452467 4.0738783085 
Si 9.7065594888 3.4545388816 26.3622682805 
Si 14.9326358866 4.0649088972 6.8443839700 
Si 12.2956595325 0.8005020103 26.8107785482 
Si 13.3630292122 10.7004123979 26.2970325452 
Si 1.4120644539 4.6052644921 20.6174682226 
Si 4.0337298369 12.1769054314 4.0564315420 
Si 2.7282818049 16.2843800989 2.7862806893 
Si 6.6675785110 9.5017290269 27.9440014598 
Si 12.8503340375 2.1464192896 21.6573305112 
H 12.4342874337 11.0428933610 18.5314126281 
Si 13.5733005341 16.2639361487 8.1931823950 
Si 2.7881475555 2.7744965354 0.0487021525 
Si 4.0542226571 9.4851946767 6.7903515095 
Si 1.3712205365 9.4805520267 20.2381906918 
Si 7.2290948161 11.1831176823 21.2961707763 
Si 5.3873148193 13.5743430941 2.7366361780 
Si 8.9023547614 9.5259196771 25.1071222304 
Si 14.9041772563 1.3289887112 9.5765826009 
Si 1.4503378093 1.3682248055 1.3991839862 
Si 2.6443394342 5.4046636694 13.5902141324 
Si 8.0917480640 13.6219098946 0.0691583402 
Si 9.4049501360 6.3095080177 20.2316554482 
Si 13.5308650837 2.6684323444 10.9406688280 
Si 16.2600917087 10.8681993994 5.4035669810 
Si 12.9751805987 14.2844730706 0.2296210357 
Si 1.3341901082 12.1980172716 6.7821241046 
Si 4.1742636682 4.0496288770 1.4264569582 
Si 6.7237301415 14.8990296163 4.1413897089 
Si 5.4482394198 13.5727955441 13.5992876179 
Si 9.5722973076 9.6349812281 19.3816361514 
Si 16.1843920780 8.3477128364 24.2773505186 
Si 14.9173069964 15.1382482684 1.2892576877 
Si 2.1132365593 6.9474407135 23.2661090960 
Si 1.3794030036 4.0701054072 4.0695020292 
Si 1.3257860971 9.4841032467 9.5005520436 
Si 8.1078914541 13.5414535838 5.4800643414 
Si 14.9035256563 4.0537665371 12.2483594037 
Si 14.9748432770 6.7540784118 22.8574813194 
Si 13.5680062841 13.5556910440 5.4663228247 
Si 4.0284355868 1.3213649911 4.2125771839 
Si 2.6847060545 10.8381443491 8.1409879718 
Si 3.8137659649 12.4356720837 22.4711142163 
Si 5.3936842093 13.5440925639 8.1644156531 
Si 9.2429786645 0.5769641123 24.6015744570 
H 9.6630000284 8.8082800106 21.9543048178 
Si 14.9250284565 14.9040632263 6.8333557464 
Si 4.0254870968 12.1993693416 9.5062703818 
Si 3.3647646908 10.2267969335 23.0826262967 
Si 0.0341746284 16.2387192285 5.4993783203 
Si 8.1227316443 5.4250587496 13.5890762998 
Si 6.7604152218 14.9056759363 9.5162774735 
Si 13.5916267843 2.7681271453 16.4180198763 
Si 13.5986640644 13.5565869940 10.8801594742 
Si 2.6721301744 2.7164552648 5.5014789343 
Si 1.2812362047 12.2598866921 25.1146202554 
Si 8.1276838043 13.5643247441 10.8724863980 
H 5.1724822973 13.0086239690 22.7436688849 
Si 10.7678692885 5.0924006566 23.3531970521 
Si 11.5389075755 7.1343358852 24.3615793056 
Si 13.4210053227 16.2055527882 13.7438215323 
Si 1.3475153283 1.3327337822 6.8632603210 
Si 16.2828488389 0.0071517173 16.2374545964 
Si 6.7388798416 12.2051522916 12.1866246918 
Si 4.0776802573 14.9209885365 12.2464046656 
Si 10.5197888762 10.5546983465 23.7117310195 
Si 9.2921744650 11.8755404286 22.1962255321 
Si 14.9453095067 12.1613484812 14.9310477293 
Si 4.0645016472 4.0601359271 6.8300589494 
Si 1.3175791950 1.3320756662 12.2751714076 
Si 4.3332703596 6.9246998733 20.3920606685 
Si 12.1812059914 6.7237790115 17.7407648524 
Si 10.8994599097 13.4787370833 13.4021216523 
H 14.6233376537 11.0013049906 23.6916293103 
H 14.0532690985 12.5719379350 28.6145641342 
H 2.8411552160 2.8823526264 19.8496646243 
Si 4.0390240869 1.4301463541 27.7386372645 
Si 2.6644575844 8.1284494343 10.8663012567 
Si 3.9512535661 6.8331174925 14.9193776514 
Si 10.4087562352 0.5623389501 17.0558188071 
Si 16.2567685487 2.6804054945 8.2039188667 
Si 16.2815293489 8.1006261141 13.6355523849 
Si 2.7116171348 1.0377756365 22.4340908942 
H 3.4039258511 2.6057321338 25.0261027148 
Si 2.6930465346 16.2607921787 8.2179229601 
Si 9.4914174568 4.0397082669 12.2748504805 
Si 12.2618740721 12.1105562608 12.1388940733 
Si 14.1752323296 9.7151280288 24.3532643752 
Si 12.7278983964 14.7988298253 27.1064983215 
Si 1.3366873652 4.0500198370 9.5280934274 
Si 6.0496988053 4.8516507444 0.2335322623 
Si 6.6891301812 6.8240439624 17.5236722289 
Si 5.9392363143 5.6434913616 21.6169228666 
Si 9.2942432950 0.9116714873 20.6932653784 
Si 9.5055245969 9.4594564765 1.3259396600 
Si 8.4018607968 13.5733656941 16.1385506865 
Si 4.0498569370 1.3336118132 9.5674507650 
Si 5.4301412297 8.0873334740 2.7034377240 
Si 6.7616695518 6.7512439517 12.2076891823 
H 6.0977705958 11.2492713729 22.2997391228 
Si 10.8320193091 10.8416141192 29.1249549899 
Si 16.2858299089 10.8302274090 10.8942510932 
Si 12.7756932568 13.8456530466 23.8349378666 
Si 2.7192245649 11.0756036813 26.5612722834 
Si 2.6202953940 16.2364386285 18.8688529298 
Si 9.4253615062 1.4222799130 15.0691339257 
Si 8.2325588253 5.4477832998 2.8282492068 
Si 12.1400737410 12.2874330824 1.3202971774 
Si 16.1765891679 10.5637718766 21.6623778199 
Si 16.2361779885 16.2504480286 10.9465330421 
Si 5.7629296427 1.7107758156 19.9268621894 
Si 2.6650440244 2.6883550146 10.9011656144 
Si 5.6118398913 5.0978903866 27.1260457019 
Si 8.1175677142 8.0810781139 29.1593233692 
Si 7.0015723840 12.6938848761 19.4581335118 
Si 12.2246025518 9.5027715869 4.0140399842 
Si 12.9290310282 8.6707924093 20.7512364902 
H 4.8582970644 3.2402765096 18.3838444935 
Si 6.8586927927 6.7130439014 1.4106177450 
Si 4.8924571947 4.4951766711 23.3526427234 
Si 10.8462567692 5.4281049796 16.3110636126 
Si 9.4445674164 12.1008637107 4.1914251678 
Si 16.2460334386 8.0389195935 19.0677694070 
Si 13.5570431140 10.8058249888 13.5995501947 
Si 5.4255311596 5.4045659294 5.4583579966 
Si 0.7543296339 1.1816033058 25.5196011327 
Si 2.7156570548 10.8676618294 13.6101407903 
Si 10.8349677991 2.7030323047 13.6805697103 
Si 9.4966465469 9.4638873565 6.8383738799 
Si 9.4346793863 12.2677873422 27.9009388725 
Si 16.2065301882 2.6690024944 13.6186015968 
Si 4.0226037668 4.0569430871 12.2357557196 
Si 8.1239371043 8.1376369944 5.4744043536 
Si 8.6591124792 0.2382103012 18.5462628022 
Si 10.3980211251 0.7821985662 28.1470024644 
Si 10.7813085386 5.2147385577 27.4211236208 
Si 10.8769308395 10.7808035486 5.4742293025 
Si 10.8117708389 13.6552066549 19.0588126223 
Si 2.6917107546 4.5774900419 22.5704557542 
Si 1.5296130950 9.3826817058 27.7537500153 
Si 6.7720625719 6.7619790618 6.8203436096 
Si 6.8573570127 14.9000721763 14.9548255129 
Si 11.0613825112 7.8373308417 19.4976659006 
Si 12.2116520017 12.1851970414 6.8120870295 
Si 14.9554907568 11.8298306882 27.6376910909 
Si 1.2309326843 1.3510013884 17.6538227723 
Si 5.4019432394 8.1251588543 8.1564216497 
H 8.0462989636 13.9229816773 24.3467583068 
Si 16.1135142874 1.9833075181 27.5212820642 
Si 12.5691197650 5.7961938230 25.9743840673 
Si 12.2212793918 9.4542925465 9.5041114174 
Si 2.7329570350 13.5791486442 16.3682469941 
Si 8.1175514242 5.4024970994 8.1887769406 
Si 7.0045860341 8.0259690434 24.7874204471 
Si 8.0662053438 8.1432896245 16.1654502160 
Si 9.4804705767 12.1953782915 9.5213831326 
H 14.0915180189 1.3423725753 24.4552608557 
Si 1.4001857858 6.8068254323 17.6967978341 
Si 2.8469218760 5.5971626012 19.0748006290 
Si 8.0164393933 2.4411053923 23.6482457958 
Si 5.3963394793 5.3945638693 10.8755497934 
Si 13.5994296944 5.4614017400 2.8915827194 
Si 16.2163367683 13.6078516245 2.6080319199 
Si 2.6323011241 13.6132924845 0.0855930191 
Si 2.7248120349 16.2807962989 13.6045391530 
Si 8.1160364542 8.1026297841 10.8466080003 
Si 5.1781675074 14.1509113594 19.6244904718 
Si 6.8774751629 15.0368593075 27.7941284848 
Si 13.5024390335 8.1597099446 29.1513001907 
Si 4.0589304671 14.9699236969 1.3675930854 
Si 7.4498731881 9.0481828428 20.3863423304 
Si 9.5223521671 3.9992439066 1.5020907329 
Si 9.0760224530 6.8096436023 27.4057482932 
Si 8.9483088518 13.9958631380 23.1255138328 
Si 14.9896671771 6.8064833422 4.1658385221 
H 0.1225249103 5.3607784090 20.7494568033 
Si 3.8987997657 6.7341557416 27.2287132120 
Si 4.0151755267 9.5122849470 12.1918470516 
Si 1.3162613340 14.8943380962 4.0430109525 
Si 11.2299188527 15.8262075547 0.6840007691 
Si 13.5629726740 8.1655254747 5.4352804176 
Si 2.6813828945 13.5458193039 5.4145076790 
Si 10.7698566685 2.6266810740 2.9139892689 
H 11.8623455285 11.1713400122 20.8612269741 
Si 13.5659374541 5.4115869195 8.1937950741 
Si 14.9408786266 9.4648647566 12.2616049421 
Si 13.9157814973 13.9655148677 21.7737978884 
Si 0.0448445785 5.4092085795 16.3663506065 
Si 1.8388803768 5.7300075524 26.5181805208 
Si 4.0116080167 14.8908683262 6.8293879199 
Si 8.0504366236 15.4167746910 21.5357574750 
Si 12.2684063622 1.3920114637 1.6336737784 
Si 14.9241650865 6.7773405320 9.5240672505 
Si 0.0028292635 13.5461613939 8.1729931603 
Si 5.3010918485 5.4731305401 16.2262804969 
Si 7.9128838624 5.2932726484 18.7673524275 
Si 9.4345490663 1.2867666598 4.2411396995 
Si 13.5761187042 8.1234646943 10.8915086249 
Si 13.7072206254 13.5262713037 16.3491372416 
Si 12.1885039115 4.0566824471 4.1487418580 
Si 2.1282722295 2.5726308535 24.1968561565 
Si 1.3171035271 14.9114751764 9.5672465386 
Si 6.6650535610 4.1275113678 14.8923322459 
Si 13.6563958249 0.0953611722 18.9775013547 
Si 13.5419422839 8.1027275241 16.3887279808 
Si 9.4886644468 4.0568616371 6.8505982865 
Si 2.7058341848 13.5603499840 10.8958849041 
Si 7.3455683172 11.8118139480 17.3216923561 
H 6.7716716119 12.1692654213 23.9165408861 
Si 16.1786091280 5.3869564393 0.1616279527 
Si 14.9192129264 12.2066509716 20.5049394967 
Si 7.8067219314 7.1036129450 21.7615443066 
Si 5.4903979402 10.8778430795 16.2172070113 
Si 5.3882922193 13.7875466161 26.4173218728 
Si 10.8682808494 16.2295153784 5.5017998614 
Si 10.8377370991 15.3309752602 23.5152652585 
Si 16.2855203989 8.1200600843 2.6960213895 
Si 2.7536453352 5.4315258797 2.7082603837 
Si 6.7391730616 1.3021655969 17.7759501372 
Si 8.0576368037 10.7631614784 13.4624559549 
Si 12.2151543517 1.3277099461 6.8400368660 
Si 14.6063797636 6.9866507439 20.5026930068 
Si 15.4359480212 4.6214893323 23.7452241429 
Si 16.1589470978 2.5354082032 19.1918806852 
Si 2.8851219264 7.9730428329 29.0680341850 
Si 1.2765691197 14.8564149759 27.8024434152 
Si 9.4868562568 1.3421331123 9.5322071298 
Si 8.6198209988 14.3826040315 19.5268119201 
Si 12.2489072320 1.7479495960 18.0574907658 
Si 1.3966052438 6.7718670919 1.3264852361 
Si 1.3886149987 14.9143747964 14.9605146759 
Si 10.8518931092 2.6904075546 8.1842547854 
Si 10.5482800865 11.6281279063 20.2570962180 
Si 14.8225317756 1.2200053522 20.6899977566 
Si 13.5218567137 5.3110287486 19.1159960038 
Si 1.1549821876 3.9600175862 28.0137301751 
Si 4.0739172673 6.7724209519 4.1020323713 
Si 1.3346380832 4.8361426642 24.4291782317 
Si 12.2088989917 4.0345117569 9.5490412172 
H 13.5322660238 7.0350483343 23.3022863374 
Si 14.9831348870 14.9893739571 17.6432321766 
Si 0.0279235038 5.3955575594 5.4757755878 
H 6.4091050786 7.9437697027 23.3825764731 
Si 6.6738338710 9.4276258162 14.8039605813 
Si 5.4923364502 16.2704195688 16.3002104402 
H 11.6226381763 11.7914188678 16.8786670250 
Si 10.8574154193 16.2839402689 10.8700940320 
Si 2.6942194146 8.1309743844 5.4372643308 
Si 2.4583402125 13.7901041461 23.7985563988 
Si 5.8195373932 15.9347152457 21.2069530310 
Si 12.1608760712 1.3096557390 12.3157832786 
Si 9.3952575859 14.8054924354 1.6230510900 
Si 12.3814426732 14.9572337868 20.2715379393 
Si 1.3629517325 6.7724535319 6.8195850545 
Si 4.0779734773 12.4200011036 27.9038563919 
Si 10.8417444392 10.8004167088 10.8258936121 
Si 10.8011008888 13.4408791229 2.8767354629 
Si 9.5053128269 14.9299154565 12.2082726862 
Si 14.3399568111 14.6215783337 25.4286328757 
Si 3.4637427317 1.6008183146 20.2750097875 
Si 1.3469142273 12.2032463616 12.2444791028 
H 4.7554582935 5.2920997684 24.6351842813 
H 10.2186519335 2.1696651198 28.7579018657 
Si 16.2629913287 8.1320332344 8.1414547749 
Si 12.2231527418 14.9011636063 4.1007486628 
Si 2.7049545247 5.4149263695 8.1840505591 
Si 7.4801400084 5.9945408648 25.8468009410 
Si 4.1896902983 9.6409596582 17.7192335588 
H 9.9924001214 3.2256317995 18.5507266070 
Si 9.4844616267 12.1525193011 14.6411338198 
Si 9.4877359168 14.8858672961 6.8360398643 
Si 10.8551836893 13.5368109338 8.1776320163 
Si 4.0528217171 6.7776174620 9.5333449624 
Si 1.4262416410 15.3336794002 22.3172442396 
Si 5.3565918790 10.9247094099 0.0683037988 
Si 8.7763353203 4.4926028511 24.5254855493 
H 9.9458758810 14.3499914512 25.5864706789 
Si 12.2123361817 14.9001699163 9.5341035175 
Si 2.7567730152 8.2353281253 16.3976264152 
Si 2.6821811045 10.9725531404 18.9675817885 
Si 1.0541340546 10.4042439052 23.6804260356 
Si 8.1405691945 10.8063462688 2.7155454298 
Si 15.4416821012 15.8017562645 22.2139932256 
Si 10.8296898390 13.4984805635 26.4742135025 
Si 4.0715715072 1.3389272403 14.9902441993 
Si 6.7699285819 12.2193408818 1.4120094018 
Si 4.1505942980 14.9705590069 17.6651719230 
Si 11.3470439538 0.2938601997 21.5822335601 
Si 14.8563335259 14.9234157465 12.3351556078 
Si 3.9485331361 4.1527608680 17.6035830871 
Si 6.7733657720 9.4566057265 4.0662927578 
Si 7.9302652925 10.9842819405 26.6150421672 
Si 4.0722719772 12.2493470620 14.9610106542 
Si 10.3840280150 4.4500207907 21.1276548519 
Si 14.8983943063 9.4811384667 1.3400517017 
Si 2.9405405069 8.4051676669 21.6014016630 
Si 5.4096646995 10.8292174290 5.4153245844 
Si 10.4694527758 8.2445156854 26.2294044439 
Si 13.8689314568 2.4912948828 27.2453430729 
Si 16.2599125187 5.4014545394 10.8764833997 
Si 13.5668008241 10.9202296599 2.6540528720 
Si 15.0111373973 4.0785762073 17.8007782279 
Si 6.7443369917 12.1798050514 6.8094904372 
H 8.5213153679 7.1748979856 23.0894241170 
Si 10.7781156986 10.8578063793 16.0682384673 
Si 10.5281619363 14.5461067630 16.8183910728 
Si 14.9127457964 12.2539408421 4.0420773463 
Si 1.3122393330 6.7641130519 12.2285202713 
Si 1.6988841155 14.5140806227 20.1590675639 
Si 2.5900122837 16.2873448790 26.4565333345 
Si 6.7660026919 9.4798515567 9.5048699724 
Si 5.2902264184 8.4752635375 26.3124953984 
Si 14.9188056764 9.5153311770 6.7889511001 
H 3.2948968801 7.3427338571 24.1648217928 
Si 5.3955901394 0.0437274103 29.1356331111 
Si 8.1266412443 10.8418910492 8.1609146297 
Si 15.1698345787 0.2614088904 24.4164870220 
H 13.8587990767 6.3544195481 26.8972830004 
Si 13.5733656941 10.8446114792 8.1756481030 
Si 5.3756185992 2.6514092943 2.8672155968 
Si 5.3805544692 2.6895767646 13.5697623209 
Si 5.3908660393 10.8436829492 10.8374761644 
Si 6.2392492471 11.9123232489 25.3032962394 
H 10.3154634043 8.3877699467 21.9996138951 
Si 14.9441040467 12.1927556015 9.5296688879 
Si 1.3835439217 9.4711201166 14.9527540741 
Si 1.2686472926 12.1974634116 17.5864864230 
Si 8.0743992139 0.0037598461 2.8316131068 
Si 6.8057014222 1.3262715391 12.2734500711 
Si 9.4925740468 9.4427592264 12.1793308931 
Si 12.2979075525 9.0045745124 23.0800880547 
Si 2.6399248441 2.6913686646 16.3147105119 
Si 0.4203536798 7.6750009902 26.5095738384 
Si 7.6830971203 3.1167494385 0.3196025876 
Si 12.1436901211 3.4792671018 19.8639604697 
Si 8.4992749977 0.2329339701 26.8598220505 
Si 11.4298623145 4.7889994038 0.3786940269 
Si 15.0399218276 6.8889270330 27.9535417485 
Si 6.6915573912 1.3284250771 1.4671213445 
Si 10.8531800193 8.0966350640 2.7023290666 
Si 11.8597879985 12.0108125898 25.0032001869 
Si 12.1301368409 14.6155184537 15.0275884484 
Si 13.6211442646 10.5324136263 19.3303169839 
Si 6.8042679022 4.0563729371 4.1080716366 
Si 4.4414522506 10.3171575644 25.1838529924 
Si 11.0451576710 1.9118432875 25.2086810830 
Si 12.2858203724 6.7256523615 1.4188013871 
Si 13.5807287742 5.4222079996 13.6260120962 
H 13.0597908594 12.7000750762 17.4257602755 
Si 0.0030996449 13.5613110940 13.6122414044 
Si 5.6344178315 8.2886615858 19.0064431478 
Si 5.3987341094 16.2501873886 5.5251691924 
Si 9.5440015773 6.8079168623 4.1731031455 
Si 14.8193878055 1.3349622542 14.9980339762 
Si 16.2693770088 10.7891114487 16.2669798934 
Si 8.1034605741 2.7062088547 5.5264529009 
Si 5.5678568909 2.8022384056 26.4656651704 
Si 10.8599240793 5.4151544295 5.5137908664 
Si 12.0323805500 9.3691447157 27.6962748818 
Si 16.2190734883 13.5045241535 19.0075518052 
Si 16.1085621273 13.4683440632 26.4565625097 
Si 6.7539318018 1.3323265322 6.8625017659 
Si 6.7974423922 3.8589707153 20.3266498821 
Si 9.5049055769 6.7758092720 14.9291221664 
Si 12.2084428717 9.4157178261 14.9456353266 
Si 13.8096195663 3.9495919861 25.3065346860 
Si 12.2377648719 6.7792464620 6.8184763971 
Si 5.3935864693 2.6892020946 8.2016432015 
Si 9.3434390954 4.0696981572 17.4761458367 
Si 8.6195603588 2.9631184471 21.4636363938 
Si 9.4949849668 6.7375929316 9.5342493935 
Si 10.8485047892 8.1072887241 13.5565459577 
Si 14.9257777965 6.7551861318 15.0289305074 
Si 3.3472366506 12.8556771576 20.2582340506 
Si 7.7715518211 2.4224044722 27.2674870457 
Si 5.3248263787 8.0856230239 13.4893554844 
Si 8.1359102544 16.2618510287 8.1834670552 
Si 10.8515998892 8.0927743340 8.1767567604 
Si 13.6850010652 0.0476083399 2.8866579466 
Si 4.0574969471 9.4397944463 1.3424674078 
Si 6.7666380019 4.0374928269 9.5431770030 
Si 10.8488305892 5.3856858193 10.9030620020 
Si 13.1350506601 3.1203169485 0.2510537172 
H 15.3987253708 3.5580292525 22.6735025417 
Si 12.2653927122 3.2304210595 23.7061293821 
Si 0.0676162068 10.6605181875 29.0988723658 
Si 5.7177737623 2.3888959418 24.1099432516 
Si 5.4403876398 16.2740196588 10.8987440732 
Si 14.8583860659 4.0611459071 1.5275665129 
Si 12.2225825918 6.7490122217 12.2351138653 
Si 14.9558817168 9.4594401865 17.7114729570 
H 1.2215414992 3.0347455777 20.0514110955 

