&CONTROL
/
&SYSTEM
   ntyp             = 2
   nat              = 407
   ibrav            = 0
/
&ELECTRONS
/
&IONS
/
&CELL
/

ATOMIC_SPECIES
Si 28.085 None
H 1.008 None

K_POINTS gamma

CELL_PARAMETERS angstrom
16.29000014900000 0.00000000000000 0.00000000000000
0.00000000000000 16.29000014900000 0.00000000000000
0.00000000000000 0.00000000000000 29.17519467510000

ATOMIC_POSITIONS angstrom
Si 2.6703871444 10.8088549289 2.6933693643 
Si 8.1355844544 2.6924112246 10.9108809542 
Si 4.7692885036 0.3143725679 23.2747157784 
Si 8.9524139319 10.0375560018 17.2328247132 
Si 15.0068368372 1.3844561617 4.2243056122 
Si 12.2405830419 4.0775499373 14.9947955296 
Si 0.1020454479 0.1546171880 29.0919578447 
Si 1.2849503248 12.1485771211 1.3211695157 
Si 3.9960836465 15.1016935081 24.9864828004 
Si 7.9123788724 2.7386096650 16.2642666003 
Si 8.2022920050 16.2783365089 13.6415916502 
Si 13.5639989441 2.7159991448 5.5070513965 
H 15.1501399686 9.4537549765 21.8703386075 
Si 1.3009259279 4.0380466869 14.9595227193 
Si 0.0159602417 2.6747691545 2.7519852480 
Si 1.3245171061 9.4800144567 4.0749869658 
Si 9.6993593087 3.4515252316 26.3575127238 
Si 14.9329291066 4.0648437372 6.8446465467 
Si 12.2870421224 0.7958740213 26.8052644364 
Si 13.3610907022 10.6971706878 26.2959238878 
Si 1.2702225356 4.3406497297 20.5204023499 
Si 4.0326384069 12.1765470514 4.0569858707 
Si 2.7270274749 16.2843800989 2.7869371312 
Si 6.6609810609 9.4959623668 27.9402962101 
Si 12.8662493677 2.1503125997 21.6634281269 
H 12.4326421437 11.0462002310 18.5324337600 
Si 13.5742127741 16.2650275788 8.1948453811 
Si 2.7838307055 2.7743010554 0.0469819830 
Si 4.0539783071 9.4855041867 6.7922478971 
Si 1.3789664316 9.4909776268 20.2322097769 
Si 7.2302188261 11.1850399023 21.2942160383 
Si 5.3858487193 13.5741476141 2.7365661576 
Si 8.8964903614 9.5244861571 25.1020165713 
Si 14.9059854463 1.3300426742 9.5780121855 
Si 1.4480034522 1.3676953805 1.3996391193 
Si 2.6473530842 5.4045985094 13.5994918443 
Si 8.0885715140 13.6209813646 0.0689765788 
Si 9.4107005061 6.3092636677 20.2336685367 
Si 13.5351819338 2.6700124744 10.9433821211 
Si 16.2598147787 10.8683948794 5.4050840911 
Si 12.9715153486 14.2845545206 0.2298984918 
Si 1.3341607862 12.1983104916 6.7842247186 
Si 4.1716572681 4.0488469570 1.4246626837 
Si 6.7229319315 14.8990459063 4.1414188841 
Si 5.4506014698 13.5756625842 13.5981497853 
Si 9.5840423977 9.6326191781 19.3798564645 
Si 16.1809223080 8.3381506063 24.2674017772 
Si 14.9140489964 15.1371731284 1.2904538707 
Si 2.0873843291 6.9247324533 23.2266350576 
Si 1.3783229766 4.0700239572 4.0699980076 
Si 1.3265354371 9.4871494768 9.5062412066 
Si 8.1077448441 13.5423495339 5.4809395972 
Si 14.9081683063 4.0541086271 12.2527940333 
Si 14.9630493168 6.7370390716 22.8528424634 
Si 13.5677619341 13.5563426440 5.4669355038 
Si 4.0283704268 1.3214708761 4.2126647095 
Si 2.6852110446 10.8391869091 8.1439346664 
Si 3.8144338549 12.4347924237 22.4728939032 
Si 5.3939611393 13.5457541439 8.1661953400 
Si 9.2232188943 0.5754214493 24.5953893158 
H 9.6639611384 8.8068627805 21.9506870937 
Si 14.9251099065 14.9044216063 6.8346102798 
Si 4.0254870968 12.2020734816 9.5089253245 
Si 3.3586885207 10.2274159535 23.0856896921 
Si 0.0336895122 16.2391101885 5.5000201746 
Si 8.1311209944 5.4271438696 13.5851959989 
Si 6.7604803818 14.9076307363 9.5187573651 
Si 13.5911543743 2.7626048353 16.4161526638 
Si 13.6015473944 13.5585255040 10.8835437968 
Si 2.6723256544 2.7169439649 5.5017706862 
Si 1.2781313307 12.2590559021 25.1157872632 
Si 8.1298015044 13.5659863241 10.8724863980 
H 5.1719935973 13.0082004290 22.7494747487 
Si 10.7627379384 5.0944531966 23.3519133435 
Si 11.5359265055 7.1342544352 24.3595662172 
Si 13.4274561628 16.2070025982 13.7487521402 
Si 1.3477368723 1.3334358812 6.8634937225 
Si 0.0048131249 0.0398099911 16.2762867805 
Si 6.7409323817 12.2067975816 12.1860411879 
Si 4.0769634973 14.9268529365 12.2520938286 
Si 10.5174431162 10.5528249965 23.7103306101 
Si 9.2925002650 11.8768924986 22.1962838824 
Si 14.9487304067 12.1659585513 14.9322730874 
Si 4.0648437372 4.0600707671 6.8313718332 
Si 1.3184816611 1.3362165842 12.2793726356 
Si 4.3568256998 6.9544291236 20.4230155501 
Si 12.1910288615 6.7167254414 17.7415525827 
Si 10.9015938997 13.4815715433 13.4026468058 
H 14.6239078037 10.9935998205 23.6884200389 
H 14.0505486685 12.5704718350 28.6146516598 
H 2.8069950857 2.8915727664 19.7767558128 
Si 4.0347235269 1.4304444611 27.7364199497 
Si 2.6653861144 8.1283191143 10.8695688785 
Si 3.9616302962 6.8339808625 14.9198736297 
Si 10.4137572652 0.5612915031 17.0568691141 
Si 16.2578436887 2.6813503145 8.2048524729 
Si 16.2838751089 8.0989319541 13.6396660874 
Si 2.7032603647 1.0479536286 22.4162940255 
H 3.3929463910 2.5923580437 25.0043088443 
Si 2.6939424846 16.2628284287 8.2186231648 
Si 9.4983569969 4.0385028069 12.2749963564 
Si 12.2640243522 12.1119409108 12.1406154098 
Si 14.1741897696 9.7100292588 24.3525058201 
Si 12.7212032063 14.7967772853 27.1074902781 
Si 1.3379270342 4.0506388571 9.5296980631 
Si 6.0455122753 4.8513575244 0.2289558412 
Si 6.7019504113 6.8299572325 17.5223593451 
Si 5.9445631444 5.6325770615 21.6142970991 
Si 9.3016226651 0.9124631813 20.6932653784 
Si 9.5025109469 9.4581369865 1.3253503211 
Si 8.4042391369 13.5774381942 16.1391341904 
Si 4.0504922470 1.3349264162 9.5697264302 
Si 5.4282515897 8.0864538140 2.7029825910 
Si 6.7659049519 6.7528403718 12.2067264009 
H 6.0991552458 11.2435372928 22.2995640716 
Si 10.8289893690 10.8406530091 29.1245465371 
Si 16.2885666290 10.8360592291 10.9012531400 
Si 12.7699265968 13.8429326166 23.8353171441 
Si 2.7158199548 11.0728343813 26.5625559919 
Si 2.6204420040 16.2460497286 18.8828278480 
Si 9.4332295763 1.4205824950 15.0683753706 
Si 8.2302782253 5.4464638098 2.8272630853 
Si 12.1373370210 12.2870095424 1.3198683020 
Si 16.1801892580 10.5641791266 21.6596937020 
Si 16.2379861785 16.2537386087 10.9498881895 
Si 5.7809300929 1.7095377756 19.9214064280 
Si 2.6661843244 2.6901143346 10.9039080827 
Si 5.6065619313 5.0983953766 27.1209692180 
Si 8.1129902242 8.0799866839 29.1586815149 
Si 6.9991125940 12.6972406161 19.4569665040 
Si 12.2233319318 9.5020711169 4.0141566850 
Si 12.9340972183 8.6682348793 20.7479105180 
H 4.8487348343 3.2707876799 18.4424866348 
Si 6.8554673727 6.7108121714 1.4095936957 
Si 4.8630211645 4.4762802709 23.3241093830 
Si 10.8511274792 5.4292941496 16.3122306204 
Si 9.4436225964 12.1009125807 4.1919211461 
Si 16.2461311786 8.0531081837 19.0669525016 
Si 13.5611319040 10.8082359088 13.6008630784 
Si 5.4251890696 5.4044844794 5.4590582012 
Si 0.7506432069 1.1653800947 25.5240649375 
Si 2.7199087449 10.8790159595 13.6034888460 
Si 10.8428358692 2.7045798547 13.6833997042 
Si 9.4969397669 9.4636430066 6.8381404783 
Si 9.4294014262 12.2648388522 27.9004720693 
Si 16.2112379983 2.6729446745 13.6276750823 
Si 4.0227177968 4.0576598471 12.2408613787 
Si 8.1234972743 8.1369691044 5.4745502296 
Si 8.6632990092 0.2389466092 18.5459126999 
Si 10.3910327150 0.7810892171 28.1427428859 
Si 10.7683091185 5.2118389377 27.4229616581 
Si 10.8769797095 10.7813411186 5.4746961056 
Si 10.8123572789 13.6565098549 19.0603589076 
Si 2.6559053343 4.5712509718 22.5071747569 
Si 1.5245485339 9.3783485658 27.7511534230 
Si 6.7721114419 6.7614089118 6.8215106174 
Si 6.8573081427 14.9019292363 14.9556132432 
Si 11.0701791112 7.8315967616 19.4969365207 
Si 12.2121244117 12.1857997714 6.8131373365 
Si 14.9523142067 11.8279084682 27.6377202661 
Si 1.2222664042 1.3994967188 17.7332084770 
Si 5.4022527494 8.1249145043 8.1578512343 
H 8.0425196835 13.9228187773 24.3450077951 
Si 16.1078779473 1.9794142081 27.5202901075 
Si 12.5540189348 5.8033940031 25.9848287870 
Si 12.2228269418 9.4551884965 9.5043448189 
Si 2.7345045850 13.5844428942 16.3691806004 
Si 8.1181704442 5.4022201694 8.1903815763 
Si 6.9986727640 8.0243074634 24.7803600500 
Si 8.0739268038 8.1491703145 16.1629411492 
Si 9.4821647367 12.1961765015 9.5217332349 
H 14.1270302192 1.3795463556 24.4238683463 
Si 1.3939516028 6.8474201126 17.6734285031 
Si 2.8474757360 5.6220863014 19.0575580889 
Si 8.0056391232 2.4469209224 23.6431109616 
Si 5.3975286494 5.3943358093 10.8791966928 
Si 13.5978658544 5.4605057899 2.8906053504 
Si 16.2146914783 13.6069719644 2.6085774961 
Si 2.6302811641 13.6107186645 0.0873604524 
Si 2.7244699449 16.2880290590 13.6123872803 
Si 8.1190175242 8.1044216841 10.8456452189 
Si 5.1773204273 14.1557006195 19.6239069679 
Si 6.8729465429 15.0353280475 27.7940117840 
Si 13.5001747235 8.1586999646 29.1500456573 
Si 4.0567638971 14.9697770869 1.3674763847 
Si 7.4613739282 9.0509032728 20.3825495551 
Si 9.5176769371 3.9972565266 1.4997508823 
Si 9.0695716129 6.8107187423 27.4039102560 
Si 8.9514691119 13.9966124780 23.1290732066 
Si 14.9880544671 6.8054082022 4.1659260477 
H 0.1679857395 5.3374185488 20.7497193801 
Si 3.8888791556 6.7294153516 27.2232282754 
Si 4.0174398367 9.5148424770 12.1911468469 
Si 1.3151585010 14.8938493962 4.0435944564 
Si 11.2255531327 15.8270546347 0.6808556831 
Si 13.5628586440 8.1656557947 5.4359514471 
Si 2.6808779045 13.5459333339 5.4156455116 
Si 10.7669570485 2.6266973640 2.9127668283 
H 11.8640071085 11.1698902022 20.8631525370 
Si 13.5680388641 5.4123036795 8.1948162059 
Si 14.9439248567 9.4646692766 12.2643474104 
Si 13.9128655872 13.9628107277 21.7747898450 
Si 0.0381445014 5.3982128294 16.3905951933 
Si 1.8317942268 5.7204453223 26.5014047839 
Si 4.0116243067 14.8915850862 6.8302631758 
Si 8.0584350137 15.4171656510 21.5377997386 
Si 12.2648225622 1.3908858247 1.6332186453 
Si 14.9267226165 6.7772102120 9.5265763173 
Si 0.0035988846 13.5476600739 8.1752688255 
Si 5.3249729887 5.4786039801 16.2184615447 
Si 7.9231139825 5.2971822485 18.7641139809 
Si 9.4333761863 1.2865092778 4.2411396995 
Si 13.5788065542 8.1255498143 10.8918003769 
Si 13.7105926554 13.5315329738 16.3496915703 
Si 12.1868423315 4.0559168171 4.1480416533 
Si 2.1105324193 2.5553145834 24.1863239112 
Si 1.3176573870 14.9151892964 9.5685010720 
Si 6.6771407411 4.1260452677 14.8855052504 
Si 13.6711382750 0.1046508706 18.9863414387 
Si 13.5430825839 8.1006261141 16.3870066443 
Si 9.4890879868 4.0564055171 6.8519986958 
Si 2.7074794748 13.5670940441 10.8978104670 
Si 7.3511720772 11.8154791981 17.3221591592 
H 6.7704009919 12.1658445213 23.9174744923 
Si 16.1768660979 5.3855554992 0.1600274016 
Si 14.9179748864 12.2049079416 20.5056397014 
Si 7.8082043214 7.1024563550 21.7630614167 
Si 5.4975655403 10.8845056895 16.2141144407 
Si 5.3856532393 13.7847121561 26.4167383689 
Si 10.8676292494 16.2302321384 5.5027334677 
Si 10.8384538591 15.3367093403 23.5183870043 
Si 16.2833864089 8.1196854143 2.6965115328 
Si 2.7525050352 5.4310208897 2.7082778888 
Si 6.7461940517 1.3025907659 17.7677810827 
Si 8.0613997937 10.7661914185 13.4616098743 
Si 12.2141932417 1.3280927611 6.8422833560 
Si 14.6092793836 6.9795483038 20.4927734406 
Si 15.4058929709 4.6124809622 23.7751870679 
Si 16.2401690385 2.6421402842 19.3451963332 
Si 2.8806910463 7.9703875629 29.0659043958 
Si 1.2727930976 14.8528800458 27.8055068107 
Si 9.4864490068 1.3430763033 9.5378962928 
Si 8.6197884188 14.3835325615 19.5268702705 
Si 12.2525561921 1.7444309559 18.0599414822 
Si 1.3938473468 6.7704661519 1.3270629050 
Si 1.3879748017 14.9358775966 14.9814041153 
Si 10.8514369892 2.6905867446 8.1879600352 
Si 10.5508213265 11.6283233863 20.2585549777 
Si 14.8417865557 1.2322309973 20.6996255708 
Si 13.5353448338 5.2986320585 19.1077977741 
Si 1.1499518355 3.9577858562 28.0088287424 
Si 4.0727769673 6.7719159619 4.1027034008 
Si 1.3205749261 4.8060224539 24.4099809536 
Si 12.2122384417 4.0343814369 9.5501498745 
H 13.5221825137 7.0422648044 23.2994563435 
Si 14.9858390271 14.9944727271 17.6472875287 
Si 0.0279585273 5.3964535093 5.4768550700 
H 6.4028334286 7.9345984326 23.3772957629 
Si 6.6781995911 9.4308186563 14.8024142959 
Si 5.4907400302 16.2720648588 16.2998019874 
H 11.6273622763 11.7957845879 16.8779668203 
Si 10.8608526093 16.2863674789 10.8740910337 
Si 2.6938447446 8.1311209944 5.4386647402 
Si 2.4556197825 13.7892896461 23.7971268143 
Si 5.8273728833 15.9290951957 21.2098413753 
Si 12.1675386813 1.3107243630 12.3195468787 
Si 9.3928792459 14.8050526054 1.6223625554 
Si 12.3844074533 14.9616320868 20.2710711362 
Si 1.3628181545 6.7734798019 6.8220065957 
Si 4.0752856273 12.4178019536 27.9042064943 
Si 10.8443508392 10.8019968388 10.8264479408 
Si 10.7993252788 13.4412863729 2.8766070920 
Si 9.5061924869 14.9320168666 12.2093229932 
Si 14.3325937311 14.6221810637 25.4287204013 
Si 3.4718062818 1.6256019209 20.2632230089 
Si 1.3461143883 12.2178747817 12.2494097107 
H 4.7109051431 5.2749952682 24.5997364198 
H 10.2127549534 2.1692089998 28.7522127027 
Si 16.2644900087 8.1343464144 8.1452767254 
Si 12.2215889018 14.9011310263 4.1014488674 
Si 2.7058667648 5.4155453895 8.1855384940 
Si 7.4756276784 5.9961047048 25.8435916696 
Si 4.1980633584 9.6499517383 17.7163452145 
H 9.9925141514 3.2242797295 18.5541401048 
Si 9.4866770668 12.1557610112 14.6418340244 
Si 9.4879151068 14.8865677661 6.8378195512 
Si 10.8570407493 13.5385213838 8.1792950024 
Si 4.0538479871 6.7773568220 9.5361457811 
Si 1.4280807821 15.3380288303 22.3143850705 
Si 5.3544904690 10.9218912399 0.0672415299 
Si 8.7715949302 4.4946879711 24.5226555554 
H 9.9422757909 14.3477597212 25.5848952184 
Si 12.2142746917 14.9015871463 9.5371377377 
Si 2.7691534153 8.2547946755 16.3800045976 
Si 2.6889251646 10.9818058604 18.9620968519 
Si 1.0483071216 10.4029081251 23.6819139705 
Si 8.1391030944 10.8059064388 2.7160151505 
Si 15.4433273912 15.7961362145 22.2092084937 
Si 10.8245096190 13.4959393234 26.4744760792 
Si 4.0609830071 1.3451679393 15.0056195268 
Si 6.7674362119 12.2176304317 1.4117118148 
Si 4.1448602179 14.9801538170 17.6693731511 
Si 11.3560034539 0.2993711067 21.5853261308 
Si 14.8591842759 14.9260547265 12.3386566312 
Si 3.9801683164 4.1653041681 17.6000237133 
Si 6.7718996719 9.4557749365 4.0665845098 
Si 7.9256715125 10.9794601004 26.6141960865 
Si 4.0749924073 12.2550648521 14.9613024061 
Si 10.3904136950 4.4488153307 21.1266337201 
Si 14.8953317862 9.4799492967 1.3401538148 
Si 2.9337964468 8.4122049469 21.6025103204 
Si 5.4092248695 10.8293803290 5.4163748914 
Si 10.4641096557 8.2447274554 26.2267786764 
Si 13.8597927668 2.4828240827 27.2503612064 
Si 16.2632193887 5.4019269494 10.8801886494 
Si 13.5648297341 10.9202133699 2.6541754078 
Si 15.0127012373 4.0305532869 17.8190127246 
Si 6.7440274817 12.1808150314 6.8104823938 
H 8.5240683780 7.1787587156 23.0906786504 
Si 10.7828886686 10.8619277493 16.0677716642 
Si 10.5305565663 14.5462207930 16.8197331317 
Si 14.9115403364 12.2532240821 4.0429817773 
Si 1.3159078410 6.7628587218 12.2343261351 
Si 1.7003502156 14.5129729027 20.1618392074 
Si 2.5888882737 16.2802261489 26.4591299268 
Si 6.7676805619 9.4806986367 9.5041405925 
Si 5.2831076883 8.4678352974 26.3067478850 
Si 14.9191314764 9.5151356970 6.7906140862 
H 3.2803336200 7.2981481268 24.1182581821 
Si 5.3919900493 0.0442915330 29.1342910522 
Si 8.1280258943 10.8429987692 8.1605645274 
Si 15.1684662187 0.2608029024 24.4101560048 
H 13.8543519067 6.3531326381 26.9009882502 
Si 13.5748806642 10.8461101592 8.1769901620 
Si 5.3745597492 2.6515559042 2.8659406408 
Si 5.3735171891 2.6898862746 13.5806738437 
Si 5.3931955093 10.8451490492 10.8366300838 
Si 6.2355025470 11.9086579989 25.3033254146 
H 10.3152516343 8.3851961267 21.9990012161 
Si 14.9455701467 12.1938144515 9.5324988818 
Si 1.3865852647 9.4843638867 14.9410256458 
Si 1.2694552766 12.2033115216 17.5854069408 
Si 8.0727702138 0.0041241068 2.8308545517 
Si 6.8006189422 1.3288763102 12.2815899504 
Si 9.4952618968 9.4441438764 12.1793017179 
Si 12.2977446525 9.0038577523 23.0776373384 
Si 2.6358197641 2.7010449247 16.3458112694 
Si 0.4172602088 7.6697393201 26.5013756087 
Si 7.6786662402 3.1160489685 0.3138288166 
Si 12.1497988711 3.4765303818 19.8663820109 
Si 8.4906738776 0.2323980291 26.8568461806 
Si 11.4250078945 4.7878265238 0.3780171624 
Si 15.0386023375 6.8879170530 27.9517620616 
Si 6.6897980712 1.3283175631 1.4651199262 
Si 10.8513718292 8.0958694340 2.7018447584 
Si 11.8557317884 12.0077989398 25.0042213188 
Si 12.1318310010 14.6184832337 15.0284928795 
Si 13.6197270346 10.5334887663 19.3298793560 
Si 6.8030624422 4.0556073071 4.1084800893 
Si 4.4367933106 10.3136226343 25.1842614451 
Si 11.0313926209 1.9019389674 25.2036921247 
Si 12.2832954223 6.7242188415 1.4176723071 
Si 13.5851922342 5.4257266396 13.6259245707 
H 13.0645801195 12.7061675362 17.4276566632 
Si 0.0073521658 13.5765096642 13.6258662203 
Si 5.6457393816 8.2969694859 19.0010749120 
Si 5.3989947494 16.2508064086 5.5260444482 
Si 9.5425843473 6.8063530222 4.1725196417 
Si 14.8267997556 1.3332974162 15.0048609718 
Si 16.2723254988 10.7922228387 16.2666297911 
Si 8.1032976741 2.7062577247 5.5272406312 
Si 5.5584086908 2.8034601556 26.4570001376 
Si 10.8596634393 5.4148937895 5.5142284944 
Si 12.0282591800 9.3677600657 27.6951662244 
Si 16.2184218883 13.5045078635 19.0098566456 
Si 16.1039520573 13.4678390732 26.4567083857 
Si 6.7545671118 1.3325024642 6.8643106280 
Si 6.8103929423 3.8575371953 20.3169928926 
Si 9.5104930470 6.7773242420 14.9294430936 
Si 12.2115379717 9.4174445661 14.9457520274 
Si 13.7762902260 3.9474905761 25.3269573223 
Si 12.2383513119 6.7788229220 6.8190307258 
Si 5.3946616093 2.6899514346 8.2037729907 
Si 9.3509650755 4.0687370472 17.4757665592 
Si 8.6257342689 2.9638026271 21.4624693860 
Si 9.4970375069 6.7376255116 9.5344244446 
Si 10.8520234292 8.1095693242 13.5564292569 
Si 14.9310231766 6.7491588317 15.0361367805 
Si 3.3508041607 12.8582672676 20.2603930150 
Si 7.7620710410 2.4225673722 27.2602224222 
Si 5.3295993487 8.0884737740 13.4874590967 
Si 8.1371320044 16.2630890687 8.1863553995 
Si 10.8528542193 8.0933607740 8.1769318116 
Si 13.6822317651 0.0479491267 2.8869730387 
Si 4.0543529771 9.4377419063 1.3413995956 
Si 6.7680226519 4.0373950869 9.5464738000 
Si 10.8525772893 5.3863374193 10.9027118997 
Si 13.1300659201 3.1192255185 0.2520118306 
H 15.3150925101 3.5079375021 22.7525964945 
Si 12.2443297420 3.2253548695 23.7100680334 
Si 0.0649110894 10.6580583975 29.0982888619 
Si 5.7058657722 2.3864850218 24.1006363645 
Si 5.4406971498 16.2764142889 10.9023617974 
Si 14.8559262759 4.0598427071 1.5259327020 
Si 12.2253681818 6.7511136317 12.2349971645 
Si 14.9505385967 9.4650602366 17.7061630716 
H 1.4313306371 4.5147246713 18.9296248603 

