&CONTROL
/
&SYSTEM
   ntyp             = 2
   nat              = 407
   ibrav            = 0
/
&ELECTRONS
/
&IONS
/
&CELL
/

ATOMIC_SPECIES
Si 28.085 None
H 1.008 None

K_POINTS gamma

CELL_PARAMETERS angstrom
16.29000014900000 0.00000000000000 0.00000000000000
0.00000000000000 16.29000014900000 0.00000000000000
0.00000000000000 0.00000000000000 29.17519467510000

ATOMIC_POSITIONS angstrom
Si 2.6707618144 10.8086757389 2.6927596028 
Si 8.1344930244 2.6923949346 10.9105016767 
Si 4.7761954637 0.3141054119 23.2789753568 
Si 8.9559488619 10.0387125918 17.2372593427 
Si 15.0065436172 1.3837084506 4.2233720060 
Si 12.2389051719 4.0726792273 14.9969253188 
Si 0.1016583975 0.1547092265 29.0925121734 
Si 1.2850659838 12.1488214711 1.3213795771 
Si 3.9976149066 15.1041044281 24.9895753710 
Si 7.9066773723 2.7407110751 16.2694597850 
Si 8.2005815550 16.2789392389 13.6393159850 
Si 13.5636242740 2.7151846448 5.5059427391 
H 15.1524042786 9.4582021465 21.8711263378 
Si 1.2959428169 4.0271649668 14.9505951097 
Si 0.0156649691 2.6744759345 2.7516147230 
Si 1.3248282451 9.4787112567 4.0732364542 
Si 9.7009394387 3.4518673216 26.3569000447 
Si 14.9320005766 4.0640129472 6.8442089188 
Si 12.2867163224 0.7982311843 26.8046517573 
Si 13.3623939022 10.6990114578 26.2972075964 
Si 1.3457543793 4.3438751497 20.5271709951 
Si 4.0330130769 12.1760257714 4.0563440165 
Si 2.7268808649 16.2842986489 2.7867329048 
Si 6.6619584609 9.4946102968 27.9394793046 
Si 12.8767889978 2.1507687197 21.6563677298 
H 12.4259958236 11.0555018211 18.5360223089 
Si 13.5728444141 16.2627632687 8.1917528105 
Si 2.7834397455 2.7746594354 0.0469691459 
Si 4.0537013771 9.4850317768 6.7918977948 
Si 1.3906675387 9.4968583169 20.2288546295 
Si 7.2340795562 11.1873856623 21.2979504632 
Si 5.3860116193 13.5734308541 2.7357317470 
Si 8.8987383814 9.5275160971 25.1005869868 
Si 14.9046496663 1.3271463121 9.5745403373 
Si 1.4480067102 1.3677637985 1.3996157791 
Si 2.6399248441 5.4024808094 13.6003671001 
Si 8.0889950540 13.6207044346 0.0687589318 
Si 9.4087782860 6.3103550977 20.2416041896 
Si 13.5323311838 2.6664612544 10.9394142946 
Si 16.2597170387 10.8663749194 5.4028084259 
Si 12.9714013186 14.2845708106 0.2276318709 
Si 1.3348808042 12.1952316815 6.7812780239 
Si 4.1712988881 4.0489772770 1.4244497048 
Si 6.7230622515 14.8982151163 4.1404561027 
Si 5.4506014698 13.5753693642 13.5973328799 
Si 9.5891737477 9.6346065581 19.3851079995 
Si 16.1890347281 8.3429072863 24.2712529029 
Si 14.9136091664 15.1366355584 1.2895611098 
Si 2.0816502490 6.9292122034 23.2392387417 
Si 1.3778978076 4.0696492872 4.0696187300 
Si 1.3266967081 9.4858788568 9.5060078050 
Si 8.1074679141 13.5416001938 5.4803560934 
Si 14.9054641663 4.0498569370 12.2487386812 
Si 14.9575758768 6.7502339717 22.8574813194 
Si 13.5673546841 13.5552023440 5.4652141673 
Si 4.0282401068 1.3210782871 4.2122854320 
Si 2.6851784646 10.8384212791 8.1439638416 
Si 3.8238331850 12.4462280038 22.4764824521 
Si 5.3939611393 13.5451188339 8.1661369896 
Si 9.2233655043 0.5775489233 24.5950683886 
H 9.6672028484 8.8032301105 21.9516498751 
Si 14.9249958765 14.9026459963 6.8325971913 
Si 4.0260572468 12.2010960816 9.5092754268 
Si 3.3652696808 10.2425167837 23.0948798784 
Si 0.0334199127 16.2381653685 5.4988239916 
Si 8.1199297643 5.4246352096 13.5956407186 
Si 6.7597799118 14.9076958963 9.5190491170 
Si 13.5930765943 2.7613342152 16.4240007912 
Si 13.6010749844 13.5555607240 10.8819099859 
Si 2.6719021144 2.7163249448 5.5010996568 
Si 1.2806530227 12.2620532621 25.1189381842 
Si 8.1299318244 13.5655790741 10.8716694926 
H 5.1810345474 13.0222912791 22.7522755674 
Si 10.7667289885 5.0929219366 23.3527594242 
Si 11.5367410055 7.1353132853 24.3602664219 
Si 13.4271466528 16.2040378182 13.7474100813 
Si 1.3474322493 1.3322678882 6.8623267147 
Si 0.0078547611 0.0407261407 16.2784749201 
Si 6.7406880317 12.2060971116 12.1850492312 
Si 4.0767843073 14.9288403165 12.2541652674 
Si 10.5215319062 10.5550567265 23.7110308148 
Si 9.2950415050 11.8806554887 22.1998724314 
Si 14.9513042267 12.1656001713 14.9317187587 
Si 4.0644039072 4.0596635171 6.8303507014 
Si 1.3190729881 1.3274102101 12.2713494571 
Si 4.3529323898 6.9819755139 20.4345981024 
Si 12.1870866815 6.7155199814 17.7430405176 
Si 10.9029622597 13.4800565733 13.4008087686 
H 14.6250318138 10.9991384206 23.6878073598 
H 14.0517541285 12.5715958450 28.6163438211 
H 2.8679196862 2.9468447370 19.8492853468 
Si 4.0346094969 1.4314462961 27.7365950009 
Si 2.6656956244 8.1276675143 10.8700356817 
Si 3.9689607963 6.8289309625 14.9109751953 
Si 10.4060195152 0.5596592451 17.0553228287 
Si 16.2574201487 2.6799982445 8.2035687643 
Si 16.2872634290 8.0970911841 13.6428461836 
Si 2.7090596048 1.0409896535 22.4324570833 
H 3.3942984610 2.5861841337 25.0196258215 
Si 2.6939261946 16.2616718387 8.2170477043 
Si 9.4903423168 4.0390892469 12.2808897458 
Si 12.2650832022 12.1086992007 12.1401194314 
Si 14.1785880697 9.7151768989 24.3537020031 
Si 12.7218873864 14.7985528953 27.1044852330 
Si 1.3376615072 4.0491075970 9.5289395080 
Si 6.0458217853 4.8514226844 0.2297243159 
Si 6.6977475913 6.8299083625 17.5261812956 
Si 5.9406698343 5.6371219716 21.6182941007 
Si 9.3064445051 0.9140123604 20.6939072327 
Si 9.5026901369 9.4580881165 1.3250702392 
Si 8.4118302769 13.5823740642 16.1358957438 
Si 4.0505899871 1.3345419722 9.5675966410 
Si 5.4283981997 8.0865678440 2.7028717253 
Si 6.7691955319 6.7505760617 12.2037797062 
H 6.1012403658 11.2401163928 22.3020731383 
Si 10.8297387090 10.8400828591 29.1242839604 
Si 16.2887132390 10.8348537691 10.9005821105 
Si 12.7739339368 13.8453435366 23.8340917859 
Si 2.7164063948 11.0742027413 26.5663195920 
Si 2.6230484040 16.2510181786 18.8848701116 
Si 9.4254755362 1.4228484340 15.0685212466 
Si 8.2303596753 5.4462683298 2.8268167048 
Si 12.1377279810 12.2868955124 1.3189113556 
Si 16.1859070480 10.5646515366 21.6577097887 
Si 16.2366015285 16.2456424786 10.9423318141 
Si 5.7725407428 1.7138220457 19.9236820932 
Si 2.6674223644 2.6892020946 10.9027118997 
Si 5.6070995013 5.0996659966 27.1219028242 
Si 8.1137395642 8.0794165339 29.1587398653 
Si 7.0023868840 12.7004660362 19.4602049506 
Si 12.2232179018 9.5016149969 4.0133981299 
Si 12.9353189683 8.6679579493 20.7482022699 
H 4.8475293743 3.2984481002 18.4300288266 
Si 6.8557117227 6.7110076514 1.4097687469 
Si 4.8498588444 4.4684447809 23.3164946572 
Si 10.8488794592 5.4282352996 16.3114720653 
Si 9.4436063064 12.1006030707 4.1911625911 
Si 16.2282610484 8.0922693440 19.0671275528 
Si 13.5625165540 10.8056457988 13.6022634878 
Si 5.4239510296 5.4039306194 5.4571618136 
Si 0.7468802168 1.1692310507 25.5253486460 
Si 2.7165367148 10.8820621895 13.6020009110 
Si 10.8393172291 2.7024947347 13.6838081569 
Si 9.4967442868 9.4632520466 6.8377028504 
Si 9.4308675262 12.2648877222 27.9009096973 
Si 16.2103583383 2.6633009944 13.6183681952 
Si 4.0198833368 4.0588164371 12.2428161167 
Si 8.1232855043 8.1367410444 5.4739667257 
Si 8.6596500492 0.2396242732 18.5488302194 
Si 10.3911793250 0.7818483312 28.1427720611 
Si 10.7724141985 5.2119529677 27.4203650658 
Si 10.8766376195 10.7806895186 5.4737624994 
Si 10.8180750689 13.6603868749 19.0620510689 
Si 2.6382143941 4.5409515715 22.5311567669 
Si 1.5258207829 9.3796028958 27.7539542417 
Si 6.7701240619 6.7613274618 6.8191182514 
Si 6.8587253727 14.9015056963 14.9543295346 
Si 11.0697881512 7.8300492116 19.5004667193 
Si 12.2119940917 12.1849852714 6.8118536279 
Si 14.9531124168 11.8293256982 27.6388580987 
Si 1.2376800023 1.4025853028 17.7242225171 
Si 5.4016337294 8.1241651643 8.1572969056 
H 8.0337719535 13.9269727274 24.3391727561 
Si 16.1057439573 1.9799517781 27.5223615464 
Si 12.5593294749 5.8007876030 25.9794313760 
Si 12.2238695018 9.4538690065 9.5031778111 
Si 2.7359543950 13.5861044743 16.3698516299 
Si 8.1147495442 5.4010309994 8.1869972538 
Si 7.0039181441 8.0246984234 24.7814103570 
Si 8.0745946939 8.1492680545 16.1664129974 
Si 9.4821321567 12.1953457115 9.5208871543 
H 14.1133303291 1.3688145035 24.4362386288 
Si 1.3219742371 6.8981797531 17.5888204386 
Si 2.8937393365 5.5813287211 19.1649519805 
Si 8.0034888432 2.4496250624 23.6439570422 
Si 5.3962091593 5.3937819493 10.8795176199 
Si 13.5976215044 5.4600496699 2.8897709398 
Si 16.2143330983 13.6067601944 2.6079998272 
Si 2.6297761740 13.6118426745 0.0880793292 
Si 2.7262129749 0.0006980591 13.6162092308 
Si 8.1198483143 8.1037537941 10.8440697584 
Si 5.1818490474 14.1613532495 19.6253073773 
Si 6.8737121729 15.0366149575 27.7952954925 
Si 13.4992787735 8.1582764246 29.1493454526 
Si 4.0569105071 14.9699725669 1.3677389614 
Si 7.4722719383 9.0509847228 20.3951532392 
Si 9.5180190271 3.9974520066 1.4990681827 
Si 9.0712494830 6.8098390823 27.4042311831 
Si 8.9518763619 14.0011573881 23.1300651632 
Si 14.9879567271 6.8047403122 4.1650507918 
H 0.1945889388 5.2707109982 20.8879222772 
Si 3.8896936556 6.7308325816 27.2245119839 
Si 4.0154687467 9.5142723270 12.1941227168 
Si 1.3151585010 14.8932466662 4.0427775509 
Si 11.2256508727 15.8267777047 0.6799016542 
Si 13.5625980040 8.1647598447 5.4349011401 
Si 2.6810733845 13.5452002839 5.4145952046 
Si 10.7670222085 2.6262412440 2.9116494183 
H 11.8676723585 11.1737183522 20.8698336565 
Si 13.5660026141 5.4109516095 8.1944077532 
Si 14.9473457567 9.4628610865 12.2665939004 
Si 13.9211083273 13.9711186278 21.7751399473 
Si 16.2873611690 5.3808476892 16.3449943640 
Si 1.8302792567 5.7241105723 26.5068021949 
Si 4.0120478467 14.8906891362 6.8291836936 
Si 8.0596404737 15.4210915410 21.5379164394 
Si 12.2650343322 1.3907441017 1.6318240711 
Si 14.9258266665 6.7759558820 9.5250883823 
Si 0.0032100260 13.5432291939 8.1710967726 
Si 5.3032584185 5.4809008701 16.2375421220 
Si 7.9215664324 5.2998212285 18.7690445888 
Si 9.4330015163 1.2859260958 4.2395058886 
Si 13.5802563642 8.1252240143 10.8917128513 
Si 13.7141438754 13.5321519938 16.3494581688 
Si 12.1866794315 4.0553303771 4.1470496967 
Si 2.1155334493 2.5547444334 24.1968561565 
Si 1.3190974231 14.9090805464 9.5630744858 
Si 6.6607530009 4.1304598578 14.9033896447 
Si 13.6814335551 0.1159605290 18.9872458697 
Si 13.5428708139 8.0984595441 16.3913537483 
Si 9.4877847868 4.0556724671 6.8500731330 
Si 2.7097437848 13.5678596741 10.8977229414 
Si 7.3643181073 11.8262468882 17.3237637950 
H 6.7681203919 12.1682065713 23.9215881948 
Si 16.1763773979 5.3851808293 0.1593546216 
Si 14.9220799665 12.2089804417 20.5072735123 
Si 7.8127655215 7.1036943950 21.7804790079 
Si 5.5133505504 10.8989712097 16.2116928995 
Si 5.3859790393 13.7868298561 26.4198017644 
Si 10.8665541094 16.2288637784 5.5007787296 
Si 10.8410113891 15.3383057603 23.5205167936 
Si 16.2830768989 8.1188220443 2.6953416075 
Si 2.7517068252 5.4307765397 2.7076797973 
Si 6.7419423617 1.3035600209 17.7730034426 
Si 8.0619047837 10.7656538485 13.4606470928 
Si 12.2131018117 1.3265240341 6.8397159389 
Si 14.6138568737 6.9825945339 20.4916356080 
Si 15.4062513509 4.6160973422 23.7423357987 
Si 0.0156473108 2.6888600046 19.3180342270 
Si 2.8817498964 7.9706644929 29.0671005788 
Si 1.2729511106 14.8541343759 27.8056235115 
Si 9.4857322468 1.3426543923 9.5374294897 
Si 8.6239749489 14.3849660816 19.5297294395 
Si 12.2446392520 1.7418082659 18.0590954015 
Si 1.3935492397 6.7699774519 1.3261088761 
Si 1.3883592457 14.9358775966 14.9814332905 
Si 10.8496939592 2.6885667846 8.1849841653 
Si 10.5549426965 11.6319723464 20.2629896073 
Si 14.8728678760 1.2655016936 20.6773065469 
Si 13.5288777037 5.2998375185 19.1134285867 
Si 1.1496537285 3.9575089262 28.0088870928 
Si 4.0720439172 6.7718833819 4.1015072178 
Si 1.3085610510 4.8153566240 24.4188502128 
Si 12.2081822317 4.0324429269 9.5484285381 
H 13.5166276236 7.0530162045 23.2970931527 
Si 14.9876472171 14.9961343071 17.6484545365 
Si 0.0273303849 5.3958019094 5.4765049677 
H 6.4124282386 7.9285711325 23.3795130777 
Si 6.6806268011 9.4308349463 14.8036104789 
Si 5.4931509502 16.2720485688 16.2999186882 
H 11.6325424964 11.7977393879 16.8697685906 
Si 10.8606082593 16.2852597589 10.8726906244 
Si 2.6936329746 8.1306485844 5.4381395867 
Si 2.4572162025 13.7925802261 23.8003069105 
Si 5.8287249533 15.9367514958 21.2094620978 
Si 12.1659096813 1.3092191670 12.3194301779 
Si 9.3931235959 14.8047756754 1.6216448456 
Si 12.3939045234 14.9671869769 20.2699624788 
Si 1.3626764315 6.7727141719 6.8212772158 
Si 4.0758557773 12.4194798236 27.9065405098 
Si 10.8448558292 10.8006121888 10.8248724803 
Si 10.7992438288 13.4406347729 2.8754780120 
Si 9.5064368369 14.9315607466 12.2087103141 
Si 14.3359494711 14.6242173137 25.4267948384 
Si 3.4656812417 1.6283093189 20.2800570962 
Si 1.3457152833 12.2197481318 12.2455877602 
H 4.6941590229 5.2669480082 24.5908963358 
H 10.2127386634 2.1697139898 28.7527670314 
Si 16.2644085587 8.1333527244 8.1446056959 
Si 12.2213771318 14.9002839463 4.1000192829 
Si 2.7054758047 5.4147471795 8.1851008661 
Si 7.4768005584 5.9959743848 25.8441459983 
Si 4.2274993887 9.6743867385 17.7346380616 
H 9.9953486114 3.2276517595 18.5543735063 
Si 9.4882246168 12.1545392612 14.6401710383 
Si 9.4873612468 14.8859650361 6.8371776969 
Si 10.8566497893 13.5374299538 8.1779529434 
Si 4.0534570271 6.7767540920 9.5357956788 
Si 1.4272793140 15.3408307103 22.3193156784 
Si 5.3555004490 10.9213862499 0.0660546830 
Si 8.7738266602 4.4959423011 24.5227430810 
H 9.9374865309 14.3435406112 25.5824445020 
Si 12.2140140517 14.8999744363 9.5359415547 
Si 2.8197990258 8.2741471957 16.3800045976 
Si 2.6984711047 10.9935346605 18.9669691094 
Si 1.0531403646 10.4091309052 23.6825850000 
Si 8.1391030944 10.8056783788 2.7155045845 
Si 15.4467320013 15.8177204647 22.1997265554 
Si 10.8242489790 13.4971447834 26.4732798962 
Si 4.0664727372 1.3505126884 15.0071366370 
Si 6.7677945919 12.2171254417 1.4109882700 
Si 4.1473362979 14.9810008970 17.6703942829 
Si 11.3621610739 0.3000324807 21.5865806641 
Si 14.8590050859 14.9225197965 12.3369352947 
Si 3.9320313660 4.1803072582 17.6142028579 
Si 6.7719974119 9.4557586465 4.0662344074 
Si 7.9276100225 10.9791831704 26.6153339191 
Si 4.0747806373 12.2557979021 14.9609231286 
Si 10.3847284850 4.4454921707 21.1295804147 
Si 14.8950059862 9.4794443067 1.3393573320 
Si 2.9325421168 8.4305800671 21.6207739923 
Si 5.4091108395 10.8289404990 5.4161706651 
Si 10.4633440257 8.2453627654 26.2265744501 
Si 13.8598905068 2.4867173927 27.2462183288 
Si 16.2615903887 5.4002816594 10.8787590649 
Si 13.5646668341 10.9196757999 2.6532709768 
Si 15.0182561274 4.0429499770 17.8237391061 
Si 6.7439623217 12.1802123014 6.8102781674 
H 8.5348686481 7.1793125757 23.1052370725 
Si 10.7849574986 10.8607711593 16.0664004300 
Si 10.5350851864 14.5459764430 16.8193246790 
Si 14.9115566264 12.2523118421 4.0418147695 
Si 1.3142739540 6.7618324518 12.2326339738 
Si 1.7011158456 14.5207269428 20.1654569315 
Si 2.5872592737 16.2831420589 26.4588965253 
Si 6.7663610719 9.4797701067 9.5045490453 
Si 5.2849158783 8.4666949974 26.3054641765 
Si 14.9193106664 9.5138976570 6.7892720273 
H 3.2866215601 7.2949552867 24.1148738595 
Si 5.3915990893 0.0448335013 29.1345536289 
Si 8.1272928443 10.8418910492 8.1606228778 
Si 15.1683684787 0.2641504974 24.4072384853 
H 13.8586850467 6.3515525081 26.8958242407 
Si 13.5747829242 10.8448721192 8.1751521247 
Si 5.3738755691 2.6513115542 2.8653746421 
Si 5.3745271692 2.6944474746 13.5821034283 
Si 5.3914524793 10.8430965092 10.8379721427 
Si 6.2372618670 11.9112643989 25.3084894240 
H 10.3199757344 8.3841046967 22.0051571821 
Si 14.9456678867 12.1915175615 9.5308942461 
Si 1.3922590717 9.4832887467 14.9491363500 
Si 1.2727768076 12.2053966416 17.5880618835 
Si 8.0724444138 0.0034767584 2.8297517294 
Si 6.7989084922 1.3309011572 12.2813565489 
Si 9.4952456068 9.4439483964 12.1780180093 
Si 12.3016542525 9.0051446624 23.0789502221 
Si 2.6351518741 2.7034721347 16.3370587110 
Si 0.4171657268 7.6728018402 26.5057810631 
Si 7.6788943002 3.1160163885 0.3139805276 
Si 12.1397316510 3.4731257718 19.8652441783 
Si 8.4911788677 0.2331604011 26.8567878302 
Si 11.4253336945 4.7878591038 0.3767480414 
Si 15.0373805875 6.8874609330 27.9514703096 
Si 6.6895211412 1.3284234481 1.4649886378 
Si 10.8511437692 8.0954784740 2.7014042129 
Si 11.8591689785 12.0103075998 25.0043380195 
Si 12.1338020910 14.6156324837 15.0272966965 
Si 13.6099693245 10.5441750064 19.3371148043 
Si 6.8025737422 4.0553629571 4.1072255560 
Si 4.4401001806 10.3169132144 25.1917011197 
Si 11.0332985509 1.9039752174 25.2008329557 
Si 12.2829207523 6.7239582015 1.4171529886 
Si 13.5698307641 5.4203672296 13.6126206819 
H 13.0672842595 12.7064770462 17.4266355314 
Si 0.0085437141 13.5757440342 13.6248159133 
Si 5.6604818318 8.3035506459 19.0104401495 
Si 5.3991250694 16.2499430386 5.5248482652 
Si 9.5423237073 6.8061738322 4.1720528385 
Si 14.8263110556 1.3308506582 15.0054444757 
Si 16.2733354788 10.7961161487 16.2696931865 
Si 8.1026460741 2.7054595147 5.5253150684 
Si 5.5587670708 2.8049751256 26.4587506493 
Si 10.8591421593 5.4141118695 5.5130614866 
Si 12.0284709500 9.3676623257 27.6939992166 
Si 16.2224129384 13.5086943935 19.0111987046 
Si 16.1042126973 13.4693540432 26.4577878679 
Si 6.7546974318 1.3316733032 6.8629102186 
Si 6.7984360822 3.8612024453 20.3165260895 
Si 9.5082776070 6.7770147320 14.9287720641 
Si 12.2123198917 9.4130299761 14.9465689328 
Si 13.7883122461 3.9496082761 25.3153164196 
Si 12.2378951919 6.7778618120 6.8177178421 
Si 5.3947430593 2.6892835446 8.2018182526 
Si 9.3480165855 4.0709850672 17.4783048011 
Si 8.6174752388 2.9631510271 21.4609814510 
Si 9.4929975868 6.7371693916 9.5293479608 
Si 10.8508668392 8.1082824142 13.5546787453 
Si 14.9092760264 6.7503805817 15.0148972388 
Si 3.3540295807 12.8694096277 20.2661113531 
Si 7.7629018310 2.4234796122 27.2601348966 
Si 5.3367343688 8.0887507040 13.4822659121 
Si 8.1364804044 16.2625189187 8.1859177716 
Si 10.8529519593 8.0924485340 8.1757648038 
Si 13.6819222551 0.0474508156 2.8859023090 
Si 4.0554281171 9.4382468963 1.3412624722 
Si 6.7664751019 4.0367760669 9.5458611209 
Si 10.8419887892 5.3823463692 10.8984814965 
Si 13.1303265601 3.1193884185 0.2502619024 
H 15.3225859101 3.5147793022 22.7089504033 
Si 12.2519208821 3.2234489395 23.7054583526 
Si 0.0650471109 10.6586611275 29.0991349426 
Si 5.7046440222 2.3879837018 24.1025619273 
Si 5.4395079798 16.2771962089 10.9024201477 
Si 14.8557633759 4.0593540071 1.5253141879 
Si 12.2159036917 6.7497941417 12.2242898681 
Si 14.9328476566 9.4869702868 17.7070966778 
H 1.3310510252 5.8527689935 18.8690571561 

