&CONTROL
/
&SYSTEM
   ntyp             = 2
   nat              = 407
   ibrav            = 0
/
&ELECTRONS
/
&IONS
/
&CELL
/

ATOMIC_SPECIES
Si 28.085 None
H 1.008 None

K_POINTS gamma

CELL_PARAMETERS angstrom
16.29000014900000 0.00000000000000 0.00000000000000
0.00000000000000 16.29000014900000 0.00000000000000
0.00000000000000 0.00000000000000 29.17519467510000

ATOMIC_POSITIONS angstrom
Si 2.6705011744 10.8088875089 2.6931097051 
Si 8.1355681644 2.6935352346 10.9130107434 
Si 4.7762117537 0.3136965329 23.2772248452 
Si 8.9493514118 10.0365948918 17.2348086264 
Si 15.0068205472 1.3844838547 4.2243639626 
Si 12.2399640219 4.0756765873 14.9970128444 
Si 0.1020379545 0.1542887816 29.0915202168 
Si 1.2848916807 12.1487237311 1.3208923513 
Si 3.9955297865 15.1038112081 24.9883791880 
Si 7.9015948923 2.7398151251 16.2706267928 
Si 8.2020965250 16.2787111789 13.6418542270 
Si 13.5641292641 2.7160643048 5.5074598492 
H 15.1637909887 9.4521422665 21.8613234724 
Si 1.3097616240 4.0273930268 14.9643658016 
Si 0.0160072872 2.6747854445 2.7518948049 
Si 1.3246018141 9.4799167167 4.0748410899 
Si 9.7022426387 3.4519487716 26.3580670525 
Si 14.9321471866 4.0650066372 6.8459886057 
Si 12.2875471124 0.7973319763 26.8058187651 
Si 13.3649840122 10.6955579778 26.2926854412 
Si 1.2873335518 4.2938322693 20.5040058905 
Si 4.0325895369 12.1764656014 4.0571609219 
Si 2.7269134449 16.2848525089 2.7867854202 
Si 6.6612417009 9.4950175468 27.9393626038 
Si 12.8745572677 2.1483415096 21.6541212398 
H 12.4318276437 11.0497351611 18.5319961320 
Si 13.5746688941 16.2654185388 8.1956331114 
Si 2.7832279755 2.7752947454 0.0451287746 
Si 4.0537502471 9.4859765968 6.7933273793 
Si 1.3915944397 9.4859928868 20.2223485611 
Si 7.2292251361 11.1868480923 21.2948287174 
Si 5.3858812993 13.5738706841 2.7365253123 
Si 8.8958061814 9.5250400171 25.0995075046 
Si 14.9062786663 1.3304336342 9.5795876460 
Si 1.4480816442 1.3681710485 1.3988543065 
Si 2.6437041242 5.4033767594 13.6000169978 
Si 8.0888973140 13.6206718546 0.0687352999 
Si 9.4069538060 6.3099152677 20.2379572903 
Si 13.5358986938 2.6704685944 10.9462412901 
Si 16.2599288087 10.8683134294 5.4051716167 
Si 12.9718411486 14.2847011306 0.2284849536 
Si 1.3342568972 12.1981638816 6.7846039961 
Si 4.1710708282 4.0487166370 1.4244730450 
Si 6.7228830615 14.8988178463 4.1416522857 
Si 5.4494285898 13.5753693642 13.5981206101 
Si 9.5875447477 9.6360889481 19.3809359467 
Si 16.1948665481 8.3380854463 24.2648635353 
Si 14.9139512564 15.1372708684 1.2902700670 
Si 2.0940632292 6.9326493934 23.2232215598 
Si 1.3780965456 4.0699262172 4.0704648107 
Si 1.3266005971 9.4864652968 9.5069122361 
Si 8.1076471042 13.5423495339 5.4816106267 
Si 14.9094063464 4.0545647471 12.2564992830 
Si 14.9556047868 6.7517652318 22.8571020418 
Si 13.5679411241 13.5563915140 5.4672564309 
Si 4.0282726868 1.3214138611 4.2130439871 
Si 2.6852762046 10.8400339891 8.1456268277 
Si 3.8250386450 12.4485574739 22.4727772024 
Si 5.3939611393 13.5460147839 8.1673623477 
Si 9.2260696444 0.5758270703 24.5957977685 
H 9.6638145284 8.8089967706 21.9529044085 
Si 14.9254031265 14.9045193463 6.8352521341 
Si 4.0252101668 12.2036373216 9.5114343912 
Si 3.3707757008 10.2437222437 23.0829180486 
Si 0.0337628172 16.2391427685 5.5002244009 
Si 8.1133648942 5.4233808796 13.6032262692 
Si 6.7595844318 14.9086407163 9.5205662272 
Si 13.5877660543 2.7597866652 16.4202955414 
Si 13.6014007844 13.5584766340 10.8842148263 
Si 2.6722767844 2.7168625148 5.5022958398 
Si 1.2787650117 12.2564657921 25.1127530429 
Si 8.1297200544 13.5663935741 10.8729532011 
H 5.1837223974 13.0207763091 22.7471407331 
Si 10.7687489485 5.0923843666 23.3521467451 
Si 11.5340368655 7.1354110253 24.3604414731 
Si 13.4279611528 16.2080940282 13.7502692504 
Si 1.3477368723 1.3332224822 6.8642231024 
Si 0.0052001916 0.0332856831 16.2705392672 
Si 6.7401178816 12.2071070916 12.1858077863 
Si 4.0749761173 14.9326684666 12.2589499994 
Si 10.5193001762 10.5539490065 23.7106515373 
Si 9.2911807750 11.8780490886 22.1984428469 
Si 14.9488933067 12.1652255013 14.9322730874 
Si 4.0647948672 4.0601196371 6.8319261619 
Si 1.3190094571 1.3356122252 12.2810356217 
Si 4.4124071803 6.9662556637 20.4192519500 
Si 12.1885039115 6.7129787414 17.7423986633 
Si 10.9015613197 13.4814575133 13.4033470105 
H 14.6242824737 10.9912540605 23.6774209905 
H 14.0497341685 12.5696084650 28.6132804256 
H 2.8250606958 2.9404753469 19.8168425303 
Si 4.0346094969 1.4306594891 27.7357489202 
Si 2.6648974144 8.1276675143 10.8712318646 
Si 3.9562871762 6.8356750225 14.9195527026 
Si 10.4061335452 0.5612475201 17.0561980846 
Si 16.2578762687 2.6814317645 8.2055818528 
Si 16.2836307589 8.0990296941 13.6428170084 
Si 2.7087012248 1.0392759455 22.4282266801 
H 3.3949174810 2.5934331837 25.0246731302 
Si 2.6938284546 16.2624048887 8.2197318222 
Si 9.4885015468 4.0411906570 12.2855869521 
Si 12.2638451622 12.1115499508 12.1412864392 
Si 14.1817483297 9.7086446088 24.3494715999 
Si 12.7237118664 14.7976243653 27.1048061602 
Si 1.3379058572 4.0506388571 9.5308650709 
Si 6.0462616153 4.8511620444 0.2306488778 
Si 6.7044753613 6.8283933924 17.5158241015 
Si 5.9610974945 5.6288955215 21.6304601569 
Si 9.3051087251 0.9096645593 20.6945199117 
Si 9.5028041669 9.4583976265 1.3251927750 
Si 8.4036526969 13.5748317942 16.1398927454 
Si 4.0504759570 1.3350257852 9.5703974597 
Si 5.4282190096 8.0866655840 2.7033589510 
Si 6.7644062719 6.7510158917 12.2101690739 
H 6.0915152357 11.2334537827 22.2939040838 
Si 10.8300319290 10.8404738191 29.1239922084 
Si 16.2882571190 10.8350492491 10.9016907679 
Si 12.7732986268 13.8441869466 23.8338000340 
Si 2.7150706148 11.0733393713 26.5626435175 
Si 2.6219895540 16.2424170585 18.8836155783 
Si 9.4256221462 1.4250671320 15.0703301086 
Si 8.2307017653 5.4464963898 2.8276306927 
Si 12.1376791110 12.2872050224 1.3197282611 
Si 16.1917714481 10.5595201866 21.6474984706 
Si 16.2386866485 16.2531358786 10.9509093213 
Si 5.7634672127 1.7187416257 19.9215231288 
Si 2.6662006144 2.6897722446 10.9049583897 
Si 5.6081094813 5.0989329466 27.1228947809 
Si 8.1134626342 8.0798237839 29.1587982157 
Si 6.9995850040 12.6973709361 19.4567331025 
Si 12.2232830618 9.5019896669 4.0143025609 
Si 12.9252028782 8.6725028593 20.7469185614 
H 4.7972910139 3.4070861112 18.5436953851 
Si 6.8559072027 6.7111705514 1.4103230756 
Si 4.8513901044 4.4655451608 23.3184202200 
Si 10.8478857692 5.4278443396 16.3117346421 
Si 9.4436225964 12.1010429007 4.1921837229 
Si 16.2367807185 8.0445885136 19.0681778598 
Si 13.5600241840 10.8071770588 13.6023510134 
Si 5.4250424596 5.4044193194 5.4591749020 
Si 0.7468492658 1.1748282947 25.5217600971 
Si 2.7159991448 10.8731352694 13.6111619222 
Si 10.8402783391 2.7047753347 13.6852960918 
Si 9.4967442868 9.4635289766 6.8389865590 
Si 9.4304765663 12.2647085322 27.9001511422 
Si 16.2149684083 2.6724885544 13.6299507475 
Si 4.0215449168 4.0576761371 12.2429619927 
Si 8.1234158243 8.1370016844 5.4750170327 
Si 8.6588844192 0.2418608902 18.5487426938 
Si 10.3916028650 0.7810403471 28.1433555650 
Si 10.7743689985 5.2124253777 27.4207443433 
Si 10.8768493895 10.7811782186 5.4750462079 
Si 10.8142469189 13.6596375349 19.0607090099 
Si 2.6482327442 4.5046900312 22.4909825239 
Si 1.5251284579 9.3775829358 27.7509491966 
Si 6.7718019319 6.7613600418 6.8218315445 
Si 6.8588556927 14.8998115363 14.9547963377 
Si 11.0653246912 7.8299677616 19.4959737393 
Si 12.2121895717 12.1857346114 6.8133707381 
Si 14.9527866168 11.8275663782 27.6371951126 
Si 1.2430442994 1.3862268847 17.7098391461 
Si 5.4019432394 8.1247190243 8.1585806141 
H 8.0385449235 13.9240242373 24.3410983190 
Si 16.1064118473 1.9804241881 27.5211945386 
Si 12.5598996249 5.8007224430 25.9773307619 
Si 12.2230224218 9.4550093065 9.5051033740 
Si 2.7350258650 13.5849315942 16.3690347244 
Si 8.1175677142 5.4021224294 8.1910234306 
Si 6.9981351940 8.0224015334 24.7778801585 
Si 8.0760445039 8.1483069445 16.1594109507 
Si 9.4819203867 12.1963068215 9.5219666365 
H 14.1006892890 1.3564634254 24.4425404709 
Si 1.3657161455 6.8163550823 17.6729617000 
Si 2.6942519946 5.7306265724 19.2683488704 
Si 8.0084735832 2.4480612224 23.6444530205 
Si 5.3965023794 5.3939122693 10.8807138029 
Si 13.5982568144 5.4604080499 2.8901589699 
Si 16.2146263183 13.6069882544 2.6085308157 
Si 2.6296458541 13.6117938045 0.0871506828 
Si 2.7259360449 0.0081000885 13.6232696279 
Si 8.1181541542 8.1026949441 10.8482126360 
Si 5.1808227774 14.1586491095 19.6226524346 
Si 6.8733537929 15.0360936775 27.7946244631 
Si 13.4997186035 8.1578040146 29.1486452479 
Si 4.0566824471 14.9698259569 1.3677447965 
Si 7.4700564983 9.0538680528 20.3883845940 
Si 9.5185403070 3.9976800666 1.4997683874 
Si 9.0723409130 6.8100182723 27.4051064390 
Si 8.9508338019 13.9992351680 23.1278770236 
Si 14.9879567271 6.8053430422 4.1661010988 
H 0.0580011971 5.1181877268 20.8578718267 
Si 3.8873804756 6.7278352215 27.2248912614 
Si 4.0149800467 9.5147610270 12.1942394176 
Si 1.3151894520 14.8939960062 4.0435361060 
Si 11.2259440927 15.8266636747 0.6809402912 
Si 13.5627609040 8.1655091847 5.4363307246 
Si 2.6808779045 13.5459984939 5.4158789131 
Si 10.7674131685 2.6267136540 2.9127989210 
H 11.8650822485 11.1729853022 20.8665952099 
Si 13.5661003541 5.4116357895 8.1968584695 
Si 14.9438596967 9.4642131566 12.2660979221 
Si 13.9201960873 13.9656614777 21.7744105674 
Si 0.0234359345 5.3813038092 16.3762701727 
Si 1.8294973367 5.7169918423 26.4919520208 
Si 4.0116243067 14.8915362162 6.8308466797 
Si 8.0549815337 15.4180453110 21.5359325262 
Si 12.2650994922 1.3909737907 1.6326905743 
Si 14.9262827865 6.7770147320 9.5265763173 
Si 0.0039771384 13.5475297539 8.1759690302 
Si 5.2798333983 5.4804610401 16.2578480575 
Si 7.9208496724 5.2974754685 18.7675566538 
Si 9.4334250563 1.2866428558 4.2411688747 
Si 13.5789368742 8.1248819243 10.8926464575 
Si 13.7103645954 13.5309465337 16.3492247672 
Si 12.1871681315 4.0560145571 4.1481875293 
Si 2.1208439894 2.5593545034 24.1930342060 
Si 1.3183676311 14.9139838364 9.5702807589 
Si 6.6483888908 4.1315024178 14.9141844667 
Si 13.6748849751 0.1105025644 18.9845617518 
Si 13.5413069738 8.1003328941 16.3921123034 
Si 9.4891042768 4.0563566471 6.8528156013 
Si 2.7083754248 13.5684949841 10.9031495276 
Si 7.3469855472 11.8134103680 17.3219841081 
H 6.7676805619 12.1654209813 23.9191666536 
Si 16.1776643080 5.3849527692 0.1570389864 
Si 14.9225035065 12.2043215016 20.5054938254 
Si 7.8146062915 7.1070175550 21.7759276776 
Si 5.4931183702 10.8812965595 16.2138518639 
Si 5.3850505093 13.7865529261 26.4184013550 
Si 10.8674826394 16.2303787484 5.5032294460 
Si 10.8399199591 15.3364812803 23.5178035004 
Si 16.2831257689 8.1195550943 2.6963977496 
Si 2.7520489152 5.4310208897 2.7083245691 
Si 6.7379350216 1.3031397389 17.7721865371 
Si 8.0602269137 10.7664683485 13.4619308014 
Si 12.2142746917 1.3282393712 6.8428960351 
Si 14.5883304434 6.9833601639 20.4936486964 
Si 15.4049644409 4.6125624122 23.7395933304 
Si 0.0004349658 2.6408370842 19.2987785985 
Si 2.8803652463 7.9698988629 29.0666046005 
Si 1.2725161676 14.8531895558 27.8036104230 
Si 9.4864815868 1.3439575923 9.5394425781 
Si 8.6198535788 14.3842981916 19.5259366642 
Si 12.2442482920 1.7425413159 18.0593579783 
Si 1.3929921217 6.7698960019 1.3267565654 
Si 1.3886524657 14.9329453966 14.9778155663 
Si 10.8517790792 2.6907985146 8.1891562182 
Si 10.5519616265 11.6321678264 20.2609181685 
Si 14.8647554559 1.2534047395 20.6758769623 
Si 13.5275582137 5.2935007084 19.1086438548 
Si 1.1503102155 3.9578673062 28.0031104042 
Si 4.0725326173 6.7719811219 4.1028784520 
Si 1.3183334221 4.8303434242 24.3808349341 
Si 12.2098926817 4.0344954669 9.5545553290 
H 13.5168719736 7.0473961545 23.3036867467 
Si 14.9852525871 14.9937559671 17.6468207256 
Si 0.0274725966 5.3963068993 5.4774969243 
H 6.4025402086 7.9237004225 23.3744657690 
Si 6.6770918711 9.4303788262 14.8024434711 
Si 5.4946170502 16.2697516788 16.2986641548 
H 11.6254726363 11.7950678279 16.8777042436 
Si 10.8612924393 16.2864977990 10.8745870120 
Si 2.6938936146 8.1313816344 5.4391898937 
Si 2.4558315525 13.7908534861 23.7988481508 
Si 5.8245058433 15.9379895358 21.2048524170 
Si 12.1665449913 1.3111804830 12.3211223392 
Si 9.3929932759 14.8049059954 1.6222983700 
Si 12.3910374833 14.9627398068 20.2694956757 
Si 1.3628751695 6.7732843220 6.8222691724 
Si 4.0744222573 12.4184046836 27.9046732974 
Si 10.8439435892 10.8019153888 10.8267980431 
Si 10.7994555988 13.4412863729 2.8766741950 
Si 9.5065345769 14.9323915366 12.2099064971 
Si 14.3369268711 14.6219692937 25.4261821593 
Si 3.4535940616 1.6329910649 20.2692914494 
Si 1.3473540573 12.2137045417 12.2512477480 
H 4.7021899930 5.2636737181 24.5932887018 
H 10.2129667234 2.1692089998 28.7527670314 
Si 16.2645388788 8.1341183544 8.1454517765 
Si 12.2215889018 14.9011961863 4.1017989698 
Si 2.7057364447 5.4154965195 8.1863262243 
Si 7.4784132684 5.9961535748 25.8452254805 
Si 4.1942514984 9.6457000482 17.7176289231 
H 9.9924815714 3.2248172995 18.5525938195 
Si 9.4866444868 12.1548487712 14.6420674260 
Si 9.4874589868 14.8870727562 6.8386656318 
Si 10.8569755893 13.5385702538 8.1794117031 
Si 4.0535710571 6.7772427920 9.5372252633 
Si 1.4252072260 15.3378496403 22.3175068163 
Si 5.3545882090 10.9215817299 0.0661929734 
Si 8.7761724203 4.4958282711 24.5234141105 
H 9.9419011209 14.3459026612 25.5838157362 
Si 12.2144050117 14.9015545663 9.5373711393 
Si 2.7603568153 8.2377064653 16.3952923996 
Si 2.6922646146 10.9853245005 18.9606380922 
Si 1.0569815467 10.4028592551 23.6728988353 
Si 8.1391519644 10.8060530488 2.7160472432 
Si 15.4439301212 15.8140226346 22.2001058329 
Si 10.8259757190 13.4959556134 26.4735716482 
Si 4.0684601172 1.3571524924 15.0176980574 
Si 6.7673384719 12.2173372117 1.4112800219 
Si 4.1484277279 14.9787528770 17.6687604720 
Si 11.3607438439 0.2975075307 21.5842466486 
Si 14.8590050859 14.9261198865 12.3393860111 
Si 3.8866962956 4.2507777989 17.6853903330 
Si 6.7719485419 9.4559541265 4.0669346121 
Si 7.9268281025 10.9786944704 26.6141085609 
Si 4.0737706573 12.2539897121 14.9612440557 
Si 10.3869113450 4.4477890607 21.1284134069 
Si 14.8952177562 9.4794280167 1.3393310743 
Si 2.9785776572 8.4246993771 21.5928241558 
Si 5.4090945495 10.8294454890 5.4169292201 
Si 10.4628879057 8.2458351754 26.2268370268 
Si 13.8603140468 2.4864241727 27.2466267815 
Si 16.2621442487 5.4018617894 10.8807721533 
Si 13.5649600541 10.9198875699 2.6539274187 
Si 15.0146886173 4.0265622368 17.8195087029 
Si 6.7438971617 12.1807172914 6.8114160000 
H 8.5347057481 7.1804040057 23.1016193484 
Si 10.7807058086 10.8602172993 16.0689094968 
Si 10.5294488463 14.5466280430 16.8193538542 
Si 14.9115403364 12.2531426321 4.0429817773 
Si 1.3138650750 6.7626795318 12.2355223180 
Si 1.6991936255 14.5144064227 20.1642023981 
Si 2.5853696336 16.2841683289 26.4571168384 
Si 6.7668334819 9.4797049467 9.5062995570 
Si 5.2827655983 8.4673628874 26.3058726292 
Si 14.9191803464 9.5151194070 6.7908766630 
H 3.2814087600 7.3085085668 24.1244724985 
Si 5.3916316693 0.0445409329 29.1345244537 
Si 8.1272928443 10.8422494292 8.1619065863 
Si 15.1672444687 0.2629694724 24.4074427117 
H 13.8647286368 6.3529208681 26.8852336450 
Si 13.5749458242 10.8460938692 8.1774861403 
Si 5.3741199191 2.6515721942 2.8660660942 
Si 5.3747063592 2.6931442746 13.5838539399 
Si 5.3914850593 10.8444322892 10.8384097706 
Si 6.2368709070 11.9108734389 25.3067680875 
H 10.3143882643 8.3859291767 22.0007809029 
Si 14.9457004667 12.1937981615 9.5331699113 
Si 1.3846304647 9.4764958167 14.9543878850 
Si 1.2696149186 12.2040445716 17.5847942617 
Si 8.0727702138 0.0039123530 2.8310237679 
Si 6.8005537822 1.3306600652 12.2835738637 
Si 9.4945614268 9.4442904864 12.1798852218 
Si 12.3004650825 9.0038088824 23.0789502221 
Si 2.6594891343 2.7211793649 16.3712520392 
Si 0.4176446528 7.6687782101 26.5023383901 
Si 7.6794807402 3.1158534885 0.3149082988 
Si 12.1397805210 3.4747384818 19.8648065504 
Si 8.4918141777 0.2323589331 26.8569045310 
Si 11.4261644845 4.7878102338 0.3774161534 
Si 15.0372991375 6.8866301430 27.9491654693 
Si 6.6896025912 1.3282752092 1.4655604716 
Si 10.8513066692 8.0957879840 2.7019235314 
Si 11.8588594685 12.0085971498 25.0034044133 
Si 12.1316843910 14.6189230637 15.0290180330 
Si 13.6161758145 10.5372028864 19.3334679050 
Si 6.8030135722 4.0555747271 4.1085092645 
Si 4.4389435906 10.3173530444 25.1862745335 
Si 11.0340478909 1.9033724874 25.2024375914 
Si 12.2832302623 6.7242351315 1.4175439362 
Si 13.5825858342 5.4256288996 13.6272082792 
H 13.0635375595 12.7055322262 17.4265480058 
Si 0.0077448525 13.5740172941 13.6236780807 
Si 5.6714450019 8.3115327460 18.9892589582 
Si 5.3990273294 16.2507086686 5.5264237257 
Si 9.5426332173 6.8064507622 4.1730447952 
Si 14.8277119956 1.3346625182 15.0066406587 
Si 16.2689045988 10.7915386587 16.2706267928 
Si 8.1033302541 2.7063228848 5.5275615583 
Si 5.5607870309 2.8037370856 26.4594216788 
Si 10.8596308593 5.4147308895 5.5145785967 
Si 12.0294972200 9.3682650557 27.6930072600 
Si 16.2192200983 13.5055341335 19.0095648937 
Si 16.1052063873 13.4658842732 26.4548119980 
Si 6.7545834018 1.3326099782 6.8648066063 
Si 6.8090734523 3.8559244853 20.3225361796 
Si 9.5100369270 6.7758744320 14.9270507276 
Si 12.2103976717 9.4156037961 14.9477942910 
Si 13.7887032061 3.9472625161 25.3146745653 
Si 12.2381558319 6.7785948620 6.8196434049 
Si 5.3946778993 2.6900165946 8.2043564946 
Si 9.3462246855 4.0687533372 17.4765542895 
Si 8.6263207089 2.9589970771 21.4627903131 
Si 9.4962230069 6.7373811616 9.5354164012 
Si 10.8520071392 8.1087059542 13.5553789499 
Si 14.9268366465 6.7512765318 15.0353198750 
Si 3.3538341007 12.8634963576 20.2596052847 
Si 7.7644168010 2.4228117222 27.2613602548 
Si 5.3280029287 8.0878058840 13.4887136301 
Si 8.1367573344 16.2637569587 8.1879016848 
Si 10.8527564793 8.0930512640 8.1778654178 
Si 13.6821503151 0.0480032095 2.8869584511 
Si 4.0546461971 9.4377256163 1.3411574415 
Si 6.7675665319 4.0373950869 9.5477575086 
Si 10.8461916092 5.3846269693 10.9077008580 
Si 13.1310270301 3.1192418085 0.2509011309 
H 15.3143105901 3.5209695022 22.6983014572 
Si 12.2521000721 3.2206796395 23.7046997975 
Si 0.0651927435 10.6577488875 29.0979095844 
Si 5.7106224522 2.3852306918 24.1036122343 
Si 5.4396708798 16.2775545889 10.9051042657 
Si 14.8568385159 4.0601522171 1.5248532198 
Si 12.2240649818 6.7496312417 12.2340052079 
Si 14.9454398267 9.4669824566 17.7136610966 
H 1.9306256577 6.5853303002 20.4515780657 

