&CONTROL
/
&SYSTEM
   ntyp             = 2
   nat              = 407
   ibrav            = 0
/
&ELECTRONS
/
&IONS
/
&CELL
/

ATOMIC_SPECIES
Si 28.085 None
H 1.008 None

K_POINTS gamma

CELL_PARAMETERS angstrom
16.29000014900000 0.00000000000000 0.00000000000000
0.00000000000000 16.29000014900000 0.00000000000000
0.00000000000000 0.00000000000000 29.17519467510000

ATOMIC_POSITIONS angstrom
Si 2.6715111544 10.8079101088 2.6916363578 
Si 8.1370668444 2.6928999246 10.9112894069 
Si 4.7799258737 0.3115299628 23.2761745381 
Si 8.9507360619 10.0358781318 17.2316868806 
Si 15.0062829772 1.3834168597 4.2245681890 
Si 12.2443949020 4.0760675473 15.0003971670 
Si 0.1073339965 0.1477154408 29.0907033113 
Si 1.2899920798 12.1518677011 1.3219572459 
Si 3.9971424966 15.1016120581 24.9814063165 
Si 7.9107335823 2.7387074050 16.2651710314 
Si 8.2025852250 16.2783365089 13.6407455696 
Si 13.5638197541 2.7157222148 5.5070513965 
H 15.1370590984 9.4607108065 21.8817752838 
Si 1.3013950799 4.0356031869 14.9625277643 
Si 0.0162096742 2.6722116244 2.7522857525 
Si 1.3255026511 9.4800307467 4.0745493379 
Si 9.6983819087 3.4509713716 26.3551787082 
Si 14.9322286366 4.0641106872 6.8459010801 
Si 12.2859669824 0.8002690633 26.8040390783 
Si 13.3577675422 10.6992069379 26.2959822382 
Si 1.3372281932 4.3912790502 20.4714171981 
Si 4.0329479169 12.1758628714 4.0561397901 
Si 2.7277605249 16.2779292589 2.7822807701 
Si 6.6799263311 9.4979008769 27.9438847590 
Si 12.8784342878 2.1542221997 21.6547047437 
H 12.4367309337 11.0493930711 18.5344760236 
Si 13.5742616441 16.2652882188 8.1955747610 
Si 2.7849221355 2.7717272354 0.0480675920 
Si 4.0538479871 9.4854390268 6.7925688242 
Si 1.3731215796 9.4868725468 20.2353606979 
Si 7.2315383161 11.1922237924 21.2813206022 
Si 5.3832097392 13.5740661641 2.7329134232 
Si 8.9126826215 9.5275323871 25.1079391358 
Si 14.9062623763 1.3300182392 9.5788582661 
Si 1.4485850053 1.3647599225 1.3995340886 
Si 2.6437204142 5.4034744994 13.5994334939 
Si 8.0884249040 13.6223171446 0.0694317118 
Si 9.4033700060 6.3093614077 20.2335226607 
Si 13.5353448338 2.6698821544 10.9444907785 
Si 16.2607433087 10.8680690794 5.4054341934 
Si 12.9715805086 14.2857762707 0.2282588458 
Si 1.3345175372 12.1981475916 6.7846915217 
Si 4.1715432381 4.0478043970 1.4256984031 
Si 6.7212214815 14.8982802763 4.1392890949 
Si 5.4496729398 13.5740498741 13.5984707125 
Si 9.5779988076 9.6319512881 19.3803232676 
Si 16.1807431180 8.3243041061 24.2692106393 
Si 14.9151241364 15.1363260484 1.2894035637 
Si 2.0678363289 6.9400287635 23.2482830520 
Si 1.3773260286 4.0669777272 4.0723611983 
Si 1.3263937141 9.4872146368 9.5072039880 
Si 8.1065230941 13.5423984039 5.4800643414 
Si 14.9082497563 4.0538968571 12.2541652674 
Si 14.9473131767 6.7440111917 22.8545054495 
Si 13.5686253041 13.5566521540 5.4671980806 
Si 4.0281912368 1.3175319540 4.2093095621 
Si 2.6852110446 10.8389914291 8.1445765207 
Si 3.8118926149 12.4501213139 22.4530839460 
Si 5.3937656593 13.5456726939 8.1666913183 
Si 9.2224695544 0.5788146563 24.5942223080 
H 9.6694997384 8.8081334006 21.9509204952 
Si 14.9250773265 14.9044867663 6.8356897620 
Si 4.0253404868 12.2018454216 9.5096838795 
Si 3.3804193809 10.2338505036 23.0538595547 
Si 0.0334031340 16.2396477585 5.5014789343 
Si 8.1270322043 5.4258732496 13.5898348549 
Si 6.7602360318 14.9077610563 9.5191658178 
Si 13.5975237644 2.7657325153 16.4262472812 
Si 13.6019872244 13.5591282340 10.8843898774 
Si 2.6733356344 2.7134416148 5.5010704816 
Si 1.2648517226 12.2708335722 25.0941392687 
Si 8.1296223143 13.5658722941 10.8726906244 
H 5.1646142272 13.0382228992 22.7163900779 
Si 10.7644483884 5.0926775866 23.3515632412 
Si 11.5350468455 7.1327720452 24.3603539475 
Si 13.4297204728 16.2091040082 13.7522239884 
Si 1.3481359773 1.3328624732 6.8649233070 
Si 0.0084938667 0.0426514558 16.2825594474 
Si 6.7407857716 12.2062925916 12.1862745894 
Si 4.0763770573 14.9261035965 12.2528232085 
Si 10.5206033762 10.5546657665 23.7054583526 
Si 9.2914251250 11.8799387287 22.1935705893 
Si 14.9480625167 12.1668870813 14.9312519556 
Si 4.0645668072 4.0587512771 6.8309633805 
Si 1.3187325271 1.3361009252 12.2808897458 
Si 4.3220791295 6.9268338633 20.3820827520 
Si 12.1901817815 6.7167417314 17.7431572184 
Si 10.9020988897 13.4815226733 13.4019466011 
H 14.5926635835 11.0104925507 23.6799884076 
H 14.0395854984 12.5842205951 28.6027773556 
H 2.8548713961 2.9253419368 19.8414080442 
Si 4.0354402869 1.4310178691 27.7344068613 
Si 2.6652557944 8.1280258943 10.8702107328 
Si 3.9542997962 6.8328079825 14.9227619740 
Si 10.4139853252 0.5607050631 17.0543308721 
Si 16.2580880387 2.6812199945 8.2056402032 
Si 16.2840380089 8.0986876041 13.6413582486 
Si 2.7112261748 1.0346512145 22.4320778058 
H 3.3909264310 2.5937752737 25.0096770802 
Si 2.6939099046 16.2614926487 8.2197609974 
Si 9.4972818569 4.0386982869 12.2790517085 
Si 12.2640732222 12.1115988208 12.1400319059 
Si 14.1695145396 9.7163660689 24.3467583068 
Si 12.7202583863 14.8016805754 27.1044268826 
Si 1.3379759042 4.0506062770 9.5305441437 
Si 6.0419773453 4.8534752244 0.2271172205 
Si 6.6959882712 6.8276277624 17.5200836799 
Si 5.9240051642 5.6337173615 21.5985424939 
Si 9.3067703051 0.9160681584 20.6937905319 
Si 9.5041399469 9.4578111865 1.3281453047 
Si 8.4049884769 13.5758254842 16.1371794523 
Si 4.0504433770 1.3345957292 9.5699890069 
Si 5.4270949996 8.0862420439 2.7021219227 
Si 6.7640967619 6.7521561918 12.2093813436 
H 6.0852598757 11.2767037331 22.2612570410 
Si 10.8331433191 10.8398710891 29.1294479698 
Si 16.2886806590 10.8361895491 10.9027118997 
Si 12.7755303568 13.8454575666 23.8323704494 
Si 2.6449747442 11.0506474011 26.5737592667 
Si 2.6201324940 16.2467013286 18.8821568185 
Si 9.4316657363 1.4216674090 15.0678793923 
Si 8.2297243653 5.4456493098 2.8276190226 
Si 12.1387542510 12.2881824224 1.3229287799 
Si 16.1799937780 10.5592432566 21.6697007938 
Si 16.2383771385 16.2537711887 10.9508217957 
Si 5.7743652228 1.7042761056 19.9202685955 
Si 2.6662169044 2.6895604746 10.9045499370 
Si 5.5993780412 5.1064100567 27.1191603559 
Si 8.1200112143 8.0746924339 29.1620950127 
Si 7.0059543941 12.7016063362 19.4475720913 
Si 12.2190639518 9.5011588769 4.0210712061 
Si 12.9280210482 8.6720793193 20.7481730947 
H 4.8692765245 3.2660961599 18.4254483211 
Si 6.8548646427 6.7097859014 1.4103434982 
Si 4.8350512342 4.4645026008 23.2972390287 
Si 10.8512740892 5.4288380296 16.3134559785 
Si 9.4431827664 12.1008148407 4.1923879492 
Si 16.2413907885 8.0515932136 19.0660772458 
Si 13.5604477240 10.8081055888 13.6009797792 
Si 5.4256614796 5.4041260994 5.4602835594 
Si 0.7496430009 1.1644922897 25.5254361716 
Si 2.7169602549 10.8719623894 13.6113661485 
Si 10.8448558292 2.7052314547 13.6862880484 
Si 9.4950175468 9.4629588266 6.8403286179 
Si 9.4406252363 12.2696444022 27.9078242184 
Si 16.2123457183 2.6734007945 13.6291338421 
Si 4.0216752368 4.0576924271 12.2420283864 
Si 8.1227642243 8.1367736244 5.4748419816 
Si 8.6675832793 0.2394890662 18.5473131092 
Si 10.3905277250 0.7837868412 28.1427137107 
Si 10.7701824685 5.2079944976 27.4201900146 
Si 10.8740475095 10.7819927186 5.4786055817 
Si 10.8193782690 13.6600284949 19.0605047836 
Si 2.6254919040 4.5624869517 22.4958547814 
Si 1.4706204885 9.3623517856 27.7978920849 
Si 6.7721766019 6.7613437518 6.8224733988 
Si 6.8587416627 14.9000884663 14.9537168555 
Si 11.0645590612 7.8312709616 19.4969073455 
Si 12.2125642417 12.1861907315 6.8138667164 
Si 14.9469547967 11.8321112882 27.6379244925 
Si 1.2392910833 1.4061055719 17.7260022039 
Si 5.4019921094 8.1248493443 8.1583763878 
H 8.0492311636 13.9236169873 24.3532060248 
Si 16.1082363273 1.9753905781 27.5222156704 
Si 12.5544913448 5.7931475930 25.9777392147 
Si 12.2231201618 9.4546997965 9.5052784251 
Si 2.7346674850 13.5850130442 16.3705226593 
Si 8.1181378643 5.4021224294 8.1912276570 
Si 7.0154840442 8.0350099935 24.7918259015 
Si 8.0715810438 8.1468082645 16.1628244484 
Si 9.4820669967 12.1961602115 9.5218207605 
H 14.1236418992 1.3811150826 24.4265232890 
Si 1.3886834167 6.8077376723 17.6990443241 
Si 2.8167202158 5.5891967911 19.0801688648 
Si 8.0012896932 2.4506024624 23.6424982825 
Si 5.3968118894 5.3941077493 10.8801886494 
Si 13.5975889244 5.4595446799 2.8911159163 
Si 16.2180635083 13.6089756345 2.6081807134 
Si 2.6447629742 13.5838564542 0.0591424959 
Si 2.7245676849 16.2874100390 13.6134959377 
Si 8.1177469042 8.1035420241 10.8474540810 
Si 5.1831359574 14.1575250995 19.6186554329 
Si 6.8716107628 15.0416159876 27.7987673407 
Si 13.4972262334 8.1568103246 29.1542760605 
Si 4.0495311370 14.9584229568 1.3561972544 
Si 7.4501338281 9.0517992228 20.3828413070 
Si 9.5159339070 3.9965723465 1.4986218022 
Si 9.0720476930 6.8071675223 27.4042895335 
Si 8.9560791819 14.0011899681 23.1329826827 
Si 14.9877449571 6.8035185622 4.1679683113 
H 0.1995443568 5.3551420690 20.7648029557 
Si 3.8797078855 6.7485723917 27.2026597631 
Si 4.0159737367 9.5142886170 12.1935975633 
Si 1.3151047440 14.8948105062 4.0454324936 
Si 11.2243802527 15.8278854248 0.6800825404 
Si 13.5630215440 8.1647109747 5.4379353603 
Si 2.6811548345 13.5452165739 5.4154704604 
Si 10.7665660885 2.6266647840 2.9119499228 
H 11.8629482585 11.1730015922 20.8680539697 
Si 13.5672243641 5.4117172395 8.1960123889 
Si 14.9443321067 9.4644737966 12.2656311189 
Si 13.9206847873 13.9730571378 21.7727184062 
Si 0.0302467836 5.3965838294 16.3860438629 
Si 1.8245940467 5.7130170823 26.5012880831 
Si 4.0116243067 14.8911452562 6.8302340006 
Si 8.0638758737 15.4198372110 21.5372454099 
Si 12.2649691722 1.3910992237 1.6321099880 
Si 14.9262502065 6.7772265020 9.5267221932 
Si 0.0038959816 13.5475297539 8.1759106798 
Si 5.3091716886 5.4751830801 16.2268056504 
Si 7.9183735924 5.2948039084 18.7628010971 
Si 9.4336042463 1.2863968768 4.2411105243 
Si 13.5789368742 8.1248819243 10.8932883118 
Si 13.7106089454 13.5327710138 16.3493706432 
Si 12.1861744415 4.0555421471 4.1483625805 
Si 2.1089848693 2.5525452833 24.1907001904 
Si 1.3179848161 14.9137720664 9.5704849852 
Si 6.6698591110 4.1277394277 14.8926823483 
Si 13.6824598251 0.1192387286 18.9861080372 
Si 13.5421051839 8.1017175441 16.3896615870 
Si 9.4889739568 4.0562426171 6.8526989005 
Si 2.7069581948 13.5645202241 10.9005237601 
Si 7.3492824372 11.8128890880 17.3166158723 
H 6.7940703621 12.1767099514 23.9022158655 
Si 16.1790489580 5.3818739592 0.1646289133 
Si 14.9235460665 12.2054292216 20.5121457698 
Si 7.7936084813 7.1006644549 21.7543088583 
Si 5.4919617802 10.8803191595 16.2150188717 
Si 5.3925113293 13.7962454762 26.4090069424 
Si 10.8678084394 16.2300855284 5.5028209933 
Si 10.8449535692 15.3410261903 23.5180369020 
Si 16.2833538289 8.1175025542 2.6998258349 
Si 2.7531403452 5.4269972596 2.7130042704 
Si 6.7490285117 1.2989727569 17.7688022145 
Si 8.0604386837 10.7653443385 13.4624851301 
Si 12.2142421117 1.3279999082 6.8425751079 
Si 14.6012321235 6.9902019639 20.4939987987 
Si 15.4041988109 4.6119271022 23.7450490918 
Si 0.0221881205 2.6899514346 19.3333220290 
Si 2.8770746663 7.9673087529 29.0673631556 
Si 1.2779456247 14.8452074558 27.8004886772 
Si 9.4871006068 1.3430355783 9.5381880447 
Si 8.6266302189 14.3853570416 19.5277163511 
Si 12.2484511120 1.7465812360 18.0592996279 
Si 1.3960595288 6.7659701119 1.3324253058 
Si 1.3878167887 14.9373762766 14.9841174084 
Si 10.8517627892 2.6906356146 8.1883393127 
Si 10.5519127565 11.6291541764 20.2565418893 
Si 14.8724932060 1.2669482456 20.6780651019 
Si 13.5319402238 5.3004891185 19.1121448781 
Si 1.1495885685 3.9530617561 28.0114836851 
Si 4.0736729173 6.7712643619 4.1038995838 
Si 1.3104164820 4.8093944840 24.4047877690 
Si 12.2114239417 4.0342674069 9.5519587366 
H 13.5070165235 7.0400004944 23.2977641822 
Si 14.9851385570 14.9960854371 17.6479877334 
Si 0.0277821066 5.3951014393 5.4786639321 
H 6.3985817385 7.9649629929 23.4020071528 
Si 6.6762122111 9.4296294862 14.8030269750 
Si 5.4947310803 16.2708756888 16.2972637455 
H 11.6272971163 11.7944488079 16.8792505289 
Si 10.8617159793 16.2868561790 10.8750538151 
Si 2.6941053846 8.1308440644 5.4388106161 
Si 2.4573628125 13.7945513162 23.7900372420 
Si 5.8319015033 15.9286064957 21.2077115861 
Si 12.1684672113 1.3108628280 12.3215307919 
Si 9.3922928059 14.8058182354 1.6229869046 
Si 12.3938067833 14.9697770869 20.2673950617 
Si 1.3629370715 6.7733494820 6.8224442236 
Si 4.1058945376 12.3906953933 27.8771902640 
Si 10.8438458492 10.8015570088 10.8265938168 
Si 10.7984944888 13.4421171629 2.8773218843 
Si 9.5065019969 14.9319842866 12.2089728909 
Si 14.3336688711 14.6278011138 25.4265614369 
Si 3.4668378317 1.6179977488 20.2788317380 
Si 1.3467855363 12.2144538817 12.2543111434 
H 4.6831632728 5.2561314481 24.5725451383 
H 10.2121685134 2.1710171899 28.7537589880 
Si 16.2646203288 8.1343952844 8.1458018789 
Si 12.2220124418 14.9011147363 4.1014196922 
Si 2.7059645047 5.4148774995 8.1855968444 
Si 7.4737706183 5.9990369049 25.8439709471 
Si 4.1892504683 9.6439407282 17.7157617106 
H 9.9933449414 3.2255014795 18.5548694847 
Si 9.4878499468 12.1547184512 14.6407837174 
Si 9.4872797968 14.8864537361 6.8373527481 
Si 10.8568941393 13.5389449238 8.1794408783 
Si 4.0536525071 6.7769984420 9.5364667082 
Si 1.4244073870 15.3389736503 22.3122261061 
Si 5.3651767091 10.9118728898 0.0665626231 
Si 8.7708618802 4.4964961611 24.5223054531 
H 9.9264744908 14.3450718712 25.5903509798 
Si 12.2143398517 14.9017663363 9.5376920664 
Si 2.7555512652 8.2347416853 16.3980056927 
Si 2.6826698045 10.9788899504 18.9602296395 
Si 1.0760717978 10.3833438350 23.6870779800 
Si 8.1387121344 10.8060041788 2.7165432215 
Si 15.4452659013 15.8198055847 22.1986470732 
Si 10.8238905990 13.5006960035 26.4725505164 
Si 4.0683460872 1.3441172343 15.0012140725 
Si 6.7677294319 12.2179236517 1.4113792176 
Si 4.1472548479 14.9820271670 17.6676518146 
Si 11.3636271739 0.3035560078 21.5842174734 
Si 14.8595589459 14.9269669665 12.3401737413 
Si 3.9624936662 4.1647503081 17.6168578007 
Si 6.7711340419 9.4553188165 4.0663802834 
Si 7.9480051027 10.9832393804 26.6216941115 
Si 4.0731842172 12.2538756821 14.9620901364 
Si 10.3829854550 4.4496624107 21.1275965015 
Si 14.8805730461 9.4762677567 1.3573700972 
Si 2.9296913668 8.3969900868 21.5970545590 
Si 5.4091597095 10.8292825890 5.4165499426 
Si 10.4698111558 8.2410784954 26.2317384595 
Si 13.8623991668 2.4841924427 27.2460141024 
Si 16.2622582787 5.4017640494 10.8802469998 
Si 13.5576621340 10.9217934999 2.6650373328 
Si 15.0246743874 4.0367434869 17.8303035249 
Si 6.7437668417 12.1807661614 6.8107449705 
H 8.5104173578 7.1839226457 23.0806423834 
Si 10.7825465786 10.8612435693 16.0685010441 
Si 10.5315665463 14.5454551630 16.8191788030 
Si 14.9141467364 12.2545761521 4.0436236316 
Si 1.3146127860 6.7627446919 12.2342094343 
Si 1.6959193355 14.5166707328 20.1586299359 
Si 2.5905987237 16.2790858489 26.4569709624 
Si 6.7666217119 9.4802425167 9.5058035786 
Si 5.2989904385 8.4861615476 26.3119410697 
Si 14.9194409864 9.5152985970 6.7911684149 
H 3.2441372397 7.2840572766 24.1683519913 
Si 5.3881293193 0.0448779730 29.1372377468 
Si 8.1266575343 10.8428521592 8.1620524623 
Si 15.1688083087 0.2663219544 24.4060131271 
H 13.8393813966 6.3375431080 26.9145255405 
Si 13.5750761442 10.8460938692 8.1778945930 
Si 5.3749995792 2.6513115542 2.8668479894 
Si 5.3766774492 2.6912709246 13.5790692080 
Si 5.3919248893 10.8445788992 10.8382638947 
Si 6.2990824176 11.9550682093 25.3029753122 
H 10.3146163243 8.3765298466 21.9971631788 
Si 14.9459611067 12.1939610615 9.5334616632 
Si 1.3855443337 9.4739219967 14.9533375780 
Si 1.2666159296 12.2032137816 17.5839481811 
Si 8.0722489338 0.0046447189 2.8310383555 
Si 6.8018406922 1.3290750482 12.2804812930 
Si 9.4947243268 9.4437040464 12.1799435722 
Si 12.2927436224 9.0018377923 23.0758868267 
Si 2.6492915942 2.6989760947 16.3368544847 
Si 0.4052968327 7.6591182400 26.5073565236 
Si 7.6755711402 3.1174010385 0.3116465120 
Si 12.1398782610 3.4785503418 19.8647482000 
Si 8.4895824476 0.2360909722 26.8571087574 
Si 11.4238350145 4.7868328338 0.3768268144 
Si 15.0299197675 6.8766280829 27.9594351378 
Si 6.6890487312 1.3288404722 1.4653620803 
Si 10.8510297392 8.0953155740 2.7048118757 
Si 11.8548847084 12.0122623999 25.0021498799 
Si 12.1320264810 14.6189230637 15.0276759740 
Si 13.6224148846 10.5359159764 19.3330011018 
Si 6.8031927622 4.0552489271 4.1096470971 
Si 4.4906969211 10.3410061246 25.1524021325 
Si 11.0329238809 1.9045779474 25.1990240936 
Si 12.2804772523 6.7223780715 1.4195570247 
Si 13.5846383742 5.4246840796 13.6279084839 
H 13.0645801195 12.7062978562 17.4265771810 
Si 0.0083017099 13.5775685142 13.6270915785 
Si 5.6353789415 8.2910073458 18.9989159476 
Si 5.3990436194 16.2500244886 5.5255484699 
Si 9.5416069473 6.8054570722 4.1735115983 
Si 14.8295853456 1.3356171122 15.0103167332 
Si 16.2697516788 10.7921250987 16.2657253601 
Si 8.1036560541 2.7058178948 5.5277366095 
Si 5.5551018208 2.8094385857 26.4533824135 
Si 10.8594353793 5.4146005695 5.5148411735 
Si 12.0303443000 9.3674342657 27.6978503423 
Si 16.2163856383 13.5043938335 19.0093606673 
Si 16.1022578973 13.4681160032 26.4523904568 
Si 6.7543553418 1.3321343102 6.8642231024 
Si 6.7989084922 3.8535950152 20.3137544460 
Si 9.5099391870 6.7761513620 14.9302016486 
Si 12.2112447517 9.4171350561 14.9465981080 
Si 13.7867809861 3.9434506561 25.3130115792 
Si 12.2378951919 6.7782364820 6.8201977336 
Si 5.3948082193 2.6897233746 8.2041522682 
Si 9.3497596155 4.0687044672 17.4762333623 
Si 8.6179802288 2.9650569571 21.4608939255 
Si 9.4965162268 6.7374626116 9.5357956788 
Si 10.8515184392 8.1089665942 13.5572461624 
Si 14.9284982265 6.7517815217 15.0352906998 
Si 3.3492403206 12.8663796877 20.2427711974 
Si 7.7589270710 2.4261674622 27.2572757275 
Si 5.3261132887 8.0866492940 13.4905808426 
Si 8.1371157144 16.2631053587 8.1866763266 
Si 10.8525609993 8.0930512640 8.1780988194 
Si 13.6824435351 0.0475047355 2.8856834951 
Si 4.0537665371 9.4360803263 1.3377176861 
Si 6.7679412019 4.0373299269 9.5474657566 
Si 10.8511111892 5.3859790393 10.9048125137 
Si 13.1304731701 3.1191440685 0.2496069193 
H 15.3335327902 3.5354187323 22.6849683933 
Si 12.2512855720 3.2242145695 23.7023074316 
Si 0.0370693614 10.6683048076 29.1263845744 
Si 5.7004249121 2.3901828519 24.0941886464 
Si 5.4401758698 16.2761862289 10.9030620020 
Si 14.8553235459 4.0571385671 1.5276248633 
Si 12.2251564118 6.7501036517 12.2363392235 
Si 14.9508481067 9.4661190866 17.7080011088 
H 2.7559585152 9.8677816202 25.3844908061 

