&CONTROL
/
&SYSTEM
   ntyp             = 2
   nat              = 407
   ibrav            = 0
/
&ELECTRONS
/
&IONS
/
&CELL
/

ATOMIC_SPECIES
Si 28.085 None
H 1.008 None

K_POINTS gamma

CELL_PARAMETERS angstrom
16.29000014900000 0.00000000000000 0.00000000000000
0.00000000000000 16.29000014900000 0.00000000000000
0.00000000000000 0.00000000000000 29.17519467510000

ATOMIC_POSITIONS angstrom
Si 2.6722442044 10.8080078488 2.6903380616 
Si 8.1370668444 2.6927370246 10.9119312612 
Si 4.7779710737 0.3095995978 23.2777208235 
Si 8.9502962319 10.0364319918 17.2309866759 
Si 15.0067228072 1.3841613127 4.2254142696 
Si 12.2446392520 4.0760349673 15.0001054151 
Si 0.1012076532 0.1489797077 29.0962174231 
Si 1.2910248658 12.1543763612 1.3280694492 
Si 3.9968166965 15.1012536781 24.9875622826 
Si 7.9104403624 2.7378766150 16.2651126810 
Si 8.2021616850 16.2777337789 13.6416791758 
Si 13.5633962140 2.7159176948 5.5073723236 
H 15.1416691685 9.4577623165 21.8771656031 
Si 1.3018121039 4.0349515869 14.9636072465 
Si 0.0168907754 2.6744433545 2.7542784183 
Si 1.3270355401 9.4809266967 4.0742575860 
Si 9.7031060087 3.4493260816 26.3550620074 
Si 14.9326684666 4.0650066372 6.8446757219 
Si 12.2837678323 0.7993079533 26.8030179464 
Si 13.3614979522 10.6980992178 26.2950486320 
Si 1.3370376002 4.3943578602 20.4707753438 
Si 4.0322148669 12.1761398014 4.0569858707 
Si 2.7280211649 16.2814967689 2.7904644122 
Si 6.6868658712 9.5106885270 27.9499823747 
Si 12.8795908778 2.1524954597 21.6543838166 
H 12.4356395037 11.0493767811 18.5324921103 
Si 13.5740824541 16.2653045088 8.1958081625 
Si 2.7806704454 2.7688276153 0.0517611716 
Si 4.0537339571 9.4856833767 6.7926563498 
Si 1.3787220816 9.4855693467 20.2436756284 
Si 7.2285083761 11.1806416023 21.2936617096 
Si 5.3853111492 13.5776010942 2.7400700985 
Si 8.9056290514 9.5307089372 25.1029210023 
Si 14.9062297963 1.3301648492 9.5787999157 
Si 1.4467198002 1.3621046525 1.4042575526 
Si 2.6435412242 5.4034582094 13.6002212242 
Si 8.0906566340 13.6249724146 0.0714240858 
Si 9.4061555960 6.3078953077 20.2284753520 
Si 13.5353611238 2.6698007044 10.9446366544 
Si 16.2608736287 10.8680527894 5.4058718213 
Si 12.9714990586 14.2863790007 0.2283440374 
Si 1.3338871142 12.1982290416 6.7860044054 
Si 4.1688553881 4.0539294371 1.4180311620 
Si 6.7233554715 14.9026459963 4.1432860966 
Si 5.4498358398 13.5741639041 13.5987916396 
Si 9.5798232876 9.6325214381 19.3782226536 
Si 16.1816716480 8.3279693562 24.2718947572 
Si 14.9133811064 15.1337848084 1.2932021740 
Si 2.0708988489 6.9297823534 23.2429148162 
Si 1.3804129836 4.0706429772 4.0705815115 
Si 1.3265240341 9.4871331868 9.5078750175 
Si 8.1073375941 13.5437830539 5.4821066050 
Si 14.9084615263 4.0537502471 12.2542819682 
Si 14.9515648667 6.7524005418 22.8578314217 
Si 13.5681691841 13.5566358640 5.4681316868 
Si 4.0293152469 1.3238312971 4.2114101762 
Si 2.6850807246 10.8389262691 8.1451016742 
Si 3.8137496749 12.4261424336 22.4775911095 
Si 5.3938633993 13.5461613939 8.1670997710 
Si 9.2198468643 0.5777085653 24.5914798397 
H 9.6663883484 8.8043704105 21.9485573045 
Si 14.9249958765 14.9045030563 6.8361857403 
Si 4.0252916168 12.2020734816 9.5099172811 
Si 3.3695050808 10.2164039134 23.0997521359 
Si 0.0331538970 16.2394196985 5.5019457374 
Si 8.1271625243 5.4259221196 13.5900974316 
Si 6.7604315118 14.9078913763 9.5198076721 
Si 13.5975237644 2.7661071853 16.4265682083 
Si 13.6018243244 13.5591771040 10.8853234837 
Si 2.6722279144 2.7164878448 5.5026167669 
Si 1.2751062777 12.2648877222 25.1075015079 
Si 8.1298340843 13.5660026141 10.8732449531 
H 5.1692894573 13.0029224689 22.7550472109 
Si 10.7697589285 5.0937364366 23.3473328380 
Si 11.5361056955 7.1354924753 24.3587201366 
Si 13.4297041828 16.2091040082 13.7528950179 
Si 1.3476896313 1.3332925292 6.8646023799 
Si 0.0090331472 0.0430119535 16.2832013017 
Si 6.7407206116 12.2063414616 12.1863912902 
Si 4.0763770573 14.9262339165 12.2533483620 
Si 10.5209617562 10.5546657665 23.7057501045 
Si 9.2908712650 11.8765666986 22.1942999692 
Si 14.9489910467 12.1667078913 14.9329149417 
Si 4.0645830972 4.0598101271 6.8322179138 
Si 1.3187830261 1.3358826392 12.2815316000 
Si 4.3218673595 6.9341806534 20.3852628482 
Si 12.1920551315 6.7170838214 17.7432739192 
Si 10.9018708297 13.4815878333 13.4033761857 
H 14.6393018539 10.9895273205 23.6995357881 
H 14.0328903083 12.5863057151 28.5968547910 
H 2.8561583061 2.9271989968 19.8446464909 
Si 4.0335180669 1.4306089901 27.7351654163 
Si 2.6653046644 8.1280421843 10.8708817623 
Si 3.9539902862 6.8332803925 14.9231704267 
Si 10.4136432352 0.5604248751 17.0549435512 
Si 16.2576807887 2.6816435345 8.2052317504 
Si 16.2843149389 8.0989645341 13.6417083510 
Si 2.7089944448 1.0332242105 22.4345576974 
H 3.3863326510 2.6023926838 25.0131197531 
Si 2.6935678146 16.2624211787 8.2200819245 
Si 9.4973470169 4.0386494169 12.2793434604 
Si 12.2640569322 12.1117617208 12.1413739648 
Si 14.1776758297 9.7062988488 24.3559484931 
Si 12.7249987764 14.8027068454 27.1040476051 
Si 1.3377641342 4.0504433770 9.5306900197 
Si 6.0396315852 4.8550879344 0.2127002980 
Si 6.6955158612 6.8274811524 17.5191792489 
Si 5.9202095941 5.6316159515 21.5950122954 
Si 9.3060698351 0.9147682164 20.6929736264 
Si 9.5090269470 9.4610528965 1.3326908000 
Si 8.4037993069 13.5750109842 16.1403011982 
Si 4.0502478970 1.3348661432 9.5707183868 
Si 5.4274207996 8.0862909140 2.6974013762 
Si 6.7639827319 6.7523353818 12.2099356723 
H 6.0938609957 11.2359461528 22.2939624342 
Si 10.8317586691 10.8426566792 29.1271431295 
Si 16.2887458190 10.8362709991 10.9032078780 
Si 12.7735918468 13.8463046466 23.8312617920 
Si 2.7174000848 11.0919262614 26.5480267450 
Si 2.6202953940 16.2445673386 18.8875834047 
Si 9.4317308963 1.4211347260 15.0680836186 
Si 8.2269387752 5.4463009098 2.8247015032 
Si 12.1376465310 12.2896973924 1.3220360190 
Si 16.1794724980 10.5618496566 21.6672500774 
Si 16.2382142385 16.2539177987 10.9512010732 
Si 5.7744466728 1.7007900456 19.9220774575 
Si 2.6660214244 2.6897559546 10.9051917912 
Si 5.6300032415 5.0756056664 27.0919982497 
Si 8.1249796643 8.0797097539 29.1667630438 
Si 7.0004646640 12.6950903361 19.4581335118 
Si 12.2227292018 9.5028204569 4.0215380092 
Si 12.9290310282 8.6743436293 20.7489024746 
H 4.8694068445 3.2675785499 18.4269946064 
Si 6.8525840427 6.7093297814 1.4025653913 
Si 4.8292845742 4.4810695310 23.3083839531 
Si 10.8523492293 5.4292126996 16.3134268034 
Si 9.4438669464 12.1022320707 4.1943426873 
Si 16.2454144186 8.0530430236 19.0708328025 
Si 13.5610341640 10.8082847788 13.6021176118 
Si 5.4234623296 5.4049731794 5.4583871718 
Si 0.7474992368 1.1608465876 25.5285579175 
Si 2.7173512148 10.8723696394 13.6117454261 
Si 10.8447743792 2.7050196847 13.6865214500 
Si 9.4966954169 9.4634801065 6.8413497497 
Si 9.4395175163 12.2741893123 27.9047316478 
Si 16.2125411983 2.6734170845 13.6295714700 
Si 4.0215937868 4.0576272671 12.2428744671 
Si 8.1236927543 8.1366758844 5.4769717708 
Si 8.6663289493 0.2377281172 18.5470213573 
Si 10.3897295150 0.7818727662 28.1427428859 
Si 10.7733101485 5.2079619176 27.4214737232 
Si 10.8754810295 10.7825628686 5.4787806328 
Si 10.8167881589 13.6597352749 19.0610299371 
Si 2.6178681839 4.5565736817 22.5020982730 
Si 1.4983607297 9.3846853758 27.7198484391 
Si 6.7709222719 6.7609690818 6.8221524716 
Si 6.8584158627 14.8994368663 14.9553506664 
Si 11.0666441812 7.8324438416 19.4959737393 
Si 12.2128085917 12.1864187915 6.8149170234 
Si 14.9484371867 11.8329746582 27.6395291282 
Si 1.2405437844 1.4042045288 17.7283945699 
Si 5.4018292094 8.1250122443 8.1586389645 
H 8.0498013136 13.9223789473 24.3466416060 
Si 16.1009384073 1.9694773080 27.5240828828 
Si 12.5535791048 5.7946462730 25.9754927247 
Si 12.2235599918 9.4549604365 9.5063579074 
Si 2.7348466750 13.5840845142 16.3726232734 
Si 8.1171604642 5.4022038794 8.1915777593 
Si 7.0129753841 8.0281356134 24.7810602547 
Si 8.0715484638 8.1469874545 16.1625910469 
Si 9.4821810267 12.1962905315 9.5223750892 
H 14.1251405792 1.3785135696 24.4247436021 
Si 1.3875675517 6.8085358823 17.6984899954 
Si 2.8181211558 5.5941163712 19.0816859749 
Si 8.0007032532 2.4520685624 23.6398433398 
Si 5.3965838294 5.3942380693 10.8809180293 
Si 13.5956178343 5.4616623799 2.8937037561 
Si 16.2159458083 13.6076561445 2.6127845591 
Si 2.6335065841 13.6096435245 0.0849928854 
Si 2.7245676849 16.2871819790 13.6145462447 
Si 8.1176817442 8.1036723441 10.8480084097 
Si 5.1768317273 14.1499828294 19.6265035603 
Si 6.8742008729 15.0400195676 27.7979212601 
Si 13.4928116434 8.1579343346 29.1526714248 
Si 4.0571222771 14.9703961069 1.3670912721 
Si 7.4537339182 9.0480036527 20.3778815239 
Si 9.5142886170 3.9965397666 1.4973818565 
Si 9.0794433530 6.8115169523 27.4087825135 
Si 8.9550529119 13.9978505180 23.1277894980 
Si 14.9860670871 6.8065973722 4.1688435671 
H 0.2007025758 5.3625703090 20.7558461709 
Si 3.9157739458 6.7174910714 27.1950158621 
Si 4.0160877667 9.5145003870 12.1938893152 
Si 1.3151291790 14.8934747262 4.0476789836 
Si 11.2244128327 15.8280157448 0.6804909932 
Si 13.5626142940 8.1652811247 5.4406486534 
Si 2.6813503145 13.5449722239 5.4177461256 
Si 10.7651162785 2.6273326740 2.9119265827 
H 11.8617753785 11.1697761722 20.8619855292 
Si 13.5673221041 5.4117009495 8.1956622866 
Si 14.9444950067 9.4646692766 12.2662146228 
Si 13.9199191573 13.9720308678 21.7719306759 
Si 0.0296407956 5.3964697994 16.3858979869 
Si 1.8364531668 5.7197611423 26.5188515503 
Si 4.0118686567 14.8923995862 6.8309633805 
Si 8.0619210737 15.4194788310 21.5372745851 
Si 12.2634379122 1.3895093197 1.6344089933 
Si 14.9260221465 6.7770798920 9.5270139452 
Si 0.0035608637 13.5479207139 8.1769026364 
Si 5.3087644385 5.4748409901 16.2265138984 
Si 7.9184550424 5.2938916684 18.7603795559 
Si 9.4332458663 1.2872358118 4.2416940282 
Si 13.5792300942 8.1248982143 10.8939593413 
Si 13.7115048954 13.5329013338 16.3508002277 
Si 12.1846268914 4.0556561771 4.1494712379 
Si 2.1046517292 2.5503787133 24.1942887394 
Si 1.3180369440 14.9142444764 9.5708934380 
Si 6.6699079810 4.1275113678 14.8927406987 
Si 13.6831277151 0.1185183848 18.9862539131 
Si 13.5442228839 8.1024831741 16.3905951933 
Si 9.4882246168 4.0562751971 6.8534866307 
Si 2.7069581948 13.5647482841 10.9008446872 
Si 7.3481584272 11.8129379580 17.3226551376 
H 6.7829280020 12.1718881113 23.9186998505 
Si 16.1585887178 5.3727678491 0.1541083381 
Si 14.9212003065 12.2059505016 20.5092866007 
Si 7.7936247713 7.0966082449 21.7480070163 
Si 5.4930857902 10.8815571995 16.2156315508 
Si 5.3883573793 13.7913910561 26.4202977427 
Si 10.8674337694 16.2305090684 5.5032002708 
Si 10.8417933092 15.3393483203 23.5165781423 
Si 16.2756323689 8.1257615843 2.7021569330 
Si 2.7488723651 5.4340182497 2.7053107715 
Si 6.7481651417 1.2982918349 17.7691814921 
Si 8.0604549737 10.7655886885 13.4625434805 
Si 12.2140792117 1.3280895031 6.8428960351 
Si 14.6046041536 6.9938183440 20.4985501291 
Si 15.4017390209 4.6201209722 23.7474706329 
Si 0.0225233687 2.6904890046 19.3333803794 
Si 2.8748103563 7.9408700826 29.0975886573 
Si 1.2730341896 14.8512510458 27.8061194898 
Si 9.4872635068 1.3431821883 9.5388007238 
Si 8.6218083788 14.3825388715 19.5277747015 
Si 12.2490701320 1.7460436660 18.0594455039 
Si 1.3565644234 6.7521724817 1.3358563087 
Si 1.3880008657 14.9368224166 14.9854302921 
Si 10.8516324692 2.6906681946 8.1886310647 
Si 10.5492411965 11.6291053064 20.2563668381 
Si 14.8737801160 1.2658910246 20.6782693283 
Si 13.5336669638 5.3026231085 19.1147998209 
Si 1.1433771915 3.9461222161 28.0164726434 
Si 4.0711642572 6.7737567319 4.0998734069 
Si 1.3049837669 4.8030576739 24.4193461911 
Si 12.2116194217 4.0342511169 9.5519587366 
H 13.5095088936 7.0419390044 23.2975891310 
Si 14.9872888371 14.9957270571 17.6492130916 
Si 0.0280743492 5.3966001194 5.4765049677 
H 6.4019048985 7.9190414824 23.3885282128 
Si 6.6762773711 9.4301833463 14.8032312014 
Si 5.4933790102 16.2682367088 16.3001812650 
H 11.6268409963 11.7952633079 16.8789879521 
Si 10.8616833993 16.2867910190 10.8755789686 
Si 2.6938284546 8.1312024444 5.4386647402 
Si 2.4566297625 13.7894036761 23.7943259956 
Si 5.8291322033 15.9228235456 21.2104540544 
Si 12.1685486613 1.3107569430 12.3218517191 
Si 9.3927977959 14.8084735054 1.6248832922 
Si 12.3930085733 14.9694024169 20.2668699082 
Si 1.3626650285 6.7734472219 6.8223275228 
Si 4.0787879773 12.4185838736 27.9006762957 
Si 10.8440250392 10.8018502288 10.8273815470 
Si 10.7984619088 13.4431434329 2.8781008620 
Si 9.5065997369 14.9319354166 12.2097897963 
Si 14.3357539911 14.6260417938 25.4239064942 
Si 3.4665934817 1.6187650078 20.2819534838 
Si 1.3468783893 12.2146167817 12.2546904209 
H 4.6741874827 5.2815438483 24.5883872691 
H 10.2099693634 2.1689320698 28.7538173384 
Si 16.2649298388 8.1341509344 8.1466479595 
Si 12.2219472818 14.9013590863 4.1026742256 
Si 2.7055572547 5.4154313595 8.1862678739 
Si 7.4964951686 5.9994604449 25.8386318865 
Si 4.1903418983 9.6448855482 17.7156158346 
H 9.9938010614 3.2259413095 18.5547236087 
Si 9.4866607768 12.1551908612 14.6419799004 
Si 9.4881431668 14.8870564662 6.8389282086 
Si 10.8573339693 13.5390100838 8.1804328350 
Si 4.0535710571 6.7772590820 9.5369918618 
Si 1.4261308690 15.3344450302 22.3161355822 
Si 5.3640201191 10.9317304000 0.0632719529 
Si 8.7818739203 4.4937268611 24.5189794809 
H 9.9429925509 14.3484927712 25.5831738819 
Si 12.2145842017 14.9018803663 9.5383922711 
Si 2.7554698152 8.2356865053 16.3983849702 
Si 2.6857974846 10.9759251704 18.9681361172 
Si 1.0559308417 10.3937531451 23.6886826157 
Si 8.1396406644 10.8065417488 2.7196562147 
Si 15.4472044113 15.8167267747 22.1966339848 
Si 10.8302436990 13.5006145535 26.4718211365 
Si 4.0685252772 1.3432652673 15.0030521097 
Si 6.7708896919 12.2237717618 1.4178823685 
Si 4.1464729279 14.9790298070 17.6726115977 
Si 11.3630570239 0.3027903778 21.5839257214 
Si 14.8596241059 14.9269995465 12.3408739460 
Si 3.9623633462 4.1662815681 17.6186958379 
Si 6.7713621019 9.4535920765 4.0670804881 
Si 7.9421407026 10.9921011405 26.6135542322 
Si 4.0734774373 12.2543643821 14.9627903411 
Si 10.3846307450 4.4487827507 21.1249123836 
Si 14.8837495961 9.4784669067 1.3482499314 
Si 2.9391884369 8.4050536369 21.6107669005 
Si 5.4089642295 10.8290056590 5.4158789131 
Si 10.4676934557 8.2467637054 26.2286458889 
Si 13.8572352367 2.4847300127 27.2469185334 
Si 16.2622419887 5.4017314694 10.8803928758 
Si 13.5594051640 10.9224776799 2.6604626623 
Si 15.0244300374 4.0374928269 17.8311496055 
Si 6.7435062017 12.1809616414 6.8108324961 
H 8.5114436278 7.1804528757 23.0728234313 
Si 10.7824325486 10.8616182393 16.0682968177 
Si 10.5308660763 14.5451782330 16.8197914821 
Si 14.9121104864 12.2531426321 4.0449365153 
Si 1.3145688030 6.7626306619 12.2346178870 
Si 1.7011158456 14.5098940927 20.1643774493 
Si 2.5886439237 16.2782550589 26.4604719858 
Si 6.7668660619 9.4803076767 9.5058911042 
Si 5.3102142486 8.4716797375 26.3250115569 
Si 14.9201251665 9.5154614970 6.7926271746 
H 3.2306654095 7.3007871068 24.1767252722 
Si 5.3912569993 0.0478624639 29.1356914615 
Si 8.1269181743 10.8431779592 8.1621691631 
Si 15.1704698887 0.2639745654 24.4037958123 
H 13.8289883765 6.3518294381 26.9060063837 
Si 13.5752879142 10.8463219292 8.1787698488 
Si 5.3722139891 2.6575343343 2.8632302653 
Si 5.3764330992 2.6906193246 13.5799152887 
Si 5.3919574693 10.8446277692 10.8382638947 
Si 6.2497237172 11.9198166490 25.3061262333 
H 10.3196336444 8.3857011167 21.9939539074 
Si 14.9458144967 12.1942054115 9.5343660942 
Si 1.3856567347 9.4746387567 14.9536001547 
Si 1.2703528556 12.2011286616 17.5889371394 
Si 8.0711412138 0.0082462750 2.8305219545 
Si 6.8018081122 1.3288013761 12.2811523225 
Si 9.4949686768 9.4437854964 12.1804687257 
Si 12.2999600925 9.0069854324 23.0774914624 
Si 2.6496988442 2.6986502947 16.3390134491 
Si 0.3991831957 7.6453043199 26.5026301421 
Si 7.6738932702 3.1206427485 0.3081367361 
Si 12.1423706311 3.4779801918 19.8647190248 
Si 8.4919933677 0.2325902511 26.8552123697 
Si 11.4241933945 4.7861975238 0.3788048926 
Si 15.0233386074 6.8810752529 27.9563133920 
Si 6.6884785812 1.3337339882 1.4642300828 
Si 10.8530822793 8.0961137840 2.7090947943 
Si 11.8588105985 12.0105030798 25.0004285434 
Si 12.1324011510 14.6188090337 15.0290763834 
Si 13.6213071646 10.5361766164 19.3312797654 
Si 6.8024760022 4.0560797171 4.1092678196 
Si 4.4572535508 10.3133619943 25.1946186392 
Si 11.0325166309 1.9012222074 25.1956105958 
Si 12.2789459923 6.7231111215 1.4209953618 
Si 13.5846383742 5.4247329496 13.6275875568 
H 13.0651339795 12.7066236562 17.4277733640 
Si 0.0083994987 13.5774707742 13.6278793087 
Si 5.6360957016 8.2917403958 18.9983907941 
Si 5.3985712094 16.2534128086 5.5272114560 
Si 9.5395381173 6.8047891822 4.1729280944 
Si 14.8297971156 1.3357979312 15.0109002371 
Si 16.2718856688 10.7929395987 16.2680885508 
Si 8.1031021941 2.7063880448 5.5279116607 
Si 5.5616015309 2.7877403055 26.4424417155 
Si 10.8577086393 5.4146983095 5.5153371518 
Si 12.0285035300 9.3707248457 27.6954871516 
Si 16.2193178383 13.5045078635 19.0110236534 
Si 16.1040172173 13.4691259832 26.4548703484 
Si 6.7548114618 1.3333088192 6.8659152637 
Si 6.7982243122 3.8516239252 20.3117997080 
Si 9.5102486970 6.7762653920 14.9303766998 
Si 12.2118963517 9.4171839261 14.9475608894 
Si 13.7840116861 3.9441022561 25.3121946737 
Si 12.2367548919 6.7780572920 6.8208104127 
Si 5.3947593493 2.6903261046 8.2053776264 
Si 9.3506881455 4.0678410972 17.4748329530 
Si 8.6187947288 2.9650080871 21.4583556835 
Si 9.4959297869 6.7373648716 9.5361749563 
Si 10.8519582692 8.1092109442 13.5578004911 
Si 14.9284330665 6.7519281317 15.0349697727 
Si 3.3505761006 12.8523214175 20.2647109438 
Si 7.7632276310 2.4220623822 27.2546499600 
Si 5.3260481287 8.0869750940 13.4910768209 
Si 8.1373274844 16.2633985787 8.1875515825 
Si 10.8529519593 8.0930349740 8.1796742799 
Si 13.6821828951 0.0475466008 2.8877841091 
Si 4.0616671872 9.4485747564 1.3270366473 
Si 6.7679086219 4.0375091169 9.5485744140 
Si 10.8509645792 5.3858324293 10.9047833385 
Si 13.1273780701 3.1160326785 0.2526105056 
H 15.3303236602 3.5462515824 22.6837138599 
Si 12.2515462120 3.2225529895 23.7007903215 
Si 0.0467661469 10.6755701476 29.1240505588 
Si 5.6971506221 2.3941739019 24.0843857810 
Si 5.4401107097 16.2762513889 10.9035288051 
Si 14.8485469058 4.0541249171 1.5321586885 
Si 12.2248794818 6.7501362317 12.2363683987 
Si 14.9538454668 9.4659561866 17.7102184236 
H 3.0003410974 8.4554060273 27.3479230574 

