&CONTROL
/
&SYSTEM
   ntyp             = 2
   nat              = 407
   ibrav            = 0
/
&ELECTRONS
/
&IONS
/
&CELL
/

ATOMIC_SPECIES
Si 28.085 None
H 1.008 None

K_POINTS gamma

CELL_PARAMETERS angstrom
16.29000014900000 0.00000000000000 0.00000000000000
0.00000000000000 16.29000014900000 0.00000000000000
0.00000000000000 0.00000000000000 29.17519467510000

ATOMIC_POSITIONS angstrom
Si 2.6694423244 10.8048638788 2.6966661613 
Si 8.1373763544 2.6924600946 10.9123980643 
Si 4.7785412237 0.3066185278 23.2772540204 
Si 8.9501659119 10.0360084518 17.2322412093 
Si 15.0071137673 1.3846109167 4.2241597362 
Si 12.2445089320 4.0761001273 15.0005430430 
Si 0.1021016484 0.1550879690 29.0941459843 
Si 1.2880796338 12.1444231711 1.3176743273 
Si 3.9967026666 15.1020030181 24.9891085679 
Si 7.9106847124 2.7381535450 16.2652877321 
Si 8.2024711950 16.2778966789 13.6416791758 
Si 13.5642921641 2.7159665648 5.5072556228 
H 15.1444710485 9.4559704165 21.8772239535 
Si 1.3015921889 4.0350167469 14.9634321953 
Si 0.0174428435 2.6757791345 2.7534731829 
Si 1.3241733871 9.4839240567 4.0805886032 
Si 9.7022263487 3.4508410516 26.3552662338 
Si 14.9325544366 4.0648437372 6.8456676786 
Si 12.2882638724 0.8004987523 26.8029012457 
Si 13.3497039921 10.7000703079 26.2939399746 
Si 1.3392253472 4.3904971301 20.4697250368 
Si 4.0317750369 12.1785670114 4.0580945281 
Si 2.7272392449 16.2841683289 2.7889122919 
Si 6.6610625109 9.4956365668 27.9427469264 
Si 12.8784994478 2.1532285097 21.6545005173 
H 12.4349227437 11.0485134110 18.5326088111 
Si 13.5740335841 16.2655488588 8.1956914618 
Si 2.7861438855 2.7725417354 0.0497848439 
Si 4.0540597571 9.4860580468 6.7941734600 
Si 1.3737145356 9.4903260268 20.2357691507 
Si 7.2288667561 11.1832642923 21.2917944971 
Si 5.3854088892 13.5749132442 2.7375581142 
Si 8.8986243514 9.5277930271 25.1042047109 
Si 14.9059365763 1.3300443032 9.5792375437 
Si 1.4489450142 1.3671920195 1.4016872179 
Si 2.6435249342 5.4035722394 13.6003671001 
Si 8.0874475040 13.6200365446 0.0715226980 
Si 9.4049990060 6.3078790177 20.2301383381 
Si 13.5351167738 2.6697518344 10.9448992312 
Si 16.2583486787 10.8707569294 5.4090227424 
Si 12.9713524486 14.2883989607 0.2298961578 
Si 1.3340614172 12.2000046516 6.7869088365 
Si 4.1704843881 4.0559982671 1.4209224238 
Si 6.7229808015 14.8997626663 4.1424108408 
Si 5.4499498698 13.5740335841 13.5987916396 
Si 9.5784712176 9.6320327381 19.3801190412 
Si 16.1878129780 8.3407081363 24.2826020537 
Si 14.9173558664 15.1342083484 1.2920730940 
Si 2.0897463791 6.9281533534 23.2360002951 
Si 1.3796082576 4.0675315872 4.0753662434 
Si 1.3261184131 9.4873286668 9.5079625431 
Si 8.1072724341 13.5429196839 5.4823108314 
Si 14.9082171763 4.0536850871 12.2545153698 
Si 14.9636357569 6.7588350918 22.8615658466 
Si 13.5686904641 13.5569453740 5.4674023069 
Si 4.0288102568 1.3231943581 4.2124021328 
Si 2.6847549245 10.8394638391 8.1455393021 
Si 3.8107848948 12.4331634237 22.4723103993 
Si 5.3939774293 13.5469433139 8.1684710051 
Si 9.2255483644 0.5779903823 24.5930844754 
H 9.6633584084 8.8060157005 21.9528460581 
Si 14.9249795865 14.9048614363 6.8358648131 
Si 4.0252427468 12.2022526716 9.5104424346 
Si 3.3594215707 10.2251679335 23.0829763990 
Si 0.0329957211 16.2390776085 5.5005745033 
Si 8.1272113943 5.4258732496 13.5905350595 
Si 6.7607736018 14.9084941063 9.5204787016 
Si 13.5973934444 2.7661397653 16.4268599603 
Si 13.6016125544 13.5593725840 10.8854401844 
Si 2.6726188744 2.7143864348 5.5058260383 
Si 1.2690089306 12.2769423223 25.0981070952 
Si 8.1300621443 13.5663121241 10.8736242306 
H 5.1694523573 12.9995178589 22.7536759767 
Si 10.7681787985 5.0928079066 23.3488791233 
Si 11.5360568255 7.1338797652 24.3599746699 
Si 13.4295087028 16.2091528782 13.7529533683 
Si 1.3467806493 1.3316733032 6.8657402125 
Si 0.0085160537 0.0426420076 16.2826761482 
Si 6.7408998017 12.2064066216 12.1864788158 
Si 4.0764096373 14.9262176265 12.2537859899 
Si 10.5150810662 10.5539164265 23.7084050473 
Si 9.2904477250 11.8772345886 22.1942124436 
Si 14.9488444367 12.1668545013 14.9327982409 
Si 4.0647785772 4.0575458171 6.8355730612 
Si 1.3186901731 1.3360422812 12.2817358264 
Si 4.3229262095 6.9347019334 20.3838040885 
Si 12.1916315915 6.7171164014 17.7445868029 
Si 10.9018382497 13.4816204133 13.4035220617 
H 14.6263024338 10.9943165806 23.6958305384 
H 14.0279055683 12.5909483652 28.6073578611 
H 2.8539591561 2.9215137867 19.8385780504 
Si 4.0361733369 1.4315456651 27.7352529419 
Si 2.6650603144 8.1280910543 10.8709692879 
Si 3.9540065762 6.8333292625 14.9233163027 
Si 10.4140179052 0.5604036981 17.0548852008 
Si 16.2574853087 2.6813177345 8.2058736047 
Si 16.2843800989 8.0988016341 13.6421459789 
Si 2.7104116748 1.0332128074 22.4320486306 
H 3.3910078810 2.5847180336 25.0082766708 
Si 2.6934537846 16.2623071487 8.2213948083 
Si 9.4973795969 4.0385028069 12.2798394387 
Si 12.2640895122 12.1119409108 12.1416657168 
Si 14.1743852496 9.7101432888 24.3583992094 
Si 12.7201769363 14.8016154154 27.1049520361 
Si 1.3375328162 4.0502153170 9.5312735236 
Si 6.0452190553 4.8511620444 0.2203371970 
Si 6.6958090812 6.8277092124 17.5195585264 
Si 5.9222458442 5.6325119015 21.5944871419 
Si 9.3056625851 0.9149408904 20.6930903272 
Si 9.5001814769 9.4582673065 1.3266602873 
Si 8.4041088169 13.5752390442 16.1398927454 
Si 4.0501827370 1.3346152772 9.5718562194 
Si 5.4600659599 8.0685673938 2.7372138469 
Si 6.7638849919 6.7520747418 12.2103733002 
H 6.0950012957 11.2458667629 22.2921827473 
Si 10.8264807090 10.8412883192 29.1262095232 
Si 16.2885340490 10.8363687391 10.9033829292 
Si 12.7715393068 13.8462557766 23.8317577703 
Si 2.7256591149 11.1224211417 26.5331473957 
Si 2.6200184640 16.2431989786 18.8840532062 
Si 9.4318123463 1.4212389820 15.0682878450 
Si 8.2320701253 5.4429777498 2.8266883339 
Si 12.1338998310 12.2903327024 1.3204430533 
Si 16.1780715580 10.5633483366 21.6660830696 
Si 16.2380350485 16.2540969887 10.9516970516 
Si 5.7745444128 1.7012624556 19.9209688001 
Si 2.6659888444 2.6899351446 10.9057461199 
Si 5.6200174714 5.0956749466 27.1064399711 
Si 8.1140327842 8.0788138039 29.1577479087 
Si 7.0019796340 12.6960514461 19.4558578466 
Si 12.2185589617 9.5022828869 4.0193790448 
Si 12.9279070182 8.6733499393 20.7507988623 
H 4.8685923445 3.2670898499 18.4267320296 
Si 6.8598493827 6.7048337413 1.4061422702 
Si 4.8412577243 4.4605767108 23.2963637729 
Si 10.8523655193 5.4293430197 16.3140686576 
Si 9.4435411464 12.1024275507 4.1930881539 
Si 16.2428405986 8.0523099736 19.0679444582 
Si 13.5608712640 10.8083499388 13.6023218382 
Si 5.4242931196 5.4010635794 5.4635511812 
Si 0.7469649248 1.1652774677 25.5278868880 
Si 2.7171394448 10.8720112594 13.6116870757 
Si 10.8448721192 2.7049871047 13.6868423771 
Si 9.5008330769 9.4645063766 6.8468930367 
Si 9.4290104662 12.2662886622 27.9013765004 
Si 16.2123457183 2.6733519244 13.6296881708 
Si 4.0216589468 4.0578390371 12.2430786935 
Si 8.1327337044 8.1342975444 5.4863953587 
Si 8.6669153893 0.2379985312 18.5469921821 
Si 10.3934436351 0.7834382352 28.1422469076 
Si 10.7731798285 5.2100144576 27.4203358906 
Si 10.8744710495 10.7825954486 5.4785764065 
Si 10.8178632989 13.6593443149 19.0611174627 
Si 2.6295644040 4.5454476116 22.4949211751 
Si 1.4438087772 9.4798352667 27.6768442022 
Si 6.7714109719 6.7602034518 6.8242530857 
Si 6.8587090827 14.8994694463 14.9549130385 
Si 11.0656504912 7.8321343316 19.4975783750 
Si 12.2130203617 12.1864025015 6.8139542420 
Si 14.9264131065 11.8490854684 27.6296387372 
Si 1.2399866663 1.4040611768 17.7271692117 
Si 5.4020409794 8.1249796643 8.1595725708 
H 8.0483352136 13.9247409974 24.3463206788 
Si 16.1082037473 1.9812549781 27.5245496860 
Si 12.5594760849 5.7979531430 25.9786144705 
Si 12.2245048118 9.4553025265 9.5083709958 
Si 2.7348466750 13.5844103142 16.3708435865 
Si 8.1177957742 5.4012916394 8.1922779640 
Si 7.0041624941 8.0289175334 24.7778218081 
Si 8.0716787838 8.1469874545 16.1629411492 
Si 9.4825882767 12.1967955215 9.5230169435 
H 14.1221920892 1.3814311086 24.4236641199 
Si 1.3878053857 6.8078028323 17.6985775209 
Si 2.8183166358 5.5939371812 19.0821819532 
Si 8.0043033432 2.4482892824 23.6405143693 
Si 5.3968118894 5.3940262993 10.8810347300 
Si 13.5971002244 5.4609944899 2.8897971975 
Si 16.2205070083 13.6042189544 2.6101121113 
Si 2.6295155340 13.6083891945 0.0858532619 
Si 2.7246817149 16.2876380990 13.6144878944 
Si 8.1174373942 8.1035420241 10.8487669647 
Si 5.1789982974 14.1517095694 19.6234985152 
Si 6.8762045429 15.0380973475 27.7961999236 
Si 13.4930559934 8.1557840546 29.1478575177 
Si 4.0550045771 14.9690766169 1.3680453009 
Si 7.4530660282 9.0474009227 20.3822869783 
Si 9.5177258071 3.9936238565 1.4989193892 
Si 9.0734649230 6.8086173323 27.4032100513 
Si 8.9539777719 13.9981437380 23.1277603228 
Si 14.9824018370 6.8054896522 4.1704190276 
H 0.2017190718 5.3561194690 20.7599015230 
Si 3.9027745257 6.7352960416 27.1730469405 
Si 4.0159900267 9.5143700670 12.1939768408 
Si 1.3157840370 14.8938331062 4.0454324936 
Si 11.2237286526 15.8287650848 0.6816054856 
Si 13.5588350140 8.1658024047 5.4410571061 
Si 2.6813503145 13.5469921839 5.4185046806 
Si 10.7683416985 2.6254430340 2.9130469102 
H 11.8624106885 11.1692223122 20.8633859385 
Si 13.5671429141 5.4115054695 8.1963624912 
Si 14.9447556467 9.4647507266 12.2668856523 
Si 13.9193327173 13.9729756878 21.7729518077 
Si 0.0296341167 5.3960951293 16.3861022133 
Si 1.8469602169 5.7007670021 26.5018424118 
Si 4.0121944567 14.8932140862 6.8321595634 
Si 8.0620676837 15.4190715810 21.5366035556 
Si 12.2666633322 1.3902049027 1.6332157278 
Si 14.9258592465 6.7770310220 9.5275099235 
Si 0.0033249519 13.5488981139 8.1776611914 
Si 5.3088947586 5.4751993701 16.2268056504 
Si 7.9185364924 5.2941523084 18.7607004831 
Si 9.4334902163 1.2865467448 4.2415189771 
Si 13.5797676642 8.1247353143 10.8950679987 
Si 13.7112931254 13.5329827838 16.3506835270 
Si 12.1871844215 4.0558353671 4.1482458797 
Si 2.1079260193 2.5491895433 24.1911961687 
Si 1.3179685261 14.9142933464 9.5719729202 
Si 6.6698916910 4.1276253978 14.8930908010 
Si 13.6833720651 0.1191497852 18.9870124682 
Si 13.5428056539 8.1020270541 16.3901283902 
Si 9.4885829968 4.0563566471 6.8524946741 
Si 2.7069744848 13.5646831241 10.9014573663 
Si 7.3484353572 11.8127750580 17.3213130786 
H 6.7834655720 12.1719044013 23.9143527465 
Si 16.1762796579 5.3849038993 0.1627964193 
Si 14.9191966364 12.2066509716 20.5090531992 
Si 7.7948953913 7.0963801849 21.7535211281 
Si 5.4930369202 10.8812639795 16.2152814485 
Si 5.3927556793 13.7895828661 26.4168258945 
Si 10.8676618294 16.2304764884 5.5034628475 
Si 10.8408973591 15.3392342903 23.5156153608 
Si 16.2687905688 8.1366433044 2.7074901586 
Si 2.7480904451 5.4308091197 2.7141946183 
Si 6.7487515817 1.2981517409 17.7688313897 
Si 8.0604712637 10.7656375585 13.4627768820 
Si 12.2142258217 1.3284869792 6.8427209839 
Si 14.6045227036 6.9937206040 20.4999213633 
Si 15.4085645309 4.6242097623 23.7504173276 
Si 0.0224518556 2.6896907946 19.3328260507 
Si 2.9723222972 7.8599250719 29.1476241161 
Si 1.2718613096 14.8539551858 27.8063237161 
Si 9.4872960868 1.3432424613 9.5385964975 
Si 8.6233233489 14.3828646715 19.5272203728 
Si 12.2490049720 1.7461251160 18.0597080806 
Si 1.3674086765 6.7752228320 1.3550389992 
Si 1.3877858377 14.9371970866 14.9845842115 
Si 10.8515184392 2.6908799646 8.1883684879 
Si 10.5501208565 11.6286817664 20.2570962180 
Si 14.8733077060 1.2675346856 20.6792612849 
Si 13.5336180938 5.3024927885 19.1157917775 
Si 1.1542230736 3.9568410362 28.0169394465 
Si 4.0701705672 6.7671592819 4.1091802940 
Si 1.3154354310 4.8108442940 24.4056922000 
Si 12.2112936217 4.0340719269 9.5522213134 
H 13.5226549237 7.0470866445 23.3046203530 
Si 14.9865720771 14.9960039871 17.6491839164 
Si 0.0275314035 5.3970562394 5.4781096034 
H 6.4013673285 7.9367324226 23.3786669970 
Si 6.6764565611 9.4299878662 14.8032603766 
Si 5.4939817402 16.2690512088 16.2989850820 
H 11.6267269663 11.7951655679 16.8788712514 
Si 10.8617159793 16.2868235990 10.8753747423 
Si 2.6931116946 8.1321798444 5.4414947340 
Si 2.4557663925 13.7965386962 23.7907666218 
Si 5.8297675133 15.9232145056 21.2091119954 
Si 12.1683857613 1.3107162180 12.3219392447 
Si 9.3912991159 14.8063558054 1.6232874091 
Si 12.3930411533 14.9698748269 20.2672200105 
Si 1.3623310835 6.7733494820 6.8240196841 
Si 4.0824043573 12.4266148436 27.9067447362 
Si 10.8439272992 10.8020457088 10.8281109269 
Si 10.7979243388 13.4442185730 2.8782642431 
Si 9.5068603769 14.9321634766 12.2099356723 
Si 14.3309647311 14.6305704138 25.4241398957 
Si 3.4669029917 1.6157252938 20.2788609132 
Si 1.3467627303 12.2144701717 12.2548654721 
H 4.6942241829 5.2533458581 24.5743831756 
H 10.2129993034 2.1707891299 28.7526211554 
Si 16.2640664687 8.1344115744 8.1469397115 
Si 12.2223219518 14.9019618163 4.1023241233 
Si 2.7055246747 5.4151055595 8.1873473561 
Si 7.4858089285 5.9981246649 25.8350141623 
Si 4.1908631783 9.6447878082 17.7156158346 
H 9.9937033214 3.2258924395 18.5548403095 
Si 9.4868725468 12.1550116712 14.6420966012 
Si 9.4882083268 14.8867469561 6.8387531574 
Si 10.8575783193 13.5387983138 8.1800827326 
Si 4.0536199271 6.7771613420 9.5375461904 
Si 1.4249791660 15.3377193203 22.3129263108 
Si 5.3492613789 10.9151797598 0.0681655083 
Si 8.7778340003 4.4931730011 24.5190961817 
H 9.9391318209 14.3489814712 25.5853036711 
Si 12.2145679117 14.9018966563 9.5381588695 
Si 2.7556001352 8.2354421553 16.3987350726 
Si 2.6859115146 10.9787759204 18.9643141667 
Si 1.0512653856 10.4024682951 23.6884783893 
Si 8.1390216444 10.8069652888 2.7179173731 
Si 15.4460478213 15.8187956047 22.1982386205 
Si 10.8232389990 13.4979104134 26.4735424730 
Si 4.0683786672 1.3439999463 15.0029354089 
Si 6.7636406419 12.2160177217 1.4120735872 
Si 4.1472711379 14.9788506170 17.6699566550 
Si 11.3625357439 0.3032660458 21.5838090206 
Si 14.8593960459 14.9270484165 12.3409906468 
Si 3.9622493162 4.1667702681 17.6187541883 
Si 6.7875869421 9.4575668365 4.0857526127 
Si 7.9242542825 10.9811868404 26.6165009269 
Si 4.0735263073 12.2538593921 14.9622360124 
Si 10.3837347950 4.4484406607 21.1257876394 
Si 14.8751647660 9.4810733067 1.3443608779 
Si 2.9362888168 8.4107714269 21.5994761002 
Si 5.4088664895 10.8309767491 5.4197592140 
Si 10.4639956257 8.2444993954 26.2264869245 
Si 13.8625131968 2.4872712527 27.2462183288 
Si 16.2620627987 5.4016337294 10.8807721533 
Si 13.5548602540 10.9246768299 2.6605443528 
Si 15.0241205274 4.0374928269 17.8315580583 
Si 6.7439134517 12.1820693614 6.8131956869 
H 8.5166727179 7.1752889456 23.0768496081 
Si 10.7819927186 10.8612761493 16.0688803216 
Si 10.5311755863 14.5451456530 16.8199373581 
Si 14.9124525764 12.2539897121 4.0429234269 
Si 1.3144678050 6.7626143718 12.2347929382 
Si 1.6992913655 14.5113927727 20.1618975578 
Si 2.5882692537 16.2813827389 26.4602677594 
Si 6.7668497719 9.4802425167 9.5068247105 
Si 5.2927024984 8.4840275576 26.3041804679 
Si 14.9179097264 9.5152497270 6.7932398537 
H 3.2856930301 7.2938964367 24.1278276459 
Si 5.3914687693 0.0448538638 29.1349912568 
Si 8.1270159143 10.8434548892 8.1638904996 
Si 15.1680589687 0.2676056064 24.4049336449 
H 13.8538143367 6.3451016680 26.9057438069 
Si 13.5745385741 10.8467291792 8.1794408783 
Si 5.3717578691 2.6564591943 2.8644264482 
Si 5.3765308392 2.6909614146 13.5799736391 
Si 5.3918760193 10.8447417992 10.8387015226 
Si 6.2416927471 11.9150762590 25.2986573834 
H 10.3148769643 8.3843001767 21.9960836966 
Si 14.9456678867 12.1944823415 9.5345994958 
Si 1.3857479587 9.4743618267 14.9539210819 
Si 1.2693640526 12.2026273416 17.5865447734 
Si 8.0713529838 0.0057671488 2.8313213548 
Si 6.8018732722 1.3288860842 12.2815316000 
Si 9.4948057768 9.4437692064 12.1807604776 
Si 12.2971256325 9.0062360924 23.0799421788 
Si 2.6495359442 2.6992530247 16.3390426243 
Si 0.4258092009 7.6339176098 26.5107700214 
Si 7.6775748102 3.1146806085 0.3107975138 
Si 12.1412466210 3.4783711518 19.8646023240 
Si 8.4949907277 0.2321830011 26.8557083480 
Si 11.4245191945 4.7860346238 0.3773432154 
Si 15.0355723975 6.8822644229 27.9594059626 
Si 6.6872894112 1.3301192372 1.4662490062 
Si 10.8494984792 8.0965536141 2.7033326933 
Si 11.8520013784 12.0116270899 24.9995824628 
Si 12.1322871210 14.6189067737 15.0289888578 
Si 13.6203134746 10.5353784064 19.3317465685 
Si 6.8024434222 4.0558353671 4.1094136956 
Si 4.4437328506 10.3227776144 25.1773469240 
Si 11.0355139909 1.9045616574 25.1977695602 
Si 12.2790600223 6.7231274115 1.4183958519 
Si 13.5846383742 5.4246026296 13.6280251847 
H 13.0650362395 12.7063630162 17.4274816120 
Si 0.0082206834 13.5774544842 13.6276750823 
Si 5.6375455116 8.2924897358 18.9987992468 
Si 5.3989295894 16.2519792886 5.5263070250 
Si 9.5422422573 6.8049195022 4.1728405688 
Si 14.8294224456 1.3358777522 15.0109002371 
Si 16.2712503588 10.7926626687 16.2676217477 
Si 8.1031184841 2.7061274048 5.5275615583 
Si 5.5603797808 2.8004465056 26.4486268567 
Si 10.8595656993 5.4141281595 5.5144910711 
Si 12.0236002400 9.3682487657 27.6952537500 
Si 16.2179657683 13.5040680335 19.0102359231 
Si 16.1003682572 13.4751532832 26.4525655080 
Si 6.7549092018 1.3325594792 6.8651567086 
Si 6.7982568922 3.8523406852 20.3107494010 
Si 9.5103301470 6.7762328120 14.9307851525 
Si 12.2112447517 9.4172653761 14.9473858383 
Si 13.7884262761 3.9464968861 25.3123697249 
Si 12.2356797519 6.7777314920 6.8224442236 
Si 5.3956064293 2.6885504946 8.2067196854 
Si 9.3506229855 4.0681343172 17.4752414057 
Si 8.6177847488 2.9647637371 21.4586182603 
Si 9.4955062468 6.7368435916 9.5374586649 
Si 10.8516813392 8.1090643342 13.5578296663 
Si 14.9283679065 6.7517978118 15.0354074006 
Si 3.3506086806 12.8568663276 20.2594885839 
Si 7.7636348810 2.4211175621 27.2564004717 
Si 5.3259992587 8.0869262240 13.4911935217 
Si 8.1374740944 16.2633008387 8.1873181809 
Si 10.8544017693 8.0925625640 8.1834378800 
Si 13.6839747951 0.0465911923 2.8866637816 
Si 4.1012681775 9.4287986962 1.3995049134 
Si 6.7683484519 4.0369063869 9.5490995675 
Si 10.8510134492 5.3855392093 10.9054251928 
Si 13.1308967101 3.1188345585 0.2509031732 
H 15.3390062303 3.5502589225 22.6881484895 
Si 12.2547390521 3.2248172995 23.7015488765 
Si 0.0101228179 10.6922836878 29.1075373986 
Si 5.7033408222 2.3843347418 24.0905417471 
Si 5.4401921597 16.2762025189 10.9042581850 
Si 14.8557633759 4.0588490171 1.5271638952 
Si 12.2248957718 6.7499570417 12.2368352018 
Si 14.9517766367 9.4660539266 17.7089055399 
H 2.4332861923 9.4293362662 28.9826675654 

