&CONTROL
/
&SYSTEM
   ntyp             = 2
   nat              = 407
   ibrav            = 0
/
&ELECTRONS
/
&IONS
/
&CELL
/

ATOMIC_SPECIES
Si 28.085 None
H 1.008 None

K_POINTS gamma

CELL_PARAMETERS angstrom
16.29000014900000 0.00000000000000 0.00000000000000
0.00000000000000 16.29000014900000 0.00000000000000
0.00000000000000 0.00000000000000 29.17519467510000

ATOMIC_POSITIONS angstrom
Si 2.6706640744 10.8096857189 2.6932584986 
Si 8.1371320044 2.6927370246 10.9119312612 
Si 4.7787367037 0.3081856258 23.2773415459 
Si 8.9501496219 10.0359432918 17.2325621364 
Si 15.0070323172 1.3864484287 4.2233136556 
Si 12.2445578020 4.0761489973 15.0004846926 
Si 0.1016137629 0.1531163903 29.0948170138 
Si 1.2915445168 12.1644110013 1.3385404266 
Si 3.9971424966 15.1025731681 24.9880290857 
Si 7.9107010023 2.7380883850 16.2652293818 
Si 8.2023571650 16.2778478089 13.6415624750 
Si 13.5637545940 2.7162109148 5.5069930461 
H 15.1414899785 9.4570944265 21.8738688061 
Si 1.3016035919 4.0349190069 14.9633738450 
Si 0.0167853791 2.6776850645 2.7514250842 
Si 1.3260613981 9.4796072067 4.0745493379 
Si 9.7018842587 3.4503686416 26.3547410803 
Si 14.9327010466 4.0645016472 6.8452592258 
Si 12.2856737624 0.8003700613 26.8020551650 
Si 13.3612210222 10.6966819878 26.2968866692 
Si 1.3404405813 4.3906274502 20.4697542120 
Si 4.0333062969 12.1754882014 4.0583279297 
Si 2.7279722949 16.2839891389 2.7914067710 
Si 6.6696962110 9.4971515369 27.9393626038 
Si 12.8783854178 2.1529841597 21.6548506197 
H 12.4330168137 11.0475360110 18.5314126281 
Si 13.5737403641 16.2656791788 8.1963041408 
Si 2.7822994455 2.7704403253 0.0505912463 
Si 4.0538805671 9.4855693467 6.7929189266 
Si 1.3724357706 9.4908635968 20.2342812157 
Si 7.2280522561 11.1826452723 21.2940118119 
Si 5.3853274393 13.5734145641 2.7369308475 
Si 8.9023221814 9.5277930271 25.1030960535 
Si 14.9060994763 1.3302120902 9.5792667188 
Si 1.4473225302 1.3645057985 1.4035602654 
Si 2.6435900942 5.4034744994 13.6002795745 
Si 8.0893697240 13.6216166746 0.0706859534 
Si 9.4058297960 6.3076346677 20.2299049365 
Si 13.5352145138 2.6698984444 10.9448117056 
Si 16.2603197687 10.8678573094 5.4061052229 
Si 12.9711569686 14.2868025407 0.2296557542 
Si 1.3338252122 12.1980987216 6.7861211062 
Si 4.1701585881 4.0525773671 1.4196445502 
Si 6.7222640415 14.8991110663 4.1416814609 
Si 5.4499009998 13.5740661641 13.5987041140 
Si 9.5785526676 9.6321141881 19.3805566692 
Si 16.1824372780 8.3381017363 24.2647176593 
Si 14.9141467364 15.1363260484 1.2926186702 
Si 2.0848593791 6.9244555233 23.2230465086 
Si 1.3812160806 4.0725651973 4.0683933719 
Si 1.3262471041 9.4870191568 9.5076999663 
Si 8.1070280841 13.5429196839 5.4816398019 
Si 14.9083637863 4.0537991171 12.2543694938 
Si 14.9583740868 6.7544693718 22.8574813194 
Si 13.5670940441 13.5574503640 5.4696779721 
Si 4.0295107268 1.3238997151 4.2133649142 
Si 2.6851133046 10.8389099791 8.1453350757 
Si 3.8145804649 12.4368286737 22.4751695683 
Si 5.3941077493 13.5459007539 8.1673331725 
Si 9.2235121144 0.5777199683 24.5924717963 
H 9.6646290284 8.8061623105 21.9528752333 
Si 14.9246863665 14.9054804563 6.8366817186 
Si 4.0253241968 12.2020897716 9.5101215075 
Si 3.3620931307 10.2275951435 23.0902701977 
Si 0.0319067346 16.2435899386 5.5042214026 
Si 8.1272276843 5.4259546996 13.5903016580 
Si 6.7605455418 14.9079076663 9.5198951977 
Si 13.5975237644 2.7661723453 16.4268016099 
Si 13.6017428744 13.5591771040 10.8851776077 
Si 2.6717880844 2.7176933049 5.5023541901 
Si 1.2661842446 12.2746291423 25.0994491542 
Si 8.1298503743 13.5660351941 10.8733616538 
H 5.1705274973 13.0141625690 22.7521588666 
Si 10.7689932985 5.0928567766 23.3482664442 
Si 11.5367735855 7.1340263753 24.3587784870 
Si 13.4296227328 16.2091202982 13.7528074923 
Si 1.3480594143 1.3351398152 6.8662945412 
Si 0.0087526171 0.0429858895 16.2825594474 
Si 6.7408020617 12.2063251716 12.1864204654 
Si 4.0764096373 14.9263153665 12.2534650628 
Si 10.5184530962 10.5539978765 23.7085509232 
Si 9.2905780450 11.8762408986 22.1954669770 
Si 14.9488607267 12.1668545013 14.9325648394 
Si 4.0647948672 4.0605431771 6.8317219355 
Si 1.3187895421 1.3360227332 12.2813565489 
Si 4.3238873195 6.9368196334 20.3875968638 
Si 12.1918759415 6.7170838214 17.7442950510 
Si 10.9018382497 13.4814900933 13.4033470105 
H 14.6337958338 10.9904721405 23.6979019772 
H 14.0084553081 12.6054627553 28.5777742137 
H 2.8537799661 2.9215952367 19.8388698023 
Si 4.0346583669 1.4286199811 27.7372660303 
Si 2.6652232144 8.1280258943 10.8707650615 
Si 3.9541206062 6.8333618425 14.9231704267 
Si 10.4138387152 0.5603629731 17.0549727264 
Si 16.2575667587 2.6822299745 8.2065738094 
Si 16.2843312289 8.0988993741 13.6418834022 
Si 2.7105094148 1.0345665065 22.4342367702 
H 3.3874566610 2.6012849638 25.0180503610 
Si 2.6938121646 16.2622582787 8.2201402749 
Si 9.4973470169 4.0386331269 12.2795185116 
Si 12.2640569322 12.1117943008 12.1412864392 
Si 14.1753300696 9.7067223888 24.3558317923 
Si 12.7196393663 14.8027720054 27.1049228609 
Si 1.3379221472 4.0509157871 9.5312443484 
Si 6.0452516353 4.8492724043 0.2182123675 
Si 6.6959394012 6.8275951824 17.5197627528 
Si 5.9229463142 5.6337825215 21.5987175451 
Si 9.3053856551 0.9145303824 20.6936154807 
Si 9.5023480469 9.4581695665 1.3269870495 
Si 8.4040110769 13.5751413042 16.1398927454 
Si 4.0504107970 1.3348319342 9.5706308612 
Si 5.4223383196 8.0887344140 2.6914554716 
Si 6.7640316019 6.7521887718 12.2099648475 
H 6.0930302057 11.2438305128 22.2938749086 
Si 10.8277024590 10.8406855891 29.1259761217 
Si 16.2886154990 10.8362709991 10.9030911772 
Si 12.7716533368 13.8455878866 23.8323120990 
Si 2.7040748647 11.1117023216 26.5506525125 
Si 2.6203442640 16.2435410686 18.8849576372 
Si 9.4318286363 1.4211884830 15.0681711442 
Si 8.2283397152 5.4463660698 2.8258860161 
Si 12.1346817510 12.2884593524 1.3214466800 
Si 16.1746180779 10.5646189566 21.6603939067 
Si 16.2382305285 16.2539340887 10.9512885988 
Si 5.7744629628 1.7017348656 19.9215231288 
Si 2.6661517444 2.6897559546 10.9051626160 
Si 5.6354278115 5.0688290264 27.0973956607 
Si 8.1158083942 8.0781947839 29.1599360483 
Si 7.0018981840 12.6953835561 19.4565580513 
Si 12.2149588717 9.5006538869 4.0239887256 
Si 12.9286074882 8.6739363793 20.7496610297 
H 4.8687552445 3.2663242199 18.4258567738 
Si 6.8525514627 6.7083360913 1.4041233467 
Si 4.8383906843 4.4746838509 23.3094926105 
Si 10.8523166493 5.4293430197 16.3140103072 
Si 9.4422542364 12.1012872507 4.1927672268 
Si 16.2431338186 8.0519841736 19.0669525016 
Si 13.5608386840 10.8083173588 13.6020884366 
Si 5.4228595996 5.4060971894 5.4567241857 
Si 0.7474568828 1.1629056436 25.5268949314 
Si 2.7172046049 10.8720927094 13.6115995501 
Si 10.8448558292 2.7051011347 13.6866965012 
Si 9.4940075668 9.4625841565 6.8422833560 
Si 9.4315842863 12.2671683222 27.9019891795 
Si 16.2124434583 2.6733519244 13.6294255940 
Si 4.0216426568 4.0577412971 12.2427869415 
Si 8.1231226043 8.1363989544 5.4745210544 
Si 8.6667524893 0.2380001602 18.5472547588 
Si 10.3922870450 0.7832460132 28.1428012363 
Si 10.7697263485 5.2099167176 27.4204817666 
Si 10.8715062694 10.7827420586 5.4810854732 
Si 10.8175537889 13.6594746349 19.0611758130 
Si 2.6272675140 4.5480051416 22.4979845706 
Si 1.4643276614 9.4185522861 27.7150345320 
Si 6.7712806519 6.7609202118 6.8212188654 
Si 6.8585950527 14.8995020263 14.9549422137 
Si 11.0660903212 7.8323461016 19.4972282727 
Si 12.2119452217 12.1861581515 6.8153254761 
Si 14.9409763666 11.8386272883 27.6461810726 
Si 1.2402440483 1.4040399998 17.7275484893 
Si 5.4022038794 8.1247516043 8.1584347382 
H 8.0437903036 13.9228513573 24.3438116121 
Si 16.1053855773 1.9749996181 27.5224782471 
Si 12.5533510448 5.7946788530 25.9766013821 
Si 12.2233645118 9.4548464065 9.5063870825 
Si 2.7349769950 13.5846546642 16.3707560609 
Si 8.1175188442 5.4020735594 8.1911109562 
Si 7.0094730341 8.0281030334 24.7689233737 
Si 8.0717276538 8.1469874545 16.1630870252 
Si 9.4821158667 12.1962579515 9.5226376660 
H 14.1234627092 1.3801132476 24.4240725726 
Si 1.3888251397 6.8071186523 17.6988984481 
Si 2.8205646558 5.5947842612 19.0837865889 
Si 8.0025766032 2.4492178124 23.6400767413 
Si 5.3967467294 5.3941240393 10.8807429781 
Si 13.5980124644 5.4610270699 2.8898176202 
Si 16.2144634183 13.6150029345 2.6204488828 
Si 2.6323011241 13.6154590545 0.0873283597 
Si 2.7247142949 16.2877032590 13.6143420184 
Si 8.1176654542 8.1035583141 10.8480375849 
Si 5.1789982974 14.1515955394 19.6235860408 
Si 6.8763674429 15.0379996075 27.7961415732 
Si 13.4945709634 8.1573804746 29.1483534960 
Si 4.0580182271 14.9723671969 1.3694690505 
Si 7.4535710182 9.0476778528 20.3831622342 
Si 9.5163248670 3.9962302566 1.4991936361 
Si 9.0720151130 6.8102626223 27.4027432482 
Si 8.9531144019 13.9969708580 23.1281687756 
Si 14.9860019271 6.8046588622 4.1691061439 
H 0.2032829119 5.3579276590 20.7544749368 
Si 3.9255968159 6.7046056813 27.2016678065 
Si 4.0159900267 9.5143537770 12.1938893152 
Si 1.3160951760 14.8983943063 4.0530180443 
Si 11.2233539826 15.8287162148 0.6817192689 
Si 13.5613110940 8.1646621047 5.4394816456 
Si 2.6820996545 13.5448419039 5.4184755055 
Si 10.7668593085 2.6269091340 2.9128456013 
H 11.8620360185 11.1689616721 20.8624815075 
Si 13.5673872641 5.4116357895 8.1959248633 
Si 14.9444624267 9.4646529866 12.2663604988 
Si 13.9185996673 13.9729268178 21.7728351069 
Si 0.0299131644 5.3959973893 16.3862480893 
Si 1.8451846069 5.7261468224 26.5143002199 
Si 4.0122270367 14.8919434662 6.8314301836 
Si 8.0618722037 15.4183385310 21.5371287092 
Si 12.2644804722 1.3905013807 1.6335629126 
Si 14.9260873065 6.7771287620 9.5270722956 
Si 0.0035578338 13.5482953839 8.1767859356 
Si 5.3090902386 5.4752645301 16.2266597744 
Si 7.9181618224 5.2939242484 18.7614590382 
Si 9.4334902163 1.2864799558 4.2413731011 
Si 13.5792138042 8.1248656343 10.8940468669 
Si 13.7114071554 13.5331293938 16.3504793006 
Si 12.1869074915 4.0563892271 4.1479541277 
Si 2.1081540793 2.5521054533 24.1951639952 
Si 1.3180727821 14.9142770564 9.5710393139 
Si 6.6699894310 4.1276091077 14.8929157498 
Si 13.6833883551 0.1192287917 18.9869832930 
Si 13.5429522639 8.1019618941 16.3896324118 
Si 9.4888599268 4.0566009971 6.8524654989 
Si 2.7069907748 13.5647971541 10.9009905632 
Si 7.3483539072 11.8126773180 17.3215464802 
H 6.7728933619 12.1643947113 23.9219091219 
Si 16.1600548178 5.3746900692 0.1404998603 
Si 14.9169323264 12.2083288417 20.5059022782 
Si 7.7967524513 7.0965267949 21.7547173110 
Si 5.4928577302 10.8810359195 16.2156023756 
Si 5.3901655693 13.7903810761 26.4170009457 
Si 10.8676129594 16.2302484284 5.5032294460 
Si 10.8400502791 15.3381754403 23.5165781423 
Si 16.2758441389 8.1229108343 2.7019906344 
Si 2.7475691651 5.4369341597 2.7000563190 
Si 6.7485886817 1.2983146409 17.7690647913 
Si 8.0604223937 10.7655235285 13.4626310061 
Si 12.2142258217 1.3282572902 6.8426042831 
Si 14.6055326836 6.9940301140 20.4986084795 
Si 15.4104541709 4.6247473323 23.7536557742 
Si 0.0227757008 2.6898048246 19.3332053282 
Si 2.8741098863 7.9435090626 29.0901781578 
Si 1.2714345116 14.8539226058 27.8054192851 
Si 9.4873449568 1.3432864443 9.5385964975 
Si 8.6228998089 14.3827343515 19.5274245992 
Si 12.2490538420 1.7460762460 18.0596205550 
Si 1.3537609144 6.7534105218 1.3254611868 
Si 1.3877972407 14.9372948266 14.9844675107 
Si 10.8516650492 2.6909288346 8.1882809623 
Si 10.5494529665 11.6290075664 20.2575338459 
Si 14.8732099660 1.2675868136 20.6794363361 
Si 13.5338135738 5.3025090785 19.1158209527 
Si 1.1517372195 3.9505530961 28.0076617346 
Si 4.0699262172 6.7751088020 4.0968100115 
Si 1.3164128310 4.8100297940 24.4166328980 
Si 12.2115379717 4.0342348269 9.5519879118 
H 13.5142818636 7.0400819444 23.2939130565 
Si 14.9866535271 14.9963949472 17.6488046388 
Si 0.0283804383 5.3955738493 5.4770301212 
H 6.4038759886 7.9342563426 23.3713731984 
Si 6.6764239811 9.4299878662 14.8033479022 
Si 5.4938514203 16.2691163688 16.2991309580 
H 11.6260916563 11.7955728179 16.8782002219 
Si 10.8616182393 16.2869050490 10.8755789686 
Si 2.6940239346 8.1309906744 5.4388106161 
Si 2.4543002925 13.7973531962 23.7921670312 
Si 5.8297838033 15.9235403056 21.2091703458 
Si 12.1684835013 1.3108221030 12.3219100695 
Si 9.3919181359 14.8062906454 1.6237104494 
Si 12.3926501933 14.9702332069 20.2672200105 
Si 1.3626194165 6.7733169020 6.8224150484 
Si 4.0777128373 12.4278528837 27.9005887701 
Si 10.8440087492 10.8018176488 10.8274690726 
Si 10.7977125688 13.4427850529 2.8779608210 
Si 9.5066648969 14.9319679966 12.2097897963 
Si 14.3313719811 14.6285341638 25.4256278306 
Si 3.4669681517 1.6161846718 20.2803488481 
Si 1.3468458093 12.2145027517 12.2546320705 
H 4.6877570529 5.2758097683 24.5891166489 
H 10.2117775534 2.1705447799 28.7530879585 
Si 16.2644574287 8.1342160944 8.1462103316 
Si 12.2219309918 14.9012287663 4.1022365977 
Si 2.7056387047 5.4155128095 8.1864137499 
Si 7.4898488485 5.9990206149 25.8306378831 
Si 4.1908794683 9.6445760382 17.7164035649 
H 9.9939476714 3.2262182395 18.5548986599 
Si 9.4867422268 12.1549628012 14.6419215500 
Si 9.4878825268 14.8866492161 6.8384614055 
Si 10.8569430093 13.5390263738 8.1806078861 
Si 4.0537339571 6.7772916620 9.5369626866 
Si 1.4246582530 15.3386967203 22.3131305371 
Si 5.3591819890 10.9293194800 0.0531989252 
Si 8.7800331503 4.4927331711 24.5177832979 
H 9.9412006509 14.3465216812 25.5836406850 
Si 12.2142909817 14.9018966563 9.5384506215 
Si 2.7556815852 8.2354584453 16.3987642478 
Si 2.6860418346 10.9791505904 18.9650143714 
Si 1.0505942376 10.4043090652 23.6789964510 
Si 8.1376207044 10.8046195288 2.7176402088 
Si 15.4455754113 15.8182254547 22.1975967662 
Si 10.8254381490 13.4966723734 26.4729881443 
Si 4.0683460872 1.3441042023 15.0029354089 
Si 6.7678108819 12.2176304317 1.4120677522 
Si 4.1471245279 14.9790298070 17.6702775821 
Si 11.3622099439 0.3028506508 21.5846842765 
Si 14.8594774959 14.9270158365 12.3406988948 
Si 3.9626076962 4.1669983281 17.6189000643 
Si 6.7686742519 9.4518164664 4.0642213190 
Si 7.9304119025 10.9825389104 26.6142252617 
Si 4.0736240473 12.2538593921 14.9623235380 
Si 10.3841257550 4.4481637307 21.1257876394 
Si 14.8726072360 9.4747527867 1.3603547196 
Si 2.9368426769 8.4170919470 21.5973171358 
Si 5.4100067895 10.8279630990 5.4162581906 
Si 10.4658852657 8.2441410154 26.2273330051 
Si 13.8604280768 2.4850395227 27.2458974016 
Si 16.2621931187 5.4019432394 10.8807138029 
Si 13.5509017839 10.9228849299 2.6676193375 
Si 15.0243648774 4.0374113769 17.8316747591 
Si 6.7438157117 12.1806032614 6.8111242481 
H 8.5176012479 7.1732038256 23.0792419741 
Si 10.7816832086 10.8610969593 16.0686177448 
Si 10.5310941363 14.5451130730 16.8198790077 
Si 14.9101068164 12.2538593921 4.0468620782 
Si 1.3146258180 6.7626958219 12.2347637630 
Si 1.6997637755 14.5112624527 20.1624227113 
Si 2.5886602137 16.2799655089 26.4602677594 
Si 6.7663936519 9.4801284867 9.5064454329 
Si 5.3000655785 8.4608794674 26.3089651998 
Si 14.9190174464 9.5150705370 6.7918977948 
H 3.2685070799 7.2965517067 24.1220509574 
Si 5.3934398593 0.0457053421 29.1358956879 
Si 8.1261851243 10.8431127992 8.1632778205 
Si 15.1685639587 0.2654097144 24.4047294186 
H 13.8287114465 6.3522692681 26.9046934999 
Si 13.5750109842 10.8461264492 8.1787114985 
Si 5.3729144591 2.6559216243 2.8648115608 
Si 5.3765308392 2.6909451246 13.5798277631 
Si 5.3917782793 10.8446440592 10.8385848218 
Si 6.2350627170 11.9078760789 25.3071765403 
H 10.3144860043 8.3822965067 21.9971340036 
Si 14.9457656267 12.1942542815 9.5340743423 
Si 1.3857821677 9.4743781166 14.9538043811 
Si 1.2698364626 12.2027902416 17.5864864230 
Si 8.0715321738 0.0052103077 2.8315314162 
Si 6.8018406922 1.3288681652 12.2812106729 
Si 9.4948057768 9.4437692064 12.1804103753 
Si 12.2975817525 9.0061220624 23.0782208423 
Si 2.6495522342 2.6994322147 16.3391885003 
Si 0.4030357807 7.6562674900 26.4918061448 
Si 7.6784870502 3.1150064085 0.3117136149 
Si 12.1415072610 3.4781105118 19.8647482000 
Si 8.4957074877 0.2303976171 26.8554165961 
Si 11.4236721145 4.7857902738 0.3767188662 
Si 15.0263522574 6.8878681830 27.9457227963 
Si 6.6890976012 1.3306568072 1.4665115830 
Si 10.8510623192 8.0952504140 2.7022765513 
Si 11.8580123884 12.0091510098 25.0022957559 
Si 12.1322382510 14.6189067737 15.0288429818 
Si 13.6191243046 10.5355901764 19.3298793560 
Si 6.8028506722 4.0561611671 4.1092969948 
Si 4.4318411505 10.3084261243 25.1961357493 
Si 11.0341130509 1.9042032774 25.1963399757 
Si 12.2808193423 6.7221663015 1.4170946382 
Si 13.5847361142 5.4246514996 13.6278793087 
H 13.0650199495 12.7064607562 17.4271606849 
Si 0.0082743264 13.5774707742 13.6275000312 
Si 5.6381156616 8.2923105458 18.9994702763 
Si 5.3990924894 16.2514742986 5.5265112513 
Si 9.5416721073 6.8057502922 4.1714693346 
Si 14.8295364756 1.3359722342 15.0107251859 
Si 16.2714947088 10.7929070187 16.2674758717 
Si 8.1033465441 2.7060785348 5.5277074343 
Si 5.5646151809 2.7823320255 26.4450383078 
Si 10.8591258693 5.4150078195 5.5140826184 
Si 12.0260437400 9.3692913257 27.6953121004 
Si 16.2184870483 13.5049476935 19.0094190177 
Si 16.0988532872 13.4712762632 26.4567375608 
Si 6.7548929118 1.3324959482 6.8652734094 
Si 6.7971328822 3.8530900252 20.3128500150 
Si 9.5103138570 6.7762979720 14.9306976269 
Si 12.2111958817 9.4172490861 14.9471524367 
Si 13.7877258061 3.9464317261 25.3130991048 
Si 12.2370318219 6.7778943920 6.8210438143 
Si 5.3948245093 2.6900654646 8.2046774217 
Si 9.3504275055 4.0682646372 17.4753872817 
Si 8.6177358788 2.9647474471 21.4586182603 
Si 9.4960275268 6.7372182616 9.5362624819 
Si 10.8516650492 8.1090480442 13.5575670895 
Si 14.9286611265 6.7517000718 15.0352615246 
Si 3.3510810907 12.8562635976 20.2612682708 
Si 7.7660946710 2.4187880921 27.2574216035 
Si 5.3261458687 8.0869425140 13.4910184705 
Si 8.1374578044 16.2632193887 8.1874348817 
Si 10.8526750293 8.0929209440 8.1794700535 
Si 13.6820199951 0.0483544219 2.8873085534 
Si 4.0561937471 9.4551722065 1.3225349148 
Si 6.7680226519 4.0372810569 9.5481659613 
Si 10.8510297392 5.3857509793 10.9050167401 
Si 13.1282740201 3.1167820185 0.2503004137 
H 15.3407166803 3.5487928225 22.6923788927 
Si 12.2548856621 3.2250127795 23.7015488765 
Si 0.0282857934 10.6901008278 29.1489078247 
Si 5.7006366821 2.3889122319 24.0870990741 
Si 5.4401921597 16.2762513889 10.9036163307 
Si 14.8522447358 4.0578227471 1.5240713245 
Si 12.2250098018 6.7500384917 12.2365434498 
Si 14.9518743767 9.4660539266 17.7082345104 
H 2.8683595162 8.3957031768 27.3750268132 

