&CONTROL
/
&SYSTEM
   ntyp             = 2
   nat              = 407
   ibrav            = 0
/
&ELECTRONS
/
&IONS
/
&CELL
/

ATOMIC_SPECIES
Si 28.085 None
H 1.008 None

K_POINTS gamma

CELL_PARAMETERS angstrom
16.29000014900000 0.00000000000000 0.00000000000000
0.00000000000000 16.29000014900000 0.00000000000000
0.00000000000000 0.00000000000000 29.17519467510000

ATOMIC_POSITIONS angstrom
Si 2.6692305544 10.8046358188 2.6973167682 
Si 8.1374089344 2.6924438046 10.9125147651 
Si 4.7785412237 0.3066869458 23.2771956700 
Si 8.9501984919 10.0360084518 17.2322120341 
Si 15.0071626373 1.3844936287 4.2242472618 
Si 12.2445415120 4.0761001273 15.0006013934 
Si 0.1022236605 0.1551914105 29.0942335099 
Si 1.2875941918 12.1457426611 1.3188792629 
Si 3.9966700866 15.1021333381 24.9891085679 
Si 7.9107010023 2.7381698350 16.2652585569 
Si 8.2024711950 16.2778966789 13.6417375262 
Si 13.5643736141 2.7159502748 5.5073139732 
H 15.1444710485 9.4558400965 21.8773698295 
Si 1.3015921889 4.0350330369 14.9634613705 
Si 0.0175040939 2.6757302645 2.7536919969 
Si 1.3239176341 9.4834842267 4.0806761288 
Si 9.7022100587 3.4509387916 26.3551495330 
Si 14.9325870166 4.0649251872 6.8456968538 
Si 12.2882475824 0.8007593923 26.8029887713 
Si 13.3492152921 10.7000865979 26.2938232738 
Si 1.3393344902 4.3905785801 20.4698417375 
Si 4.0318727769 12.1784204014 4.0580070026 
Si 2.7272881149 16.2840705889 2.7889152094 
Si 6.6611765409 9.4955388268 27.9426594008 
Si 12.8785483178 2.1532773797 21.6544713421 
H 12.4350367737 11.0485622810 18.5326963367 
Si 13.5740335841 16.2655651488 8.1957498121 
Si 2.7862579155 2.7725743154 0.0498901664 
Si 4.0540271771 9.4860906268 6.7942609856 
Si 1.3737666636 9.4902119968 20.2359442018 
Si 7.2288667561 11.1833294523 21.2915902708 
Si 5.3852296992 13.5748317942 2.7373830630 
Si 8.8985591914 9.5277441571 25.1042047109 
Si 14.9059528663 1.3300882862 9.5792958940 
Si 1.4490329802 1.3672555505 1.4018389289 
Si 2.6435249342 5.4035559494 13.6003671001 
Si 8.0873986340 13.6201017046 0.0715804649 
Si 9.4050967460 6.3078953077 20.2300216373 
Si 13.5351167738 2.6697518344 10.9449575816 
Si 16.2583975487 10.8706428994 5.4089643920 
Si 12.9711732586 14.2887084707 0.2300574966 
Si 1.3340777072 12.1999232016 6.7868796613 
Si 4.1705984181 4.0561611671 1.4209661866 
Si 6.7227690315 14.8996649263 4.1423524904 
Si 5.4499498698 13.5740335841 13.5988791652 
Si 9.5785363776 9.6320164481 19.3800898660 
Si 16.1879107180 8.3404800763 24.2828646304 
Si 14.9173232864 15.1343549584 1.2920468363 
Si 2.0900884691 6.9282673834 23.2366713246 
Si 1.3795659036 4.0671080472 4.0760664481 
Si 1.3261233001 9.4873449568 9.5080208934 
Si 8.1071584042 13.5429522639 5.4823691818 
Si 14.9082171763 4.0536850871 12.2545737202 
Si 14.9638963969 6.7588350918 22.8617700730 
Si 13.5685927241 13.5569127940 5.4675481829 
Si 4.0288102568 1.3232073901 4.2123437824 
Si 2.6847549245 10.8394964191 8.1455976525 
Si 3.8104428049 12.4332448737 22.4721645233 
Si 5.3939611393 13.5469921839 8.1685001803 
Si 9.2256786844 0.5780604293 24.5930844754 
H 9.6633909884 8.8059342505 21.9527877077 
Si 14.9249795865 14.9048288563 6.8359523387 
Si 4.0252427468 12.2022852516 9.5105007850 
Si 3.3590631907 10.2252168035 23.0826554719 
Si 0.0330633246 16.2391101885 5.5008079048 
Si 8.1272113943 5.4258732496 13.5905934099 
Si 6.7607573118 14.9085103963 9.5205662272 
Si 13.5974423144 2.7661397653 16.4268891354 
Si 13.6016451344 13.5593888740 10.8854985348 
Si 2.6727329044 2.7141420848 5.5062053158 
Si 1.2683719916 12.2787505123 25.0963565835 
Si 8.1300458543 13.5663284141 10.8737117562 
H 5.1692405873 12.9990128689 22.7538510279 
Si 10.7682602485 5.0928893566 23.3488207729 
Si 11.5362197255 7.1338797652 24.3600330203 
Si 13.4295087028 16.2091365882 13.7529825435 
Si 1.3467822783 1.3315918532 6.8659736141 
Si 0.0085039502 0.0426061696 16.2827053234 
Si 6.7408998017 12.2064229116 12.1865371662 
Si 4.0764096373 14.9262013365 12.2538735155 
Si 10.5149507462 10.5539815865 23.7082883465 
Si 9.2903662750 11.8773160386 22.1940957428 
Si 14.9488444367 12.1668382113 14.9328565913 
Si 4.0648274472 4.0574480771 6.8358064628 
Si 1.3186901731 1.3360634582 12.2817650016 
Si 4.3230076595 6.9346693534 20.3837165629 
Si 12.1917130415 6.7171326914 17.7446159781 
Si 10.9018708297 13.4816529933 13.4035804120 
H 14.6264001738 10.9942351305 23.6961514655 
H 14.0247615983 12.5931638052 28.6054906487 
H 2.8540406061 2.9216929767 19.8384613496 
Si 4.0362710769 1.4317199681 27.7351945915 
Si 2.6650440244 8.1281073443 10.8710276383 
Si 3.9539739962 6.8333292625 14.9233163027 
Si 10.4140830652 0.5604020691 17.0548268504 
Si 16.2575015987 2.6813666045 8.2059319551 
Si 16.2843963889 8.0988016341 13.6422335045 
Si 2.7105257048 1.0335858485 22.4319027546 
H 3.3909915910 2.5850601236 25.0084808972 
Si 2.6935026546 16.2621279587 8.2213948083 
Si 9.4973958869 4.0384865169 12.2799561395 
Si 12.2641058022 12.1119572008 12.1417240672 
Si 14.1743363796 9.7100129688 24.3585742606 
Si 12.7199325863 14.8019412154 27.1049812113 
Si 1.3375377032 4.0502316070 9.5313318740 
Si 6.0452679253 4.8513738144 0.2202619250 
Si 6.6957927912 6.8277255024 17.5195293512 
Si 5.9223598742 5.6324467415 21.5943120907 
Si 9.3057603251 0.9149783574 20.6929444512 
Si 9.5001000269 9.4582673065 1.3267419779 
Si 8.4041413969 13.5752390442 16.1398927454 
Si 4.0501501570 1.3344833282 9.5718853946 
Si 5.4617764099 8.0681438538 2.7390693893 
Si 6.7638687019 6.7520747418 12.2104608258 
H 6.0948546857 11.2460296629 22.2917159442 
Si 10.8263666790 10.8414023492 29.1264137496 
Si 16.2885340490 10.8363850291 10.9034412796 
Si 12.7715230168 13.8464023866 23.8317577703 
Si 2.7256754049 11.1254347917 26.5299381243 
Si 2.6200673340 16.2432967186 18.8839073302 
Si 9.4318286363 1.4212340950 15.0682878450 
Si 8.2322818953 5.4427659798 2.8268196223 
Si 12.1339487010 12.2903489924 1.3206356096 
Si 16.1781041380 10.5631854366 21.6662581208 
Si 16.2380513385 16.2541295687 10.9517262267 
Si 5.7745769928 1.7012624556 19.9208812745 
Si 2.6659888444 2.6898862746 10.9057461199 
Si 5.6196753814 5.0963917066 27.1065274967 
Si 8.1140816542 8.0787649339 29.1577479087 
Si 7.0020285040 12.6961166061 19.4557411458 
Si 12.2184775117 9.5023317569 4.0195249208 
Si 12.9279884682 8.6733010693 20.7508863879 
H 4.8686737945 3.2671224299 18.4266445041 
Si 6.8602566327 6.7046871313 1.4063640016 
Si 4.8413880443 4.4604789708 23.2961011961 
Si 10.8524306793 5.4293593097 16.3140978328 
Si 9.4435085664 12.1024438407 4.1932340299 
Si 16.2428894686 8.0522773936 19.0680319838 
Si 13.5608712640 10.8083499388 13.6023801886 
Si 5.4243745696 5.4009169694 5.4638721084 
Si 0.7469714408 1.1654273357 25.5277993624 
Si 2.7171231548 10.8720112594 13.6117454261 
Si 10.8448884092 2.7049871047 13.6869007275 
Si 9.5010774269 9.4645552466 6.8473014895 
Si 9.4289615962 12.2663375322 27.9014640260 
Si 16.2123457183 2.6733519244 13.6297465212 
Si 4.0216426568 4.0578227471 12.2431078686 
Si 8.1333038544 8.1340531944 5.4870955633 
Si 8.6669642593 0.2379838702 18.5468754813 
Si 10.3933947651 0.7836337152 28.1423052580 
Si 10.7730820885 5.2100633277 27.4203650658 
Si 10.8744547595 10.7826443186 5.4787222824 
Si 10.8179447489 13.6593280249 19.0610882875 
Si 2.6296132741 4.5455127716 22.4951837519 
Si 1.4347108121 9.4887458968 27.6674206143 
Si 6.7714272619 6.7601382918 6.8245740128 
Si 6.8587416627 14.8994531563 14.9549130385 
Si 11.0657482312 7.8321506216 19.4975783750 
Si 12.2129877817 12.1864025015 6.8141292931 
Si 14.9246537865 11.8507307584 27.6295512116 
Si 1.2399622313 1.4041149338 17.7271108613 
Si 5.4020083994 8.1250285343 8.1596892715 
H 8.0486773036 13.9247735774 24.3463790292 
Si 16.1082851973 1.9812386881 27.5245496860 
Si 12.5596064049 5.7979857230 25.9788186969 
Si 12.2246351318 9.4553513965 9.5085168718 
Si 2.7348303850 13.5843777342 16.3709019369 
Si 8.1178446442 5.4012590594 8.1924821904 
Si 7.0036412140 8.0290315634 24.7780843848 
Si 8.0716787838 8.1469874545 16.1629411492 
Si 9.4825394067 12.1967955215 9.5231044691 
H 14.1221595092 1.3818660516 24.4235474191 
Si 1.3878102727 6.8078191223 17.6986358713 
Si 2.8183492158 5.5939534712 19.0821819532 
Si 8.0044336632 2.4483218624 23.6403976685 
Si 5.3967955994 5.3940262993 10.8810930804 
Si 13.5970513544 5.4610433599 2.8899022282 
Si 16.2198554083 13.6050497444 2.6111449132 
Si 2.6295806940 13.6081611345 0.0857158467 
Si 2.7246654249 16.2876380990 13.6145462447 
Si 8.1174373942 8.1035583141 10.8488253151 
Si 5.1790308774 14.1517095694 19.6234401648 
Si 6.8761556729 15.0380973475 27.7961707484 
Si 13.4927139034 8.1558003446 29.1478866929 
Si 4.0548905471 14.9690440369 1.3678323220 
Si 7.4531148982 9.0473846327 20.3822578031 
Si 9.5177909671 3.9934609565 1.4989514819 
Si 9.0733997630 6.8087150723 27.4030641753 
Si 8.9540429319 13.9982414780 23.1276144469 
Si 14.9825484470 6.8056688422 4.1701564509 
H 0.2018575368 5.3562497890 20.7600182238 
Si 3.9020088957 6.7363060216 27.1749433282 
Si 4.0159574467 9.5143700670 12.1940351912 
Si 1.3159257600 14.8940122962 4.0458117712 
Si 11.2234191426 15.8289768548 0.6817980419 
Si 13.5589327540 8.1658349847 5.4410279309 
Si 2.6814806345 13.5467152539 5.4184171551 
Si 10.7683905685 2.6253941640 2.9131636109 
H 11.8624106885 11.1692060222 20.8633859385 
Si 13.5671592041 5.4115217595 8.1964500168 
Si 14.9448045167 9.4647670166 12.2669731779 
Si 13.9194304573 13.9730245578 21.7730101581 
Si 0.0296531760 5.3961277093 16.3861605637 
Si 1.8474326269 5.7003597521 26.5021633390 
Si 4.0121618767 14.8930674762 6.8320428626 
Si 8.0620839737 15.4191856110 21.5365160301 
Si 12.2666959122 1.3902179347 1.6333295111 
Si 14.9258918265 6.7770473120 9.5275390987 
Si 0.0033863978 13.5488655339 8.1776611914 
Si 5.3088784685 5.4751993701 16.2267764752 
Si 7.9186016524 5.2941685984 18.7605837823 
Si 9.4334413463 1.2864783268 4.2415481523 
Si 13.5798491142 8.1247353143 10.8951846995 
Si 13.7112931254 13.5329339138 16.3507418773 
Si 12.1872170015 4.0558190771 4.1483917557 
Si 2.1080237593 2.5494338933 24.1912253439 
Si 1.3179734131 14.9142770564 9.5720312706 
Si 6.6698754010 4.1276253978 14.8931199762 
Si 13.6833883551 0.1191372419 18.9869832930 
Si 13.5428545239 8.1020596341 16.3901575654 
Si 9.4885667068 4.0563729371 6.8526113749 
Si 2.7069581948 13.5646994141 10.9015448919 
Si 7.3484516472 11.8127587680 17.3212547282 
H 6.7841823321 12.1722790713 23.9141776953 
Si 16.1762470779 5.3845618093 0.1627068514 
Si 14.9193269564 12.2065858116 20.5092574256 
Si 7.7949768413 7.0963313149 21.7534044273 
Si 5.4930043402 10.8812476895 16.2153106237 
Si 5.3926253593 13.7894036761 26.4169425953 
Si 10.8676781194 16.2304764884 5.5035211979 
Si 10.8409299391 15.3393646103 23.5154986601 
Si 16.2691978188 8.1363826644 2.7068074590 
Si 2.7480089951 5.4299620397 2.7150990493 
Si 6.7487841617 1.2981387089 17.7687730393 
Si 8.0604712637 10.7656375585 13.4628352324 
Si 12.2142421117 1.3285277042 6.8427793343 
Si 14.6046204436 6.9937043140 20.5000672392 
Si 15.4087763009 4.6241934723 23.7505923788 
Si 0.0225178301 2.6897722446 19.3328552259 
Si 2.9816401773 7.8518452318 29.1568726528 
Si 1.2720209516 14.8541343759 27.8064404169 
Si 9.4872960868 1.3432489773 9.5386840230 
Si 8.6233885089 14.3828809615 19.5271620224 
Si 12.2490375520 1.7461251160 18.0597080806 
Si 1.3675161905 6.7738056020 1.3555145548 
Si 1.3877874667 14.9371807966 14.9846133867 
Si 10.8515184392 2.6909125446 8.1884560135 
Si 10.5501371465 11.6286654764 20.2570670428 
Si 14.8733239960 1.2676014746 20.6791737593 
Si 13.5336995438 5.3025253685 19.1158501279 
Si 1.1543419906 3.9567107162 28.0169977969 
Si 4.0702683072 6.7669149319 4.1095595715 
Si 1.3155592350 4.8111863840 24.4060423023 
Si 12.2112936217 4.0340882169 9.5523088390 
H 13.5229318537 7.0470703544 23.3048537545 
Si 14.9865883671 14.9959388271 17.6492130916 
Si 0.0274725966 5.3972191394 5.4781679537 
H 6.4013510385 7.9366998426 23.3786961722 
Si 6.6764402711 9.4300041562 14.8032895518 
Si 5.4939980303 16.2690512088 16.2989267316 
H 11.6267758363 11.7951329879 16.8789587769 
Si 10.8617322693 16.2868398890 10.8754330927 
Si 2.6931605646 8.1321472644 5.4415822596 
Si 2.4556197825 13.7976301262 23.7898038404 
Si 5.8297512233 15.9232307956 21.2090244698 
Si 12.1683857613 1.3107145890 12.3219975951 
Si 9.3911687959 14.8063395154 1.6234595427 
Si 12.3931388933 14.9698259569 20.2671908353 
Si 1.3623766955 6.7733657720 6.8240780345 
Si 4.0823717773 12.4261587236 27.9067155610 
Si 10.8439435892 10.8020619988 10.8281984525 
Si 10.7978917588 13.4442348630 2.8784072015 
Si 9.5068603769 14.9321797666 12.2099940227 
Si 14.3307529611 14.6311405638 25.4241690709 
Si 3.4669681517 1.6158735328 20.2787150372 
Si 1.3467545853 12.2144864617 12.2549529977 
H 4.6946965929 5.2532644080 24.5740914237 
H 10.2129993034 2.1710008999 28.7526211554 
Si 16.2640827587 8.1344278644 8.1469980619 
Si 12.2223545318 14.9019618163 4.1024116489 
Si 2.7055246747 5.4151218495 8.1874057065 
Si 7.4856623185 5.9982549849 25.8349558119 
Si 4.1908468883 9.6447878082 17.7156741850 
H 9.9936870314 3.2258761495 18.5548403095 
Si 9.4869214168 12.1550116712 14.6421257764 
Si 9.4881757468 14.8867469561 6.8388115078 
Si 10.8575457393 13.5387983138 8.1801994334 
Si 4.0535873471 6.7771776320 9.5376045408 
Si 1.4248781680 15.3384360803 22.3123428069 
Si 5.3494731489 10.9145933198 0.0683533966 
Si 8.7778014203 4.4933033211 24.5189794809 
H 9.9389363409 14.3489977612 25.5853328463 
Si 12.2145679117 14.9019129463 9.5382172199 
Si 2.7556164252 8.2354258653 16.3987934230 
Si 2.6858789346 10.9786944704 18.9644016923 
Si 1.0510389546 10.4025497451 23.6889160172 
Si 8.1390379344 10.8069489988 2.7180807542 
Si 15.4459337913 15.8190073747 22.1982386205 
Si 10.8230760990 13.4979918634 26.4735716482 
Si 4.0683786672 1.3440064623 15.0029645841 
Si 6.7636895119 12.2160177217 1.4120794223 
Si 4.1473037179 14.9788669070 17.6698983046 
Si 11.3626334839 0.3033149158 21.5836631447 
Si 14.8594123359 14.9270809965 12.3410489972 
Si 3.9622656062 4.1667865581 17.6187541883 
Si 6.7885969221 9.4575994165 4.0869196205 
Si 7.9242542825 10.9812520004 26.6164717517 
Si 4.0735100173 12.2538593921 14.9622651876 
Si 10.3838325350 4.4485058207 21.1257584642 
Si 14.8750507360 9.4809429867 1.3441537340 
Si 2.9362888168 8.4105107869 21.5995928010 
Si 5.4088664895 10.8309278791 5.4198175644 
Si 10.4640119157 8.2445482654 26.2264285741 
Si 13.8626109368 2.4874178628 27.2463350295 
Si 16.2620627987 5.4016337294 10.8808305037 
Si 13.5548602540 10.9244650599 2.6605939506 
Si 15.0241531074 4.0375091169 17.8315580583 
Si 6.7438157117 12.1820856514 6.8132248621 
H 8.5165912679 7.1753052356 23.0768204329 
Si 10.7820415886 10.8612761493 16.0689094968 
Si 10.5312081663 14.5451456530 16.8199373581 
Si 14.9122082264 12.2538431021 4.0431860037 
Si 1.3144612890 6.7626143718 12.2348512886 
Si 1.6993402355 14.5115068027 20.1616349810 
Si 2.5882855437 16.2815619289 26.4602677594 
Si 6.7668171919 9.4802588067 9.5069122361 
Si 5.2920508984 8.4844348076 26.3045889206 
Si 14.9179585964 9.5152823070 6.7932690289 
H 3.2859210900 7.2939290167 24.1287612521 
Si 5.3914524793 0.0448910050 29.1349620816 
Si 8.1269181743 10.8434874692 8.1639780251 
Si 15.1679612287 0.2680030825 24.4048461193 
H 13.8541401367 6.3448573180 26.9063564860 
Si 13.5746037341 10.8467454692 8.1794992287 
Si 5.3717578691 2.6565406443 2.8644352008 
Si 5.3765145492 2.6909777046 13.5800028142 
Si 5.3918434393 10.8447743792 10.8387890482 
Si 6.2419045171 11.9151902890 25.2983072811 
H 10.3149421243 8.3842838867 21.9960836966 
Si 14.9457167567 12.1944986315 9.5346286710 
Si 1.3857577327 9.4743618267 14.9540086075 
Si 1.2693673106 12.2025621816 17.5866031238 
Si 8.0711575038 0.0057522271 2.8313913753 
Si 6.8018732722 1.3288779392 12.2816191256 
Si 9.4948220668 9.4437692064 12.1808188280 
Si 12.2971093425 9.0063012524 23.0799421788 
Si 2.6495522342 2.6992693147 16.3390426243 
Si 0.4267523919 7.6340805098 26.5111492989 
Si 7.6775422302 3.1147294785 0.3107041532 
Si 12.1413117810 3.4784037318 19.8645731488 
Si 8.4949907277 0.2322644511 26.8557083480 
Si 11.4245029045 4.7860346238 0.3773665555 
Si 15.0358981975 6.8828019930 27.9597560649 
Si 6.6872242512 1.3301664782 1.4662402537 
Si 10.8494170292 8.0965861940 2.7034668992 
Si 11.8517570284 12.0117736999 24.9994949372 
Si 12.1323197010 14.6189067737 15.0290472082 
Si 13.6204112146 10.5353784064 19.3318632692 
Si 6.8024760022 4.0557864971 4.1095887467 
Si 4.4439283306 10.3229405144 25.1764424929 
Si 11.0355954409 1.9046593974 25.1977695602 
Si 12.2789134123 6.7230948315 1.4185329753 
Si 13.5846546642 5.4246026296 13.6280835351 
H 13.0650525295 12.7063304362 17.4275691376 
Si 0.0082080912 13.5774544842 13.6277334327 
Si 5.6375943816 8.2925060258 18.9987700716 
Si 5.3988644294 16.2519792886 5.5263070250 
Si 9.5423399973 6.8048217622 4.1729572696 
Si 14.8294387356 1.3358647202 15.0109585875 
Si 16.2712503588 10.7926463787 16.2676800981 
Si 8.1031510641 2.7060785348 5.5276490839 
Si 5.5602983309 2.8009514956 26.4485976815 
Si 10.8596308593 5.4141118695 5.5146661223 
Si 12.0233396000 9.3683302157 27.6953996260 
Si 16.2179657683 13.5040191635 19.0102650983 
Si 16.1002379372 13.4756745632 26.4524488072 
Si 6.7548766218 1.3324975772 6.8652150590 
Si 6.7983872122 3.8522918152 20.3105743498 
Si 9.5103464370 6.7762328120 14.9308435029 
Si 12.2112773317 9.4172653761 14.9474441887 
Si 13.7884914361 3.9465294661 25.3123989001 
Si 12.2357937819 6.7777966520 6.8225025740 
Si 5.3956390093 2.6884690446 8.2068947365 
Si 9.3506881455 4.0681017372 17.4752122305 
Si 8.6179150688 2.9647800271 21.4584723843 
Si 9.4955714068 6.7368435916 9.5376045408 
Si 10.8516976292 8.1090643342 13.5578880167 
Si 14.9283841965 6.7518141017 15.0354657510 
Si 3.3506086806 12.8569314876 20.2593718832 
Si 7.7635860110 2.4212478821 27.2562837709 
Si 5.3259829687 8.0869262240 13.4912518720 
Si 8.1374740944 16.2633008387 8.1874057065 
Si 10.8545972493 8.0925462740 8.1837004567 
Si 13.6839747951 0.0465758797 2.8866987918 
Si 4.1037931275 9.4280167762 1.4020723305 
Si 6.7683484519 4.0368575169 9.5492454435 
Si 10.8510460292 5.3855229192 10.9055710688 
Si 13.1309781601 3.1188834285 0.2510531337 
H 15.3392342903 3.5502915025 22.6882651903 
Si 12.2548367921 3.2248824595 23.7015197013 
Si 0.0080877733 10.6946783178 29.1078875010 
Si 5.7034548522 2.3843347418 24.0905125719 
Si 5.4401758698 16.2761862289 10.9043457106 
Si 14.8558122459 4.0588653071 1.5274002143 
Si 12.2249283518 6.7499733317 12.2369227274 
Si 14.9518255067 9.4660376366 17.7090222406 
H 2.4304354422 9.4082570060 28.9588022562 

