&CONTROL
/
&SYSTEM
   ntyp             = 2
   nat              = 407
   ibrav            = 0
/
&ELECTRONS
/
&IONS
/
&CELL
/

ATOMIC_SPECIES
Si 28.085 None
H 1.008 None

K_POINTS gamma

CELL_PARAMETERS angstrom
16.29000014900000 0.00000000000000 0.00000000000000
0.00000000000000 16.29000014900000 0.00000000000000
0.00000000000000 0.00000000000000 29.17519467510000

ATOMIC_POSITIONS angstrom
Si 2.6747202845 10.8025669888 2.6891360436 
Si 8.1372134544 2.6927044446 10.9118437356 
Si 4.7785086437 0.3096647578 23.2768163924 
Si 8.9502799419 10.0359921618 17.2320953333 
Si 15.0062829772 1.3833598446 4.2245098386 
Si 12.2444600620 4.0760838373 15.0005138678 
Si 0.1049385520 0.1513368707 29.0910242385 
Si 1.3016475749 12.1599638312 1.3320314406 
Si 3.9960673565 15.1021822081 24.9854324934 
Si 7.9107172924 2.7384304750 16.2652585569 
Si 8.2025363550 16.2780921589 13.6412415479 
Si 13.5639989441 2.7159176948 5.5070222213 
H 15.1346807584 9.4491937764 21.8673627377 
Si 1.3015253999 4.0352122269 14.9629362170 
Si 0.0155230507 2.6726188744 2.7524753912 
Si 1.3256313421 9.4823439267 4.0758038713 
Si 9.6997502687 3.4528121416 26.3548577810 
Si 14.9320983166 4.0645668072 6.8459886057 
Si 12.2869118024 0.8013979603 26.8031346472 
Si 13.3576860922 10.6976756778 26.2948444056 
Si 1.3396391133 4.3902853602 20.4710379205 
Si 4.0325895369 12.1740221013 4.0561106149 
Si 2.7268319949 16.2846896089 2.7896766820 
Si 6.6702337810 9.4993832669 27.9315144765 
Si 12.8784342878 2.1538475297 21.6545005173 
H 12.4345317837 11.0490346911 18.5321420080 
Si 13.5741150341 16.2653696688 8.1956331114 
Si 2.7853945455 2.7705706453 0.0492774873 
Si 4.0536687971 9.4855530567 6.7929772770 
Si 1.3728560526 9.4865141668 20.2352439972 
Si 7.2281988661 11.1856752123 21.2871556412 
Si 5.3850179293 13.5739684241 2.7371905067 
Si 8.9007420514 9.5261314471 25.1026292504 
Si 14.9060831863 1.3300508192 9.5790333173 
Si 1.4483406552 1.3654098935 1.4007010963 
Si 2.6436226742 5.4035559494 13.5999294722 
Si 8.0887507040 13.6215352246 0.0704044128 
Si 9.4045103060 6.3084165877 20.2315679226 
Si 13.5352308038 2.6698169944 10.9446950048 
Si 16.2598799387 10.8692419594 5.4067179020 
Si 12.9716945386 14.2861346507 0.2284446918 
Si 1.3341102872 12.1990435416 6.7858001791 
Si 4.1719667782 4.0493030770 1.4229676049 
Si 6.7224921015 14.8992088063 4.1415064097 
Si 5.4498032598 13.5740498741 13.5986749388 
Si 9.5775915576 9.6317395181 19.3804399684 
Si 16.1791141180 8.3407895863 24.2614208623 
Si 14.9159060564 15.1359025084 1.2889396781 
Si 2.0856575891 6.9326331034 23.2372840036 
Si 1.3751301366 4.0605431771 4.0806761288 
Si 1.3262226691 9.4872472168 9.5075832655 
Si 8.1070117941 13.5428219439 5.4815231011 
Si 14.9082334663 4.0537991171 12.2543694938 
Si 14.9575107168 6.7546974318 22.8578022465 
Si 13.5684135341 13.5566847340 5.4674606573 
Si 4.0292337968 1.3220817511 4.2124896584 
Si 2.6849829846 10.8391543291 8.1450141486 
Si 3.8111758549 12.4465375138 22.4638787680 
Si 5.3938633993 13.5460636539 8.1672748222 
Si 9.2243429044 0.5791453433 24.5930844754 
H 9.6642380684 8.8051197505 21.9523792550 
Si 14.9249632965 14.9046333763 6.8358356380 
Si 4.0253079068 12.2020246116 9.5100339819 
Si 3.3708408608 10.2358215936 23.0604531487 
Si 0.0331794723 16.2400875885 5.5021791390 
Si 8.1271299443 5.4258895396 13.5902433076 
Si 6.7604640918 14.9080216963 9.5197201465 
Si 13.5975074744 2.7660420253 16.4267140843 
Si 13.6017917444 13.5592422640 10.8849442061 
Si 2.6732216045 2.7121221248 5.5067596445 
Si 1.2342476993 12.2715340422 25.0743876619 
Si 8.1298177944 13.5660677741 10.8731574275 
H 5.1657708172 13.0271131191 22.7381839483 
Si 10.7643017784 5.0930685466 23.3508338613 
Si 11.5344929855 7.1341404053 24.3592161149 
Si 13.4296064428 16.2091528782 13.7526032659 
Si 1.3475446503 1.3315739342 6.8670530963 
Si 0.0084927101 0.0426335368 16.2825594474 
Si 6.7408346417 12.2063414616 12.1864204654 
Si 4.0763933473 14.9262013365 12.2533191868 
Si 10.5166449062 10.5547309265 23.7074714410 
Si 9.2892259750 11.8788147186 22.1938039909 
Si 14.9487141167 12.1667730513 14.9323314378 
Si 4.0647948672 4.0592399771 6.8329764689 
Si 1.3187406721 1.3360178462 12.2813565489 
Si 4.3240502196 6.9319652134 20.3823453287 
Si 12.1911428915 6.7169535014 17.7442367006 
Si 10.9019034097 13.4815389633 13.4027926818 
H 14.6225883137 10.9935020805 23.6864069505 
H 14.0293879583 12.5839436651 28.5957169585 
H 2.8540080261 2.9226540867 19.8387239263 
Si 4.0360430169 1.4310928031 27.7344360364 
Si 2.6651580544 8.1280747643 10.8705900104 
Si 3.9541531862 6.8331500725 14.9230829011 
Si 10.4140016152 0.5605323891 17.0546517993 
Si 16.2577133687 2.6814806345 8.2059611303 
Si 16.2842009089 8.0987364741 13.6417667014 
Si 2.7109655348 1.0348287755 22.4316110027 
H 3.3883037410 2.5974242338 25.0137616074 
Si 2.6939587746 16.2611179787 8.2208696548 
Si 9.4973144369 4.0386168369 12.2794893364 
Si 12.2641058022 12.1117454308 12.1409363369 
Si 14.1723652896 9.7109903688 24.3531476744 
Si 12.7197045263 14.8028534554 27.1052146129 
Si 1.3377755372 4.0505085370 9.5309234213 
Si 6.0434434453 4.8536381244 0.2233025638 
Si 6.6960371412 6.8275788924 17.5197627528 
Si 5.9229300242 5.6331960815 21.5966752815 
Si 9.3060698351 0.9156495054 20.6934404295 
Si 9.5009796869 9.4583813365 1.3265669267 
Si 8.4044671969 13.5754671042 16.1389007888 
Si 4.0503456370 1.3346038742 9.5707767372 
Si 5.4275185396 8.0860302739 2.7006660805 
Si 6.7639990219 6.7521236118 12.2099064971 
H 6.0874101557 11.2520569629 22.2774200988 
Si 10.8300319290 10.8402946291 29.1278433341 
Si 16.2886154990 10.8362709991 10.9030911772 
Si 12.7736895868 13.8467444766 23.8331581797 
Si 2.7873982155 11.2116251825 26.4884801727 
Si 2.6204094240 16.2450723286 18.8825360961 
Si 9.4317471863 1.4214426070 15.0680836186 
Si 8.2293822753 5.4457959198 2.8264578499 
Si 12.1375976610 12.2879869424 1.3221556373 
Si 16.1726632779 10.5554313965 21.6632239005 
Si 16.2381979485 16.2539666687 10.9512594236 
Si 5.7745444128 1.7025004956 19.9207937490 
Si 2.6661028744 2.6897070846 10.9051042657 
Si 5.6022939512 5.1037710767 27.1142589232 
Si 8.1145377742 8.0783576839 29.1574853319 
Si 7.0024683340 12.6978922161 19.4534946558 
Si 12.2169625417 9.5011100069 4.0216547100 
Si 12.9278092782 8.6732684893 20.7491067010 
H 4.8688855645 3.2665522799 18.4259151242 
Si 6.8540990127 6.7101768614 1.4074609890 
Si 4.8408341843 4.4696502409 23.3035408708 
Si 10.8519908492 5.4291312497 16.3139227817 
Si 9.4438995264 12.1018411107 4.1936133074 
Si 16.2421401285 8.0505669436 19.0667774504 
Si 13.5607735240 10.8082359088 13.6017966847 
Si 5.4258243796 5.4041098094 5.4613630416 
Si 0.7482453188 1.1661766757 25.5260196755 
Si 2.7170742848 10.8719786794 13.6115995501 
Si 10.8448721192 2.7051174247 13.6865798004 
Si 9.4957180168 9.4631217265 6.8419624288 
Si 9.4363246763 12.2686507122 27.9050233997 
Si 16.2123620083 2.6733356344 13.6293964188 
Si 4.0216589468 4.0577575871 12.2425535400 
Si 8.1237579143 8.1364315344 5.4763007413 
Si 8.6671760293 0.2385409882 18.5471964085 
Si 10.3929060651 0.7848864162 28.1430346379 
Si 10.7715996985 5.2110570177 27.4191397076 
Si 10.8737705794 10.7827094786 5.4798309399 
Si 10.8182542589 13.6596701149 19.0610299371 
Si 2.6310305041 4.5478585316 22.4964091101 
Si 1.3847542687 9.2264280244 27.8593642200 
Si 6.7724372419 6.7609527918 6.8233778298 
Si 6.8587905327 14.8997300863 14.9543878850 
Si 11.0649826012 7.8319062716 19.4972282727 
Si 12.2128900417 12.1864839515 6.8144210451 
Si 14.9443646867 11.8353855782 27.6338691404 
Si 1.2395908193 1.4051363168 17.7264690071 
Si 5.4019595294 8.1248656343 8.1587556653 
H 8.0515606336 13.9258650074 24.3510762356 
Si 16.1068842573 1.9766123281 27.5228866999 
Si 12.5558922848 5.7956725430 25.9753760239 
Si 12.2235599918 9.4549604365 9.5064454329 
Si 2.7345860350 13.5841822542 16.3711353384 
Si 8.1182193143 5.4017640494 8.1918695113 
Si 7.0002366040 8.0303999234 24.7766256251 
Si 8.0716462038 8.1469222945 16.1629411492 
Si 9.4822461867 12.1963882715 9.5223459140 
H 14.1225667592 1.3814685756 24.4247436021 
Si 1.3881491047 6.8071186523 17.6983732946 
Si 2.8181863158 5.5927154312 19.0821819532 
Si 8.0023811232 2.4507327824 23.6424107569 
Si 5.3967955994 5.3940914593 10.8806262773 
Si 13.5978495644 5.4606849799 2.8904828146 
Si 16.2159946783 13.6091874045 2.6112003461 
Si 2.6376116641 13.6147260045 0.0840388565 
Si 2.7246002649 16.2874426190 13.6141961424 
Si 8.1175677142 8.1035583141 10.8480375849 
Si 5.1797965074 14.1536806594 19.6210769741 
Si 6.8806028429 15.0440106176 27.7955580693 
Si 13.4985131435 8.1612574946 29.1505708108 
Si 4.0564869671 14.9722368769 1.3692939993 
Si 7.4511926781 9.0486878328 20.3836582125 
Si 9.5165855070 3.9962791266 1.4984350810 
Si 9.0696041930 6.8086173323 27.4021597443 
Si 8.9558348319 14.0007664280 23.1301235136 
Si 14.9847801770 6.8055059422 4.1698646989 
H 0.2012417748 5.3555330290 20.7585594641 
Si 3.8803920655 6.7353774916 27.2164596302 
Si 4.0159737367 9.5143374870 12.1938017896 
Si 1.3149385860 14.8953317862 4.0470663046 
Si 11.2243476727 15.8280809048 0.6807944152 
Si 13.5606106240 8.1651508047 5.4397442224 
Si 2.6814154745 13.5449559339 5.4161123147 
Si 10.7671036585 2.6265996240 2.9122708500 
H 11.8621826285 11.1705743822 20.8653115014 
Si 13.5670125941 5.4115380495 8.1963624912 
Si 14.9445112967 9.4646041166 12.2662437980 
Si 13.9200657673 13.9731222978 21.7733894356 
Si 0.0297264810 5.3959810994 16.3859271621 
Si 1.8346612668 5.6958637121 26.5009379808 
Si 4.0118523667 14.8915362162 6.8306132781 
Si 8.0626378337 15.4198372110 21.5368661324 
Si 12.2654741622 1.3905176707 1.6329735737 
Si 14.9260710165 6.7770961820 9.5270722956 
Si 0.0035388233 13.5482302239 8.1768151108 
Si 5.3090250786 5.4752156601 16.2268348256 
Si 7.9183084324 5.2943803684 18.7619550165 
Si 9.4336042463 1.2865890988 4.2412564003 
Si 13.5792626742 8.1248330543 10.8940468669 
Si 13.7109347454 13.5329664938 16.3499249719 
Si 12.1866794315 4.0560308471 4.1481583541 
Si 2.1091477693 2.5512420833 24.1904084385 
Si 1.3179375750 14.9138860964 9.5714185915 
Si 6.6698591110 4.1276742677 14.8929157498 
Si 13.6830951351 0.1191750347 18.9868082418 
Si 13.5425938839 8.1019618941 16.3900408646 
Si 9.4888110568 4.0563240671 6.8525530245 
Si 2.7069744848 13.5645365141 10.9010489136 
Si 7.3486634172 11.8130356980 17.3198543189 
H 6.8218285224 12.1805055214 23.9013406096 
Si 16.1758886979 5.3775245292 0.1646942657 
Si 14.9195875964 12.2065206516 20.5086739217 
Si 7.7950257113 7.0978788649 21.7555050413 
Si 5.4925808002 10.8810033395 16.2153397989 
Si 5.4087035895 13.8017352062 26.4075481826 
Si 10.8678247294 16.2302647184 5.5030252196 
Si 10.8434385992 15.3406189403 23.5166364927 
Si 16.2779455489 8.1229271243 2.7047447727 
Si 2.7551765952 5.4130693095 2.7296953992 
Si 6.7488981917 1.2985084919 17.7688897401 
Si 8.0604386837 10.7654909485 13.4626310061 
Si 12.2142421117 1.3282540322 6.8426334583 
Si 14.6036593336 6.9928735240 20.4988127059 
Si 15.4075056809 4.6229880123 23.7489002175 
Si 0.0225025175 2.6899351446 19.3331178026 
Si 2.8670726062 7.8983531822 29.1175444904 
Si 1.2770447877 14.8506157358 27.8024142400 
Si 9.4872146368 1.3431544953 9.5384214463 
Si 8.6241378489 14.3836140115 19.5277163511 
Si 12.2488257820 1.7463205960 18.0595913799 
Si 1.3786927596 6.7366318216 1.3685441968 
Si 1.3878070147 14.9370016066 14.9845842115 
Si 10.8516324692 2.6907496446 8.1883393127 
Si 10.5504629465 11.6287632164 20.2569795172 
Si 14.8730470660 1.2676503446 20.6789695330 
Si 13.5332434238 5.3020855385 19.1150623976 
Si 1.1503639725 3.9498526261 28.0137009999 
Si 4.0745037073 6.7724209519 4.1052124675 
Si 1.3150721640 4.8094922240 24.4044084914 
Si 12.2112773317 4.0341370869 9.5521921382 
H 13.5166276236 7.0418086844 23.3029573669 
Si 14.9858553171 14.9960365671 17.6484545365 
Si 0.0267058262 5.3967630194 5.4791307352 
H 6.4011066885 7.9345169826 23.3754285504 
Si 6.6762936611 9.4298575462 14.8032312014 
Si 5.4943889903 16.2698657088 16.2981681765 
H 11.6267106763 11.7950026679 16.8786378498 
Si 10.8617322693 16.2868724690 10.8752580415 
Si 2.6935189446 8.1314793744 5.4390148425 
Si 2.4507979424 13.7960825762 23.7873531241 
Si 5.8302887933 15.9251530156 21.2084993163 
Si 12.1684346313 1.3107992970 12.3217641935 
Si 9.3922439359 14.8059485554 1.6233690996 
Si 12.3934158233 14.9697119269 20.2675117625 
Si 1.3629696515 6.7736427020 6.8228818515 
Si 4.1192523377 12.4535096339 27.9164309008 
Si 10.8439110092 10.8018013588 10.8273231967 
Si 10.7987062588 13.4425895729 2.8775261106 
Si 9.5066811870 14.9320657366 12.2094396940 
Si 14.3323982511 14.6297722038 25.4274075175 
Si 3.4671636317 1.6168183528 20.2785108109 
Si 1.3467871653 12.2144375917 12.2546612457 
H 4.6951201329 5.2658402882 24.5832816100 
H 10.2127875334 2.1718805599 28.7536714624 
Si 16.2643922687 8.1343627044 8.1462395068 
Si 12.2222242118 14.9013102163 4.1017114442 
Si 2.7056549948 5.4152358795 8.1864429251 
Si 7.4706755183 6.0032234349 25.8409659020 
Si 4.1902278683 9.6444457182 17.7158492362 
H 9.9935404214 3.2257946995 18.5548986599 
Si 9.4872146368 12.1548976412 14.6415422725 
Si 9.4878336568 14.8866492161 6.8381696535 
Si 10.8572036493 13.5389449238 8.1799660318 
Si 4.0536525071 6.7771450520 9.5369918618 
Si 1.4246631400 15.3396904103 22.3108548719 
Si 5.3609413090 10.9125896498 0.0675420344 
Si 8.7705360802 4.4979459711 24.5224513291 
H 9.9368838009 14.3499588712 25.5876960371 
Si 12.2144538817 14.9018803663 9.5380129936 
Si 2.7555023952 8.2351163553 16.3985016710 
Si 2.6847875046 10.9768862804 18.9658021017 
Si 1.0675651598 10.3901204750 23.6771292386 
Si 8.1396243744 10.8057924088 2.7195832768 
Si 15.4458686313 15.8196263947 22.1984428469 
Si 10.8249657390 13.4996045735 26.4733965970 
Si 4.0683623772 1.3441384113 15.0022352043 
Si 6.7684136119 12.2159851417 1.4151107250 
Si 4.1472385579 14.9801212370 17.6685562456 
Si 11.3631221839 0.3035511208 21.5838381958 
Si 14.8594774959 14.9270158365 12.3406113693 
Si 3.9622981862 4.1663793081 17.6183457356 
Si 6.7709059819 9.4544228665 4.0676056416 
Si 7.9395505926 10.9850475705 26.6151296927 
Si 4.0733308273 12.2539082621 14.9622360124 
Si 10.3831972250 4.4488479107 21.1268087712 
Si 14.8860790661 9.4820181267 1.3517538722 
Si 2.9375920169 8.4087514669 21.5959459016 
Si 5.4092574495 10.8291522690 5.4171917969 
Si 10.4646472257 8.2430332954 26.2275080563 
Si 13.8619919168 2.4860657927 27.2463058543 
Si 16.2621605387 5.4017151794 10.8805387517 
Si 13.5564078040 10.9193174199 2.6630417495 
Si 15.0242671374 4.0373625069 17.8314121823 
Si 6.7437831317 12.1809127714 6.8114743504 
H 8.5140500279 7.1778301857 23.0808466098 
Si 10.7820578786 10.8611784093 16.0685885696 
Si 10.5313384863 14.5452759730 16.8196747814 
Si 14.9115566264 12.2529797321 4.0434777556 
Si 1.3145459970 6.7626795318 12.2345303614 
Si 1.6973854355 14.5143086827 20.1586299359 
Si 2.5891000437 16.2804704989 26.4576711671 
Si 6.7665891319 9.4802425167 9.5062703818 
Si 5.2778460183 8.4859334876 26.2984037793 
Si 14.9189848664 9.5152008570 6.7917810940 
H 3.2760330600 7.3070913368 24.1325832026 
Si 5.3920226293 0.0458423410 29.1347870305 
Si 8.1266738243 10.8430476392 8.1628401926 
Si 15.1681892887 0.2672765484 24.4055463240 
H 13.8380619066 6.3355883079 26.9095365822 
Si 13.5750435642 10.8462567692 8.1785656225 
Si 5.3744457191 2.6530382943 2.8652812814 
Si 5.3765959992 2.6911080246 13.5795360111 
Si 5.3918760193 10.8446603492 10.8384972962 
Si 6.2778239674 11.9335491191 25.2859078233 
H 10.3149909943 8.3821824767 21.9972215292 
Si 14.9457982067 12.1941728315 9.5340451671 
Si 1.3856355577 9.4741500567 14.9536585051 
Si 1.2693624236 12.2014870416 17.5868073501 
Si 8.0719882938 0.0051098635 2.8311492212 
Si 6.8018569822 1.3289577602 12.2810356217 
Si 9.4947731968 9.4437366264 12.1803520249 
Si 12.2952685724 9.0055682024 23.0778707399 
Si 2.6495196542 2.6994322147 16.3382257188 
Si 0.3824126405 7.6026245195 26.4723754652 
Si 7.6765159602 3.1172218485 0.3112205542 
Si 12.1407090510 3.4787132418 19.8647190248 
Si 8.4949907277 0.2377606972 26.8560292752 
Si 11.4241119445 4.7879242638 0.3763133310 
Si 15.0219539574 6.8691021028 27.9603687440 
Si 6.6892442112 1.3296354242 1.4652220394 
Si 10.8499708892 8.0956739540 2.7031167969 
Si 11.8549172884 12.0114478999 25.0013621497 
Si 12.1320753510 14.6189556437 15.0283470035 
Si 13.6200039646 10.5359322664 19.3307546118 
Si 6.8028018022 4.0556561771 4.1092678196 
Si 4.4864615210 10.3467076246 25.1344302126 
Si 11.0338849909 1.9058322774 25.1981780130 
Si 12.2821551223 6.7244957715 1.4183112439 
Si 13.5846220842 5.4246514996 13.6279960095 
H 13.0648570495 12.7064607562 17.4269564585 
Si 0.0082463239 13.5774707742 13.6274416808 
Si 5.6371219716 8.2918055558 18.9985658453 
Si 5.3990761994 16.2510507586 5.5262194994 
Si 9.5414277573 6.8054570722 4.1727822184 
Si 14.8295038956 1.3358207372 15.0106668355 
Si 16.2710548788 10.7924671887 16.2671841198 
Si 8.1033628341 2.7060133747 5.5275615583 
Si 5.5569588808 2.8074349157 26.4521862305 
Si 10.8592887693 5.4146331495 5.5145494215 
Si 12.0265324400 9.3681836057 27.6954871516 
Si 16.2172164283 13.5038888435 19.0090397402 
Si 16.0997166572 13.4711622332 26.4569417872 
Si 6.7546811418 1.3324405622 6.8648649567 
Si 6.7982243122 3.8527805152 20.3126166134 
Si 9.5101998270 6.7762002320 14.9306101013 
Si 12.2112773317 9.4171676361 14.9470649111 
Si 13.7880027361 3.9457312561 25.3124280753 
Si 12.2368363419 6.7779269720 6.8213647414 
Si 5.3951177293 2.6894953146 8.2052025752 
Si 9.3501668655 4.0684764072 17.4757957344 
Si 8.6176218488 2.9649429271 21.4602228960 
Si 9.4961741368 6.7372508416 9.5366125842 
Si 10.8516161792 8.1089991742 13.5575670895 
Si 14.9283679065 6.7518141017 15.0353782254 
Si 3.3488004906 12.8603360976 20.2519322085 
Si 7.7610936410 2.4258579522 27.2568380996 
Si 5.3260481287 8.0868121940 13.4909309449 
Si 8.1373437744 16.2632193887 8.1870847793 
Si 10.8528216393 8.0929698140 8.1799076814 
Si 13.6832091651 0.0467158108 2.8858556287 
Si 4.0451979970 9.4278375862 1.3308848555 
Si 6.7681203919 4.0371507369 9.5482826621 
Si 10.8510623192 5.3857835593 10.9051917912 
Si 13.1290559401 3.1184924685 0.2500775152 
H 15.3380125403 3.5476362324 22.6880317887 
Si 12.2532077921 3.2253711595 23.7017239277 
Si 0.0462489394 10.6952973378 29.1290395171 
Si 5.7012068321 2.3897267319 24.0936051426 
Si 5.4402084498 16.2761862289 10.9036163307 
Si 14.8530918158 4.0554281171 1.5277094713 
Si 12.2250423818 6.7500384917 12.2366018002 
Si 14.9518255067 9.4658421566 17.7086137879 
H 2.8203040158 9.7042137288 27.2424839038 

