&CONTROL
/
&SYSTEM
   ntyp             = 2
   nat              = 407
   ibrav            = 0
/
&ELECTRONS
/
&IONS
/
&CELL
/

ATOMIC_SPECIES
Si 28.085 None
H 1.008 None

K_POINTS gamma

CELL_PARAMETERS angstrom
16.29000014900000 0.00000000000000 0.00000000000000
0.00000000000000 16.29000014900000 0.00000000000000
0.00000000000000 0.00000000000000 29.17519467510000

ATOMIC_POSITIONS angstrom
Si 2.6687092744 10.8069164188 2.6911987299 
Si 8.1374578044 2.6945289246 10.9107350782 
Si 4.8051753740 0.3446638232 23.2820387523 
Si 8.9521695819 10.0390383918 17.2324162604 
Si 15.0061200772 1.3807469286 4.2259977735 
Si 12.2444600620 4.0764910873 14.9988800569 
Si 0.1038342529 0.1579897067 29.1019065861 
Si 1.2817428237 12.1425335311 1.3174117506 
Si 4.0383561969 15.1428257585 25.0016247264 
Si 7.9109127723 2.7438224651 16.2600361971 
Si 8.2034974650 16.2798026089 13.6381489772 
Si 13.5644061941 2.7151683548 5.5076057252 
H 15.1101643082 9.3970820659 21.8816585831 
Si 1.3027748429 4.0388774769 14.9631696186 
Si 0.0155226108 2.6736614345 2.7575518751 
Si 1.3238166361 9.4784669067 4.0732948046 
Si 9.6961990487 3.4452861615 26.3548869562 
Si 14.9329128166 4.0651858272 6.8450549995 
Si 12.2742218923 0.7880434182 26.7970078563 
Si 13.3865356824 10.6514609474 26.2555454184 
Si 1.3190925361 4.3998801702 20.4730218338 
Si 4.0315632669 12.1752275614 4.0561106149 
Si 2.7277605249 16.2849665389 2.7939887757 
Si 6.6584398209 9.4894463668 27.9462771250 
Si 12.8751437078 2.1464681596 21.6502992893 
H 12.4559042639 11.0526836511 18.5443372394 
Si 13.5758091942 16.2651741888 8.1964208416 
Si 2.7846614955 2.7742033154 0.0520068268 
Si 4.0545484571 9.4867585168 6.7924229483 
Si 1.3709794445 9.5068766669 20.2540619977 
Si 7.2400742762 11.1883630623 21.2930782057 
Si 5.3872333693 13.5741964841 2.7397083260 
Si 8.9008072114 9.5345207972 25.1010829651 
Si 14.9074678363 1.3306388882 9.5794417700 
Si 1.4504274043 1.3693194935 1.4074464014 
Si 2.6449258742 5.4076773195 13.6010673048 
Si 8.0970097340 13.6188147946 0.0795190354 
Si 9.4079149160 6.3113650777 20.2296715350 
Si 13.5371367338 2.6709898744 10.9451618079 
Si 16.2607270187 10.8675966694 5.4048798647 
Si 12.9713687386 14.2814431306 0.2175115794 
Si 1.3347341942 12.1976426016 6.7849249233 
Si 4.1700608481 4.0518606071 1.4280440888 
Si 6.7241048115 14.8992576763 4.1443947540 
Si 5.4516766099 13.5759232242 13.6000461730 
Si 9.5811264876 9.6385976082 19.3804691436 
Si 16.1229624875 8.1096181942 24.1849235019 
Si 14.9129575664 15.1319766184 1.2864014362 
Si 2.0158223584 6.9882308739 23.2069126260 
Si 1.3778000676 4.0728421273 4.0710191394 
Si 1.3272179881 9.4886481568 9.5079917183 
Si 8.1099765742 13.5417630938 5.4818732035 
Si 14.9096669864 4.0544018471 12.2562075311 
Si 14.8423241257 6.5957396103 22.7991017548 
Si 13.5700425341 13.5549091240 5.4685693147 
Si 4.0294455668 1.3231650361 4.2172452151 
Si 2.6863839246 10.8400176991 8.1453350757 
Si 3.9203025659 12.5031941344 22.4623616579 
Si 5.3951014393 13.5462917139 8.1673331725 
Si 9.2008853042 0.5740400572 24.5932011762 
H 9.6587972083 8.8262315907 21.9445311276 
Si 14.9263479465 14.9034442063 6.8369442954 
Si 4.0264156268 12.2031974916 9.5108217121 
Si 3.4767421518 10.2825087340 23.0556392416 
Si 0.0343057629 16.2375300585 5.5020040878 
Si 8.1251588543 5.4289194797 13.5877050656 
Si 6.7614089118 14.9081683063 9.5208288039 
Si 13.5971002244 2.7607151952 16.4206164686 
Si 13.6037791244 13.5588024340 10.8852651333 
Si 2.6718369544 2.7192897249 5.5034920227 
Si 1.3451076663 12.3672866631 25.1195216881 
Si 8.1317563044 13.5664261541 10.8740326833 
H 5.2848344283 13.0980723598 22.7170319322 
Si 10.7684394385 5.0905273066 23.3490249993 
Si 11.5236927154 7.1311104652 24.3591285893 
Si 13.4329296029 16.2085664382 13.7512320318 
Si 1.3480186893 1.3337714552 6.8644273287 
Si 0.0097428536 0.0393691837 16.2897365453 
Si 6.7427405717 12.2076609516 12.1881709771 
Si 4.0774521973 14.9280421065 12.2549821729 
Si 10.5252134463 10.5529390265 23.7036203153 
Si 9.3011828351 11.8820401387 22.1903321427 
Si 14.9544319068 12.1643621313 14.9376413233 
Si 4.0646482572 4.0615368672 6.8334432720 
Si 1.3196952661 1.3376696522 12.2811814977 
Si 4.3111648294 6.9476687735 20.3943655089 
Si 12.1833236914 6.7192992614 17.7354549670 
Si 10.9060410697 13.4819299233 13.4043973175 
H 14.6589150141 10.9630234903 23.6958597136 
H 14.0112246081 12.5425507747 28.5456814996 
H 2.8479644360 2.9412409769 19.8440338118 
Si 4.0431780370 1.4387702802 27.7434219964 
Si 2.6660377144 8.1305019744 10.8717861933 
Si 3.9535504562 6.8395031725 14.9250668144 
Si 10.4178460553 0.5599687551 17.0413187353 
Si 16.2583812587 2.6822625545 8.2056402032 
Si 16.2858461989 8.1021899541 13.6445091697 
Si 2.7302203150 1.0553704657 22.4382045967 
H 3.3934188010 2.6214519840 25.0148994400 
Si 2.6944474746 16.2630239087 8.2198485230 
Si 9.4968583169 4.0416956470 12.2775637736 
Si 12.2670542922 12.1114847908 12.1423367462 
Si 14.2240534601 9.6470195382 24.3174664113 
Si 12.7068191362 14.7898051653 27.0926401040 
Si 1.3377967142 4.0519909271 9.5311859980 
Si 6.0430361953 4.8546155244 0.2316837219 
Si 6.6936262212 6.8331012025 17.5231470754 
Si 5.9196068641 5.6499747817 21.6017809406 
Si 9.3220503253 0.9257623375 20.6771023205 
Si 9.5078540670 9.4562636365 1.3224999045 
Si 8.4079206769 13.5770798142 16.1380547082 
Si 4.0506062770 1.3359689762 9.5707183868 
Si 5.4234460396 8.0873497640 2.7008148740 
Si 6.7630704918 6.7560332118 12.2087103141 
H 6.1322076561 11.2352619728 22.3199283575 
Si 10.8430150592 10.8341207191 29.1220958208 
Si 0.0004407520 10.8374275891 10.9044915866 
Si 12.7717510768 13.8399189666 23.8284609733 
Si 2.7103139348 11.0987354815 26.5666113440 
Si 2.6258991540 16.2567033887 18.8866206233 
Si 9.4312421963 1.4260543060 15.0619860030 
Si 8.2304085453 5.4457470498 2.8302943880 
Si 12.1435109311 12.2867651924 1.3170091329 
Si 16.1695193079 10.5068057461 21.7387584796 
Si 16.2398921085 16.2543413387 10.9514052996 
Si 5.7739905528 1.7231236358 19.9129456216 
Si 2.6666893144 2.6916781746 10.9050459153 
Si 5.6058940413 5.1119649467 27.1255788988 
Si 8.1136744042 8.0759793439 29.1624742902 
Si 7.0076322641 12.7027466362 19.4532904295 
Si 12.2248143218 9.5016801569 4.0126979252 
Si 12.9273205782 8.6662963693 20.7468602110 
H 4.8694557145 3.2839011300 18.4278990374 
Si 6.8545388427 6.7103560514 1.4142354692 
Si 4.8111700940 4.5096584812 23.3089382818 
Si 10.8475436792 5.4309231497 16.3067456838 
Si 9.4471086564 12.1001958207 4.1930006283 
Si 16.2506597986 8.0512511236 19.0829405083 
Si 13.5643084541 10.8090666989 13.6048309049 
Si 5.4246026296 5.4062763794 5.4611879905 
Si 0.7562453379 1.1564336266 25.5346555331 
Si 2.7187521549 10.8748457195 13.6139335657 
Si 10.8458658092 2.7078867248 13.6821451708 
Si 9.4970700869 9.4637570365 6.8380529528 
Si 9.4373509463 12.2590396121 27.9115002929 
Si 16.2143168083 2.6737103045 13.6314095073 
Si 4.0213657268 4.0618952471 12.2415032329 
Si 8.1227479343 8.1374903844 5.4739375505 
Si 8.6722910893 0.2468342273 18.5338925197 
Si 10.3870253750 0.7787320541 28.1444933976 
Si 10.7639759784 5.2035473276 27.4224656798 
Si 10.8794883695 10.7802659786 5.4755713614 
Si 10.8280608390 13.6585949749 19.0549614966 
Si 2.6032397638 4.6214078823 22.4907782975 
Si 1.4970379817 9.3727448057 27.7127296916 
Si 6.7722906319 6.7630379118 6.8227651507 
Si 6.8615435427 14.9024830963 14.9540377827 
Si 11.0635002112 7.8348058917 19.4935230229 
Si 12.2138837317 12.1849201114 6.8146836218 
Si 14.9590419768 11.8129705380 27.5976918990 
Si 1.2406675884 1.4091355119 17.7277818908 
Si 5.4026925794 8.1269018843 8.1588431909 
H 7.9336699026 13.9529878576 24.2335585514 
Si 16.1018832273 1.9713506580 27.5239078317 
Si 12.5434141447 5.7861591829 25.9751717975 
Si 12.2238695018 9.4551884965 9.5062412066 
Si 2.7381372550 13.5899000443 16.3723023462 
Si 8.1185125342 5.4040283594 8.1916652849 
Si 6.9954799240 8.0354986935 24.7870995200 
Si 8.0716299138 8.1496590145 16.1655377415 
Si 9.4835005167 12.1963231115 9.5227543668 
H 14.1527195494 1.4103768099 24.4227888641 
Si 1.3866569407 6.8131785323 17.7007364854 
Si 2.8090802057 5.6006486612 19.0882212185 
Si 7.9973312231 2.4616633725 23.6404560189 
Si 5.3968607594 5.3972028494 10.8795759703 
Si 13.5970676444 5.4587953399 2.8899955889 
Si 16.2150824383 13.6043655644 2.6067132011 
Si 2.6285218440 13.6123476645 0.0967598249 
Si 2.7250889649 0.0003278802 13.6150713982 
Si 8.1191804243 8.1061972941 10.8482709864 
Si 5.1955163575 14.1770242297 19.6090859690 
Si 6.8782082129 15.0387489475 27.8152513257 
Si 13.5040028735 8.1519070345 29.1466905099 
Si 4.0566987371 14.9720088169 1.3742216897 
Si 7.4565683782 9.0534608028 20.3816451240 
Si 9.5163411570 3.9962139666 1.5011804668 
Si 9.0729599330 6.8104743923 27.4067402499 
Si 8.9430308918 14.0104752681 23.0994020336 
Si 14.9876960871 6.8055222322 4.1637087329 
H 0.1760818696 5.3581557190 20.7637234735 
Si 3.8749512054 6.7336181716 27.2208942598 
Si 4.0167882367 9.5173674270 12.1948812719 
Si 1.3141240860 14.8916176662 4.0443821866 
Si 11.2281595327 15.8236337347 0.6788134195 
Si 13.5636568540 8.1655906347 5.4354554687 
Si 2.6814154745 13.5449885139 5.4162581906 
Si 10.7664683485 2.6251498140 2.9136916820 
H 11.8726733886 11.1761944322 20.8714674674 
Si 13.5683972441 5.4127923795 8.1960415641 
Si 14.9459448167 9.4657607066 12.2671190539 
Si 13.9350851474 13.9683330377 21.7775031381 
Si 0.0304065885 5.3998906994 16.3855187094 
Si 1.8252130667 5.6962872521 26.4985456148 
Si 4.0119501067 14.8914547662 6.8312551324 
Si 8.0745295339 15.4313705311 21.5006013654 
Si 12.2636985522 1.3871814787 1.6349866621 
Si 14.9269343865 6.7779106820 9.5280059018 
Si 0.0054751342 13.5472691139 8.1771652131 
Si 5.3073960785 5.4818456901 16.2282935853 
Si 7.9178034424 5.2996094585 18.7630636739 
Si 9.4345979363 1.2868562548 4.2452534020 
Si 13.5800771742 8.1260548043 10.8946595460 
Si 13.7182489555 13.5285519037 16.3565477411 
Si 12.1865002415 4.0549719971 4.1488585588 
Si 2.1083332693 2.5510140233 24.2065714963 
Si 1.3195144471 14.9146354364 9.5710101387 
Si 6.6671061010 4.1335712478 14.8921863700 
Si 13.6813032351 0.1103455288 18.9840074231 
Si 13.5471876639 8.1044379741 16.3947672461 
Si 9.4899676468 4.0573666271 6.8545369377 
Si 2.7084405848 13.5662143841 10.9020992206 
Si 7.3501132272 11.8150882381 17.3200585452 
H 6.7688697319 12.2001675516 23.9509676158 
Si 16.1776805980 5.3736800891 0.1657737479 
Si 14.9457330467 12.1846431814 20.5394829272 
Si 7.8012322014 7.1032871450 21.7512454629 
Si 5.4905282602 10.8822902495 16.2216124657 
Si 5.3918597293 13.7979722162 26.4438713000 
Si 10.8695025994 16.2295805384 5.5045423297 
Si 10.8326057491 15.3337934302 23.5261184309 
Si 16.2824741689 8.1197342843 2.6927887780 
Si 2.7501918552 5.4355006397 2.7075601790 
Si 6.7499733317 1.3075559580 17.7642800594 
Si 8.0616604337 10.7670547885 13.4658402775 
Si 12.2153335417 1.3281253412 6.8441213933 
Si 14.5788659533 6.9676240237 20.4656405095 
Si 15.4019833709 4.5289947114 23.7491919694 
Si 0.0173304425 2.6888111346 19.3330011018 
Si 2.8614688462 7.9807805830 29.0510542217 
Si 1.2758051187 14.8605689259 27.8163599831 
Si 9.4884526768 1.3436383083 9.5394425781 
Si 8.6320710790 14.3861389616 19.5030341364 
Si 12.2496891520 1.7382896259 18.0530269611 
Si 1.3910405797 6.7715575819 1.3212016084 
Si 1.3891362787 14.9395102666 14.9860721464 
Si 10.8530008293 2.6913197946 8.1897105469 
Si 10.5620451366 11.6316302564 20.2566002397 
Si 14.8712388760 1.2562994725 20.6722592382 
Si 13.5179796936 5.2872942184 19.0882503937 
Si 1.1463517455 3.9454217461 28.0110460572 
Si 4.0718810172 6.7728770719 4.1040162846 
Si 1.3030045319 4.7864907438 24.4060131271 
Si 12.2127597217 4.0355706069 9.5527756421 
H 13.4262181228 6.9357282034 23.2636583796 
Si 14.9948473971 14.9861811171 17.6601537896 
Si 0.0271204067 5.3984083094 5.4776428002 
H 6.4153115687 7.9143825424 23.3812927646 
Si 6.6755280310 9.4332621563 14.8071406775 
Si 5.4970768403 16.2788577889 16.2923331376 
H 11.6341552064 11.7904251778 16.8887324672 
Si 10.8637359394 16.2869864990 10.8753455671 
Si 2.6933723346 8.1321961344 5.4396275216 
Si 2.5279799631 13.8416782866 23.7829476697 
Si 5.8423759734 15.9534813259 21.2000093347 
Si 12.1704545913 1.3111185810 12.3212973904 
Si 9.3981246260 14.8060788754 1.6297788899 
Si 12.4004693934 14.9621044968 20.2723840200 
Si 1.3623929855 6.7747667120 6.8231444283 
Si 4.0813455073 12.4222328336 27.9234037724 
Si 10.8456377492 10.8025832788 10.8283735037 
Si 10.8051733888 13.4388591629 2.8776048837 
Si 9.5097925770 14.9320331566 12.2100815483 
Si 14.3287330010 14.6358483739 25.4186549591 
Si 3.4682713517 1.6362816450 20.2790943148 
Si 1.3483444893 12.2162132017 12.2561783559 
H 4.6406137924 5.3065489985 24.5814143975 
H 10.2121685134 2.1676451598 28.7513374469 
Si 16.2648972588 8.1355518744 8.1470855874 
Si 12.2240486918 14.8997137963 4.1037828830 
Si 2.7054432247 5.4172232595 8.1870264289 
Si 7.4783481084 6.0046080849 25.8448753781 
Si 4.1866440683 9.6512060683 17.7278694164 
H 9.9920906114 3.2270978995 18.5490052705 
Si 9.4916292268 12.1550931212 14.6432052586 
Si 9.4892508868 14.8863397061 6.8394825373 
Si 10.8588326493 13.5383096138 8.1804911853 
Si 4.0534244471 6.7799143520 9.5367292850 
Si 1.4480881602 15.3603950005 22.3177985683 
Si 5.3582208790 10.9193825799 0.0760906582 
Si 8.7770032103 4.5006989812 24.5233849353 
H 9.9041083206 14.2606082204 25.5300750276 
Si 12.2162132017 14.9014242463 9.5384506215 
Si 2.7565938252 8.2409155954 16.4039282572 
Si 2.6888111346 10.9929645105 18.9839490727 
Si 1.2069814970 10.4606887557 23.7591407108 
Si 8.1449349145 10.8033326188 2.7169400041 
Si 15.4616210614 15.8203920247 22.1996098546 
Si 10.8181076489 13.4758374632 26.4588089997 
Si 4.0677107772 1.3510909834 15.0004555174 
Si 6.7716879019 12.2163272317 1.4186117484 
Si 4.1486883679 14.9935767771 17.6634214114 
Si 11.3651095639 0.2939269887 21.5899941619 
Si 14.8621490559 14.9260221465 12.3405238437 
Si 3.9575415062 4.1778800482 17.6214966566 
Si 6.7711829119 9.4554654265 4.0640170927 
Si 7.9331649125 10.9725531404 26.6317595537 
Si 4.0754973973 12.2564983721 14.9649201303 
Si 10.3845655850 4.4509330307 21.1254083619 
Si 14.8960485462 9.4800470367 1.3345171672 
Si 2.9453786369 8.4561390773 21.6068282492 
Si 5.4100230795 10.8297061290 5.4155579860 
Si 10.4626435557 8.2476433654 26.2288501152 
Si 13.8520713067 2.4676092226 27.2489316219 
Si 16.2631542287 5.4031649894 10.8822892634 
Si 13.5671917841 10.9192359699 2.6517188564 
Si 15.0241042374 4.0316284269 17.8210258130 
Si 6.7447116617 12.1809290614 6.8108033209 
H 8.5212176279 7.1884349757 23.0746906437 
Si 10.7872706787 10.8629051493 16.0730231992 
Si 10.5388155964 14.5449827530 16.8135479905 
Si 14.9123874164 12.2522141021 4.0424274486 
Si 1.3150102620 6.7657420519 12.2359307708 
Si 1.7131378657 14.5241315528 20.1705917658 
Si 2.5995745138 16.2845755789 26.4729589691 
Si 6.7680226519 9.4821973167 9.5060369802 
Si 5.2739364182 8.4778699375 26.3094320029 
Si 14.9197342065 9.5150379570 6.7908766630 
H 3.2051878493 7.3179078969 24.1153990130 
Si 5.3939937193 0.0498967592 29.1455818525 
Si 8.1288241043 10.8434223092 8.1613814328 
Si 15.1744935188 0.2747813515 24.4035332356 
H 13.8077787963 6.3519760481 26.9070275155 
Si 13.5765748242 10.8457191992 8.1788865496 
Si 5.3736963792 2.6550419643 2.8702760748 
Si 5.3766448692 2.6957669647 13.5774645723 
Si 5.3936842093 10.8465662792 10.8393433769 
Si 6.2480784271 11.9250131591 25.3371102900 
H 10.3100714143 8.4055260469 21.9931953523 
Si 14.9474597867 12.1937492915 9.5343952694 
Si 1.3874518927 9.4781573967 14.9573929301 
Si 1.2773738457 12.2101696117 17.5955015582 
Si 8.0747738838 0.0049143510 2.8351783156 
Si 6.8017429522 1.3313947442 12.2799853147 
Si 9.4958483369 9.4459031964 12.1821608870 
Si 12.2993084925 8.9947842223 23.0728526065 
Si 2.6501549642 2.7053129047 16.3405013840 
Si 0.3908622636 7.6243390897 26.4770726715 
Si 7.6767114402 3.1182644085 0.3133532609 
Si 12.1329387210 3.4684505417 19.8576002773 
Si 8.4865850876 0.2301793311 26.8612808102 
Si 11.4239001745 4.7837051537 0.3776758126 
Si 15.0270853074 6.8591326227 27.9561675160 
Si 6.6923393112 1.3330872752 1.4727258995 
Si 10.8525121293 8.0937191540 2.7021044176 
Si 11.8743512586 11.9931216497 24.9994949372 
Si 12.1430059411 14.6150623337 15.0287262810 
Si 13.6380207047 10.5315991263 19.3435041719 
Si 6.8033393722 4.0567476071 4.1128855437 
Si 4.4519755907 10.3450623346 25.2030502705 
Si 11.0205434808 1.8921486773 25.1919636965 
Si 12.2826275323 6.7219056615 1.4160793415 
Si 13.5854202942 5.4263945296 13.6283752870 
H 13.0706074195 12.7027955062 17.4334333517 
Si 0.0099139964 13.5778291542 13.6305050762 
Si 5.6354278115 8.2965785259 19.0047509865 
Si 5.4004119794 16.2514091386 5.5290494933 
Si 9.5433825573 6.8061086722 4.1741534525 
Si 14.8335112357 1.3311634262 15.0108710619 
Si 16.2786134389 10.7958229287 16.2782415186 
Si 8.1040470141 2.7067952948 5.5305374282 
Si 5.5575616108 2.8195220958 26.4562707577 
Si 10.8604942293 5.4146494395 5.5156872541 
Si 12.0430016301 9.3629870956 27.6842838768 
Si 16.2294013484 13.4996860235 19.0331384510 
Si 16.1069168373 13.4932026034 26.4509608723 
Si 6.7555933818 1.3330090832 6.8675198994 
Si 6.7973283622 3.8660894454 20.3198520617 
Si 9.5067789270 6.7798980620 14.9273133043 
Si 12.2151217717 9.4184871261 14.9505951097 
Si 13.7705724359 3.9256456859 25.3233979485 
Si 12.2391983919 6.7793604920 6.8196725801 
Si 5.3950362793 2.6913523746 8.2054359768 
Si 9.3471857955 4.0732330873 17.4732574925 
Si 8.6190553688 2.9670606271 21.4578305300 
Si 9.4970375069 6.7397432116 9.5357956788 
Si 10.8537990393 8.1120942742 13.5593467764 
Si 14.9286285465 6.7544205018 15.0356699774 
Si 3.3738219309 12.8806171478 20.2602763142 
Si 7.7579170910 2.4231212322 27.2588803632 
Si 5.3269603687 8.0907380840 13.4923021791 
Si 8.1387121344 16.2632193887 8.1885143639 
Si 10.8535383993 8.0942730140 8.1775736659 
Si 13.6832743251 0.0440214448 2.8860452675 
Si 4.0460287870 9.4345979363 1.3354449384 
Si 6.7682018419 4.0394964969 9.5478450342 
Si 10.8518931092 5.3884062493 10.9044040610 
Si 13.1278016101 3.1126932285 0.2514884276 
H 15.3620077105 3.4083893112 22.7392926057 
Si 12.2405015919 3.2148478194 23.6989814594 
Si 0.0600102428 10.6558429575 29.0832928119 
Si 5.6967270821 2.4331558722 24.0934300914 
Si 5.4404202198 16.2773916889 10.9035288051 
Si 14.8527660158 4.0522678571 1.5288910667 
Si 12.2254659218 6.7518141017 12.2373603553 
Si 14.9613551568 9.4625189965 17.7172788207 
H 1.3329422942 9.5108840070 25.0042796691 

