&CONTROL
/
&SYSTEM
   ntyp             = 2
   nat              = 407
   ibrav            = 0
/
&ELECTRONS
/
&IONS
/
&CELL
/

ATOMIC_SPECIES
Si 28.085 None
H 1.008 None

K_POINTS gamma

CELL_PARAMETERS angstrom
16.29000014900000 0.00000000000000 0.00000000000000
0.00000000000000 16.29000014900000 0.00000000000000
0.00000000000000 0.00000000000000 29.17519467510000

ATOMIC_POSITIONS angstrom
Si 2.6692957144 10.8094739489 2.6947610211 
Si 8.1367084644 2.6926881546 10.9109976550 
Si 4.7788996037 0.3065044978 23.2802007150 
Si 8.9520555519 10.0456521319 17.2281566820 
Si 15.0069019972 1.3845066607 4.2240430355 
Si 12.2427170320 4.0753507873 15.0019434523 
Si 0.1008885321 0.1545955223 29.0927747501 
Si 1.2839794407 12.1488377611 1.3219689160 
Si 3.9969958866 15.1002762781 24.9909174300 
Si 7.9056836823 2.7316049650 16.2603571242 
Si 8.2037418150 16.2779944189 13.6391701090 
Si 13.5640803941 2.7157547948 5.5067888197 
H 15.0954055681 9.5096948370 21.8569471932 
Si 1.3029638069 4.0330293669 14.9602812743 
Si 0.0157011004 2.6751764045 2.7516351456 
Si 1.3235559961 9.4798352667 4.0752495426 
Si 9.7004670287 3.4528610116 26.3561998400 
Si 14.9328476566 4.0643713272 6.8445298460 
Si 12.2883941924 0.8003716903 26.8041849542 
Si 13.3494270621 10.7014060879 26.3084108711 
Si 1.3450343613 4.3749727600 20.4608266024 
Si 4.0322148669 12.1768402714 4.0577152506 
Si 2.7269134449 16.2843963889 2.7875381402 
Si 6.6596452809 9.4965976768 27.9470940304 
Si 12.8766098078 2.1448228696 21.6582641174 
H 12.4828967942 11.2743416831 18.5563865948 
Si 13.5741476141 16.2631542287 8.1930073439 
Si 2.7838307055 2.7737309054 0.0477927617 
Si 4.0523981771 9.4856019268 6.7915185173 
Si 1.3954698308 9.5044494569 20.2593135328 
Si 7.2187832460 11.1808696623 21.2956456228 
Si 5.3850505093 13.5749458242 2.7377069077 
Si 8.8867652313 9.5251866271 25.1114985096 
Si 14.9072234863 1.3260092701 9.5753280676 
Si 1.4477639892 1.3672897595 1.4001555202 
Si 2.6444208842 5.4026599994 13.5973620551 
Si 8.0872520240 13.6225126246 0.0719682032 
Si 9.4024088960 6.3099967177 20.2404371818 
Si 13.5327710138 2.6634801844 10.9374303814 
Si 16.2595541387 10.8683622994 5.4054633686 
Si 12.9715479286 14.2850269306 0.2309435472 
Si 1.3338724532 12.1981801716 6.7843705946 
Si 4.1713640482 4.0485374470 1.4253103731 
Si 6.7228179015 14.8994205763 4.1419440376 
Si 5.4504222798 13.5751250142 13.5964576240 
Si 9.5671659575 9.6417252882 19.3798272893 
Si 16.1883831281 8.3670979365 24.2887288445 
Si 14.9138698064 15.1371731284 1.2913203740 
Si 2.1058083193 6.9201549633 23.2406975014 
Si 1.3781193516 4.0696655772 4.0704648107 
Si 1.3267276591 9.4864164268 9.5057160531 
Si 8.1074842041 13.5427242039 5.4814064004 
Si 14.9089665164 4.0444812370 12.2447416796 
Si 14.9959714071 6.7807288520 22.8615366714 
Si 13.5677130641 13.5556095940 5.4667312774 
Si 4.0284030068 1.3214773921 4.2129564615 
Si 2.6846408946 10.8390891691 8.1437887904 
Si 3.8211127550 12.4398586138 22.4747902908 
Si 5.3938796893 13.5460473639 8.1663995663 
Si 9.2237727544 0.5771986883 24.5952142646 
H 9.6657530384 8.7808150703 21.9603440831 
Si 14.9255171565 14.9031672763 6.8338808999 
Si 4.0242979268 12.2026110516 9.5082542950 
Si 3.3678923708 10.2303481536 23.0881404085 
Si 0.0335841159 16.2391590585 5.5001368753 
Si 8.1296548944 5.4252868096 13.5920813448 
Si 6.7604640918 14.9077284763 9.5188448907 
Si 13.5962368543 2.7590210352 16.4202955414 
Si 13.6010586944 13.5582811540 10.8830769937 
Si 2.6723256544 2.7166507448 5.5021207886 
Si 1.2818291607 12.2600007221 25.1199884912 
Si 8.1301435944 13.5656605241 10.8715527918 
H 5.1781837974 13.0178929791 22.7495622743 
Si 10.7575577184 5.0940296566 23.3523801466 
Si 11.5187731353 7.1434745753 24.3666849647 
Si 13.4298507928 16.2074750082 13.7478477092 
Si 1.3477678233 1.3331573222 6.8638146497 
Si 0.0079827517 0.0372469224 16.2773370875 
Si 6.7388961316 12.2072048316 12.1829777924 
Si 4.0764096373 14.9261850465 12.2515103247 
Si 10.5044762761 10.5578748966 23.7217964616 
Si 9.2745161048 11.8757359086 22.2065827262 
Si 14.9467918967 12.1633684412 14.9362409139 
Si 4.0650392172 4.0597938371 6.8314885339 
Si 1.3202002561 1.3339017752 12.2787307813 
Si 4.3242945696 6.9326168134 20.3819368760 
Si 12.1833236914 6.7120176314 17.7632005771 
Si 10.9034509597 13.4843897133 13.4027343314 
H 14.6462251039 11.0157053507 23.7489877431 
H 14.0569995086 12.5749190050 28.6221496848 
H 2.8533564261 2.9283881668 19.8398909341 
Si 4.0347235269 1.4309543381 27.7360990225 
Si 2.6653535344 8.1274231643 10.8690145498 
Si 3.9651978063 6.8298920725 14.9132216853 
Si 10.4153373953 0.5560591551 17.0555562303 
Si 16.2579251387 2.6811548345 8.2047941225 
Si 16.2815293489 8.0989971141 13.6408330951 
Si 2.7106234448 1.0329423934 22.4352870772 
H 3.3878964910 2.5914620937 25.0133823299 
Si 2.6936818446 16.2620465087 8.2189149167 
Si 9.4971515369 4.0377697569 12.2789350077 
Si 12.2643501522 12.1120223608 12.1412280888 
Si 14.1751508796 9.7204874389 24.3745914425 
Si 12.7240213764 14.8008009154 27.1089198626 
Si 1.3382332862 4.0504270870 9.5294646615 
Si 6.0453982453 4.8507222144 0.2299798906 
Si 6.7001096413 6.8273997024 17.5188583217 
Si 5.9197697641 5.6311435415 21.5977547637 
Si 9.3043593851 0.9138836694 20.6918066186 
Si 9.5011262969 9.4580881165 1.3286762933 
Si 8.4039459169 13.5771938442 16.1374712043 
Si 4.0509972370 1.3341200612 9.5688511743 
Si 5.4281049796 8.0861280140 2.7057483994 
Si 6.7688860219 6.7496149517 12.2063762986 
H 6.0888762557 11.2449382328 22.3003518019 
Si 10.8261223290 10.8416629892 29.1286894148 
Si 16.2890879090 10.8357171391 10.8999986066 
Si 12.7670595568 13.8499861867 23.8426692932 
Si 2.7178399149 11.0732090513 26.5673115487 
Si 2.6279028240 16.2501548086 18.8829737240 
Si 9.4335553763 1.4179728370 15.0684337210 
Si 8.2306528953 5.4456330198 2.8274556415 
Si 12.1372555710 12.2872213124 1.3213533194 
Si 16.1741456679 10.5745232767 21.6722098605 
Si 16.2387192285 16.2519467086 10.9498881895 
Si 5.7739742628 1.7032172556 19.9218732312 
Si 2.6662657744 2.6884527546 10.9024784981 
Si 5.6049655113 5.0975645866 27.1223112770 
Si 8.1122897542 8.0789115439 29.1626201662 
Si 7.0022076940 12.6936405261 19.4560620730 
Si 12.2234133818 9.5019082169 4.0146234881 
Si 12.9635332486 8.6901612195 20.7115290502 
H 4.8715734146 3.2606390098 18.4207802899 
Si 6.8540501427 6.7100628314 1.4119918967 
Si 4.8427889843 4.4617333008 23.3035700459 
Si 10.8488631692 5.4179400195 16.3273433712 
Si 9.4437529164 12.1013198307 4.1930298035 
Si 0.0170292404 8.0583046937 19.0716497079 
Si 13.5616857640 10.8047661388 13.5984998877 
Si 5.4250261696 5.4041260994 5.4589998508 
Si 0.7484489438 1.1675466647 25.5293748229 
Si 2.7171883149 10.8727443094 13.6082152275 
Si 10.8438621392 2.7050196847 13.6874550562 
Si 9.4969723469 9.4634638166 6.8382571791 
Si 9.4283751562 12.2673800922 27.9041773191 
Si 16.2141701983 2.6710876144 13.6257786947 
Si 4.0212842768 4.0561774571 12.2398110717 
Si 8.1236275943 8.1366107244 5.4751920839 
Si 8.6656447692 0.2388309502 18.5455625976 
Si 10.3919286650 0.7821904212 28.1420718565 
Si 10.7754767185 5.2126697277 27.4181769262 
Si 10.8771588995 10.7813248286 5.4751629087 
Si 10.8154686689 13.6590348049 19.0653478659 
Si 2.6321708041 4.5422221915 22.4946294232 
Si 1.5287660150 9.3801404658 27.7592641271 
Si 6.7717530619 6.7610342418 6.8211896902 
Si 6.8596864827 14.9008378063 14.9521413950 
Si 11.0631581212 7.8441563517 19.5100653583 
Si 12.2121895717 12.1857671914 6.8136333148 
Si 14.9496100667 11.8284460382 27.6399375809 
Si 1.2419512404 1.3985812208 17.7193210844 
Si 5.3999232794 8.1240837143 8.1556047443 
H 8.0306768535 13.9313547374 24.3435490353 
Si 16.1057113773 1.9812061081 27.5234410286 
Si 12.5582054649 5.8031985231 25.9696576857 
Si 12.2227454918 9.4547160865 9.5042864685 
Si 2.7445392251 13.5915779143 16.3705518345 
Si 8.1173559442 5.4010961594 8.1892437437 
Si 6.9933133540 8.0236395734 24.7889667324 
Si 8.0761422439 8.1499196545 16.1632620764 
Si 9.4825394067 12.1959810215 9.5210330303 
H 14.1175331491 1.3768226676 24.4318623496 
Si 1.4086028289 6.8054407822 17.6756458179 
Si 2.8199619258 5.5917869011 19.0777181484 
Si 8.0003285832 2.4444285524 23.6422065305 
Si 5.3976426794 5.3929511593 10.8800135982 
Si 13.5976052144 5.4599193499 2.8907804016 
Si 16.2144308383 13.6071674444 2.6094381643 
Si 2.6293200540 13.6113702645 0.0885656797 
Si 2.7244536549 16.2858136189 13.6125039811 
Si 8.1132345742 8.1010496541 10.8371552373 
Si 5.1839178774 14.1543485495 19.6230317121 
Si 6.8736958829 15.0368430175 27.7956747701 
Si 13.4975520334 8.1562890446 29.1489078247 
Si 4.0565195471 14.9702983669 1.3678673323 
Si 7.4474948481 9.0459348227 20.3882095428 
Si 9.5180516070 3.9975008766 1.4979536903 
Si 9.0664113529 6.8037954922 27.4100078717 
Si 8.9450997218 14.0000822480 23.1315822733 
Si 14.9878589871 6.8050335322 4.1660719236 
H 0.1930283568 5.3283287287 20.7391579596 
Si 3.8888139956 6.7298063115 27.2284506352 
Si 4.0162017967 9.5149076370 12.1909426206 
Si 1.3151650170 14.8938819762 4.0441487851 
Si 11.2251458827 15.8274618848 0.6803538697 
Si 13.5629889640 8.1654603147 5.4360389726 
Si 2.6806335545 13.5459984939 5.4162290155 
Si 10.7672665585 2.6270720340 2.9116435833 
H 11.8590223685 11.1846978123 20.8785862149 
Si 13.5674687141 5.4115706295 8.1940576509 
Si 14.9447556467 9.4641154166 12.2612840149 
Si 13.9214504173 13.9930612580 21.7917989835 
Si 0.0289623171 5.3922506893 16.3841766504 
Si 1.8338467668 5.7204127423 26.5037971499 
Si 4.0115754367 14.8916013762 6.8303507014 
Si 8.0596404737 15.4178661210 21.5344445912 
Si 12.2653438422 1.3911041107 1.6318678338 
Si 14.9266085865 6.7762328120 9.5250883823 
Si 0.0035753129 13.5472202439 8.1755022270 
Si 5.3141564286 5.4733097301 16.2249967883 
Si 7.9204098424 5.2950482584 18.7655143902 
Si 9.4337834363 1.2870680248 4.2407020716 
Si 13.5783830142 8.1235787243 10.8905750187 
Si 13.7085401154 13.5306044437 16.3513545564 
Si 12.1865979815 4.0556235971 4.1481875293 
Si 2.1072581293 2.5527733434 24.1914879207 
Si 1.3181558611 14.9135928764 9.5691137511 
Si 6.6703152310 4.1247909377 14.8890062737 
Si 13.6871513452 0.1179018083 18.9873042201 
Si 13.5257174437 8.0924974040 16.3773496549 
Si 9.4885667068 4.0558353671 6.8512693159 
Si 2.7064857847 13.5648948941 10.8996485043 
Si 7.3454868672 11.8176783481 17.3179287560 
H 6.7716064519 12.1662680613 23.9193708800 
Si 16.1747809779 5.3864188693 0.1578885680 
Si 14.9501965067 12.2487443320 20.5399497304 
Si 7.7899269412 7.0967548549 21.7611942043 
Si 5.4936233602 10.8819970295 16.2117804251 
Si 5.3862396793 13.7857384261 26.4205311443 
Si 10.8673848994 16.2303624584 5.5026167669 
Si 10.8351632791 15.3371980403 23.5166948431 
Si 16.2825556189 8.1195225143 2.6966486562 
Si 2.7516742452 5.4305321897 2.7084704451 
Si 6.7471388717 1.2980409689 17.7690356161 
Si 8.0574413237 10.7651977285 13.4572919454 
Si 12.2144538817 1.3275649651 6.8416123265 
Si 14.6668971141 6.9755083838 20.4779524417 
Si 15.4082224409 4.6407929824 23.7504756780 
Si 0.0214773878 2.6824417445 19.3220604038 
Si 2.8822874664 7.9696219329 29.0717102596 
Si 1.2712422896 14.8523098958 27.8061778402 
Si 9.4868562568 1.3431479793 9.5379838184 
Si 8.6192671388 14.3847054416 19.5239235758 
Si 12.2502430120 1.7435024260 18.0596789054 
Si 1.3920261247 6.7694887519 1.3276697490 
Si 1.3883396977 14.9327824966 14.9812290641 
Si 10.8506713592 2.6893487046 8.1861511731 
Si 10.5380010964 11.6344321364 20.2704001067 
Si 14.8754905660 1.2694422446 20.6804282927 
Si 13.5380326838 5.2888743484 19.1215392908 
Si 1.1503623435 3.9576066662 28.0101124509 
Si 4.0717344072 6.7712643619 4.1034327807 
Si 1.3159681140 4.8149493740 24.4087847706 
Si 12.2111307217 4.0322963169 9.5475532822 
H 13.5503805039 7.0969177549 23.2391220409 
Si 14.9871096471 14.9929740471 17.6475209303 
Si 0.0278933673 5.3962580294 5.4771468219 
H 6.3947210085 7.9408212126 23.3873028547 
Si 6.6779389511 9.4289941762 14.8011597626 
Si 5.4969302303 16.2710222988 16.2960092121 
H 11.6711335067 11.8012091579 16.8007400800 
Si 10.8609014793 16.2866444090 10.8743536105 
Si 2.6928347646 8.1308766444 5.4384896890 
Si 2.4574768425 13.7880353161 23.8006278376 
Si 5.8285783433 15.9262281557 21.2093162218 
Si 12.1665124113 1.3107748620 12.3209764632 
Si 9.3931073059 14.8059485554 1.6236141713 
Si 12.3991173234 14.9673010069 20.2675117625 
Si 1.3629468455 6.7730236819 6.8222691724 
Si 4.0763444773 12.4189585436 27.9075908168 
Si 10.8442856792 10.8018176488 10.8261270137 
Si 10.7992275388 13.4417750729 2.8776223888 
Si 9.5067789270 14.9316421966 12.2078934087 
Si 14.3359168911 14.6270354838 25.4298582339 
Si 3.4670007317 1.6216418218 20.2822744110 
Si 1.3453764513 12.2142421117 12.2527065077 
H 4.6994206930 5.2575323881 24.5812685216 
H 10.2121522234 2.1696325398 28.7526795058 
Si 16.2644900087 8.1340206144 8.1448099222 
Si 12.2216866418 14.9013102163 4.1020323713 
Si 2.7063228848 5.4151707195 8.1857135452 
Si 7.4727117683 5.9932213748 25.8461007363 
Si 4.1940397284 9.6475896882 17.7158492362 
H 9.9696918612 3.1964401192 18.5583705080 
Si 9.4811058867 12.1581882212 14.6340734227 
Si 9.4876870468 14.8870238862 6.8379946024 
Si 10.8569267193 13.5389612138 8.1791491264 
Si 4.0545647471 6.7764608720 9.5364958834 
Si 1.4277224021 15.3348034102 22.3204535110 
Si 5.3532035590 10.9229337999 0.0719422373 
Si 8.7661052002 4.4916417411 24.5225096795 
H 9.9408259809 14.3531191313 25.5886588185 
Si 12.2140792117 14.9019618163 9.5370793873 
Si 2.7728186654 8.2376901753 16.3844392272 
Si 2.6943008646 10.9826040704 18.9713162135 
Si 1.0588565257 10.4112323152 23.6831393287 
Si 8.1381908544 10.8061670788 2.7186234128 
Si 15.4506904713 15.8276247848 22.2057074703 
Si 10.8228806190 13.5023901635 26.4800777166 
Si 4.0691117172 1.3422569163 14.9998720135 
Si 6.7671755719 12.2183634817 1.4145126335 
Si 4.1544224480 14.9840145470 17.6704818085 
Si 11.3597012839 0.2971051677 21.5825544873 
Si 14.8597218459 14.9246863665 12.3383940545 
Si 3.9660285963 4.1640009681 17.6155449169 
Si 6.7714924219 9.4556609065 4.0686559486 
Si 7.9210451524 10.9830113204 26.6220150387 
Si 4.0741127473 12.2547227621 14.9593476681 
Si 10.3806559849 4.4455084607 21.1285592829 
Si 14.8938819762 9.4780433667 1.3389984771 
Si 2.9507869170 8.4098917669 21.6126632882 
Si 5.4085895595 10.8296735490 5.4171917969 
Si 10.4527718156 8.2456722754 26.2350060813 
Si 13.8609819368 2.4908387628 27.2419003999 
Si 16.2625026287 5.4012101894 10.8791966928 
Si 13.5649926341 10.9191545199 2.6540266143 
Si 15.0215141274 4.0305695769 17.8247894131 
Si 6.7438482917 12.1811082514 6.8107157953 
H 8.5030216978 7.1752889456 23.0895699930 
Si 10.7846642786 10.8595331193 16.0474949039 
Si 10.5319575063 14.5403563930 16.8214252930 
Si 14.9114100164 12.2525399021 4.0429234269 
Si 1.3141012800 6.7631845219 12.2340343831 
Si 1.7102708256 14.5224536828 20.1649901284 
Si 2.5878294237 16.2803075989 26.4607053873 
Si 6.7633962919 9.4812362067 9.5002894669 
Si 5.2812180483 8.4694968775 26.3149169395 
Si 14.9190337364 9.5149890870 6.7907307870 
H 3.2998001702 7.2860283666 24.1341878383 
Si 5.3915990893 0.0451830847 29.1347578553 
Si 8.1278467043 10.8429824792 8.1601852498 
Si 15.1688408887 0.2679851635 24.4123149692 
H 13.8616498268 6.3644704782 26.8744679982 
Si 13.5748480842 10.8457354892 8.1771943883 
Si 5.3745108791 2.6515559042 2.8663432585 
Si 5.3756837592 2.6895441846 13.5766768421 
Si 5.3908986193 10.8452467892 10.8352588496 
Si 6.2360889870 11.9112481089 25.3057469557 
H 10.3310040645 8.3813679767 22.0193363267 
Si 14.9453909567 12.1936026815 9.5324113562 
Si 1.3884651307 9.4724884766 14.9511786136 
Si 1.2816906957 12.2128085917 17.5943929008 
Si 8.0725584438 0.0046450447 2.8315372513 
Si 6.8021664922 1.3283354821 12.2795768620 
Si 9.4858136968 9.4427755164 12.1692362757 
Si 12.2983310925 9.0239921925 23.0853687650 
Si 2.6515233242 2.6976891847 16.3353665498 
Si 0.4231685919 7.6722479802 26.5121412555 
Si 7.6785685002 3.1156417185 0.3132774054 
Si 12.1402203510 3.4710895218 19.8704373629 
Si 8.4911788677 0.2336376981 26.8568461806 
Si 11.4260504545 4.7873541138 0.3754234876 
Si 15.0350674075 6.8869233630 27.9473274320 
Si 6.6897329112 1.3284951242 1.4655371315 
Si 10.8514858592 8.0952829940 2.7028775603 
Si 11.8503560884 12.0125230399 25.0089768755 
Si 12.1347957810 14.6219204237 15.0305643183 
Si 13.6146282645 10.6332975972 19.3531611614 
Si 6.8030950222 4.0552977971 4.1086843157 
Si 4.4393182606 10.3153005043 25.1893379290 
Si 11.0327609809 1.9047408474 25.2004536781 
Si 12.2823994723 6.7229808015 1.4180311620 
Si 13.5823414842 5.4139489695 13.6175512898 
H 13.0561581894 12.7034633962 17.4240097639 
Si 0.0048400686 13.5740498741 13.6265372498 
Si 5.6381156616 8.2909421858 18.9972821367 
Si 5.3989295894 16.2509693086 5.5264529009 
Si 9.5422748373 6.8059131922 4.1729572696 
Si 14.8310677356 1.3313784542 15.0047734462 
Si 0.0022980466 10.8080567188 16.2625744390 
Si 8.1031184841 2.7058178948 5.5270072296 
Si 5.5570892008 2.8038185356 26.4545494212 
Si 10.8594353793 5.4145842795 5.5143451951 
Si 12.0203259499 9.3658378457 27.7001843579 
Si 16.2300366584 13.5200322336 19.0141162240 
Si 16.1033167473 13.4664381332 26.4573502399 
Si 6.7547300118 1.3324210142 6.8645440295 
Si 6.7977844822 3.8529597052 20.3133459933 
Si 9.5129528370 6.7705801819 14.9373495713 
Si 12.2014870416 9.4033537160 14.9231120763 
Si 13.7862271261 3.9509114761 25.3049884007 
Si 12.2384001819 6.7785785720 6.8185639227 
Si 5.3949874093 2.6898048246 8.2037729907 
Si 9.3413702654 4.0533592871 17.4816015981 
Si 8.6152597988 2.9619618571 21.4610689766 
Si 9.4971515369 6.7358987716 9.5313902244 
Si 10.8379162891 8.0970748940 13.5400619727 
Si 14.9267226165 6.7437179717 15.0288721570 
Si 3.3563916307 12.8620139676 20.2622894026 
Si 7.7617452410 2.4237402522 27.2587928377 
Si 5.3320754288 8.0873823440 13.4827618904 
Si 8.1370994244 16.2633008387 8.1868222026 
Si 10.8532940493 8.0932141640 8.1762899573 
Si 13.6818896751 0.0481794673 2.8870839044 
Si 4.0545973271 9.4380188363 1.3456533390 
Si 6.7682181319 4.0369063869 9.5468239024 
Si 10.8495147692 5.3816947692 10.8997360298 
Si 13.1312062201 3.1188182685 0.2487815530 
H 15.3377193203 3.5764532427 22.6803003621 
Si 12.2501615620 3.2237421595 23.7011695990 
Si 0.0638006001 10.6584493575 29.0998059720 
Si 5.7009299021 2.3848071518 24.0962309101 
Si 5.4403876398 16.2759744589 10.9023326222 
Si 14.8554375759 4.0600544771 1.5248123745 
Si 12.2240975618 6.7440763517 12.2281993442 
Si 14.9182355264 9.4689372566 17.7440032991 
H 14.0461177885 8.2942164759 18.7892338235 

