&CONTROL
/
&SYSTEM
   ntyp             = 2
   nat              = 407
   ibrav            = 0
/
&ELECTRONS
/
&IONS
/
&CELL
/

ATOMIC_SPECIES
Si 28.085 None
H 1.008 None

K_POINTS gamma

CELL_PARAMETERS angstrom
16.29000014900000 0.00000000000000 0.00000000000000
0.00000000000000 16.29000014900000 0.00000000000000
0.00000000000000 0.00000000000000 29.17519467510000

ATOMIC_POSITIONS angstrom
Si 2.6705174644 10.8095228189 2.6919193572 
Si 8.1383048844 2.6939099046 10.9083718875 
Si 4.7854318938 0.3047842738 23.2826222562 
Si 8.9485369118 10.0335323718 17.2320953333 
Si 15.0072929573 1.3845783367 4.2226134509 
Si 12.2450302120 4.0750412773 14.9975088227 
Si 0.1021404186 0.1545222173 29.0914326912 
Si 1.2852500607 12.1489843711 1.3197136734 
Si 4.0023715866 15.0976372981 24.9921427882 
Si 7.9111082524 2.7394893251 16.2594526932 
Si 8.2052079150 16.2797863189 13.6364859911 
Si 13.5644061941 2.7164063948 5.5047465561 
H 15.1507589886 9.4495195764 21.8888065058 
Si 1.3012256639 4.0354891569 14.9603687999 
Si 0.0163729162 2.6748831845 2.7506548591 
Si 1.3246360231 9.4806986367 4.0729738774 
Si 9.7005484787 3.4511505616 26.3566082927 
Si 14.9329453966 4.0650066372 6.8425751079 
Si 12.2873353424 0.7979119003 26.8026970193 
Si 13.3585331722 10.7005752979 26.2967116181 
Si 1.3375800572 4.3889984501 20.4733719361 
Si 4.0327035669 12.1769543014 4.0554979358 
Si 2.7274510149 16.2845267089 2.7855863197 
Si 6.6615023409 9.4966302569 27.9419591962 
Si 12.8789718578 2.1496447097 21.6580307159 
H 12.4158960236 11.0320279309 18.5325504607 
Si 13.5754182342 16.2653859588 8.1917819857 
Si 2.7841239255 2.7737797754 0.0456475096 
Si 4.0542226571 9.4861394968 6.7902056335 
Si 1.3609757554 9.4926880768 20.2344562669 
Si 7.2270748561 11.1787193822 21.2933407824 
Si 5.3858650093 13.5747992142 2.7356208813 
Si 8.8965881014 9.5238671371 25.1047298644 
Si 14.9072886463 1.3294529762 9.5755614691 
Si 1.4483211072 1.3676595425 1.3985917298 
Si 2.6435575142 5.4039469094 13.5970703031 
Si 8.0892231140 13.6209487846 0.0698535851 
Si 9.3973264159 6.3028942776 20.2332600839 
Si 13.5361430438 2.6698007044 10.9400853241 
Si 16.2604826687 10.8688021294 5.4035378058 
Si 12.9722158186 14.2850432206 0.2280750421 
Si 1.3347179042 12.1985385516 6.7828534844 
Si 4.1716735582 4.0489446970 1.4230872232 
Si 6.7233880515 14.8995834763 4.1398434236 
Si 5.4569219899 13.5771286842 13.5871507369 
Si 9.5729489075 9.6298335881 19.3815486258 
Si 16.1810200480 8.3419787563 24.2786634024 
Si 14.9143747964 15.1371731284 1.2891643271 
Si 2.0858367791 6.9243577833 23.2358835943 
Si 1.3785428916 4.0702683072 4.0685392478 
Si 1.3269133651 9.4874915668 9.5050158484 
Si 8.1084453142 13.5428382339 5.4788681584 
Si 14.9079565363 4.0545973271 12.2494680611 
Si 14.9588627868 6.7525145718 22.8649209940 
Si 13.5696678641 13.5567010240 5.4639888091 
Si 4.0289242868 1.3217396611 4.2107974971 
Si 2.6857486146 10.8394638391 8.1425634323 
Si 3.8063214348 12.4304267037 22.4686051495 
Si 5.3940100093 13.5459007539 8.1633945213 
Si 9.2230397044 0.5791681493 24.5951559142 
H 9.6565980583 8.8080682406 21.9592937761 
Si 14.9263316565 14.9044378963 6.8324221402 
Si 4.0262201468 12.2022852516 9.5075249151 
Si 3.3598451107 10.2220239635 23.0859230937 
Si 0.0344136027 16.2392405085 5.4978903853 
Si 8.1271136543 5.4271112896 13.5860420795 
Si 6.7611156918 14.9094063464 9.5130098517 
Si 13.5972305444 2.7661560553 16.4255762517 
Si 13.6025410844 13.5589653340 10.8827560665 
Si 2.6729609645 2.7171883149 5.4996992474 
Si 1.2777012747 12.2560748321 25.1229643611 
Si 8.1332224044 13.5668171141 10.8621583791 
H 5.1618286372 13.0083307490 22.7394384817 
Si 10.7645298384 5.0924332366 23.3515924164 
Si 11.5335155855 7.1332770352 24.3620752840 
Si 13.4293783828 16.2083546682 13.7489271914 
Si 1.3485709203 1.3332941582 6.8611597069 
Si 0.0066263974 0.0414684760 16.2799336799 
Si 6.7471225817 12.2062437216 12.1775803814 
Si 4.0781526673 14.9300131965 12.2471048703 
Si 10.5141199562 10.5541119065 23.7119060706 
Si 9.2864240949 11.8754915586 22.1985887228 
Si 14.9403247666 12.1675712613 14.9273133043 
Si 4.0656745272 4.0611947771 6.8281042114 
Si 1.3200666781 1.3377690212 12.2764259410 
Si 4.3190817695 6.9358096534 20.3833664605 
Si 12.1834377214 6.7083849614 17.7462789642 
Si 10.8945729096 13.4788511133 13.3934857947 
H 14.6273775738 10.9936161105 23.6932922964 
H 14.0507115685 12.5711397250 28.6166939234 
H 2.8435987160 2.9135642666 19.8399201093 
Si 4.0348049769 1.4306415701 27.7338817078 
Si 2.6657770744 8.1278629943 10.8675849653 
Si 3.9531594962 6.8337853825 14.9215366158 
Si 10.4132359852 0.5625702681 17.0531638643 
Si 16.2582835187 2.6811385445 8.2017890774 
Si 16.2840380089 8.0969282840 13.6387616563 
Si 2.7191756949 1.0362753275 22.4410054154 
H 3.3929952610 2.5898656737 25.0201217999 
Si 2.6943823146 16.2628121387 8.2169893539 
Si 9.4982266769 4.0393173069 12.2763967658 
Si 12.2624116421 12.1103607808 12.1358598530 
Si 14.1727725396 9.7114953588 24.3561235442 
Si 12.7231905864 14.7989112753 27.1056230656 
Si 1.3380426932 4.0526588171 9.5244757032 
Si 6.0456914653 4.8514063944 0.2277013079 
Si 6.6930397812 6.8284748425 17.5198211032 
Si 5.9178312541 5.6317625615 21.5958000256 
Si 9.3059395151 0.9150418884 20.6940239334 
Si 9.5027715869 9.4582021465 1.3249272807 
Si 8.4032128668 13.5762653142 16.1400386214 
Si 4.0517791571 1.3373910932 9.5647958223 
Si 5.4288054496 8.0866492940 2.7018593460 
Si 6.7639827319 6.7543227618 12.2069598024 
H 6.0930464957 11.2392204428 22.2942250110 
Si 10.8290871090 10.8407344591 29.1244006612 
Si 16.2890553290 10.8359289091 10.9009322128 
Si 12.7630033467 13.8507029467 23.8418523877 
Si 2.7171231548 11.0705863612 26.5653568106 
Si 2.6186663939 16.2513928486 18.8892172156 
Si 9.4338648863 1.4224542160 15.0643783689 
Si 8.2309135353 5.4466918698 2.8250778632 
Si 12.1378745910 12.2874167924 1.3186429438 
Si 16.1761167579 10.5610351566 21.6733185179 
Si 16.2386866485 16.2533313586 10.9491004592 
Si 5.7737950728 1.7003502156 19.9204728218 
Si 2.6670802744 2.6925578346 10.8988024236 
Si 5.6066433813 5.0988352066 27.1197730350 
Si 8.1137069842 8.0797586239 29.1585356389 
Si 6.9945188140 12.6955464561 19.4582210374 
Si 12.2239672418 9.5020222469 4.0124936989 
Si 12.9133600481 8.6566363992 20.7562254485 
H 4.8704168245 3.2670409799 18.4248648172 
Si 6.8554185027 6.7109099114 1.4083654200 
Si 4.8400522643 4.4644374408 23.3028114909 
Si 10.8484722092 5.4245211796 16.3103634079 
Si 9.4443393564 12.1010754807 4.1904623864 
Si 16.2359662185 8.0430735436 19.0725541390 
Si 13.5565544140 10.8059878888 13.5970703031 
Si 5.4260361496 5.4051360794 5.4561406818 
Si 0.7474389638 1.1635197766 25.5242691638 
Si 2.7165530048 10.8712293394 13.6101991407 
Si 10.8469409492 2.7048404947 13.6819701196 
Si 9.4976728169 9.4632357566 6.8357772876 
Si 9.4292059462 12.2650669122 27.9010555732 
Si 16.2125086183 2.6751112445 13.6243782853 
Si 4.0219684568 4.0596635171 12.2382064359 
Si 8.1242140343 8.1369202344 5.4723329148 
Si 8.6669968393 0.2407303642 18.5468463061 
Si 10.3917006050 0.7815893201 28.1412549510 
Si 10.7715671185 5.2109104077 27.4200733138 
Si 10.8778104995 10.7812759586 5.4727413675 
Si 10.8146867489 13.6583506249 19.0626929232 
Si 2.6282774940 4.5410656015 22.4994433303 
Si 1.5253630339 9.3777458358 27.7538958913 
Si 6.7729748119 6.7613926218 6.8189723754 
Si 6.8617064428 14.9017500463 14.9502450074 
Si 11.0544103911 7.8243802916 19.4981910541 
Si 12.2150077417 12.1852622014 6.8094612620 
Si 14.9510924567 11.8292931182 27.6379828429 
Si 1.2378266123 1.4048528709 17.7249227217 
Si 5.4028880594 8.1250285343 8.1545836125 
H 8.0378933235 13.9255880774 24.3447743935 
Si 16.1068028073 1.9782576181 27.5199400052 
Si 12.5582543349 5.7978879830 25.9792563248 
Si 12.2241790118 9.4540481965 9.5021275041 
Si 2.7416721851 13.5804844242 16.3669049352 
Si 8.1188872043 5.4029369294 8.1884851887 
Si 6.9978745540 8.0251056734 24.7855240595 
Si 8.0706688038 8.1451303945 16.1620658934 
Si 9.4859603068 12.1955249015 9.5141185091 
H 14.1230065892 1.3785608106 24.4207466004 
Si 1.3855068667 6.8056362622 17.6997737039 
Si 2.8163292558 5.5915425511 19.0834364866 
Si 8.0031141732 2.4492503924 23.6428192096 
Si 5.3978055794 5.3959485194 10.8771836044 
Si 13.5980613344 5.4607012699 2.8889802921 
Si 16.2153756583 13.6072488944 2.6067569639 
Si 2.6305906741 13.6109955945 0.0863763731 
Si 2.7255776649 16.2891693590 13.6119788276 
Si 8.1178283542 8.1044379741 10.8442739848 
Si 5.1693871973 14.1522960094 19.6286625247 
Si 6.8748687629 15.0354746575 27.7951496166 
Si 13.4999792435 8.1586022246 29.1496080294 
Si 4.0570408271 14.9701191769 1.3661518308 
Si 7.4478206481 9.0441103427 20.3814117225 
Si 9.5180516070 3.9974682966 1.4973935265 
Si 9.0701743430 6.8083566923 27.4050772638 
Si 8.9485857818 13.9971011780 23.1296567105 
Si 14.9881196271 6.8056362622 4.1643505871 
H 0.1983274938 5.3521609989 20.7654156348 
Si 3.8886673856 6.7296434115 27.2247162103 
Si 4.0156968067 9.5140279770 12.1919345772 
Si 1.3156455720 14.8938982662 4.0418147695 
Si 11.2259929627 15.8272338248 0.6791255940 
Si 13.5633310540 8.1659490147 5.4345802129 
Si 2.6810570945 13.5461939739 5.4140700511 
Si 10.7676249385 2.6270883240 2.9103423696 
H 11.8502257684 11.1517920120 20.8685207728 
Si 13.5677945141 5.4122222295 8.1928031175 
Si 14.9441692067 9.4637407466 12.2637055561 
Si 13.9087930872 13.9728453678 21.7847969367 
Si 0.0287438682 5.3949385393 16.3847893295 
Si 1.8312566567 5.7203150023 26.5037096243 
Si 4.0118686567 14.8920737862 6.8280166858 
Si 8.0619373637 15.4183385310 21.5357282998 
Si 12.2655719022 1.3911350617 1.6308496195 
Si 14.9263805265 6.7777640720 9.5235129218 
Si 0.0043111485 13.5479207139 8.1738975913 
Si 5.3081942886 5.4756066201 16.2252301899 
Si 7.9137472324 5.2919368684 18.7607296583 
Si 9.4341418163 1.2871054918 4.2386889832 
Si 13.5792952542 8.1245235443 10.8907208947 
Si 13.6909306252 13.5312071738 16.3349872722 
Si 12.1870541015 4.0561611671 4.1461160905 
Si 2.1133994593 2.5516167533 24.1973521348 
Si 1.3186217551 14.9145051164 9.5679175681 
Si 6.6695333110 4.1301177678 14.8891229745 
Si 13.6708939250 0.1239551723 18.9877418481 
Si 13.5335529338 8.0924811140 16.3901575654 
Si 9.4896255568 4.0571222771 6.8500147826 
Si 2.7076912448 13.5653347241 10.8983356205 
Si 7.3486959972 11.8128402180 17.3224509112 
H 6.7694235919 12.1643458413 23.9155197543 
Si 16.1771104480 5.3844640692 0.1595713933 
Si 14.8562357859 12.1676364213 20.5538662982 
Si 7.7897151712 7.0944253849 21.7557092677 
Si 5.4935907802 10.8833979695 16.2132100096 
Si 5.3893184893 13.7822686560 26.4201226915 
Si 10.8685903594 16.2310629284 5.5000785250 
Si 10.8341695891 15.3399836303 23.5189996834 
Si 16.2834515689 8.1198971843 2.6952074016 
Si 2.7527005152 5.4310208897 2.7069620875 
Si 6.7494357617 1.3017925559 17.7657679943 
Si 8.0612857637 10.7654257885 13.4603845161 
Si 12.2148937117 1.3286726851 6.8399493404 
Si 14.5972899435 6.9848588439 20.5042684673 
Si 15.4082061509 4.6181010122 23.7519636129 
Si 0.0214614236 2.6882898546 19.3335262553 
Si 2.8813589363 7.9698988629 29.0673048052 
Si 1.2726774386 14.8528800458 27.8050983580 
Si 9.4883060668 1.3442589573 9.5351538245 
Si 8.6191368188 14.3830927315 19.5258491386 
Si 12.2423423620 1.7537651260 18.0590662263 
Si 1.3935427237 6.7700263219 1.3264298033 
Si 1.3894311277 14.9346395566 14.9863930736 
Si 10.8525284193 2.6916130146 8.1853342676 
Si 10.5447288664 11.6264500363 20.2606264165 
Si 14.8730307760 1.2634784756 20.6771314957 
Si 13.5300180037 5.2962862984 19.1166086829 
Si 1.1495396985 3.9561731462 28.0080993625 
Si 4.0729887373 6.7724046619 4.1007778379 
Si 1.3142267130 4.8103393040 24.4112063118 
Si 12.2119940917 4.0350167469 9.5488953412 
H 13.5180285636 7.0438286444 23.3070418941 
Si 14.9533078968 15.0045725272 17.6292280832 
Si 0.0280635978 5.3968118894 5.4750462079 
H 6.3966920985 7.9344844026 23.3856106934 
Si 6.6770918711 9.4303299563 14.8023559455 
Si 5.4951872003 16.2709245588 16.2958341610 
H 11.6183050363 11.7863038078 16.8908622564 
Si 10.8639477094 16.2877847090 10.8702399080 
Si 2.6943334446 8.1323264544 5.4360097974 
Si 2.4625756125 13.7794016160 23.8092053449 
Si 5.8297512233 15.9231330556 21.2114168358 
Si 12.1706663613 1.3105891560 12.3173295639 
Si 9.3938403559 14.8054435654 1.6217702990 
Si 12.3903044333 14.9674964869 20.2699624788 
Si 1.3628393315 6.7751902520 6.8187681491 
Si 4.0762304473 12.4170526136 27.9052568013 
Si 10.8437643992 10.8003352588 10.8219841360 
Si 10.8001560688 13.4414981429 2.8754809295 
Si 9.5055245969 14.9335155466 12.2009788875 
Si 14.3348906211 14.6266445238 25.4258320570 
Si 3.4669192817 1.6166440498 20.2860380111 
Si 1.3479225783 12.2138185717 12.2523855806 
H 4.6888647729 5.2609207081 24.5787302796 
H 10.2129015634 2.1690786798 28.7518626004 
Si 16.2650438688 8.1350957544 8.1433511625 
Si 12.2225500118 14.9014731163 4.0995816550 
Si 2.7066975547 5.4175816395 8.1811913900 
Si 7.4761652484 5.9954368148 25.8436208448 
Si 4.1825552782 9.6525418483 17.7123773880 
H 9.9901846814 3.2221457395 18.5528563962 
Si 9.4855041867 12.1553374712 14.6416297981 
Si 9.4893160468 14.8872356562 6.8347269806 
Si 10.8607874493 13.5393195938 8.1739559417 
Si 4.0545158771 6.7780735820 9.5331115609 
Si 1.4265364900 15.3470860704 22.3664044426 
Si 5.3547836890 10.9220867199 0.0682083959 
Si 8.7728492602 4.4945250711 24.5227430810 
H 9.9416567709 14.3490792112 25.5854495471 
Si 12.2165064217 14.9016523063 9.5341910431 
Si 2.7521955252 8.2344810453 16.3981807439 
Si 2.6707618144 10.9868720505 18.9672900366 
Si 1.0534058916 10.3991940051 23.6914250840 
Si 8.1394614744 10.8060530488 2.7152361728 
Si 15.4480840713 15.8128823346 22.1946208963 
Si 10.8236951190 13.4985457235 26.4769559708 
Si 4.0699262172 1.3457869593 14.9986174801 
Si 6.7676154019 12.2179399417 1.4118781134 
Si 4.1498612479 14.9817665270 17.6723781961 
Si 11.3612325439 0.3014089858 21.5870474672 
Si 14.8613997159 14.9251913565 12.3400278654 
Si 3.9622330262 4.1663630181 17.6178789325 
Si 6.7722580519 9.4558726765 4.0652716260 
Si 7.9256878025 10.9797370304 26.6150421672 
Si 4.0826649973 12.2540548721 14.9499532554 
Si 10.3809329149 4.4468116607 21.1286176333 
Si 14.8955761362 9.4801447767 1.3389430443 
Si 2.9290397668 8.4114881869 21.5983674428 
Si 5.4094529295 10.8297549990 5.4143618030 
Si 10.4636209557 8.2438152154 26.2292877432 
Si 13.8611285468 2.4847788827 27.2449637954 
Si 16.2623071487 5.4019269494 10.8758707206 
Si 13.5652858541 10.9203762699 2.6527341532 
Si 15.0237295674 4.0359126969 17.8311787807 
Si 6.7444021517 12.1811734114 6.8078566263 
H 8.5103359078 7.1746862156 23.0800005292 
Si 10.7787510086 10.8590932893 16.0683259929 
Si 10.5301656063 14.5471493230 16.8204333364 
Si 14.9128109564 12.2531915021 4.0407061121 
Si 1.3143602910 6.7620279318 12.2307084109 
Si 1.6684706853 14.5173549128 20.1724881534 
Si 2.5886765037 16.2789229489 26.4572335392 
Si 6.7674687919 9.4805194467 9.5016023506 
Si 5.2825375383 8.4684868974 26.3102489084 
Si 14.9198156565 9.5155592370 6.7888635745 
H 3.2824839000 7.2909153667 24.1256686815 
Si 5.3918760193 0.0447577528 29.1328031172 
Si 8.1280421843 10.8424937792 8.1571802048 
Si 15.1684662187 0.2640169194 24.4013450960 
H 13.8549057667 6.3473822680 26.9012800021 
Si 13.5761024142 10.8462241892 8.1756772782 
Si 5.3749018392 2.6518002542 2.8640705109 
Si 5.3774267892 2.6931442746 13.5750138560 
Si 5.3926579393 10.8438947192 10.8353755504 
Si 6.2366265570 11.9077783389 25.3024793339 
H 10.3072695343 8.3852449967 21.9998764719 
Si 14.9465964167 12.1940913815 9.5316236259 
Si 1.3812225966 9.4735636166 14.9535126292 
Si 1.2517838844 12.1831607914 17.5686895543 
Si 8.0730471438 0.0046055251 2.8292032357 
Si 6.8030950222 1.3304499242 12.2773303720 
Si 9.4950989968 9.4436877564 12.1771427535 
Si 12.2930205524 9.0051446624 23.0827429975 
Si 2.6501875442 2.6991227047 16.3351623234 
Si 0.4172374028 7.6689248201 26.5077358011 
Si 7.6787802702 3.1161792885 0.3118390683 
Si 12.1389986010 3.4758299118 19.8701456110 
Si 8.4911462877 0.2332206741 26.8561751511 
Si 11.4258712645 4.7876636238 0.3759369710 
Si 15.0365986675 6.8856038730 27.9524914415 
Si 6.6899935512 1.3285521391 1.4633869196 
Si 10.8518768192 8.0958694340 2.7006369053 
Si 11.8521154084 12.0102587298 25.0058259545 
Si 12.1175772508 14.6222625137 15.0166477504 
Si 13.5960739543 10.5155534762 19.3367355268 
Si 6.8036325922 4.0560797171 4.1058251466 
Si 4.4373634606 10.3127266843 25.1846407226 
Si 11.0338687009 1.9046593974 25.1995200719 
Si 12.2831162323 6.7241048115 1.4163535883 
Si 13.5844103142 5.4238532896 13.6245825117 
H 13.0574450994 12.7080897562 17.4241556398 
Si 0.0097987283 13.5743919641 13.6274125056 
Si 5.6303127515 8.2956499959 18.9957358514 
Si 5.3996463494 16.2514580086 5.5242939365 
Si 9.5430078873 6.8062715723 4.1705940788 
Si 14.8293898656 1.3378406972 15.0056195268 
Si 16.2378884385 10.7701498885 16.2570019769 
Si 8.1044868441 2.7074631848 5.5242647613 
Si 5.5578711208 2.8046493256 26.4537033406 
Si 10.8601032693 5.4151707195 5.5122154059 
Si 12.0284546600 9.3679881257 27.6953704508 
Si 16.1325410075 13.4800239933 19.0114321061 
Si 16.1024859573 13.4691259832 26.4574961159 
Si 6.7560169218 1.3339115492 6.8609846558 
Si 6.7951617922 3.8509723252 20.3124707375 
Si 9.5093527470 6.7755323420 14.9282469106 
Si 12.2086872217 9.4154246061 14.9463063561 
Si 13.7864877661 3.9455846461 25.3136242583 
Si 12.2385956619 6.7788392120 6.8170468126 
Si 5.3966978594 2.6921831646 8.2000385658 
Si 9.3473161155 4.0669777272 17.4750080041 
Si 8.6150968988 2.9637863371 21.4604271224 
Si 9.4970049269 6.7381467916 9.5332282616 
Si 10.8504921692 8.1082335442 13.5547954460 
Si 14.9269180965 6.7503805817 15.0335985385 
Si 3.3265157704 12.8653371277 20.2622894026 
Si 7.7614683110 2.4232352622 27.2578008810 
Si 5.3261132887 8.0878221740 13.4899973387 
Si 8.1391356744 16.2648972588 8.1825626242 
Si 10.8532288893 8.0931164240 8.1750937743 
Si 13.6827367551 0.0483584944 2.8851291664 
Si 4.0547602271 9.4379210963 1.3413879256 
Si 6.7690815019 4.0386494169 9.5450733907 
Si 10.8516976292 5.3865328993 10.9020116950 
Si 13.1309781601 3.1192092285 0.2488393199 
H 15.3392342903 3.5431727724 22.6903658043 
Si 12.2526376421 3.2244914995 23.7029201107 
Si 0.0646989936 10.6588891875 29.0975011317 
Si 5.7035525922 2.3876253218 24.0957057566 
Si 5.4423913098 16.2792976189 10.8971394375 
Si 14.8558122459 4.0592399771 1.5248503022 
Si 12.2252052818 6.7503317117 12.2340343831 
Si 14.9369038666 9.4538527165 17.7183583029 
H 1.4306513441 13.9724869878 18.4624716431 

