&CONTROL
/
&SYSTEM
   ntyp             = 2
   nat              = 407
   ibrav            = 0
/
&ELECTRONS
/
&IONS
/
&CELL
/

ATOMIC_SPECIES
Si 28.085 None
H 1.008 None

K_POINTS gamma

CELL_PARAMETERS angstrom
16.29000014900000 0.00000000000000 0.00000000000000
0.00000000000000 16.29000014900000 0.00000000000000
0.00000000000000 0.00000000000000 29.17519467510000

ATOMIC_POSITIONS angstrom
Si 2.6702242444 10.8088875089 2.6936290236 
Si 8.1366595944 2.6926718646 10.9121063124 
Si 4.7974213339 0.3094660198 23.2895951277 
Si 8.9470708118 10.0349170218 17.2301989456 
Si 15.0067228072 1.3841466517 4.2240722106 
Si 12.2437595920 4.0761652873 15.0004846926 
Si 0.1018934622 0.1547224214 29.0921912462 
Si 1.2846896848 12.1487400211 1.3214846078 
Si 4.0114939867 15.1040555581 25.0008953466 
Si 7.9094955423 2.7382187050 16.2652002066 
Si 8.1998322150 16.2772287889 13.6426419572 
Si 13.5640152341 2.7158036648 5.5069346957 
H 15.1407243485 9.4572084565 21.8817169335 
Si 1.3007516249 4.0376720169 14.9607772526 
Si 0.0159827707 2.6747691545 2.7521194539 
Si 1.3244910421 9.4798026867 4.0750744914 
Si 9.7003855787 3.4518999016 26.3573084974 
Si 14.9327662066 4.0645016472 6.8448507731 
Si 12.2876448524 0.7994301283 26.8024052674 
Si 13.3583051122 10.6999399879 26.2978202755 
Si 1.3373096432 4.3881187901 20.4717089500 
Si 4.0326221169 12.1765633414 4.0571025715 
Si 2.7269623149 16.2845429989 2.7869633889 
Si 6.6619747509 9.4964347769 27.9418716706 
Si 12.8843149778 2.1491885897 21.6596061764 
H 12.4164010136 11.0283952609 18.5294287149 
Si 13.5741639041 16.2649787088 8.1951079579 
Si 2.7837003855 2.7746594354 0.0466823537 
Si 4.0539457271 9.4854390268 6.7928314010 
Si 1.3615328735 9.4844290467 20.2392409988 
Si 7.2229534861 11.1824009223 21.2927281034 
Si 5.3858650093 13.5743756741 2.7367470438 
Si 8.8974677614 9.5248934071 25.1032419295 
Si 14.9060180263 1.3299058382 9.5783914630 
Si 1.4480327742 1.3679201825 1.3995632638 
Si 2.6437367042 5.4045822194 13.5983248365 
Si 8.0912430740 13.6202646046 0.0708327046 
Si 9.4010079560 6.3040508677 20.2322389521 
Si 13.5348724238 2.6703871444 10.9432070699 
Si 16.2599288087 10.8684274594 5.4051716167 
Si 12.9726882286 14.2853690206 0.2244809499 
Si 1.3342520102 12.1982453316 6.7846039961 
Si 4.1715269482 4.0490424370 1.4245605706 
Si 6.7229808015 14.8991110663 4.1416522857 
Si 5.4492331098 13.5740987441 13.5990250412 
Si 9.5702284775 9.6266570380 19.3786602815 
Si 16.1838219280 8.3464585063 24.2751623790 
Si 14.9137069064 15.1369613584 1.2896428003 
Si 2.0878241591 6.9259867833 23.2325576221 
Si 1.3782675906 4.0698284772 4.0704939859 
Si 1.3262601361 9.4872472168 9.5068247105 
Si 8.1076796841 13.5422355039 5.4812021740 
Si 14.9070117163 4.0567638971 12.2513352735 
Si 14.9607035568 6.7570269018 22.8622660513 
Si 13.5679248341 13.5562123240 5.4673147813 
Si 4.0283704268 1.3215197461 4.2127814103 
Si 2.6851784646 10.8391380391 8.1446056959 
Si 3.8248105850 12.4305570237 22.4850891345 
Si 5.3927230993 13.5453631839 8.1658744128 
Si 9.2264117344 0.5771123513 24.5931720010 
H 9.6574614283 8.8040771905 21.9587977978 
Si 14.9252728065 14.9043238663 6.8350187325 
Si 4.0254545168 12.2016825216 9.5100631571 
Si 3.3588677107 10.2238484435 23.0880237077 
Si 0.0336421083 16.2391101885 5.5002535761 
Si 8.1265760843 5.4254985796 13.5903891836 
Si 6.7580205918 14.9082660463 9.5177362333 
Si 13.5958784743 2.7674592553 16.4286396471 
Si 13.6012704644 13.5588513040 10.8838063735 
Si 2.6723582344 2.7166833248 5.5023250149 
Si 1.2813551217 12.2576223821 25.1238104417 
Si 8.1263480243 13.5652369841 10.8695397033 
H 5.1905804875 12.9948589188 22.7468198060 
Si 10.7650999885 5.0941599766 23.3511547885 
Si 11.5351282955 7.1346128152 24.3613167289 
Si 13.4266416628 16.2086804682 13.7497732721 
Si 1.3477710813 1.3330465502 6.8642522776 
Si 0.0043729039 0.0493585376 16.2707434935 
Si 6.7407694817 12.2064554916 12.1870623197 
Si 4.0758394873 14.9265597165 12.2534650628 
Si 10.5149670362 10.5551544665 23.7091052519 
Si 9.2840620449 11.8749376986 22.1965756344 
Si 14.9513530967 12.1598823812 14.9265839245 
Si 4.0649251872 4.0600218971 6.8318969867 
Si 1.3179392040 1.3372982402 12.2796935628 
Si 4.3198473995 6.9353372434 20.3849710962 
Si 12.1910451515 6.7178331614 17.7442075254 
Si 10.8911682996 13.4778248433 13.3926105388 
H 14.6325740838 10.9941862605 23.7010237230 
H 14.0504183485 12.5713514950 28.6160228939 
H 2.8398845960 2.9141995767 19.8364774363 
Si 4.0350493269 1.4319415121 27.7356905698 
Si 2.6653698244 8.1290521643 10.8705316600 
Si 3.9527522462 6.8339808625 14.9222659957 
Si 10.4123563252 0.5630394201 17.0565773621 
Si 16.2579088487 2.6813991845 8.2053776264 
Si 16.2836959189 8.1020433441 13.6441007169 
Si 2.7364593850 1.0454400816 22.4480366373 
H 3.3931092910 2.5948667037 25.0255483861 
Si 2.6934374946 16.2619161887 8.2198193478 
Si 9.4971189569 4.0385679669 12.2794893364 
Si 12.2644967622 12.1103607808 12.1399735555 
Si 14.1735055896 9.7101432888 24.3584575598 
Si 12.7274096964 14.8005402754 27.0982417414 
Si 1.3376826842 4.0512252971 9.5305149685 
Si 6.0457240453 4.8514226844 0.2289996040 
Si 6.6944570112 6.8271879324 17.5205504830 
Si 5.9192321941 5.6330168915 21.5967044567 
Si 9.3029421551 0.9144782544 20.6950158900 
Si 9.5024783669 9.4583161765 1.3256654132 
Si 8.4023169168 13.5758743542 16.1418183083 
Si 4.0502967670 1.3347602582 9.5699306565 
Si 5.4285285197 8.0860954339 2.7037061358 
Si 6.7640153119 6.7523679618 12.2098773219 
H 6.0960275658 11.2386014228 22.3015188096 
Si 10.8291522690 10.8409950991 29.1251008658 
Si 16.2885177590 10.8357497191 10.9024493229 
Si 12.7770127469 13.8449851566 23.8263603593 
Si 2.7174489549 11.0694786412 26.5671364975 
Si 2.5993464538 16.2560517887 18.8761467284 
Si 9.4306883363 1.4210679370 15.0681127938 
Si 8.2304411253 5.4462357498 2.8270763640 
Si 12.1381189410 12.2880032324 1.3190543140 
Si 16.1696984979 10.5658081266 21.6639241052 
Si 16.2377255385 16.2536571587 10.9508801461 
Si 5.7658618427 1.7017348656 19.9198601427 
Si 2.6661354544 2.6900654646 10.9039080827 
Si 5.6072298213 5.0998451866 27.1209983932 
Si 8.1136906942 8.0795142739 29.1590607924 
Si 6.9940464040 12.7015737562 19.4583085630 
Si 12.2232993518 9.5021036969 4.0142733857 
Si 12.9192081582 8.6630709492 20.7545041120 
H 4.8685271845 3.2736221399 18.4310207833 
Si 6.8555488227 6.7107958814 1.4097541593 
Si 4.8406712843 4.4665877208 23.3037159219 
Si 10.8516324692 5.4294733397 16.3138352561 
Si 9.4440135564 12.1010754807 4.1920670221 
Si 16.2373671585 8.0476021636 19.0684987869 
Si 13.5604314340 10.8036584188 13.5994334939 
Si 5.4252216496 5.4044518994 5.4594374788 
Si 0.7445768108 1.1618663416 25.5189009280 
Si 2.7138814448 10.8716040094 13.6157424277 
Si 10.8446114792 2.7045146947 13.6863755740 
Si 9.4966465469 9.4634312366 6.8385781063 
Si 9.4320404063 12.2661583422 27.8995092879 
Si 16.2116452483 2.6777176445 13.6250201396 
Si 4.0215937868 4.0571059871 12.2425243648 
Si 8.1234809843 8.1367573344 5.4748419816 
Si 8.6654655793 0.2396829172 18.5483050659 
Si 10.3923196250 0.7812879551 28.1412549510 
Si 10.7721209785 5.2112850777 27.4206859929 
Si 10.8769634195 10.7812270886 5.4751045583 
Si 10.8170650889 13.6568030749 19.0628679743 
Si 2.6294829541 4.5438186116 22.4974885923 
Si 1.5251349739 9.3774037458 27.7552379503 
Si 6.7720951519 6.7614252018 6.8220941213 
Si 6.8553044727 14.9000884663 14.9579472588 
Si 11.0590693311 7.8275894216 19.4973157982 
Si 12.2122873117 12.1855717114 6.8136041396 
Si 14.9513530967 11.8302216482 27.6371367622 
Si 1.2249249322 1.4112515829 17.7194377851 
Si 5.4022038794 8.1248656343 8.1586973149 
H 8.0428454836 13.9262396774 24.3426737795 
Si 16.1059068573 1.9760095981 27.5173725881 
Si 12.5584661049 5.7993703730 25.9795189015 
Si 12.2227780718 9.4541296465 9.5045782205 
Si 2.7399780251 13.5984685844 16.3654753507 
Si 8.1179586742 5.4022364594 8.1912860074 
Si 6.9986890540 8.0254151834 24.7842111757 
Si 8.0690235138 8.1460100545 16.1620658934 
Si 9.4819529667 12.1956552215 9.5216748846 
H 14.1224201492 1.3614009245 24.4058380760 
Si 1.3867872607 6.8077050923 17.6988109225 
Si 2.8157265258 5.5935950912 19.0838741145 
Si 8.0065513632 2.4502929524 23.6429650856 
Si 5.3968281794 5.3939285593 10.8808013285 
Si 13.5979310144 5.4603103099 2.8902960934 
Si 16.2143819683 13.6071022844 2.6085191457 
Si 2.6301834241 13.6107675345 0.0878686843 
Si 2.7231341649 16.2887946890 13.6128540835 
Si 8.1177957742 8.1038678241 10.8480084097 
Si 5.1589453072 14.1488425294 19.6312007666 
Si 6.8772471029 15.0360773875 27.7981254864 
Si 13.5001584335 8.1583090046 29.1503082340 
Si 4.0568127671 14.9700377269 1.3675172299 
Si 7.4478532281 9.0459511127 20.3828121318 
Si 9.5179212870 3.9972728166 1.4989456469 
Si 9.0707119130 6.8089431323 27.4050189134 
Si 8.9525768319 13.9974758480 23.1270601182 
Si 14.9879567271 6.8053593322 4.1658676973 
H 0.2015284788 5.3570154190 20.7606892533 
Si 3.8888139956 6.7302135616 27.2247745607 
Si 4.0141492567 9.5153963370 12.1957857029 
Si 1.3149402150 14.8939634262 4.0435361060 
Si 11.2262861827 15.8266962547 0.6789330378 
Si 13.5627771940 8.1655743447 5.4360973230 
Si 2.6805358145 13.5458844639 5.4155288108 
Si 10.7672339785 2.6265670440 2.9120695411 
H 11.8356787982 11.1466769519 20.8621314051 
Si 13.5672732341 5.4115869195 8.1949329067 
Si 14.9438434067 9.4621117465 12.2634138041 
Si 13.9337167874 13.9665574277 21.7692173828 
Si 0.0289489593 5.3972191394 16.3851102567 
Si 1.8316801968 5.7215041723 26.5023383901 
Si 4.0109238367 14.8916176662 6.8301464750 
Si 8.0597545037 15.4172633910 21.5354365479 
Si 12.2649040122 1.3905241867 1.6319641120 
Si 14.9262013365 6.7770798920 9.5253801343 
Si 0.0037509191 13.5475297539 8.1758815046 
Si 5.3072331785 5.4761930601 16.2268056504 
Si 7.9155391324 5.2918065484 18.7614882133 
Si 9.4335227963 1.2867373378 4.2409938236 
Si 13.5780897942 8.1232529243 10.8919462529 
Si 13.6885522852 13.5276233737 16.3143312344 
Si 12.1868586215 4.0557702071 4.1478957773 
Si 2.1149632993 2.5552820034 24.2008531582 
Si 1.3176899670 14.9137883564 9.5706600364 
Si 6.6684093010 4.1279674878 14.8933242025 
Si 13.6741030551 0.1230787703 18.9790768152 
Si 13.5443532039 8.1038352441 16.3899533390 
Si 9.4888110568 4.0567150271 6.8522612726 
Si 2.7072025448 13.5646342541 10.9004654097 
Si 7.3466108772 11.8139968080 17.3245223500 
H 6.7736589919 12.1661866113 23.9194875807 
Si 16.1773385080 5.3837798892 0.1586911776 
Si 14.8931163462 12.1855228414 20.5090240240 
Si 7.7920935113 7.0950769849 21.7556217421 
Si 5.4912938902 10.8827463695 16.2169444346 
Si 5.3927393893 13.7821220460 26.4256076281 
Si 10.8675152194 16.2304276184 5.5029960444 
Si 10.8429010292 15.3357645203 23.5132229949 
Si 16.2833212489 8.1195550943 2.6963014714 
Si 2.7523258452 5.4307602497 2.7086279912 
Si 6.7470900017 1.2993392819 17.7700859231 
Si 8.0598196637 10.7653443385 13.4639730650 
Si 12.2142095317 1.3282784672 6.8425751079 
Si 14.6014601835 6.9891268239 20.5013801230 
Si 15.4089392009 4.6230368823 23.7507674299 
Si 0.0180796196 2.6918736546 19.3299668816 
Si 2.8813915163 7.9694753229 29.0682384114 
Si 1.2727116476 14.8530429458 27.8061778402 
Si 9.4865467468 1.3437539673 9.5378087672 
Si 8.6216780588 14.3834999815 19.5261992410 
Si 12.2429288020 1.7538954460 18.0621879722 
Si 1.3932788257 6.7693095619 1.3271533481 
Si 1.3833712476 14.9387446366 14.9797994796 
Si 10.8514369892 2.6911406046 8.1880183856 
Si 10.5328208763 11.6242183063 20.2538869466 
Si 14.8788951761 1.2606179515 20.6727260413 
Si 13.5307999237 5.3019552185 19.1165795077 
Si 1.1494387005 3.9553423562 28.0060279237 
Si 4.0726955172 6.7717367719 4.1030535031 
Si 1.3152090000 4.8136298840 24.4091348730 
Si 12.2109189517 4.0350167469 9.5514627583 
H 13.5182729136 7.0426394744 23.3037450971 
Si 14.9384351266 15.0117238373 17.5924089875 
Si 0.0277892742 5.3964860893 5.4771468219 
H 6.3981256185 7.9338653826 23.3841227584 
Si 6.6741108010 9.4307046262 14.8037855301 
Si 5.4895671502 16.2680086488 16.3054036248 
H 11.6144117262 11.7909464578 16.9025906846 
Si 10.8605105193 16.2870190790 10.8739159825 
Si 2.6938773246 8.1311209944 5.4389856673 
Si 2.4791588327 13.7826921961 23.8225384088 
Si 5.8269656333 15.9251204356 21.2114751862 
Si 12.1677993213 1.3112440140 12.3196344043 
Si 9.3944593759 14.8055250154 1.6230481725 
Si 12.3947027334 14.9684901769 20.2675701129 
Si 1.3627986065 6.7735123819 6.8222983476 
Si 4.0762141573 12.4162055336 27.9074741161 
Si 10.8439924592 10.8008239588 10.8263895904 
Si 10.8002863888 13.4414329829 2.8768259060 
Si 9.5001814769 14.9331245866 12.2044507357 
Si 14.3406572812 14.6263513038 25.4147163078 
Si 3.4569498016 1.6127507398 20.2808740016 
Si 1.3478720793 12.2133461617 12.2535525883 
H 4.6890439629 5.2637551681 24.5791679075 
H 10.2129993034 2.1686551398 28.7521543523 
Si 16.2644411387 8.1347373744 8.1452183750 
Si 12.2218821218 14.9012613463 4.1019156705 
Si 2.7058341848 5.4156594195 8.1860636475 
Si 7.4765887884 5.9961047048 25.8436791951 
Si 4.1874585683 9.6423117282 17.7129900671 
H 9.9951205514 3.2248987495 18.5534690753 
Si 9.4852598368 12.1550768312 14.6442847408 
Si 9.4877196268 14.8866492161 6.8381113031 
Si 10.8568289793 13.5383421938 8.1794117031 
Si 4.0537339571 6.7773079520 9.5371960881 
Si 1.4711548004 15.3486499104 22.3659668147 
Si 5.3552723890 10.9211418999 0.0694958972 
Si 8.7743316502 4.4957794011 24.5229181322 
H 9.9417708009 14.3491932412 25.5844867656 
Si 12.2138511517 14.9015708563 9.5372836137 
Si 2.7518208552 8.2358494053 16.3961676555 
Si 2.6771963645 10.9634959003 18.9690113731 
Si 1.0489179966 10.4077951252 23.6827017008 
Si 8.1392659944 10.8057761188 2.7167036850 
Si 15.4891837417 15.7849938544 22.1545633541 
Si 10.8272137590 13.4986108835 26.4715585597 
Si 4.0665053172 1.3425827163 15.0046275702 
Si 6.7681041019 12.2177118817 1.4126775138 
Si 4.1353468578 14.9846824370 17.6784174614 
Si 11.3621284939 0.3033051418 21.5829629400 
Si 14.8585652559 14.9262013365 12.3396194126 
Si 3.9604737062 4.1684644281 17.6195419186 
Si 6.7719322519 9.4556771965 4.0670804881 
Si 7.9268606825 10.9796392904 26.6153630943 
Si 4.0725489072 12.2548856621 14.9630237426 
Si 10.3836696350 4.4468279507 21.1278590782 
Si 14.8953806562 9.4802913867 1.3400021038 
Si 2.9329819468 8.4135081470 21.5993302242 
Si 5.4090619695 10.8293151690 5.4166666434 
Si 10.4638978857 8.2443039154 26.2285000129 
Si 13.8610470968 2.4865544927 27.2456640001 
Si 16.2629098787 5.4041912594 10.8800135982 
Si 13.5647319941 10.9203762699 2.6540412019 
Si 15.0212209074 4.0402947070 17.8305661017 
Si 6.7438808717 12.1806032614 6.8108908465 
H 8.5116716879 7.1735133356 23.0809924858 
Si 10.7811619286 10.8628725693 16.0724980457 
Si 10.5283899963 14.5477683430 16.8225047752 
Si 14.9115403364 12.2532077921 4.0430401277 
Si 1.3144091610 6.7656606019 12.2356681940 
Si 1.7297536658 14.5276176129 20.1973454193 
Si 2.5877642637 16.2817574089 26.4594216788 
Si 6.7665728419 9.4805683167 9.5063287321 
Si 5.2834171983 8.4679330375 26.3098112805 
Si 14.9190500264 9.5153311770 6.7906432614 
H 3.2847156300 7.2923163067 24.1218175558 
Si 5.3919737593 0.0448383883 29.1342035266 
Si 8.1272276843 10.8422657192 8.1614106080 
Si 15.1801298588 0.2532182783 24.3683187756 
H 13.8556551067 6.3494673881 26.9001713447 
Si 13.5749784042 10.8458169392 8.1777778922 
Si 5.3744620092 2.6517350943 2.8659756511 
Si 5.3750973192 2.6899840146 13.5811406468 
Si 5.3913384493 10.8445951892 10.8397226544 
Si 6.2365125270 11.9079738189 25.3044924224 
H 10.3082469343 8.3812539467 22.0008684285 
Si 14.9458144967 12.1937981615 9.5333157872 
Si 1.3769334396 9.4821484467 14.9622943628 
Si 1.2920983768 12.2243093318 17.5972812450 
Si 8.0728842438 0.0041351840 2.8308574693 
Si 6.8008470022 1.3290913382 12.2816483008 
Si 9.4945288468 9.4441927464 12.1809355288 
Si 12.2941771424 9.0071320424 23.0811967121 
Si 2.6473205042 2.7015662047 16.3374963390 
Si 0.4177016678 7.6704560802 26.5056643623 
Si 7.6787965602 3.1159023585 0.3131081893 
Si 12.1456612111 3.4764978018 19.8722170498 
Si 8.4920096577 0.2334242991 26.8552415449 
Si 11.4256594945 4.7875333038 0.3769026699 
Si 15.0374131675 6.8864020830 27.9519662879 
Si 6.6897492012 1.3285830901 1.4652162043 
Si 10.8514044092 8.0958368540 2.7019176964 
Si 11.8574748184 12.0107474298 25.0001659667 
Si 12.1100186908 14.6231095937 15.0133217782 
Si 13.6030297844 10.5214504562 19.3342556352 
Si 6.8030624422 4.0556887571 4.1085676149 
Si 4.4370376606 10.3122054043 25.1862453583 
Si 11.0336406409 1.9064512974 25.2002202766 
Si 12.2830510723 6.7239744915 1.4175731114 
Si 13.5838890342 5.4250261696 13.6279084839 
H 13.0769442296 12.7213009463 17.4239514135 
Si 0.0073084434 13.5748806642 13.6242324094 
Si 5.6338476815 8.2917892658 18.9983324437 
Si 5.3989458794 16.2508552786 5.5263653754 
Si 9.5424866073 6.8062878622 4.1724612913 
Si 14.8252359156 1.3422308523 15.0030812849 
Si 16.2754205988 10.8101418389 16.2869357266 
Si 8.1033139641 2.7063228848 5.5273281568 
Si 5.5587182008 2.8061480057 26.4558039546 
Si 10.8595331193 5.4147634695 5.5141117936 
Si 12.0279170900 9.3677111957 27.6963624074 
Si 16.1263833875 13.5049314035 18.9838031968 
Si 16.1036099673 13.4699079032 26.4559790058 
Si 6.7546485618 1.3326311552 6.8645732047 
Si 6.7944776121 3.8511352252 20.3130834166 
Si 9.5093038770 6.7761513620 14.9306976269 
Si 12.2104791217 9.4183893861 14.9489904740 
Si 13.7883285361 3.9485005561 25.3137993095 
Si 12.2381069619 6.7785459920 6.8191182514 
Si 5.3949222493 2.6899840146 8.2044148450 
Si 9.3498247755 4.0679877072 17.4757373840 
Si 8.6159765588 2.9648940571 21.4597269177 
Si 9.4963044568 6.7377884116 9.5358832044 
Si 10.8510134492 8.1099277042 13.5588799733 
Si 14.9278629165 6.7526286018 15.0346488456 
Si 3.3519933307 12.8193178772 20.2674825873 
Si 7.7620384610 2.4232678422 27.2588803632 
Si 5.3253965287 8.0871705740 13.4906391930 
Si 8.1369039444 16.2632030987 8.1868513778 
Si 10.8524143893 8.0927417540 8.1773110891 
Si 13.6820362851 0.0477437098 2.8864508027 
Si 4.0546787771 9.4373998163 1.3428058400 
Si 6.7680389419 4.0373950869 9.5479033846 
Si 10.8507690992 5.3863211293 10.9052793168 
Si 13.1307338101 3.1189322985 0.2503503032 
H 15.3399347603 3.5470497924 22.6902782787 
Si 12.2531589221 3.2267883895 23.7042038192 
Si 0.0641808087 10.6594267575 29.0980262852 
Si 5.7080812122 2.3925937719 24.0987108016 
Si 5.4396220097 16.2763817089 10.9034996299 
Si 14.8559914359 4.0594028771 1.5254892390 
Si 12.2241627218 6.7508041217 12.2372436545 
Si 14.9502779567 9.4680575966 17.7133109943 
H 16.2429709186 14.6932217544 20.1820284421 

