&CONTROL
/
&SYSTEM
   ntyp             = 2
   nat              = 407
   ibrav            = 0
/
&ELECTRONS
/
&IONS
/
&CELL
/

ATOMIC_SPECIES
Si 28.085 None
H 1.008 None

K_POINTS gamma

CELL_PARAMETERS angstrom
16.29000014900000 0.00000000000000 0.00000000000000
0.00000000000000 16.29000014900000 0.00000000000000
0.00000000000000 0.00000000000000 29.17519467510000

ATOMIC_POSITIONS angstrom
Si 2.6703382744 10.8087083189 2.6939324456 
Si 8.1380768244 2.6930791146 10.9099473480 
Si 4.7828254937 0.3264385710 23.2988728396 
Si 8.9532773019 10.0347541218 17.2335249178 
Si 15.0067390972 1.3843991467 4.2243639626 
Si 12.2468709820 4.0749924073 14.9998428383 
Si 0.1008481329 0.1550915528 29.0942335099 
Si 1.2848770197 12.1484142211 1.3219368233 
Si 4.0070956866 15.1062872882 25.0032293621 
Si 7.9097887623 2.7351887650 16.2673008206 
Si 8.2060875751 16.2794605189 13.6373028966 
Si 13.5640315241 2.7160317248 5.5070513965 
H 15.1465235885 9.4705988366 21.8822129118 
Si 1.2998019179 4.0340230569 14.9610398294 
Si 0.0157582131 2.6749157645 2.7523120101 
Si 1.3244307691 9.4799004267 4.0753662434 
Si 9.7008905687 3.4498962315 26.3545660291 
Si 14.9326195966 4.0649577672 6.8448799483 
Si 12.2867814824 0.7982653933 26.8020551650 
Si 13.3602762022 10.6985879178 26.2964782165 
Si 1.3391243493 4.3907414802 20.4715630740 
Si 4.0327035669 12.1766610814 4.0570442211 
Si 2.7271577949 16.2845104189 2.7873951817 
Si 6.6641576110 9.4943333668 27.9470940304 
Si 12.8846244878 2.1596141898 21.6564552554 
H 12.4342059837 11.0439033410 18.5272697505 
Si 13.5744571241 16.2651253188 8.1944661036 
Si 2.7829836254 2.7769237454 0.0500570485 
Si 4.0538316971 9.4858951468 6.7922770723 
Si 1.3254700711 9.4249053862 20.2388908965 
Si 7.2186855060 11.2094911925 21.3097664170 
Si 5.3859790393 13.5743919641 2.7368170642 
Si 8.9023710514 9.5204136571 25.1075890335 
Si 14.9053012663 1.3306225982 9.5776037327 
Si 1.4479741302 1.3679723105 1.4006981788 
Si 2.6419448042 5.4009332594 13.5968369016 
Si 8.0906077640 13.6206066946 0.0714733919 
Si 9.4026695360 6.3146393677 20.2349230700 
Si 13.5351004838 2.6701590844 10.9443157273 
Si 16.2597821987 10.8684111694 5.4053758430 
Si 12.9714827686 14.2850432206 0.2283367436 
Si 1.3341233192 12.1982779116 6.7846039961 
Si 4.1720645182 4.0502478970 1.4263490100 
Si 6.7230296715 14.8990784863 4.1417689865 
Si 5.4528494899 13.5742290641 13.5944737108 
Si 9.5751317676 9.6325540181 19.3830949111 
Si 16.1834961280 8.3503681064 24.2732368162 
Si 14.9132833664 15.1369776484 1.2911774155 
Si 2.0897137991 6.9259704933 23.2345998857 
Si 1.3782024306 4.0699750872 4.0704939859 
Si 1.3262454751 9.4872635068 9.5069414112 
Si 8.1077774241 13.5422680839 5.4812896996 
Si 14.9083474963 4.0536687971 12.2538443403 
Si 14.9629352868 6.7556911218 22.8625869784 
Si 13.5680062841 13.5562611940 5.4672564309 
Si 4.0285170368 1.3215001981 4.2128981111 
Si 2.6850644346 10.8390891691 8.1444014695 
Si 3.7965474347 12.4359978837 22.5199534922 
Si 5.3937982393 13.5456238239 8.1666329679 
Si 9.2210849043 0.5740889273 24.5928218986 
H 9.6654761084 8.7874776804 21.9473027711 
Si 14.9255497365 14.9042587063 6.8349312069 
Si 4.0252916168 12.2018128416 9.5094796532 
Si 3.3867399010 10.2168926134 23.0953175064 
Si 0.0337237212 16.2390938985 5.5001660505 
Si 8.1282539543 5.4258243796 13.5902141324 
Si 6.7601871618 14.9076307363 9.5189907666 
Si 13.5987129344 2.7641035153 16.4269183106 
Si 13.6020198044 13.5589001740 10.8845357534 
Si 2.6723093644 2.7166833248 5.5021207886 
Si 1.2797261217 12.2577364121 25.1230518867 
Si 8.1303390744 13.5653998841 10.8710276383 
H 5.1684749573 13.0403405993 22.5686468921 
Si 10.7652791785 5.0941762666 23.3512423140 
Si 11.5373274455 7.1339449252 24.3613459041 
Si 13.4315612428 16.2104397883 13.7507360535 
Si 1.3478069193 1.3329993092 6.8640480512 
Si 0.0092604415 0.0398800381 16.2812757388 
Si 6.7430826617 12.2042726316 12.1843490266 
Si 4.0766051173 14.9259081165 12.2520938286 
Si 10.5181110062 10.5507887465 23.7092511279 
Si 9.2997981850 11.8756870386 22.1905071939 
Si 14.9429963267 12.1677504513 14.9231412515 
Si 4.0649740572 4.0596635171 6.8316635851 
Si 1.3160463060 1.3351528472 12.2782639782 
Si 4.3199940095 6.9348648334 20.3875093382 
Si 12.1890414815 6.7166765714 17.7444409270 
Si 10.8992318497 13.4801217333 13.4003419654 
H 14.6207149637 11.0045467006 23.6873697319 
H 14.0494409485 12.5704229650 28.6165772226 
H 2.8450322360 2.9077976066 19.8398909341 
Si 4.0371018669 1.4353558961 27.7424592150 
Si 2.6648485444 8.1266249543 10.8688103235 
Si 3.9534527162 6.8290938625 14.9178313661 
Si 10.4132359852 0.5625995901 17.0554978799 
Si 16.2576970787 2.6814154745 8.2046482465 
Si 16.2834515689 8.0973355341 13.6401328905 
Si 2.7164063948 1.0301763514 22.4323112074 
H 3.3887598610 2.5944268737 25.0172334556 
Si 2.6937144246 16.2618998987 8.2194400702 
Si 9.4975750769 4.0383073269 12.2790808837 
Si 12.2616297221 12.1118757508 12.1378729415 
Si 14.1771056797 9.7184186089 24.3515138635 
Si 12.7223923764 14.7987483753 27.1048936858 
Si 1.3377071192 4.0500687070 9.5296980631 
Si 6.0462941953 4.8516507444 0.2304796617 
Si 6.6957765012 6.8317165525 17.5213673885 
Si 5.9214313442 5.6462280816 21.6059529934 
Si 9.3421847654 0.9271290685 20.6725509901 
Si 9.5030322269 9.4580555365 1.3262139068 
Si 8.4060961969 13.5819668142 16.1382589345 
Si 4.0507528870 1.3339408712 9.5696972550 
Si 5.4286262596 8.0862094640 2.7037586512 
Si 6.7648623919 6.7524005418 12.2099940227 
H 6.1219449560 11.2658383030 22.3486950994 
Si 10.8304228891 10.8400339891 29.1259761217 
Si 16.2886480790 10.8361732591 10.9025076733 
Si 12.7804825169 13.8393976866 23.8350253922 
Si 2.7174815349 11.0700487912 26.5668739207 
Si 2.6190899339 16.2381816585 18.8825069209 
Si 9.4326920063 1.4215419760 15.0683170202 
Si 8.2304899953 5.4461868798 2.8272018174 
Si 12.1379397510 12.2873353424 1.3200491882 
Si 16.1837241880 10.5746210167 21.6601313299 
Si 16.2368132985 16.2536571587 10.9483419042 
Si 5.7775580628 1.7665527762 19.9088610943 
Si 2.6655001444 2.6882735646 10.9029744764 
Si 5.6078814213 5.1016696667 27.1236825111 
Si 8.1154174342 8.0780481739 29.1609280049 
Si 7.0423299644 12.7053693262 19.4536697070 
Si 12.2233808018 9.5021036969 4.0143317361 
Si 12.9258218982 8.6708575693 20.7512948406 
H 4.8729091946 3.2777598000 18.4262652265 
Si 6.8558257527 6.7108773314 1.4104718690 
Si 4.8404106443 4.4715073009 23.3068376678 
Si 10.8538641993 5.4286099697 16.3116471165 
Si 9.4436877564 12.1008962907 4.1920670221 
Si 16.2076541982 8.0105587033 19.0583166440 
Si 13.5567173140 10.8071118988 13.5967493760 
Si 5.4251890696 5.4042889994 5.4593207780 
Si 0.7490842539 1.1678936417 25.5301917284 
Si 2.7177421749 10.8682319794 13.6076317236 
Si 10.8451653392 2.7053780647 13.6868423771 
Si 9.4970375069 9.4633986565 6.8385197559 
Si 9.4330015163 12.2654741622 27.9035354648 
Si 16.2120036283 2.6724559744 13.6280251847 
Si 4.0201765568 4.0629215172 12.2338009815 
Si 8.1236438843 8.1368550744 5.4747544560 
Si 8.6667036193 0.2222917130 18.5427909541 
Si 10.3916354450 0.7813677761 28.1411674254 
Si 10.7726096785 5.2093628576 27.4196356859 
Si 10.8770122895 10.7812922486 5.4750170327 
Si 10.8610969593 13.6483485648 19.0472884204 
Si 2.6302485841 4.5461806616 22.4964674605 
Si 1.5244605679 9.3780227658 27.7543335192 
Si 6.7722091819 6.7612948818 6.8215689678 
Si 6.8575362027 14.9053501363 14.9494281019 
Si 11.0632232812 7.8324927116 19.4979576525 
Si 12.2124502117 12.1856205814 6.8135166140 
Si 14.9508969767 11.8284623282 27.6390331499 
Si 1.2371179973 1.4038151978 17.7249518969 
Si 5.4025133894 8.1255498143 8.1570926792 
H 8.0288360834 13.9079460072 24.3331334908 
Si 16.1059068573 1.9810757881 27.5244913356 
Si 12.5598018849 5.7978065330 25.9789062225 
Si 12.2231527418 9.4545206065 9.5051325492 
Si 2.7409717151 13.5688207841 16.3754532672 
Si 8.1182193143 5.4023667794 8.1907316787 
Si 7.0027615541 8.0213589734 24.7857282858 
Si 8.0723955438 8.1473784145 16.1636413539 
Si 9.4821484467 12.1957692515 9.5204787016 
H 14.1243749492 1.3812714666 24.4283905015 
Si 1.3866145867 6.7986152722 17.6959225782 
Si 2.8190333958 5.5917217411 19.0841950416 
Si 8.0010616332 2.4454711124 23.6386471568 
Si 5.3978218694 5.3977078394 10.8763083485 
Si 13.5978006944 5.4602777299 2.8902785882 
Si 16.2146588983 13.6069882544 2.6087904750 
Si 2.6300368140 13.6110281745 0.0897253937 
Si 2.7216354849 16.2870027890 13.6099949144 
Si 8.1181378643 8.1037700841 10.8477166577 
Si 5.4967836203 14.4628974423 19.5094526792 
Si 6.8750153729 15.0343180675 27.7973377562 
Si 13.5007611635 8.1580809446 29.1504832852 
Si 4.0571059871 14.9703309469 1.3680919813 
Si 7.4461916481 9.0688059829 20.3894349010 
Si 9.5179212870 3.9973868466 1.4988756264 
Si 9.0716078630 6.8071838123 27.4058066436 
Si 8.9736398021 13.9890864979 23.1415601899 
Si 14.9878264071 6.8052778822 4.1659260477 
H 0.1987396308 5.3547673990 20.7605725525 
Si 3.8877877256 6.7283565015 27.2266709483 
Si 4.0176678967 9.5112260970 12.1910593213 
Si 1.3151650170 14.8938656862 4.0437695076 
Si 11.2256834527 15.8275107548 0.6797791184 
Si 13.5627771940 8.1656069247 5.4361848486 
Si 2.6808453245 13.5458518839 5.4158205627 
Si 10.7671688185 2.6268765540 2.9121541492 
H 11.8685683085 11.1594808921 20.8660408812 
Si 13.5673058141 5.4120430395 8.1952538338 
Si 14.9441529167 9.4640828366 12.2648433887 
Si 13.9258324274 13.9753214478 21.7775614885 
Si 0.0277016340 5.3920552093 16.3826887155 
Si 1.8305236067 5.7216344923 26.5014339591 
Si 4.0115428567 14.8914384762 6.8305257525 
Si 8.1302739144 15.4279170511 21.5438973543 
Si 12.2650506222 1.3912083667 1.6321070704 
Si 14.9261850465 6.7769984420 9.5263720909 
Si 0.0038427296 13.5475297539 8.1760565557 
Si 5.3100187686 5.4783270501 16.2261637961 
Si 7.9272190625 5.3034050285 18.7557990504 
Si 9.4337182763 1.2868855768 4.2411688747 
Si 13.5789857442 8.1245235443 10.8928506839 
Si 13.7040929453 13.5315981338 16.3412015887 
Si 12.1868097515 4.0559168171 4.1480124781 
Si 2.1100925893 2.5518122333 24.1926841037 
Si 1.3182356821 14.9137720664 9.5701640581 
Si 6.6723677710 4.1291077878 14.8951914150 
Si 13.6813195251 0.1281605988 18.9889672062 
Si 13.5387657338 8.1008704641 16.3878527250 
Si 9.4891042768 4.0565847071 6.8522904477 
Si 2.7071373848 13.5644061941 10.9002903585 
Si 7.3554237673 11.8153814581 17.3195333917 
H 6.7645203019 12.1710736113 23.9487503010 
Si 16.1771267380 5.3857021093 0.1599217873 
Si 14.9062949563 12.2068301616 20.5049103215 
Si 7.7913115913 7.1124584150 21.7548923622 
Si 5.4909192202 10.8880731996 16.2237714301 
Si 5.3889763993 13.7799554760 26.4255201025 
Si 10.8675152194 16.2303135884 5.5029668692 
Si 10.8559330293 15.3396415403 23.5295319287 
Si 16.2833212489 8.1196854143 2.6968237074 
Si 2.7522443952 5.4315421697 2.7092873505 
Si 6.7481488517 1.2895734268 17.7641925338 
Si 8.0592658037 10.7641877484 13.4651108976 
Si 12.2142909817 1.3281693242 6.8422541808 
Si 14.5847629334 6.9742214738 20.5040058905 
Si 15.4082387309 4.6214893323 23.7507382547 
Si 0.0247959866 2.6898536946 19.3330594522 
Si 2.8808050764 7.9701757929 29.0680341850 
Si 1.2727491146 14.8538574458 27.8090953596 
Si 9.4879313968 1.3431952203 9.5376337160 
Si 8.6801102894 14.3728951914 19.5315966520 
Si 12.2447044120 1.7511587260 18.0604666357 
Si 1.3934954827 6.7702543819 1.3277601921 
Si 1.3938196538 14.9333526466 14.9902733745 
Si 10.8520071392 2.6909614146 8.1879016848 
Si 10.5607093566 11.6247395863 20.2554624071 
Si 14.8764190961 1.2722310926 20.6809242710 
Si 13.5257988937 5.2943966584 19.1127575572 
Si 1.1502792645 3.9584374562 28.0085953408 
Si 4.0728258372 6.7720625719 4.1033452551 
Si 1.3145916090 4.8121149140 24.4080262156 
Si 12.2115379717 4.0346583669 9.5516086343 
H 13.5233716837 7.0521528345 23.3038326227 
Si 14.9668123069 15.0036439972 17.6371345610 
Si 0.0277420332 5.3965512494 5.4771176467 
H 6.3987446385 7.9271701925 23.3874779058 
Si 6.6737850010 9.4330340963 14.8101748977 
Si 5.4800375001 0.0035055429 16.2666589663 
H 11.6259124663 11.7927383579 16.8796006312 
Si 10.8634264294 16.2871819790 10.8738284570 
Si 2.6938121646 8.1311535744 5.4390731929 
Si 2.4554568825 13.8087236163 23.8272064400 
Si 5.9324270943 16.0665665069 21.2636696095 
Si 12.1686626913 1.3113906240 12.3215307919 
Si 9.3941335759 14.8056390454 1.6236579341 
Si 12.4055030035 14.9709499669 20.2718588665 
Si 1.3626471095 6.7734798019 6.8222691724 
Si 4.0743570973 12.4173947036 27.9083201967 
Si 10.8426403892 10.8010357288 10.8256018602 
Si 10.7999931688 13.4411886329 2.8771439156 
Si 9.5077074569 14.9315933266 12.2060261962 
Si 14.3373667011 14.6238915137 25.4283411237 
Si 3.4724090118 1.6104522207 20.2781315333 
Si 1.3468702443 12.2142584017 12.2537276395 
H 4.6846293728 5.2660031882 24.5833107852 
H 10.2130318834 2.1687691698 28.7520668267 
Si 16.2643596887 8.1344604444 8.1456268277 
Si 12.2217355118 14.9012124763 4.1019740209 
Si 2.7055409647 5.4149426595 8.1853342676 
Si 7.4788205184 5.9921788148 25.8440292975 
Si 4.1928994283 9.6290516681 17.7108019275 
H 9.9968310014 3.2282870695 18.5543443312 
Si 9.4861720768 12.1553374712 14.6424758787 
Si 9.4878499468 14.8866817961 6.8381696535 
Si 10.8574317093 13.5386354138 8.1793241776 
Si 4.0535058971 6.7783342220 9.5337242400 
Si 1.4224330390 15.3409121603 22.3234877312 
Si 5.3541972490 10.9214839899 0.0687052494 
Si 8.7732076402 4.4916580311 24.5194171088 
H 9.9356946309 14.3429867512 25.5863831533 
Si 12.2154312817 14.9014731163 9.5369335114 
Si 2.7550951452 8.2268247452 16.3936294135 
Si 2.6022623638 10.8808893095 18.9319005254 
Si 1.0672621658 10.4031036051 23.6794049038 
Si 8.1390053544 10.8058738588 2.7162397994 
Si 15.4462107213 15.8256862747 22.2055907695 
Si 10.8259594290 13.4966397934 26.4737466993 
Si 4.0619929872 1.3657259195 14.9776696904 
Si 6.7673873419 12.2176141417 1.4121932055 
Si 4.1480530579 15.0063481372 17.6415108402 
Si 11.3802592641 0.3032839648 21.5927949806 
Si 14.8603571559 14.9271787365 12.3393860111 
Si 3.9616628762 4.1695884381 17.6154573913 
Si 6.7720462819 9.4558075165 4.0669929625 
Si 7.9330020126 10.9732373204 26.6230653457 
Si 4.0774359073 12.2502593020 14.9563134478 
Si 10.3826433650 4.4536860407 21.1279757790 
Si 14.8955761362 9.4798841367 1.3404047215 
Si 2.9350833568 8.4129379969 21.6011974367 
Si 5.4091434195 10.8295106490 5.4164624170 
Si 10.4685894057 8.2404594754 26.2310674300 
Si 13.8600696968 2.4857888627 27.2451096714 
Si 16.2619650587 5.4009658394 10.8794300943 
Si 13.5650089241 10.9201970799 2.6542483458 
Si 15.0241856874 4.0357497969 17.8316164087 
Si 6.7438482917 12.1806847114 6.8107741457 
H 8.5107594478 7.1907970258 23.0789793973 
Si 10.7819112686 10.8604453593 16.0681509417 
Si 10.5387341464 14.5491204131 16.8141606696 
Si 14.9116380764 12.2531915021 4.0430984781 
Si 1.3137803670 6.7619464818 12.2330716017 
Si 1.6430745750 14.5235451128 20.1578130305 
Si 2.5914295137 16.2861231289 26.4691078434 
Si 6.7675828219 9.4799330067 9.5048699724 
Si 5.2915621984 8.4588269274 26.3172801303 
Si 14.9190174464 9.5151845670 6.7909058382 
H 3.2829888900 7.2912900367 24.1299282599 
Si 5.3934561493 0.0446953621 29.1358665127 
Si 8.1275046143 10.8423634592 8.1606520530 
Si 15.1680915487 0.2667275754 24.4133361010 
H 13.8559971967 6.3479198381 26.9008131990 
Si 13.5750924342 10.8460612892 8.1778945930 
Si 5.3748040992 2.6514744543 2.8661419497 
Si 5.3821508892 2.7043192147 13.5665238743 
Si 5.3924298793 10.8438947192 10.8368343101 
Si 6.2355351270 11.8984115888 25.3239522772 
H 10.3264265744 8.3830621367 21.9992346176 
Si 14.9459122367 12.1938144515 9.5335783640 
Si 1.3862073367 9.4715110766 14.9511786136 
Si 1.2466264704 12.1946941115 17.5769461343 
Si 8.0731123038 0.0042259193 2.8315080761 
Si 6.8034208222 1.3292705282 12.2779430511 
Si 9.4941704668 9.4441112964 12.1808480032 
Si 12.2989826925 9.0060569024 23.0803506315 
Si 2.6473530842 2.7003281647 16.3370003607 
Si 0.4171217438 7.6718733102 26.5035053979 
Si 7.6792201002 3.1159349385 0.3131752922 
Si 12.1369460610 3.4787621118 19.8663820109 
Si 8.4904132376 0.2325153171 26.8562043263 
Si 11.4254965945 4.7875333038 0.3765554851 
Si 15.0379181575 6.8870211030 27.9512077329 
Si 6.6908243412 1.3286466212 1.4657238527 
Si 10.8516487592 8.0956902440 2.7021890257 
Si 11.8561064584 12.0076034598 25.0029376102 
Si 12.1308536009 14.6206335137 15.0191568172 
Si 13.6170228945 10.5307031763 19.3294709033 
Si 6.8031927622 4.0556235971 4.1085967901 
Si 4.4420712706 10.2995317842 25.1986448161 
Si 11.0322885709 1.9018249374 25.1967192532 
Si 12.2830347823 6.7239093315 1.4173688851 
Si 13.5848501442 5.4245700496 13.6269457025 
H 13.0589600694 12.7059068962 17.4202753389 
Si 0.0105324625 13.5794092842 13.6272958048 
Si 5.6381319516 8.2920824858 19.0071141773 
Si 5.3990273294 16.2507738286 5.5263945506 
Si 9.5425354773 6.8062389922 4.1725488169 
Si 14.8316378856 1.3347570002 15.0099958061 
Si 16.2587885087 10.7871077787 16.2529174496 
Si 8.1033954141 2.7063717548 5.5274156824 
Si 5.5579688608 2.8096503557 26.4619307455 
Si 10.8595819893 5.4148612095 5.5142868448 
Si 12.0301325300 9.3675482957 27.6965374586 
Si 16.1837893480 13.5047847935 18.9900758636 
Si 16.1044570473 13.4674644032 26.4596550803 
Si 6.7547463018 1.3325383022 6.8645732047 
Si 6.8105884223 3.8831287855 20.3159134104 
Si 9.5109654570 6.7759721720 14.9298807215 
Si 12.2102021917 9.4174282761 14.9456936770 
Si 13.7872045261 3.9456335161 25.3123989001 
Si 12.2380743819 6.7787577620 6.8192933026 
Si 5.3947267693 2.6896093446 8.2042981442 
Si 9.3529198755 4.0673361072 17.4726448134 
Si 8.6229649689 2.9632324771 21.4565759967 
Si 9.4965162268 6.7377232516 9.5356206276 
Si 10.8513066692 8.1091620742 13.5568085345 
Si 14.9272601865 6.7516512017 15.0349697727 
Si 3.0292558477 12.6616143858 20.3757225595 
Si 7.7624620010 2.4232678422 27.2592596408 
Si 5.3279866387 8.0877081440 13.4925647558 
Si 8.1372460344 16.2632845487 8.1869680786 
Si 10.8527890593 8.0931164240 8.1776903666 
Si 13.6816616151 0.0482403919 2.8870955745 
Si 4.0546299071 9.4374486863 1.3428525203 
Si 6.7684299019 4.0373299269 9.5466780264 
Si 10.8510134492 5.3860279093 10.9046958129 
Si 13.1306686501 3.1192255185 0.2497002799 
H 15.3385012403 3.5478317124 22.6879442631 
Si 12.2517091121 3.2251756795 23.7030659866 
Si 0.0644660466 10.6586774175 29.0989307162 
Si 5.7031453422 2.3991912219 24.1087178934 
Si 5.4401107097 16.2757463989 10.9028286005 
Si 14.8558448259 4.0595494871 1.5253579506 
Si 12.2249935118 6.7502339717 12.2361349971 
Si 14.9476715567 9.4609877365 17.7066882251 
H 4.3513033898 13.4681648732 20.0104782974 

