&CONTROL
/
&SYSTEM
   ntyp             = 2
   nat              = 407
   ibrav            = 0
/
&ELECTRONS
/
&IONS
/
&CELL
/

ATOMIC_SPECIES
Si 28.085 None
H 1.008 None

K_POINTS gamma

CELL_PARAMETERS angstrom
16.29000014900000 0.00000000000000 0.00000000000000
0.00000000000000 16.29000014900000 0.00000000000000
0.00000000000000 0.00000000000000 29.17519467510000

ATOMIC_POSITIONS angstrom
Si 2.6710061644 10.8076331788 2.6926399845 
Si 8.1365781444 2.6927858946 10.9109684798 
Si 4.7859368838 0.3127109879 23.2863566811 
Si 8.9511433119 10.0364157018 17.2326788372 
Si 15.0069997372 1.3844300977 4.2241305610 
Si 12.2398174119 4.0769146273 14.9952623327 
Si 0.1012956192 0.1533578081 29.0977053580 
Si 1.2845479617 12.1477952011 1.3221177095 
Si 3.9984619866 15.1016446381 24.9903339261 
Si 7.9097073123 2.7368014750 16.2661338128 
Si 8.2023245850 16.2774568489 13.6414165990 
Si 13.5642270041 2.7159991448 5.5070513965 
H 15.1170386883 9.4707780266 21.8795579691 
Si 1.3050684749 4.0338601569 14.9659120869 
Si 0.0162637407 2.6749157645 2.7518977224 
Si 1.3247191021 9.4797538167 4.0748702651 
Si 9.7053866088 3.4515252316 26.3584463300 
Si 14.9328150766 4.0648926072 6.8450549995 
Si 12.2884919324 0.7981171543 26.8034263992 
Si 13.3608300622 10.6978059978 26.2946401792 
Si 1.2886188328 4.3387112197 20.4140004149 
Si 4.0326221169 12.1761723814 4.0566065932 
Si 2.7275650449 16.2843312289 2.7879465929 
Si 6.6563547009 9.4897884568 27.9343152952 
Si 12.8773754378 2.1478528096 21.6531001080 
H 12.4330982637 11.0426653010 18.5306540731 
Si 13.5743919641 16.2650927388 8.1952246586 
Si 2.7867140355 2.7715969153 0.0453537154 
Si 4.0538805671 9.4854064467 6.7925396491 
Si 1.3735076526 9.4986502169 20.2481394332 
Si 7.2253318261 11.1789637322 21.2942160383 
Si 5.3862396793 13.5733819841 2.7360322515 
Si 8.8980053314 9.5229386071 25.1040296597 
Si 14.9062135063 1.3299921752 9.5786832150 
Si 1.4495249383 1.3679201825 1.4008119621 
Si 2.6445186242 5.4031649894 13.6013882319 
Si 8.0892394040 13.6202483146 0.0685981765 
Si 9.4088271561 6.3060708277 20.2274833954 
Si 13.5358986938 2.6699636044 10.9448117056 
Si 16.2599613887 10.8682319794 5.4051716167 
Si 12.9715479286 14.2846196806 0.2283630013 
Si 1.3341705602 12.1982127516 6.7845456457 
Si 4.1722274182 4.0488795370 1.4231193159 
Si 6.7229482215 14.8987038163 4.1412730082 
Si 5.4494774598 13.5732842441 13.5997544210 
Si 9.5757344976 9.6294589181 19.3815194506 
Si 16.1996395182 8.3678146965 24.2801513373 
Si 14.9129086964 15.1362445984 1.2921431145 
Si 1.9814830381 7.0457019944 23.3464575821 
Si 1.3783653306 4.0699587972 4.0703189347 
Si 1.3265615011 9.4867585168 9.5071456376 
Si 8.1077122642 13.5422843739 5.4812313492 
Si 14.9096506964 4.0534081571 12.2546320705 
Si 14.9772216170 6.7693910119 22.8599028605 
Si 13.5677945141 13.5563263540 5.4672564309 
Si 4.0287613869 1.3218015631 4.2129564615 
Si 2.6850807246 10.8389751391 8.1444889951 
Si 3.8215688750 12.4503330839 22.4692178286 
Si 5.3937493693 13.5454772139 8.1668080190 
Si 9.2313476044 0.5742208763 24.5961186956 
H 9.6713079285 8.8128249206 21.9458148362 
Si 14.9252728065 14.9044053163 6.8349895573 
Si 4.0253730668 12.2015033316 9.5100048067 
Si 3.3600731707 10.2556953938 23.0900076209 
Si 0.0336869058 16.2391264785 5.5002244009 
Si 8.1275371943 5.4261338896 13.5898932052 
Si 6.7603826418 14.9075981563 9.5191366426 
Si 13.5876357343 2.7624908053 16.4170570948 
Si 13.6016614244 13.5587698540 10.8843898774 
Si 2.6723256544 2.7167484849 5.5022374894 
Si 1.2793547097 12.2721204822 25.1236062154 
Si 8.1296548944 13.5657745541 10.8729532011 
H 5.1798779574 13.0196522991 22.7473157843 
Si 10.7704431085 5.0897616766 23.3505712846 
Si 11.5360894055 7.1323973752 24.3586326110 
Si 13.4292806428 16.2082569282 13.7512028566 
Si 1.3478215803 1.3330221152 6.8641355768 
Si 0.0079236353 0.0362012673 16.2749155464 
Si 6.7405902917 12.2062437216 12.1865663414 
Si 4.0769309173 14.9256800565 12.2530857852 
Si 10.5148530062 10.5499416665 23.7087551496 
Si 9.2889327550 11.8735530486 22.1950585243 
Si 14.9490724967 12.1651277613 14.9333525696 
Si 4.0648763172 4.0600870571 6.8317219355 
Si 1.3189394101 1.3359201062 12.2812398481 
Si 4.2792527191 6.9296846134 20.4112871218 
Si 12.1902795215 6.7174096214 17.7435948463 
Si 10.9018382497 13.4814412233 13.4032886601 
H 14.6210570537 11.0018099806 23.6906957041 
H 14.0488056385 12.5690871850 28.6145933094 
H 2.8403244260 2.9253256468 19.8335599169 
Si 4.0386005469 1.4304053651 27.7342318101 
Si 2.6653535344 8.1278629943 10.8709401127 
Si 3.9549513962 6.8304622225 14.9272549540 
Si 10.4120142352 0.5596282941 17.0558771574 
Si 16.2579088487 2.6813340245 8.2052317504 
Si 16.2841683289 8.0992414641 13.6413290735 
Si 2.7162109148 1.0503889836 22.4483867396 
H 3.3770799309 2.6221035840 25.0673272648 
Si 2.6937307146 16.2620302187 8.2196734718 
Si 9.4964999369 4.0391381169 12.2777679999 
Si 12.2640895122 12.1116476908 12.1411405633 
Si 14.1662565396 9.7167570289 24.3475460370 
Si 12.7212846563 14.7976895253 27.1049812113 
Si 1.3379807912 4.0504433770 9.5304857933 
Si 6.0464082253 4.8526607244 0.2283487054 
Si 6.6924044712 6.8293545025 17.5251018134 
Si 5.9087251440 5.6334893015 21.6024519700 
Si 9.3026163551 0.9139162494 20.6935571303 
Si 9.5018593469 9.4582835965 1.3246588690 
Si 8.4037178569 13.5747992142 16.1401553222 
Si 4.0504270870 1.3347570002 9.5701640581 
Si 5.4282190096 8.0864212340 2.7026791690 
Si 6.7635591919 6.7523842518 12.2104024754 
H 6.0941542157 11.2390575428 22.3006435538 
Si 10.8291685590 10.8405389791 29.1242839604 
Si 16.2887295290 10.8357171391 10.9022159214 
Si 12.7712135068 13.8438285666 23.8328664277 
Si 2.7124967948 11.0766625313 26.5678950526 
Si 2.6227714740 16.2421727085 18.8863288714 
Si 9.4313725163 1.4205385120 15.0685212466 
Si 8.2305877353 5.4465452598 2.8270967866 
Si 12.1373858910 12.2872538924 1.3196378179 
Si 16.1637363578 10.5694082167 21.6668416247 
Si 16.2383608485 16.2537874787 10.9509384965 
Si 5.7744466728 1.7051231856 19.9276207445 
Si 2.6662331944 2.6896582146 10.9048708641 
Si 5.6122797213 5.1016859567 27.1200939622 
Si 8.1125178142 8.0800355539 29.1571352296 
Si 7.0006275640 12.6942432561 19.4577542343 
Si 12.2230712918 9.5019733769 4.0140983346 
Si 12.9362637883 8.6665732993 20.7488149490 
H 4.8532797444 3.2841454800 18.4673147254 
Si 6.8560863927 6.7113008714 1.4095120051 
Si 4.8538498944 4.4434722106 23.3099594136 
Si 10.8511926392 5.4294407597 16.3131934018 
Si 9.4437203364 12.1009940307 4.1919794965 
Si 16.2502851286 8.0531896336 19.0761426879 
Si 13.5607735240 10.8078612388 13.6020884366 
Si 5.4252705196 5.4044518994 5.4591749020 
Si 0.7362852007 1.1510725875 25.5429121132 
Si 2.7173675048 10.8707080594 13.6127373827 
Si 10.8421028192 2.7043355047 13.6841582592 
Si 9.4968746069 9.4635452665 6.8386364566 
Si 9.4291733662 12.2635519422 27.8995384631 
Si 16.2145611583 2.6740849745 13.6304759010 
Si 4.0216589468 4.0577738771 12.2425535400 
Si 8.1233832443 8.1369691044 5.4747836312 
Si 8.6635759392 0.2380669492 18.5471964085 
Si 10.3925313950 0.7813009871 28.1419843309 
Si 10.7776921586 5.2131421377 27.4178851742 
Si 10.8769634195 10.7812759586 5.4749586823 
Si 10.8148170689 13.6573895149 19.0611758130 
Si 2.6374487641 4.3165893995 22.4349077997 
Si 1.5240614629 9.3782345358 27.7534874386 
Si 6.7720625719 6.7613763318 6.8218315445 
Si 6.8586113427 14.8995346063 14.9553506664 
Si 11.0681917312 7.8328022216 19.4972574479 
Si 12.2122873117 12.1856531614 6.8136041396 
Si 14.9518743767 11.8289836082 27.6367866599 
Si 1.2428537064 1.3921271227 17.7162285137 
Si 5.4021224294 8.1247841843 8.1583180374 
H 8.0404834335 13.9218413773 24.3423820276 
Si 16.1036751273 1.9795608181 27.5323102877 
Si 12.5661386949 5.7960309230 25.9724585044 
Si 12.2231201618 9.4548464065 9.5053076003 
Si 2.7341624950 13.5828627642 16.3711936888 
Si 8.1179423842 5.4022038794 8.1909359050 
Si 7.0013769040 8.0198114233 24.7766256251 
Si 8.0691701238 8.1478834045 16.1663254718 
Si 9.4820669967 12.1959810215 9.5220249869 
H 14.1152036791 1.3760211996 24.4234598936 
Si 1.3842150697 6.8037954922 17.7033330777 
Si 2.7990292756 5.5741285410 19.0787392802 
Si 8.0157877933 2.4427995523 23.6433735383 
Si 5.3968281794 5.3941729093 10.8806262773 
Si 13.5983708444 5.4600822499 2.8898788881 
Si 16.2146588983 13.6066135844 2.6092514430 
Si 2.6306232541 13.6098227145 0.0900366930 
Si 2.7248934849 16.2868398890 13.6133792370 
Si 8.1175514242 8.1035583141 10.8479792345 
Si 5.1803829474 14.1545440295 19.6222731570 
Si 6.8744452229 15.0357515875 27.7945369375 
Si 13.4989692635 8.1584556146 29.1505124604 
Si 4.0571222771 14.9699888569 1.3682349397 
Si 7.4477391981 9.0413084627 20.3809740946 
Si 9.5186054670 3.9979732866 1.4990856878 
Si 9.0744586130 6.8095784423 27.4052523149 
Si 8.9508663819 13.9947391280 23.1271768189 
Si 14.9881033371 6.8053104622 4.1656342957 
H 0.1797715546 5.3421752289 20.7315432338 
Si 3.8852627755 6.7278678015 27.2103036641 
Si 4.0164950167 9.5132460570 12.1948520967 
Si 1.3151601300 14.8938168162 4.0438862083 
Si 11.2259115127 15.8270709247 0.6802984369 
Si 13.5628423540 8.1655743447 5.4360097974 
Si 2.6809430645 13.5456726939 5.4156746868 
Si 10.7674131685 2.6269417140 2.9121920770 
H 11.8619545685 11.1703951922 20.8620438796 
Si 13.5675338741 5.4121244895 8.1954288850 
Si 14.9443158167 9.4648158866 12.2656602941 
Si 13.9171661473 13.9718516778 21.7730685085 
Si 0.0288821703 5.3966978594 16.3834764458 
Si 1.8357689868 5.7137664223 26.4913976921 
Si 4.0115917267 14.8914547662 6.8305257525 
Si 8.0586956537 15.4178335410 21.5376830379 
Si 12.2652786822 1.3914624907 1.6318474112 
Si 14.9262990765 6.7772102120 9.5269847700 
Si 0.0037887771 13.5476763639 8.1759106798 
Si 5.3141401386 5.4724789401 16.2280018333 
Si 7.9197745324 5.2943477884 18.7606421327 
Si 9.4336368263 1.2867112738 4.2408187724 
Si 13.5788065542 8.1250774043 10.8934050126 
Si 13.7113419954 13.5317773238 16.3506251766 
Si 12.1871192615 4.0559819771 4.1479249525 
Si 2.0998950492 2.5446609233 24.2435656432 
Si 1.3180516050 14.9138698064 9.5705433356 
Si 6.6717813310 4.1255565677 14.8915445157 
Si 13.6786805451 0.1130980501 18.9858454604 
Si 13.5443694939 8.1010007841 16.3905076677 
Si 9.4890879868 4.0564380971 6.8523779733 
Si 2.7070722248 13.5644224841 10.9007279865 
Si 7.3485493872 11.8123678080 17.3225092616 
H 6.7651556119 12.1589212712 23.9171243900 
Si 16.1804010280 5.3843500392 0.1588781906 
Si 14.9138698064 12.2103976717 20.5035974378 
Si 7.7963777813 7.0886261448 21.7517414412 
Si 5.4924504802 10.8782991995 16.2189283478 
Si 5.3870541793 13.7847447361 26.4188389830 
Si 10.8675152194 16.2303787484 5.5029960444 
Si 10.8387796591 15.3348359902 23.5157320616 
Si 16.2838913989 8.1193759043 2.6959572041 
Si 2.7529611552 5.4303041297 2.7080678274 
Si 6.7447279517 1.3011539879 17.7716905588 
Si 8.0600477237 10.7651488585 13.4628060572 
Si 12.2144050117 1.3281562922 6.8424292319 
Si 14.6161374737 6.9807537638 20.4982000268 
Si 15.4206517110 4.6350751924 23.7449615662 
Si 16.2774405589 2.6603525043 19.2935562386 
Si 2.8826947164 7.9678951929 29.0624325477 
Si 1.2728224196 14.8528311758 27.8106124697 
Si 9.4872472168 1.3431577533 9.5382755703 
Si 8.6209124288 14.3824900015 19.5280081030 
Si 12.2481578920 1.7441377360 18.0588328248 
Si 1.3952841248 6.7699937419 1.3265027412 
Si 1.3884048577 14.9323426666 14.9800037059 
Si 10.8519093992 2.6907822246 8.1883393127 
Si 10.5480683165 11.6269550263 20.2572712691 
Si 14.8685836060 1.2576205915 20.6779775764 
Si 13.5290406037 5.2991696285 19.1128450828 
Si 1.1544495046 3.9561405662 28.0075158586 
Si 4.0729072872 6.7716553219 4.1025283496 
Si 1.3316586422 4.8358983142 24.3783258674 
Si 12.2120266717 4.0343814369 9.5517836855 
H 13.5253753537 7.0359117044 23.2904703835 
Si 14.9870281971 14.9950102971 17.6478710326 
Si 0.0278791950 5.3965349594 5.4770592964 
H 6.4310965788 7.8984509222 23.3669969192 
Si 6.6758375411 9.4297435162 14.8040772820 
Si 5.4943238302 16.2700286088 16.2995394107 
H 11.6263522963 11.7955728179 16.8779084699 
Si 10.8616508193 16.2865140890 10.8748495888 
Si 2.6939261946 8.1308929344 5.4387522657 
Si 2.4587148825 13.7941114862 23.7991107275 
Si 5.8267538633 15.9268145957 21.2111834342 
Si 12.1682228613 1.3106315100 12.3210348136 
Si 9.3931561759 14.8049222854 1.6219628553 
Si 12.3890012333 14.9668285969 20.2679202152 
Si 1.3628181545 6.7734309320 6.8223275228 
Si 4.0763118973 12.4183558136 27.9071240137 
Si 10.8440576192 10.8016384588 10.8270897951 
Si 10.7994393088 13.4414166929 2.8765779168 
Si 9.5066974770 14.9317725166 12.2094105188 
Si 14.3319258411 14.6263024338 25.4250151516 
Si 3.4633843517 1.6217086108 20.2785691613 
Si 1.3475935203 12.2126294017 12.2538735155 
H 4.6030164721 5.2600084681 24.5541647657 
H 10.2139929934 2.1686877198 28.7528253818 
Si 16.2644737187 8.1342975444 8.1457143533 
Si 12.2214585818 14.9011961863 4.1017989698 
Si 2.7058178948 5.4154313595 8.1860636475 
Si 7.4835120384 5.9930258948 25.8443210494 
Si 4.1894133683 9.6407641782 17.7208090193 
H 9.9932797814 3.2262996895 18.5550445358 
Si 9.4865467468 12.1548813512 14.6418340244 
Si 9.4878499468 14.8866655061 6.8381404783 
Si 10.8570570393 13.5384888038 8.1796159295 
Si 4.0537339571 6.7772427920 9.5368751610 
Si 1.4313127181 15.3422153603 22.3207744381 
Si 5.3558425390 10.9192359699 0.0652004333 
Si 8.7806684603 4.4910390111 24.5226263803 
H 9.9409563009 14.3475805312 25.5851577951 
Si 12.2144864617 14.9015382763 9.5374878401 
Si 2.7538571052 8.2316628753 16.4026445487 
Si 2.6870518146 10.9792483304 18.9678443653 
Si 1.0454726616 10.4322301254 23.6825850000 
Si 8.1391356744 10.8059390188 2.7160735008 
Si 15.4485727713 15.8136316746 22.1981219197 
Si 10.8244118790 13.4952062734 26.4726963923 
Si 4.0691768772 1.3427521323 15.0017975763 
Si 6.7675828219 12.2164249717 1.4105389720 
Si 4.1476458079 14.9779872470 17.6687021216 
Si 11.3590008139 0.3007557568 21.5840424222 
Si 14.8594612059 14.9262664965 12.3397652886 
Si 3.9665335863 4.1661349581 17.6209423279 
Si 6.7717856419 9.4557749365 4.0665845098 
Si 7.9245475025 10.9768699904 26.6144878385 
Si 4.0739335573 12.2518557221 14.9641907504 
Si 10.3850705750 4.4479682507 21.1269546472 
Si 14.8950874362 9.4796886567 1.3401012995 
Si 2.9103062666 8.4274360971 21.6500367125 
Si 5.4091108395 10.8293314590 5.4165499426 
Si 10.4661459057 8.2435545754 26.2263118733 
Si 13.8611937068 2.4875970527 27.2434466853 
Si 16.2627143987 5.4018454994 10.8805095765 
Si 13.5647645741 10.9201644999 2.6541754078 
Si 15.0090848573 4.0368575169 17.8122732546 
Si 6.7439134517 12.1806521314 6.8108616713 
H 8.5236448380 7.1687240756 23.0740487894 
Si 10.7820578786 10.8611621193 16.0681801169 
Si 10.5305891463 14.5446406630 16.8201999349 
Si 14.9114588864 12.2530286021 4.0433318796 
Si 1.3151112600 6.7623048618 12.2353764421 
Si 1.6998940955 14.5156281728 20.1671490928 
Si 2.5902403437 16.2774894289 26.4632144541 
Si 6.7671104119 9.4802750967 9.5055118267 
Si 5.2762821783 8.4650171274 26.2944651281 
Si 14.9191640564 9.5151194070 6.7908766630 
H 3.2406837596 7.3097303168 24.1768419730 
Si 5.3926416493 0.0440901886 29.1345536289 
Si 8.1275860643 10.8425915192 8.1612939072 
Si 15.1636769587 0.2632333704 24.4033290092 
H 13.8652336268 6.3401495080 26.8985375338 
Si 13.5751087242 10.8460287092 8.1777778922 
Si 5.3745434591 2.6519142843 2.8655642808 
Si 5.3765634192 2.6901306246 13.5785440545 
Si 5.3919737593 10.8439435892 10.8386723474 
Si 6.2352419070 11.9085439689 25.3058636565 
H 10.3098107743 8.3739560266 22.0011893557 
Si 14.9458959467 12.1939610615 9.5334324880 
Si 1.3862887867 9.4724233166 14.9556132432 
Si 1.2693950036 12.2019268716 17.5889954897 
Si 8.0729656938 0.0039041266 2.8307991189 
Si 6.8021013322 1.3283696912 12.2803645922 
Si 9.4949360968 9.4436551764 12.1804979009 
Si 12.2943889124 9.0007137823 23.0747781693 
Si 2.6541623043 2.6971027447 16.3409098367 
Si 0.4179981458 7.6682080601 26.5061895158 
Si 7.6794155802 3.1167168585 0.3146077943 
Si 12.1402203510 3.4751946018 19.8644856232 
Si 8.4924169077 0.2330317101 26.8560001000 
Si 11.4258061045 4.7884129638 0.3757823425 
Si 15.0375597775 6.8865324030 27.9539793764 
Si 6.6901075812 1.3284772052 1.4652803898 
Si 10.8507528092 8.0958042740 2.7016405320 
Si 11.8556340484 12.0072776598 25.0010412225 
Si 12.1323848610 14.6186787137 15.0291639090 
Si 13.6198573546 10.5329511963 19.3289457498 
Si 6.8031927622 4.0556561771 4.1083925638 
Si 4.4309614905 10.3214907044 25.1888127755 
Si 11.0381692610 1.9061092074 25.1991699696 
Si 12.2827089823 6.7238767515 1.4178882035 
Si 13.5842962842 5.4244071496 13.6261579722 
H 13.0648407595 12.7053856162 17.4275983128 
Si 0.0074006285 13.5742779341 13.6252243660 
Si 5.6159123914 8.2771934257 19.0153999326 
Si 5.3991576494 16.2507086686 5.5262194994 
Si 9.5424377373 6.8063530222 4.1727822184 
Si 14.8294224456 1.3348107572 15.0077784913 
Si 16.2718205088 10.7912454387 16.2694014346 
Si 8.1033954141 2.7062414347 5.5272989816 
Si 5.5647780809 2.8056267257 26.4627184758 
Si 10.8596960193 5.4148286295 5.5143160199 
Si 12.0288130400 9.3678415157 27.6944368446 
Si 16.2198879883 13.5069187835 19.0115779821 
Si 16.1004497072 13.4748600632 26.4607929129 
Si 6.7546974318 1.3325334152 6.8646315551 
Si 6.7996089622 3.8565597953 20.3170804182 
Si 9.5080495470 6.7771450520 14.9323022626 
Si 12.2119289317 9.4167440961 14.9478234662 
Si 13.7984772062 3.9450470761 25.3025668595 
Si 12.2381395419 6.7788066320 6.8193808282 
Si 5.3947267693 2.6899677246 8.2042689690 
Si 9.3502971855 4.0674012672 17.4745412010 
Si 8.6198861588 2.9648940571 21.4611856774 
Si 9.4961904268 6.7377232516 9.5355914524 
Si 10.8510786092 8.1088036942 13.5587049221 
Si 14.9279117865 6.7515860418 15.0330442098 
Si 3.3512765707 12.8616718776 20.2570962180 
Si 7.7671535210 2.4239357322 27.2614769556 
Si 5.3252010487 8.0853460939 13.4933524861 
Si 8.1372623244 16.2632519687 8.1869389034 
Si 10.8526587393 8.0932304540 8.1778070674 
Si 13.6814824251 0.0483594718 2.8873085534 
Si 4.0546950671 9.4362269363 1.3392523013 
Si 6.7677620119 4.0375254069 9.5474657566 
Si 10.8511926392 5.3861256493 10.9041706594 
Si 13.1306360701 3.1200237285 0.2489924897 
H 15.3778090106 3.5889802528 22.6580105134 
Si 12.2621835821 3.2219665495 23.6983396051 
Si 0.0638581038 10.6585308075 29.0985806139 
Si 5.7213249823 2.3839926518 24.1100016020 
Si 5.4402898998 16.2758441389 10.9029161261 
Si 14.8568385159 4.0597286771 1.5244476846 
Si 12.2244396518 6.7505434817 12.2361641723 
Si 14.9555233368 9.4618836865 17.7111812050 
H 2.6952945546 5.9122600741 22.1977718174 

