&CONTROL
/
&SYSTEM
   ntyp             = 2
   nat              = 407
   ibrav            = 0
/
&ELECTRONS
/
&IONS
/
&CELL
/

ATOMIC_SPECIES
Si 28.085 None
H 1.008 None

K_POINTS gamma

CELL_PARAMETERS angstrom
16.29000014900000 0.00000000000000 0.00000000000000
0.00000000000000 16.29000014900000 0.00000000000000
0.00000000000000 0.00000000000000 29.17519467510000

ATOMIC_POSITIONS angstrom
Si 2.6712179344 10.8096042689 2.6937048791 
Si 8.1387935844 2.6932583046 10.9096555960 
Si 4.7839820837 0.3148742999 23.2860065788 
Si 8.9524790919 10.0371487518 17.2319786325 
Si 15.0083029373 1.3837035636 4.2231677796 
Si 12.2459098720 4.0758069073 14.9978297499 
Si 0.1020594573 0.1537204235 29.0914618664 
Si 1.2849258897 12.1486748611 1.3213562369 
Si 4.0039028466 15.1044790981 24.9961981402 
Si 7.9103914923 2.7404830151 16.2608239274 
Si 8.2035626250 16.2782387689 13.6380031013 
Si 13.5661492241 2.7158199548 5.5063511918 
H 15.1598488086 9.4565894365 21.8590478072 
Si 1.3008982349 4.0356031869 14.9600186976 
Si 0.0172792919 2.6747365745 2.7513959090 
Si 1.3259799481 9.4801610667 4.0747827395 
Si 9.6999783287 3.4485604515 26.3564040664 
Si 14.9346395566 4.0645668072 6.8447632475 
Si 12.2813080423 0.7951067623 26.7986708424 
Si 13.3647559522 10.6952810478 26.2909932799 
Si 1.3293666392 4.4054187703 20.4685288538 
Si 4.0339090269 12.1768565614 4.0573943235 
Si 2.7276627850 16.2850316989 2.7874301920 
Si 6.6586353009 9.4922156668 27.9452851684 
Si 12.8738893777 2.1445133596 21.6584683438 
H 12.4232916836 11.0425349810 18.5250232605 
Si 13.5767865942 16.2651578988 8.1951954835 
Si 2.7837981255 2.7752947454 0.0470333313 
Si 4.0557213371 9.4859765968 6.7924229483 
Si 1.3314289532 9.4171839261 20.2881094499 
Si 7.2246639361 11.1813583623 21.2896647079 
Si 5.3866306393 13.5747340542 2.7370708884 
Si 8.8956432814 9.5276952871 25.1065679017 
Si 14.9084126563 1.3291939652 9.5795584708 
Si 1.4486208433 1.3672001645 1.3989418321 
Si 2.6444860442 5.4048917294 13.5999294722 
Si 8.0915851640 13.6204763746 0.0740060906 
Si 9.4021319660 6.3041323177 20.2305759660 
Si 13.5372833438 2.6702242444 10.9439948002 
Si 16.2618998987 10.8690464794 5.4044714120 
Si 12.9686971786 14.2840821106 0.2208323000 
Si 1.3359868952 12.1985711316 6.7841663682 
Si 4.1720645182 4.0489446970 1.4253191256 
Si 6.7243328715 14.8991110663 4.1419440376 
Si 5.4528983599 13.5760372542 13.5961075217 
Si 9.5854270477 9.6370500581 19.3793021358 
Si 16.1956973381 8.3457254563 24.2624128189 
Si 14.9117521064 15.1357070284 1.2858908703 
Si 2.0851851791 6.9387907235 23.2216752745 
Si 1.3794811956 4.0699099272 4.0701147083 
Si 1.3283371111 9.4879802668 9.5072915136 
Si 8.1097810942 13.5423984039 5.4810562980 
Si 14.9100905264 4.0549882871 12.2532608364 
Si 14.9529006468 6.7439460317 22.8721564423 
Si 13.5703031741 13.5564892540 5.4669938542 
Si 4.0295433068 1.3216956781 4.2131606878 
Si 2.6868400446 10.8395289991 8.1441680680 
Si 3.8612838953 12.4563766739 22.4861686167 
Si 5.3953620793 13.5457215639 8.1665162671 
Si 9.2142105243 0.5728443712 24.5974315794 
H 9.6555554983 8.8186730307 21.9546549201 
Si 14.9275045365 14.9043075763 6.8351646085 
Si 4.0266273968 12.2020734816 9.5098297555 
Si 3.3815108109 10.2407574637 23.0697600358 
Si 0.0352543296 16.2393708285 5.5001077002 
Si 8.1274720343 5.4269972596 13.5864505323 
Si 6.7625329219 14.9084126563 9.5177070581 
Si 13.5953571943 2.7628980553 16.4249343974 
Si 13.6052778044 13.5586884040 10.8850317317 
Si 2.6737103045 2.7173186348 5.5023250149 
Si 1.2835705617 12.2557490321 25.1117902615 
Si 8.1327662844 13.5668822741 10.8706191855 
H 5.2239098278 13.0454230793 22.7582273071 
Si 10.7652303085 5.0916350266 23.3503087078 
Si 11.5323101255 7.1344499153 24.3609082762 
Si 13.4316915628 16.2078008082 13.7507360535 
Si 1.3492893093 1.3334163332 6.8640772264 
Si 0.0083038602 0.0448655926 16.2827928489 
Si 6.7427568617 12.2079215916 12.1828027413 
Si 4.0785273373 14.9274882465 12.2513936239 
Si 10.5100963261 10.5539164265 23.7094261791 
Si 9.2834104449 11.8777558686 22.1956712034 
Si 14.9609153268 12.1541483012 14.9476192398 
Si 4.0663749972 4.0608526871 6.8316052347 
Si 1.3198435051 1.3376680232 12.2785849054 
Si 4.3449828697 6.9290818834 20.3647235111 
Si 12.1869074915 6.7151778914 17.7421944370 
Si 10.9060084897 13.4814249333 13.4010713453 
H 14.6272961238 10.9998388906 23.6780920200 
H 14.0496364285 12.5725406650 28.6063659045 
H 2.8454394860 2.9292189568 19.8422249497 
Si 4.0365154269 1.4325979991 27.7377911838 
Si 2.6666893144 8.1299969844 10.8718153685 
Si 3.9461385061 6.8370108025 14.9299682471 
Si 10.4133500152 0.5579455371 17.0469787231 
Si 16.2594726887 2.6813177345 8.2056985535 
Si 16.2868887590 8.0999908041 13.6476309155 
Si 2.7132950048 1.0361189435 22.4401301595 
H 3.3907798210 2.5989229138 25.0135573811 
Si 2.6951968147 16.2623397287 8.2194108950 
Si 9.4987642469 4.0393987569 12.2768927441 
Si 12.2705240622 12.1106702908 12.1430661261 
Si 14.1811781797 9.7148999689 24.3453287222 
Si 12.7085621662 14.7942197553 27.0948574188 
Si 1.3391715903 4.0521375371 9.5297272383 
Si 6.0466851553 4.8511783344 0.2307063529 
Si 6.7068211213 6.8208185424 17.5110101944 
Si 5.9256341642 5.6312901515 21.5955082737 
Si 9.3128301852 0.9168354174 20.6866426092 
Si 9.5042213969 9.4575668365 1.3255487124 
Si 8.4090283969 13.5776173842 16.1346412104 
Si 4.0516325470 1.3358647202 9.5691137511 
Si 5.4298154297 8.0868936440 2.7041175061 
Si 6.7626958219 6.7535734218 12.2090020661 
H 6.0978683358 11.2192000326 22.3002059259 
Si 10.8330129991 10.8384864391 29.1251300410 
Si 0.0019332646 10.8360755191 10.9048708641 
Si 12.7661147368 13.8393325266 23.8277899439 
Si 2.7140769248 11.0705700712 26.5638688757 
Si 2.6180962439 16.2542761787 18.8860371194 
Si 9.4311444562 1.4227034530 15.0636781643 
Si 8.2324936653 5.4459262398 2.8284184230 
Si 12.1395687510 12.2877263024 1.3184678926 
Si 16.1579045378 10.5950486769 21.6620277176 
Si 16.2400387185 16.2517675186 10.9519596283 
Si 5.7695108028 1.7097984156 19.9180221055 
Si 2.6674549444 2.6915152746 10.9032662284 
Si 5.6083701213 5.1010995166 27.1230698320 
Si 8.1140327842 8.0779667239 29.1611322313 
Si 6.9948934840 12.6991139661 19.4549825908 
Si 12.2252052818 9.5022340169 4.0137774074 
Si 12.9098088281 8.6669316793 20.7533662794 
H 4.8625324645 3.2670735599 18.4222390497 
Si 6.8566891227 6.7098836414 1.4120881748 
Si 4.8364358842 4.4740322509 23.3026364397 
Si 10.8517139192 5.4313466897 16.3060746543 
Si 9.4461312564 12.1010266107 4.1921837229 
Si 16.1813947180 7.9835335930 19.0978198576 
Si 13.5679411241 10.8077797888 13.6064938910 
Si 5.4269158096 5.4051523694 5.4594666540 
Si 0.7475839448 1.1638423186 25.5279160632 
Si 2.7204463149 10.8746339495 13.6156257269 
Si 10.8460449992 2.7055572547 13.6837498065 
Si 9.4993995569 9.4637896166 6.8388115078 
Si 9.4311444562 12.2621184221 27.9059278307 
Si 16.2124434583 2.6729283845 13.6275875568 
Si 4.0226526368 4.0594680371 12.2412406562 
Si 8.1258919043 8.1370994244 5.4751629087 
Si 8.6680393993 0.2427486952 18.5409237416 
Si 10.3904299850 0.7813840661 28.1429179371 
Si 10.7709969685 5.2083202976 27.4207151681 
Si 10.8794069195 10.7813411186 5.4750170327 
Si 10.8184497389 13.6602565549 19.0560993292 
Si 2.6271860640 4.5602226417 22.4896112897 
Si 1.5242813779 9.3774851958 27.7533123874 
Si 6.7739847920 6.7618813218 6.8218898949 
Si 6.8602729227 14.9015871463 14.9533959284 
Si 11.0574892011 7.8282573116 19.4951860090 
Si 12.2151543517 12.1856694514 6.8133123877 
Si 14.9537314368 11.8290813482 27.6323812055 
Si 1.2374942963 1.4107677699 17.7262356055 
Si 5.4038491694 8.1254032043 8.1581429862 
H 7.9315359125 13.9458039675 24.2587367444 
Si 16.1050923573 1.9793490481 27.5219530936 
Si 12.5565927548 5.7968128430 25.9794022008 
Si 12.2277953918 9.4544228665 9.5040530670 
Si 2.7438061751 13.5999509744 16.3659129786 
Si 8.1201904043 5.4024319394 8.1902065252 
Si 7.0012302940 8.0247635834 24.7910965217 
Si 8.0771685139 8.1483069445 16.1578063150 
Si 9.4859114368 12.1962579515 9.5214123078 
H 14.1265740992 1.3839055597 24.4237224703 
Si 1.3758045426 6.8054896522 17.7141862501 
Si 2.8203203058 5.5979771012 19.0819777269 
Si 7.9986507131 2.4470512424 23.6449489988 
Si 5.3980010594 5.3947593493 10.8787007145 
Si 13.5997229144 5.4601474099 2.8892457864 
Si 16.2143330983 13.6079167845 2.6067832216 
Si 2.6287661940 13.6117123545 0.0881090879 
Si 2.7264573249 0.0005046919 13.6103450167 
Si 8.1189034943 8.1035908941 10.8468997523 
Si 5.1856283274 14.1747110496 19.6262118083 
Si 6.8735818529 15.0340574275 27.8012472323 
Si 13.5023087135 8.1581135246 29.1484993720 
Si 4.0566009971 14.9700865969 1.3680715586 
Si 7.4677270283 9.0473520527 20.3814408977 
Si 9.5190127171 3.9971587866 1.4992869967 
Si 9.0728947730 6.8085195923 27.4074696297 
Si 8.9320188517 14.0015483481 23.1152441643 
Si 14.9894879871 6.8053593322 4.1651383174 
H 0.1912266827 5.3780458092 20.7496026793 
Si 3.8891560856 6.7309303216 27.2251246630 
Si 4.0173583867 9.5158687470 12.1959899292 
Si 1.3154566080 14.8939797162 4.0428650765 
Si 11.2266445627 15.8274618848 0.6797937060 
Si 13.5648623141 8.1658675647 5.4356888703 
Si 2.6819204645 13.5465523539 5.4153245844 
Si 10.7688466885 2.6267625240 2.9121395616 
H 11.8620848885 11.1757220222 20.8616646020 
Si 13.5698307641 5.4122873895 8.1951079579 
Si 14.9483557367 9.4638059066 12.2681110105 
Si 13.9148040973 13.9739856678 21.7687505797 
Si 0.0304987899 5.3933095393 16.3874734474 
Si 1.8330648468 5.7235567123 26.5002377761 
Si 4.0129763767 14.8916991162 6.8303798766 
Si 8.0667266238 15.4217268510 21.5142845317 
Si 12.2664841422 1.3910031127 1.6321070704 
Si 14.9289380565 6.7776663320 9.5261678645 
Si 0.0059262369 13.5474157239 8.1760857309 
Si 5.3074123685 5.4761604801 16.2238589557 
Si 7.9224135125 5.2871150283 18.7581330660 
Si 9.4356079163 1.2870403318 4.2414898019 
Si 13.5830256642 8.1254194943 10.8936092390 
Si 13.7161312554 13.5275256337 16.3522006371 
Si 12.1888622915 4.0559819771 4.1475456750 
Si 2.1080074693 2.5540928334 24.1964768790 
Si 1.3200357271 14.9137883564 9.5703682845 
Si 6.6692075110 4.1298245478 14.8890937993 
Si 13.6840399551 0.1157793842 18.9866623658 
Si 13.5448093239 8.1038189541 16.3942129174 
Si 9.4913034268 4.0566661571 6.8519695206 
Si 2.7083754248 13.5646342541 10.9012239648 
Si 7.3559287573 11.8190792881 17.3198834941 
H 6.7595844318 12.1675712613 23.9313327098 
Si 16.1793421780 5.3857835593 0.1590299016 
Si 14.9056759363 12.2148122617 20.4867925257 
Si 7.7966872913 7.0950281149 21.7544255591 
Si 5.5119984804 10.8872098296 16.1993809674 
Si 5.3867772493 13.7843049061 26.4277082421 
Si 10.8701379094 16.2304113284 5.5023833653 
Si 10.8251612190 15.3266747002 23.5276938914 
Si 16.2845755789 8.1203370143 2.6959601216 
Si 2.7536779152 5.4314281397 2.7090597840 
Si 6.7484909417 1.3042262819 17.7673142796 
Si 8.0670198438 10.7658004585 13.4519528848 
Si 12.2167670617 1.3280357462 6.8421374800 
Si 14.5471981930 6.9489231036 20.5193520429 
Si 15.4111872209 4.6144031822 23.7611537992 
Si 0.0193694618 2.6925904146 19.3349558399 
Si 2.8819616664 7.9710065829 29.0677132579 
Si 1.2714393986 14.8515931358 27.8032603207 
Si 9.4892997568 1.3432815573 9.5371960881 
Si 8.6215640289 14.3825551615 19.5110281397 
Si 12.2468384020 1.7370190059 18.0549525239 
Si 1.3951652078 6.7705476019 1.3275909760 
Si 1.3886215147 14.9432406767 14.9812874145 
Si 10.8540433893 2.6908148046 8.1874640569 
Si 10.5468628565 11.6347416464 20.2600137374 
Si 14.8716787060 1.2658519286 20.6804282927 
Si 13.5070816835 5.2759400882 19.1094315850 
Si 1.1508086895 3.9579813362 28.0060279237 
Si 4.0742756473 6.7722906319 4.1032285543 
Si 1.3207361971 4.8132877940 24.4069467334 
Si 12.2138022817 4.0344791769 9.5507917288 
H 13.5197553036 7.0508985045 23.3276979319 
Si 14.9896183071 14.9937233871 17.6490963908 
Si 0.0293202084 5.3967467294 5.4768258948 
H 6.4088281486 7.9251013625 23.3890241912 
Si 6.6865074912 9.4294665862 14.7913277220 
Si 5.4967673303 16.2745409388 16.2965927160 
H 11.6216119063 11.8002154679 16.8702645689 
Si 10.8640617394 16.2868398890 10.8735658802 
Si 2.6954900347 8.1317725944 5.4387230905 
Si 2.4706880326 13.7880027361 23.8061127742 
Si 5.8358111034 15.9404004558 21.2120878653 
Si 12.1702916913 1.3104572070 12.3203346090 
Si 9.3955182259 14.8062580654 1.6250962712 
Si 12.3885451133 14.9721228469 20.2672491857 
Si 1.3644210905 6.7740499520 6.8216856685 
Si 4.0728095473 12.4162706936 27.9072698897 
Si 10.8509808692 10.8030068188 10.8250183563 
Si 10.8022574788 13.4412049229 2.8768375760 
Si 9.5096785470 14.9319517066 12.2079809343 
Si 14.3285538110 14.6223439637 25.4202304196 
Si 3.4619671217 1.6250708669 20.2841124482 
Si 1.3492730193 12.2148937117 12.2571411373 
H 4.6812084728 5.2728124082 24.5764837896 
H 10.2136020334 2.1702189799 28.7503746654 
Si 16.2668031888 8.1351609144 8.1453934261 
Si 12.2242278818 14.9010984463 4.1013321666 
Si 2.7073980248 5.4167019795 8.1855968444 
Si 7.4797164684 5.9948015048 25.8469468169 
Si 4.2341945787 9.6343133381 17.6956308263 
H 10.0072403115 3.2232208795 18.5405444641 
Si 9.4880128468 12.1551257012 14.6360573359 
Si 9.4904563468 14.8867469561 6.8374402737 
Si 10.8600706893 13.5388960538 8.1788865496 
Si 4.0545647471 6.7788555020 9.5368459858 
Si 1.4281101041 15.3376052903 22.3310149315 
Si 5.3549140090 10.9225102599 0.0696400227 
Si 8.7734031202 4.4930915511 24.5228889570 
H 9.8980647305 14.2953385007 25.5527733290 
Si 12.2175326917 14.9012124763 9.5376045408 
Si 2.7496868652 8.2398730354 16.4179031755 
Si 2.7575386452 10.9966786306 18.9412074125 
Si 1.0673387288 10.4090657452 23.6608786551 
Si 8.1413836945 10.8055480588 2.7169079114 
Si 15.4469437713 15.8161403346 22.1994639787 
Si 10.8114124589 13.4912640934 26.4627184758 
Si 4.0689325272 1.3461046143 15.0004263422 
Si 6.7688371519 12.2172394717 1.4142033764 
Si 4.1488186879 14.9924690571 17.6724073713 
Si 11.3579093839 0.2948082777 21.5962376536 
Si 14.8632404859 14.9231388165 12.3432079616 
Si 3.9590890562 4.1689857081 17.6150781138 
Si 6.7740010819 9.4558238065 4.0675181160 
Si 7.9256878025 10.9759903304 26.6246408062 
Si 4.0780060573 12.2583391421 14.9625277643 
Si 10.3777889449 4.4438794606 21.1278882534 
Si 14.8963254762 9.4804379967 1.3391910334 
Si 2.9872113573 8.4088003369 21.5929992070 
Si 5.4110819295 10.8298527390 5.4166666434 
Si 10.4631485457 8.2454442154 26.2296961959 
Si 13.8576424867 2.4799570427 27.2449929706 
Si 16.2648320988 5.4035559494 10.8808305037 
Si 13.5663609941 10.9207509399 2.6536006565 
Si 15.0200806074 4.0340393469 17.8298658970 
Si 6.7461126017 12.1809616414 6.8110075473 
H 8.5177804379 7.1716725656 23.0781624919 
Si 10.7807058086 10.8610480893 16.0630161075 
Si 10.5360788764 14.5438750330 16.8136063409 
Si 14.9133159464 12.2536150421 4.0422523974 
Si 1.3158035850 6.7653673819 12.2363392235 
Si 1.6901363855 14.5315760829 20.1716712480 
Si 2.5898005137 16.2819691789 26.4626309502 
Si 6.7690000519 9.4810081467 9.5049283228 
Si 5.2806641883 8.4692688175 26.3089651998 
Si 14.9217867465 9.5154452070 6.7898847063 
H 3.2768475600 7.3066189268 24.1205921976 
Si 5.3923484293 0.0457237498 29.1370335205 
Si 8.1302739144 10.8430639292 8.1613230824 
Si 15.1668860887 0.2643573804 24.4063340543 
H 13.8519409867 6.3417296380 26.9083987496 
Si 13.5787739742 10.8463545092 8.1771360379 
Si 5.3755697292 2.6522563743 2.8668275668 
Si 5.3773779192 2.6917433346 13.5767935428 
Si 5.3932117993 10.8443508392 10.8378262667 
Si 6.2333033970 11.9062959489 25.3184673406 
H 10.3019101242 8.3901319967 22.0018312099 
Si 14.9491213667 12.1933420415 9.5343660942 
Si 1.3895533027 9.4777175667 14.9610106542 
Si 1.2900474658 12.2235762818 17.5922047612 
Si 8.0742363138 0.0047760000 2.8322053632 
Si 6.8030135722 1.3295556032 12.2784390294 
Si 9.5018756369 9.4430035764 12.1741085332 
Si 12.2933626424 9.0071972024 23.0817510408 
Si 2.6481024242 2.7009960547 16.3354249001 
Si 0.4179509048 7.6724108802 26.4993625203 
Si 7.6797413802 3.1158371985 0.3133649310 
Si 12.1247122709 3.4576339816 19.8643397473 
Si 8.4892729376 0.2300294631 26.8602888536 
Si 11.4266368945 4.7868328338 0.3766984436 
Si 15.0392539375 6.8860925730 27.9491362941 
Si 6.6913293312 1.3291320632 1.4667508196 
Si 10.8534895293 8.0954296040 2.7016346970 
Si 11.8561879084 12.0033191898 25.0006619450 
Si 12.1397642310 14.6149320137 15.0268298934 
Si 13.6014985244 10.5328534563 19.3350141903 
Si 6.8045937022 4.0558190771 4.1092969948 
Si 4.4354249506 10.3155937243 25.1855743289 
Si 11.0278739809 1.9005706074 25.1950562671 
Si 12.2848755524 6.7238115915 1.4162310525 
Si 13.5882221743 5.4257266396 13.6286086886 
H 13.0632769195 12.7062326962 17.4294071749 
Si 0.0094228040 13.5722091041 13.6345312531 
Si 5.6642936918 8.2892317358 18.9927016311 
Si 5.4004608494 16.2510507586 5.5263653754 
Si 9.5449301073 6.8064018923 4.1729280944 
Si 14.8293735756 1.3355079692 15.0087996231 
Si 16.2873122990 10.7879222787 16.2972345703 
Si 8.1052687641 2.7065509448 5.5275032079 
Si 5.5576756408 2.8075652357 26.4563291081 
Si 10.8621395193 5.4149752395 5.5142868448 
Si 12.0319895900 9.3673202357 27.6926863329 
Si 16.2244328984 13.5083523035 19.0118697340 
Si 16.1039520573 13.4680671332 26.4480433528 
Si 6.7563753018 1.3328738762 6.8642231024 
Si 6.8005374922 3.8512655452 20.3120622847 
Si 9.5124641370 6.7781876120 14.9232287771 
Si 12.2149100017 9.4167766761 14.9480860430 
Si 13.7831157361 3.9418216561 25.3159874491 
Si 12.2404527219 6.7790835620 6.8192641274 
Si 5.3964372194 2.6905215846 8.2035104139 
Si 9.3547443556 4.0671894972 17.4678309063 
Si 8.6148362588 2.9590622371 21.4628486635 
Si 9.4980800669 6.7378047016 9.5350954741 
Si 10.8571221993 8.1102209242 13.5543869933 
Si 14.9300131965 6.7525960218 15.0400170814 
Si 3.3555771307 12.9007352980 20.2871758437 
Si 7.7611099310 2.4219972221 27.2590554144 
Si 5.3233765687 8.0853949639 13.4935858876 
Si 8.1395266344 16.2635940587 8.1856260196 
Si 10.8551836893 8.0934259340 8.1779237682 
Si 13.6837630251 0.0472506115 2.8851116613 
Si 4.0555584371 9.4382631863 1.3430975920 
Si 6.7697168119 4.0380303969 9.5464154496 
Si 10.8535709793 5.3864351593 10.9035288051 
Si 13.1317275001 3.1183947285 0.2491159008 
H 15.3460923804 3.5385952824 22.7007229984 
Si 12.2505688120 3.2222597695 23.7023949572 
Si 0.0642863679 10.6599806175 29.0968884526 
Si 5.6987796221 2.3971223919 24.0977771954 
Si 5.4418048698 16.2769192789 10.9009030376 
Si 14.8575715659 4.0592888471 1.5239896340 
Si 12.2291637518 6.7494683417 12.2350263397 
Si 14.9513205167 9.4557912265 17.7319247685 
H 1.6243215269 9.6603773383 18.6862453863 

