&CONTROL
/
&SYSTEM
   ntyp             = 2
   nat              = 407
   ibrav            = 0
/
&ELECTRONS
/
&IONS
/
&CELL
/

ATOMIC_SPECIES
Si 28.085 None
H 1.008 None

K_POINTS gamma

CELL_PARAMETERS angstrom
16.29000014900000 0.00000000000000 0.00000000000000
0.00000000000000 16.29000014900000 0.00000000000000
0.00000000000000 0.00000000000000 29.17519467510000

ATOMIC_POSITIONS angstrom
Si 2.6657933644 10.8083173588 2.6986850848 
Si 8.1402596844 2.6938447446 10.9109101294 
Si 4.7752180637 0.3115967519 23.2829431833 
Si 8.9458653518 10.0381750218 17.2227884462 
Si 15.0053055772 1.3825453446 4.2210671656 
Si 12.2485162720 4.0761489973 15.0000178895 
Si 0.0989645202 0.1491615041 29.0973844309 
Si 1.2794622237 12.1455797611 1.3244137973 
Si 3.9979569966 15.1085678882 25.0005452442 
Si 7.9209637024 2.7440016551 16.2687012299 
Si 8.2068043351 16.2812198389 13.6409206207 
Si 13.5641944241 2.7144353048 5.5057676879 
H 15.1302172984 9.4888925068 21.8517248333 
Si 1.3057868639 4.0372810569 14.9628778667 
Si 0.0135750273 2.6754207545 2.7501384581 
Si 1.3213584751 9.4777175667 4.0781378869 
Si 9.7035784188 3.4430218515 26.3621515797 
Si 14.9328639466 4.0630518372 6.8446757219 
Si 12.2931834524 0.7794243791 26.7862422095 
Si 13.3467392121 10.6931959278 26.2994832616 
Si 1.3414228683 4.4233214805 20.4563044472 
Si 4.0307324769 12.1755533614 4.0600492662 
Si 2.7247468749 16.2842171989 2.7897146097 
Si 6.6455218508 9.4873612468 27.9632862635 
Si 12.8933559279 2.1415648696 21.6623778199 
H 12.4531675439 11.1067990316 18.5511642349 
Si 13.5757603242 16.2656465988 8.1951663083 
Si 2.7791066054 2.7746920154 0.0468997089 
Si 4.0539945971 9.4849340367 6.7934732553 
Si 1.3809407796 9.4936166068 20.2294964838 
Si 7.2081458759 11.1852353823 21.2744352563 
Si 5.3837147292 13.5742290641 2.7412691990 
Si 8.8617112111 9.5557629574 25.1404986531 
Si 14.9081357263 1.3302397832 9.5784206382 
Si 1.4460942642 1.3665241295 1.4011533119 
Si 2.6481350042 5.4056573594 13.5999002970 
Si 8.0889624740 13.6250538646 0.0826168575 
Si 9.4383120563 6.3152420978 20.2291172063 
Si 13.5385376738 2.6706966544 10.9441406761 
Si 16.2587885087 10.8681342394 5.4070388291 
Si 12.9597050985 14.2788204406 0.2118361288 
Si 1.3340516432 12.1983593616 6.7851583248 
Si 4.1686761981 4.0468921570 1.4253862286 
Si 6.7220196915 14.8989807463 4.1445406300 
Si 5.4567753799 13.5784970442 13.5963700985 
Si 9.5664329075 9.6268688080 19.3690908177 
Si 16.1932212581 8.3883400967 24.2799179358 
Si 14.9027600263 15.1298914984 1.2829120829 
Si 2.1003348792 6.9421627535 23.2260515537 
Si 1.3768063776 4.0681668972 4.0705231611 
Si 1.3275307561 9.4882409068 9.5062412066 
Si 8.1082009642 13.5419259939 5.4822233058 
Si 14.9116054964 4.0552652171 12.2531733108 
Si 14.9962809172 6.8072001023 22.8547388511 
Si 13.5681040241 13.5557562040 5.4681900372 
Si 4.0271649668 1.3204185421 4.2150279003 
Si 2.6862698946 10.8400339891 8.1444598199 
Si 3.8691682554 12.4523530439 22.4805961546 
Si 5.3947593493 13.5467315439 8.1666037927 
Si 9.2185599543 0.5671135492 24.5969647763 
H 9.8159142598 9.0644076829 22.3162814581 
Si 14.9257777965 14.9045682163 6.8349312069 
Si 4.0269369068 12.2028065316 9.5094504780 
Si 3.3861371710 10.2398615137 23.0790960981 
Si 0.0326764371 16.2394522785 5.4992907947 
Si 8.1330595044 5.4269158096 13.5877342408 
Si 6.7621745418 14.9084452363 9.5190491170 
Si 13.6038605744 2.7713525653 16.4303901588 
Si 13.6047891044 13.5613436740 10.8845649286 
Si 2.6716088944 2.7165530048 5.5029960444 
Si 1.2995086979 12.2541363221 25.1208345719 
Si 8.1336296544 13.5679737041 10.8719612445 
H 5.2436207280 13.0216722591 22.7489204200 
Si 10.7744830285 5.0605537063 23.3530511761 
Si 11.5052198552 7.1206197051 24.3729284564 
Si 13.4343957029 16.2116289583 13.7543537776 
Si 1.3475527953 1.3323705152 6.8638146497 
Si 0.0142822251 0.0505651379 16.2817717171 
Si 6.7453795517 12.2083940017 12.1845824281 
Si 4.0801726273 14.9282701665 12.2519187774 
Si 10.4490088256 10.5230468762 23.6709440973 
Si 9.2545119846 11.9061493389 22.1805584525 
Si 14.9534870868 12.1687767213 14.9336734968 
Si 4.0649251872 4.0594354571 6.8323346146 
Si 1.3218471751 1.3381241432 12.2805104682 
Si 4.3344106596 6.9398821535 20.3826662559 
Si 12.2237717618 6.7127018114 17.7221510782 
Si 10.9070510498 13.4839824633 13.4033761857 
H 14.5920934335 11.0492138811 23.6862902497 
H 14.0654051486 12.5676373749 28.6263509129 
H 2.8495934361 2.9268569068 19.8414080442 
Si 4.0267577168 1.4282371661 27.7373827311 
Si 2.6688721744 8.1298503743 10.8672640382 
Si 3.9598058162 6.8356098625 14.9218575429 
Si 10.4270824854 0.5575219971 17.0475038766 
Si 16.2591305987 2.6812851545 8.2050566992 
Si 0.0021836908 8.1014894841 13.6356107353 
Si 2.7012729847 1.0309664164 22.4375043920 
H 3.3616858807 2.5979129338 24.9982987542 
Si 2.6945452146 16.2631705187 8.2198193478 
Si 9.5021199869 4.0390892469 12.2774762480 
Si 12.2680642722 12.1137328108 12.1405570594 
Si 14.1670547496 9.7492881592 24.3457663501 
Si 12.7029421162 14.7718535851 27.0755142647 
Si 1.3396440003 4.0504759570 9.5299022894 
Si 6.0440950453 4.8469266443 0.2304566132 
Si 6.7061369413 6.8308368925 17.5175454380 
Si 5.9341375443 5.6527766617 21.6091330896 
Si 9.3183362052 0.9211359774 20.6770731453 
Si 9.4993506869 9.4541785165 1.3283203559 
Si 8.4119443069 13.5776010942 16.1375587299 
Si 4.0519420571 1.3357213682 9.5699890069 
Si 5.4281212696 8.0838962839 2.7071108810 
Si 6.7681366819 6.7526611818 12.2080976350 
H 6.0811873756 11.2087255625 22.2846847223 
Si 10.8279793890 10.8359614891 29.1299439481 
Si 0.0011714856 10.8383398291 10.9018658190 
Si 12.7576928067 13.8007415162 23.8138733760 
Si 2.7221404749 11.0648522812 26.5731757628 
Si 2.6207678040 16.2505294786 18.8880502078 
Si 9.4377093263 1.4237769640 15.0676459907 
Si 8.2295940453 5.4427171098 2.8294687300 
Si 12.1365713910 12.2854945724 1.3198945597 
Si 16.1922601481 10.5773903167 21.6571554600 
Si 16.2410649885 16.2555142187 10.9509384965 
Si 5.7688103328 1.7109224256 19.9200060187 
Si 2.6691165244 2.6915804346 10.9046958129 
Si 5.6043464913 5.0928893566 27.1223696274 
Si 8.1116055742 8.0725747338 29.1627368670 
Si 6.9979560040 12.7053530362 19.4441002432 
Si 12.2222242118 9.5003443769 4.0147401889 
Si 12.9463472984 8.7066141196 20.7447304218 
H 4.8756622046 3.2721723299 18.4236102838 
Si 6.8533496727 6.7057134013 1.4132756053 
Si 4.8310764742 4.4684773609 23.3000398474 
Si 10.8589466793 5.4323240897 16.3126390731 
Si 9.4445674164 12.1002121107 4.1938758841 
Si 16.2456424786 8.0565127937 19.0647935372 
Si 13.5658397141 10.8110540789 13.6010381296 
Si 5.4247492396 5.4040446494 5.4606336618 
Si 0.7189428666 1.1633715376 25.5273909097 
Si 2.7220590249 10.8762792395 13.6066105918 
Si 10.8499871792 2.7058667648 13.6845375368 
Si 9.4979823269 9.4630239866 6.8393950117 
Si 9.4286195062 12.2661257622 27.9176270838 
Si 16.2162878983 2.6763329945 13.6286378638 
Si 4.0253241968 4.0595657771 12.2421159120 
Si 8.1246049943 8.1356659044 5.4763299165 
Si 8.6765753594 0.2364135142 18.5345927244 
Si 10.3993894851 0.7736919281 28.1336694004 
Si 10.7749391485 5.2089230276 27.4203358906 
Si 10.8778919495 10.7805103286 5.4761256901 
Si 10.8408973591 13.6385094047 19.0693448676 
Si 2.6253778740 4.5650444818 22.4826967686 
Si 1.5288637550 9.3747484757 27.7610146388 
Si 6.7729585219 6.7605618318 6.8224442236 
Si 6.8643780028 14.9034767863 14.9554673672 
Si 11.0963408515 7.8459482518 19.4554202187 
Si 12.2131669717 12.1851318814 6.8143043443 
Si 14.9485023467 11.8089469080 27.6461810726 
Si 1.2419887074 1.4127062799 17.7307869359 
Si 5.4042401294 8.1254032043 8.1579679350 
H 7.9027189023 13.9541607376 24.2324207188 
Si 16.0978758872 1.9759770181 27.5316392583 
Si 12.5629621449 5.7945974030 25.9789062225 
Si 12.2251075418 9.4549930165 9.5055118267 
Si 2.7422586251 13.5911217943 16.3645417444 
Si 8.1197994443 5.4026599994 8.1916069345 
Si 6.9956916940 8.0193715933 24.8097978214 
Si 8.0747413039 8.1480137245 16.1538093133 
Si 9.4846896867 12.1966489115 9.5217915853 
H 13.9493714776 1.1299363123 24.6046962029 
Si 1.3956897458 6.8138464223 17.6965352573 
Si 2.8373270659 5.6006486612 19.0714163064 
Si 7.9937311331 2.4337748923 23.6413020995 
Si 5.3998744094 5.3951991793 10.8795176199 
Si 13.5973282844 5.4576713299 2.8897067544 
Si 16.2079637082 13.6059619844 2.6068736647 
Si 2.6242212840 13.6101648045 0.0928879848 
Si 2.7290637250 0.0004873593 13.6122414044 
Si 8.1210211943 8.1048940941 10.8467247011 
Si 5.1811974474 14.1669570096 19.6146584312 
Si 6.8702586928 15.0343669375 27.8062070154 
Si 13.4950107934 8.1536174846 29.1486452479 
Si 4.0530660671 14.9680992169 1.3715171491 
Si 7.4477554881 9.0505774728 20.3705293749 
Si 9.5151356970 3.9939659465 1.4989923272 
Si 9.0703372429 6.8044796722 27.4065068483 
Si 8.9171949515 14.0231651783 23.1047119190 
Si 14.9859204771 6.8017592422 4.1679683113 
H 0.2460718552 5.4559934599 20.6929152760 
Si 3.8817930055 6.7213843815 27.2298218693 
Si 4.0193946368 9.5165366370 12.1898923136 
Si 1.3109882610 14.8924810362 4.0423107478 
Si 11.2249178227 15.8258328847 0.6784253894 
Si 13.5624513940 8.1647924247 5.4367391773 
Si 2.6786135945 13.5466500939 5.4158789131 
Si 10.7662402885 2.6246285340 2.9114130993 
H 11.7143834571 10.9580387502 20.9268711621 
Si 13.5692931941 5.4118312695 8.1950204323 
Si 14.9475249467 9.4662982766 12.2642598848 
Si 13.9193490073 13.9600740077 21.7677294479 
Si 0.0369984999 5.3986200794 16.3882028273 
Si 1.8242030867 5.7212109523 26.4913101665 
Si 4.0107120667 14.8914547662 6.8309633805 
Si 8.0616604337 15.4314356911 21.4955540567 
Si 12.2636008122 1.3888137367 1.6315148140 
Si 14.9284004865 6.7773242420 9.5260511637 
Si 0.0049888125 13.5489306939 8.1760273805 
Si 5.3195321286 5.4789623601 16.2223710208 
Si 7.9189274524 5.2981433585 18.7665938724 
Si 9.4330178063 1.2873579868 4.2430360872 
Si 13.5822763242 8.1258267443 10.8925589319 
Si 13.7154470754 13.5321519938 16.3553223829 
Si 12.1861581515 4.0538154071 4.1473414486 
Si 2.0761930990 2.5549073334 24.1814224785 
Si 1.3196480251 14.9150426864 9.5704558100 
Si 6.6784765211 4.1281140978 14.8917195668 
Si 13.6865811952 0.1130526010 18.9837156712 
Si 13.5602033740 8.1097159342 16.3774080053 
Si 9.4901468368 4.0564218071 6.8533699300 
Si 2.7096786248 13.5667193741 10.9001153074 
Si 7.3468063572 11.8171733581 17.3119478411 
H 6.7638361219 12.1806684214 23.9374886758 
Si 16.1734289079 5.3871519193 0.1521457227 
Si 14.9471991467 12.2207255318 20.5003006408 
Si 7.8114297414 7.1168730051 21.7285763366 
Si 5.4944052802 10.8829581395 16.2077250730 
Si 5.3782575792 13.7889475561 26.4357605959 
Si 10.8676292494 16.2301832684 5.5032002708 
Si 10.8283214790 15.3181061601 23.5223840060 
Si 16.2808288789 8.1157432342 2.7000621540 
Si 2.7502733051 5.4292778596 2.7091852374 
Si 6.7549906518 1.3027666979 17.7702901495 
Si 8.0652605238 10.7680484785 13.4607637936 
Si 12.2150891917 1.3276447861 6.8422833560 
Si 14.6029425736 7.0056937541 20.5006507431 
Si 15.3934637008 4.6573762026 23.7319202542 
Si 0.0246751148 2.6964511447 19.3421912882 
Si 2.8807236264 7.9641159128 29.0738400488 
Si 1.2668521346 14.8479767558 27.8067029937 
Si 9.4897070068 1.3432636383 9.5384506215 
Si 8.6392223890 14.3746870915 19.5071770140 
Si 12.2555698421 1.7473142860 18.0615752931 
Si 1.3890385387 6.7666054219 1.3288163342 
Si 1.3907278117 14.9425076267 14.9825711231 
Si 10.8536687193 2.6908636746 8.1882809623 
Si 10.5225907562 11.6095735962 20.2600137374 
Si 14.8793838761 1.2446439774 20.6791445841 
Si 13.5375765638 5.3038774385 19.1243984599 
Si 1.1467019805 3.9563523362 28.0032271050 
Si 4.0709850672 6.7698634219 4.1043955621 
Si 1.3039574969 4.8234853341 24.3906669747 
Si 12.2141606617 4.0343488569 9.5512293568 
H 13.5967907144 7.1886630358 23.3180701177 
Si 14.9954827071 14.9985452272 17.6440490821 
Si 0.0279494049 5.3949059593 5.4782263041 
H 6.3965291985 7.9252805525 23.4072878630 
Si 6.6782973311 9.4313888063 14.7968710089 
Si 5.4994714703 16.2767237989 16.2972637455 
H 11.6319071864 11.8029521879 16.8756328047 
Si 10.8648110794 16.2874914890 10.8751996911 
Si 2.6935189446 8.1303553644 5.4401818503 
Si 2.4787515827 13.7847610261 23.8047123649 
Si 5.8266724133 15.9339170357 21.2058443736 
Si 12.1728329313 1.3107422820 12.3211515144 
Si 9.3942638959 14.8105260455 1.6299510236 
Si 12.3984983034 14.9694024169 20.2705168075 
Si 1.3629191525 6.7726001419 6.8229110267 
Si 4.0720113372 12.4156353835 27.9164017256 
Si 10.8476577092 10.8034140688 10.8268563935 
Si 10.8000094588 13.4408628329 2.8781650474 
Si 9.5101183770 14.9332874866 12.2099064971 
Si 14.3317792311 14.5342313529 25.4201137188 
Si 3.4616739017 1.6229710858 20.2853086312 
Si 1.3482842163 12.2178584917 12.2533191868 
H 4.6710272227 5.2528897380 24.5818812006 
H 10.2202483535 2.1672867798 28.7330445998 
Si 16.2655814388 8.1349002744 8.1454226013 
Si 12.2216051918 14.9001699163 4.1029659776 
Si 2.7070559348 5.4157245795 8.1862095235 
Si 7.4833165584 5.9813133847 25.8470343425 
Si 4.1933066783 9.6499517383 17.7106268763 
H 9.9968961614 3.2274074095 18.5553946382 
Si 9.4934048368 12.1553211812 14.6410754694 
Si 9.4886807368 14.8864211561 6.8385197559 
Si 10.8589140993 13.5390915338 8.1795575791 
Si 4.0565358371 6.7774708520 9.5354455764 
Si 1.4221104970 15.3273588802 22.3308398803 
Si 5.3480722089 10.9226079999 0.0840120153 
Si 8.7786159203 4.4723543809 24.5230348330 
H 9.8694594903 14.2450349803 25.5219643235 
Si 12.2163761017 14.9021735863 9.5373711393 
Si 2.7598355352 8.2403943154 16.3939211655 
Si 2.6996602747 10.9869372105 18.9690988987 
Si 1.0765621269 10.4184976553 23.6730155361 
Si 8.1392334144 10.8034466488 2.7207181918 
Si 15.4346448212 15.8055192546 22.2214037251 
Si 10.7969958087 13.4731333232 26.4466429435 
Si 4.0722231072 1.3476831153 15.0005430430 
Si 6.7680389419 12.2176793017 1.4206744346 
Si 4.1460656779 14.9909703771 17.6653177990 
Si 11.3633176639 0.2958540957 21.5933493093 
Si 14.8621327659 14.9295570765 12.3404946685 
Si 3.9724468563 4.1693440881 17.6109352361 
Si 6.7713783919 9.4539667465 4.0702022339 
Si 7.9004383023 10.9914495405 26.6609055732 
Si 4.0783318573 12.2586160721 14.9562842727 
Si 10.3816333849 4.4273614005 21.1204194036 
Si 14.8903307562 9.4720486466 1.3439290850 
Si 2.9512430370 8.4265238571 21.5933493093 
Si 5.4089153595 10.8290382390 5.4184755055 
Si 10.4427371755 8.2582807355 26.2313008316 
Si 13.8538632067 2.4776601527 27.2445553427 
Si 16.2654022488 5.4028228994 10.8793425688 
Si 13.5635754040 10.9184377599 2.6550185709 
Si 15.0303270175 4.0426404670 17.8376556740 
Si 6.7445161817 12.1806358414 6.8117661024 
H 8.5263001080 7.2457757763 23.0332326921 
Si 10.7890788687 10.8627911193 16.0704266069 
Si 10.5430998664 14.5387273930 16.8265017769 
Si 14.9100579464 12.2514647620 4.0441196099 
Si 1.3208502271 6.7632985519 12.2310293381 
Si 1.7109224256 14.5171268528 20.1735092852 
Si 2.5729403635 16.2842497789 26.4600635330 
Si 6.7696516519 9.4808289567 9.5047240964 
Si 5.2746368882 8.4632740974 26.3240196003 
Si 14.9186101964 9.5145655470 6.7916060428 
H 3.2906777701 7.3005590468 24.1254352799 
Si 5.3857346893 0.0449012677 29.1386965066 
Si 8.1296874743 10.8433408592 8.1613522576 
Si 15.1422556085 0.1929794868 24.4461581950 
H 13.8637186568 6.3860058584 26.8506026890 
Si 13.5763956342 10.8465825692 8.1786239729 
Si 5.3718067391 2.6515070342 2.8682921615 
Si 5.3814667092 2.6939587746 13.5788358065 
Si 5.3961114194 10.8467780492 10.8364842078 
Si 6.2284163970 11.9145712690 25.3230478462 
H 10.1135814325 8.2082378551 22.0109630459 
Si 14.9474434967 12.1953131315 9.5333157872 
Si 1.3921531867 9.4778315967 14.9475317143 
Si 1.2859358698 12.2071722516 17.5845900353 
Si 8.0700009138 0.0063341059 2.8350207695 
Si 6.8050986922 1.3305150842 12.2802478915 
Si 9.4984221569 9.4451375664 12.1787473892 
Si 12.2936395724 8.9834138022 23.0884613356 
Si 2.6536410243 2.7018268447 16.3379047917 
Si 0.4184167988 7.6795459002 26.5024550909 
Si 7.6772653002 3.1111293885 0.3127580869 
Si 12.1546532912 3.4689881117 19.8711375676 
Si 8.4909996777 0.2236731050 26.8605514303 
Si 11.4231508345 4.7836399937 0.3777866783 
Si 15.0360448075 6.8922013230 27.9430678536 
Si 6.6858070211 1.3279803601 1.4680024354 
Si 10.8506713592 8.0929861040 2.7028804778 
Si 11.8290161882 11.9712441795 24.9825149739 
Si 12.1392755310 14.6196724037 15.0297765880 
Si 13.6407085548 10.5593409966 19.3243652442 
Si 6.8016452122 4.0539620171 4.1108432801 
Si 4.4413382206 10.3102506043 25.1922262732 
Si 11.0297636209 1.8936310673 25.2018249123 
Si 12.2805098323 6.7197390915 1.4178415232 
Si 13.5895253743 5.4258406696 13.6280835351 
H 13.0656063895 12.7168374863 17.4418066326 
Si 0.0105067895 13.5810871542 13.6276167320 
Si 5.6394188616 8.2938580959 18.9875667969 
Si 5.3987341094 16.2511322086 5.5285826902 
Si 9.5420793573 6.8040072622 4.1735991239 
Si 14.8330876957 1.3411817763 15.0111336386 
Si 16.2848036389 10.7990483488 16.2641207244 
Si 8.1034768641 2.7065672348 5.5295162964 
Si 5.5531307308 2.7984917056 26.4565333345 
Si 10.8605430993 5.4136068795 5.5146077719 
Si 12.0200978899 9.3621563056 27.6960414803 
Si 16.2389147085 13.5163832736 19.0028837741 
Si 16.1126672074 13.4353079429 26.4670364046 
Si 6.7554467718 1.3323623702 6.8660903148 
Si 6.7890856221 3.8631572453 20.3177222725 
Si 9.5164551870 6.7774056920 14.9271090780 
Si 12.2157570817 9.4194971062 14.9439431653 
Si 13.7956264562 3.9469855861 25.3129532288 
Si 12.2387096919 6.7779106820 6.8197601057 
Si 5.3961114194 2.6906844846 8.2047065969 
Si 9.3566502856 4.0782015373 17.4828561315 
Si 8.6055835387 2.9573354970 21.4571886757 
Si 9.4989271469 6.7379350216 9.5356206276 
Si 10.8566660793 8.1109213942 13.5547954460 
Si 14.9413021666 6.7530358518 15.0288429818 
Si 3.3671430308 12.8646529477 20.2698166029 
Si 7.7599859210 2.4150739721 27.2588803632 
Si 5.3284753387 8.0879036240 13.4860586874 
Si 8.1391682544 16.2636266387 8.1873765313 
Si 10.8545972493 8.0934096440 8.1780696442 
Si 13.6803421251 0.0445528246 2.8842626631 
Si 4.0494333970 9.4345327763 1.3510536676 
Si 6.7702218019 4.0375742769 9.5474949318 
Si 10.8550696593 5.3870378893 10.9038789075 
Si 13.1285509501 3.1162933185 0.2488661611 
H 15.3179432601 3.6140505631 22.6321321157 
Si 12.2660280222 3.2023208093 23.7107682380 
Si 0.0641511609 10.6466553974 29.1069247196 
Si 5.6918726621 2.3907204219 24.0957057566 
Si 5.4431406498 16.2782061889 10.9022742718 
Si 14.8547045259 4.0602336671 1.5206432392 
Si 12.2297990618 6.7505271917 12.2356390188 
Si 14.9630167368 9.4739219967 17.7021660699 
H 10.4058240352 7.4315958080 21.5645825673 

