&CONTROL
/
&SYSTEM
   ntyp             = 2
   nat              = 407
   ibrav            = 0
/
&ELECTRONS
/
&IONS
/
&CELL
/

ATOMIC_SPECIES
Si 28.085 None
H 1.008 None

K_POINTS gamma

CELL_PARAMETERS angstrom
16.29000014900000 0.00000000000000 0.00000000000000
0.00000000000000 16.29000014900000 0.00000000000000
0.00000000000000 0.00000000000000 29.17519467510000

ATOMIC_POSITIONS angstrom
Si 2.6702731144 10.8091970189 2.6937077966 
Si 8.1348514044 2.6876545446 10.9037038563 
Si 4.7799258737 0.3056280958 23.2822138034 
Si 8.9544501819 10.0311866117 17.2300530697 
Si 15.0071137673 1.3840814917 4.2236345827 
Si 12.2751667123 4.0227992468 14.9458395530 
Si 0.1017172044 0.1542703739 29.0929498013 
Si 1.2852093358 12.1490658211 1.3220097613 
Si 3.9970773366 15.0987775981 24.9908590796 
Si 7.8292347116 2.6698821544 16.2338660475 
Si 8.2004186550 16.2675036588 13.6342978515 
Si 13.5638849141 2.7156244748 5.5055342864 
H 15.1462466585 9.4633334965 21.8886314546 
Si 1.3057722029 4.0337949969 14.9649493055 
Si 0.0160411052 2.6744433545 2.7515096923 
Si 1.3243297711 9.4803076767 4.0745201627 
Si 9.7008742787 3.4518510316 26.3547119051 
Si 14.9322612166 4.0645016472 6.8428376847 
Si 12.2868629324 0.7982165233 26.8028428953 
Si 13.3587449422 10.7054948779 26.3059309796 
Si 1.3464401883 4.3882002401 20.4749182214 
Si 4.0324266369 12.1770357514 4.0565190676 
Si 2.7269623149 16.2841031689 2.7862894419 
Si 6.6602805909 9.4962555868 27.9437680582 
Si 12.8706802477 2.1523488497 21.6506493916 
H 12.4433283838 11.0695600912 18.5415364207 
Si 13.5751250142 16.2643271087 8.1923071392 
Si 2.7841076355 2.7739589654 0.0466108745 
Si 4.0532452571 9.4865630368 6.7907599622 
Si 1.3812812406 9.4975262069 20.2377822391 
Si 7.2278404861 11.1811303023 21.2970752074 
Si 5.3855717893 13.5743268041 2.7360497566 
Si 8.8938025113 9.5238019771 25.1089894428 
Si 14.9066044663 1.3292151422 9.5754739435 
Si 1.4482038192 1.3675862375 1.3994523980 
Si 2.6436715442 5.4029695094 13.5982373109 
Si 8.0886366740 13.6212257146 0.0695676682 
Si 9.4100814861 6.3146230778 20.2232529922 
Si 13.5349864538 2.6667544744 10.9414273830 
Si 16.2599450987 10.8685740694 5.4046756384 
Si 12.9716619586 14.2850758006 0.2288866960 
Si 1.3340565302 12.1983104916 6.7839037914 
Si 4.1717224281 4.0487817970 1.4241112726 
Si 6.7227853215 14.8988341363 4.1402810515 
Si 5.4489073098 13.5693420641 13.5932483526 
Si 9.5676546575 9.6586994683 19.3876462415 
Si 16.1878618480 8.3560696064 24.2892248229 
Si 14.9137883564 15.1368636184 1.2905413963 
Si 2.0950406292 6.9252374433 23.2356793679 
Si 1.3782561876 4.0696655772 4.0692394525 
Si 1.3252452691 9.4878336568 9.5057160531 
Si 8.1073375941 13.5419748639 5.4793057863 
Si 14.9135114264 4.0512904571 12.2483885789 
Si 14.9755274570 6.7625980819 22.8944462910 
Si 13.5682180541 13.5562449040 5.4659435472 
Si 4.0282075268 1.3211760271 4.2113226506 
Si 2.6846571845 10.8392031991 8.1436137393 
Si 3.8171542849 12.4354440237 22.4754029699 
Si 5.3928045493 13.5448256139 8.1650866825 
Si 9.2241637144 0.5778030473 24.5941639576 
H 9.6670073684 8.8320471208 22.0064117155 
Si 14.9262176265 14.9037211363 6.8334432720 
Si 4.0246888868 12.2017802616 9.5087794485 
Si 3.3648298508 10.2267806435 23.0851061882 
Si 0.0340656483 16.2385563285 5.4989115172 
Si 8.0829351739 5.4148774995 13.5440297992 
Si 6.7591934718 14.9060343163 9.5169776782 
Si 13.6007817644 2.7657813853 16.4427896165 
Si 13.6030134944 13.5592096840 10.8834270960 
Si 2.6721138844 2.7160480148 5.5003119265 
Si 1.2803451417 12.2593654121 25.1203969440 
Si 8.1271299443 13.5613762540 10.8690437250 
H 5.1744859673 13.0110185990 22.7497081502 
Si 10.7676575185 5.0939970766 23.3453197495 
Si 11.5368061655 7.1325928552 24.3690773307 
Si 13.4307467428 16.2085990182 13.7530408939 
Si 1.3483591503 1.3320935852 6.8622683643 
Si 0.0084658153 0.0403532626 16.2811590380 
Si 6.7410464117 12.2014544616 12.1839989242 
Si 4.0753507873 14.9252402265 12.2515978503 
Si 10.5098519761 10.5609537066 23.7229051190 
Si 9.2884440550 11.8780816686 22.2010977896 
Si 14.9471339867 12.1676527113 14.9334400952 
Si 4.0649251872 4.0591422371 6.8285710145 
Si 1.3152611280 1.3348433372 12.2798102636 
Si 4.3252556796 6.9359236834 20.3852044978 
Si 12.4532001239 6.9305154034 17.9684772469 
Si 10.9031740297 13.4796330333 13.4009838197 
H 14.6313197538 11.0051494306 23.7050790751 
H 14.0553542185 12.5763525250 28.6218287577 
H 2.8535844861 2.9177833767 19.8375860937 
Si 4.0356683469 1.4311318991 27.7354279931 
Si 2.6657607844 8.1289544243 10.8663596071 
Si 3.9532898162 6.8339971525 14.9211573383 
Si 10.4050909852 0.5564712921 17.0601075607 
Si 16.2570780587 2.6799982445 8.2012930991 
Si 0.0000560671 8.0992903341 13.6363984656 
Si 2.7104442548 1.0286939614 22.4375919176 
H 3.3948523211 2.5863633237 25.0148994400 
Si 2.6933234646 16.2612482987 8.2184481136 
Si 9.4941541768 4.0317098769 12.2699490478 
Si 12.2663864022 12.1110449608 12.1386898469 
Si 14.1802333597 9.7210575889 24.3691940315 
Si 12.7236467064 14.7995954554 27.1060898687 
Si 1.3373422232 4.0493356570 9.5240672505 
Si 6.0458054953 4.8509991444 0.2283825487 
Si 6.6970634113 6.8155568723 17.5213382133 
Si 5.9232232442 5.6326910915 21.5966752815 
Si 9.3005149451 0.9155175564 20.6896476542 
Si 9.5020711169 9.4580881165 1.3259484126 
Si 8.4038807569 13.5709221941 16.1396885191 
Si 4.0495962970 1.3337079242 9.5683260208 
Si 5.4286425497 8.0862094640 2.7034902394 
Si 6.7360616716 6.7527752118 12.1781930605 
H 6.0952293557 11.2423318328 22.3005852034 
Si 10.8283540590 10.8406204291 29.1255676689 
Si 16.2877521290 10.8355868191 10.9019825198 
Si 12.7718651068 13.8471354366 23.8344127131 
Si 2.7178236249 11.0719547213 26.5644523796 
Si 2.6215660140 16.2398921085 18.8857453675 
Si 9.4228202662 1.4075635269 15.0659538294 
Si 8.2303596753 5.4461705898 2.8267700245 
Si 12.1374836310 12.2871072824 1.3195765500 
Si 16.1824372780 10.5698317567 21.6673959534 
Si 16.2369761985 16.2529241086 10.9488962329 
Si 5.7665623127 1.6969130255 19.9299547601 
Si 2.6599778343 2.6862210246 10.8995609787 
Si 5.6076533613 5.0985094066 27.1200939622 
Si 8.1129739342 8.0794002439 29.1597318219 
Si 7.0038041141 12.6904476861 19.4569373288 
Si 12.2235599918 9.5013380669 4.0131355531 
Si 12.9604381485 8.7088784296 20.8046562716 
H 4.8756947846 3.2790304200 18.4358930408 
Si 6.8551089927 6.7104212114 1.4097862520 
Si 4.8440433143 4.4653822608 23.3035992211 
Si 10.6206402671 5.1875179674 16.0584939523 
Si 9.4437040464 12.1006682307 4.1911042407 
Si 16.2523539586 8.0594124137 19.0733126940 
Si 13.5608549740 10.8066231988 13.6002503994 
Si 5.4250098796 5.4041749694 5.4573076896 
Si 0.7485613448 1.1648099446 25.5283828663 
Si 2.7174000848 10.8721252894 13.6087695562 
Si 10.8407018791 2.6694260344 13.6566752259 
Si 9.4968746069 9.4630565665 6.8369151202 
Si 9.4301344763 12.2660443122 27.9012306244 
Si 16.2130298983 2.6738732044 13.6313511569 
Si 4.0125528367 4.0552000571 12.2341219087 
Si 8.1235624343 8.1367410444 5.4734999226 
Si 8.6540951591 0.2272455021 18.5482467155 
Si 10.3915214150 0.7818906852 28.1417217541 
Si 10.7714693785 5.2100144576 27.4219405263 
Si 10.8767679395 10.7798750186 5.4727413675 
Si 10.8192479489 13.6628466650 19.0628971495 
Si 2.6345817241 4.5459200216 22.4983638481 
Si 1.5276306020 9.3798472458 27.7566675348 
Si 6.7716879019 6.7610831118 6.8192057770 
Si 6.8580086127 14.8902330162 14.9496906787 
Si 11.0773792913 7.9003079823 19.5862709668 
Si 12.2131018117 12.1832911114 6.8096946635 
Si 14.9532916068 11.8324370882 27.6427383996 
Si 1.2420408354 1.3984020308 17.7274317885 
Si 5.4022527494 8.1256638443 8.1540292838 
H 8.0401902135 13.9267772474 24.3464082044 
Si 16.1067539373 1.9796911381 27.5229450503 
Si 12.5599810749 5.7960960830 25.9832533265 
Si 12.2228595218 9.4556446165 9.5025359568 
Si 2.7356448850 13.5844428942 16.3656212266 
Si 8.1167043442 5.4015522794 8.1879600352 
Si 6.9980863240 8.0237373134 24.7878872502 
Si 8.0635663638 8.1415954645 16.1689220641 
Si 9.4815457167 12.1961602115 9.5172986053 
H 14.1232509392 1.3777902936 24.4283613263 
Si 1.3932820837 6.8113377623 17.7007948357 
Si 2.8195546758 5.5946213612 19.0853328742 
Si 8.0039938332 2.4488431424 23.6429650856 
Si 5.3787951492 5.3872333693 10.8598535387 
Si 13.5974586044 5.4601962799 2.8897096719 
Si 16.2146100283 13.6070371244 2.6085249807 
Si 2.6304114841 13.6106209245 0.0877572351 
Si 2.7205603449 16.2855203989 13.6108409950 
Si 8.1163785442 8.1043891041 10.8423484219 
Si 5.1826635474 14.1495104194 19.6238486176 
Si 6.8738750729 15.0358493275 27.7944494119 
Si 13.4996697335 8.1584881946 29.1509209131 
Si 4.0569267971 14.9700214369 1.3669687363 
Si 7.4526913582 9.0464723927 20.3881511925 
Si 9.5173674270 3.9969470166 1.4989135542 
Si 9.0699137030 6.8071186523 27.4070028266 
Si 8.9505731619 13.9990396880 23.1314072222 
Si 14.9870444871 6.8056199722 4.1646423391 
H 0.2171880560 5.3574063790 20.7803533345 
Si 3.8901334856 6.7297737315 27.2263500212 
Si 4.0148334367 9.5152660170 12.1908842702 
Si 1.3153816740 14.8936376262 4.0429817773 
Si 11.2253250727 15.8273967248 0.6798462214 
Si 13.5627771940 8.1656557947 5.4356596951 
Si 2.6805195245 13.5457541439 5.4152662340 
Si 10.7670384985 2.6266647840 2.9118478097 
H 11.8609445885 11.1762433022 20.8708547884 
Si 13.5676641941 5.4112936995 8.1937658989 
Si 14.9435827667 9.4628773765 12.2645516367 
Si 13.9201309273 13.9761196578 21.7758985024 
Si 0.0376328325 5.3981639594 16.3892531343 
Si 1.8340422468 5.7212272423 26.5036804491 
Si 4.0110378667 14.8911289662 6.8295629711 
Si 8.0603572337 15.4181267610 21.5381498410 
Si 12.2650832022 1.3909086307 1.6321187405 
Si 14.9273090565 6.7767866720 9.5238046738 
Si 0.0039500970 13.5474320139 8.1752396503 
Si 5.3033887385 5.4729024801 16.2261929713 
Si 7.9242705725 5.2841991183 18.7594751249 
Si 9.4334087663 1.2865842118 4.2401185677 
Si 13.5790020342 8.1247190243 10.8887953318 
Si 13.7083446354 13.5322986038 16.3524632138 
Si 12.1866305615 4.0558353671 4.1473122734 
Si 2.1133180093 2.5477071533 24.1957183239 
Si 1.3179587521 14.9135602964 9.5695513790 
Si 6.6452612108 4.1205881177 14.8777446486 
Si 13.6829322351 0.1227858761 18.9881794760 
Si 13.6037139644 8.1576411146 16.3558183612 
Si 9.4888762168 4.0559819771 6.8507441624 
Si 2.7061599848 13.5640315241 10.8996485043 
Si 7.3508951472 11.8072527480 17.3209338011 
H 6.7731865820 12.1648834113 23.9188457265 
Si 16.1772570580 5.3847572893 0.1607360670 
Si 14.9271950265 12.2156919217 20.5125250474 
Si 7.7979090413 7.0961847049 21.7543380335 
Si 5.4938840002 10.8810847895 16.2127723817 
Si 5.3867283793 13.7835066961 26.4192474357 
Si 10.8675803794 16.2299877884 5.5010704816 
Si 10.8390891691 15.3393809003 23.5151777329 
Si 16.2832723789 8.1198157343 2.6963977496 
Si 2.7524561652 5.4307113797 2.7079015288 
Si 6.7154874014 1.2574658365 17.7759209620 
Si 8.0619536537 10.7630963184 13.4628644076 
Si 12.2146982317 1.3270730071 6.8401243916 
Si 14.6411426239 7.0145555141 20.5465724995 
Si 15.4132071810 4.6197137223 23.7623499822 
Si 0.0300174204 2.6866934346 19.3365896508 
Si 2.8823852064 7.9700617629 29.0689969665 
Si 1.2728175326 14.8529614958 27.8066738185 
Si 9.4856996667 1.3395739532 9.5315361003 
Si 8.6230138389 14.3780591215 19.5311006737 
Si 12.2400780519 1.7503930960 18.0656306452 
Si 1.3936274317 6.7702543819 1.3275297081 
Si 1.3857903127 14.9353726066 14.9818125680 
Si 10.8516650492 2.6889903246 8.1850425157 
Si 10.5500556965 11.6402313765 20.2664322803 
Si 14.8724280460 1.2695513876 20.6820037532 
Si 13.6096598145 5.2850624883 19.1956442853 
Si 1.1504763735 3.9577044062 28.0088579176 
Si 4.0724348773 6.7718345119 4.1020323713 
Si 1.3213812811 4.8081890240 24.4118189909 
Si 12.2117986117 4.0317750369 9.5483118373 
H 13.5284867437 7.0503609345 23.3145399191 
Si 14.9845521170 14.9971605772 17.6486587629 
Si 0.0262356968 5.3959648093 5.4742293025 
H 6.3992007585 7.9354129326 23.3872445043 
Si 6.6747461111 9.4283914462 14.8019183176 
Si 5.4770238501 16.2456424786 16.2897657205 
H 11.6317442864 11.8027567079 16.8765080606 
Si 10.8568289793 16.2713318088 10.8594450860 
Si 2.6938284546 8.1315934044 5.4373226812 
Si 2.4563528325 13.7866832461 23.8009779400 
Si 5.8276823933 15.9208198756 21.2133132235 
Si 12.1685323713 1.2860319808 12.2990950672 
Si 9.3931724659 14.8052480854 1.6222371021 
Si 12.3949796634 14.9714223769 20.2681827920 
Si 1.3599397114 6.7742780120 6.8173969149 
Si 4.0760186773 12.4174435736 27.9057527796 
Si 10.8442530992 10.8045054988 10.8227426911 
Si 10.7994881788 13.4412537929 2.8761752991 
Si 9.5052639569 14.9242139565 12.2039255822 
Si 14.3355096411 14.6255693838 25.4264739113 
Si 3.4623580817 1.6123320867 20.2832663676 
Si 1.3457837013 12.2139977617 12.2532608364 
H 4.6906566729 5.2605297481 24.5799556378 
H 10.2126897934 2.1694044798 28.7523002283 
Si 16.2646529088 8.1347373744 8.1436137393 
Si 12.2218495418 14.9008866763 4.1006903124 
Si 2.7013544347 5.4143562195 8.1773402643 
Si 7.4778594084 5.9938729748 25.8438542463 
Si 4.1969067684 9.6437615382 17.7156158346 
H 9.9648211511 3.1064052884 18.4779636715 
Si 9.4886644468 12.1537247612 14.6411629950 
Si 9.4877033368 14.8859650361 6.8350770829 
Si 10.8568452693 13.5350190338 8.1729931603 
Si 4.0453608970 6.7793767820 9.5238630241 
Si 1.4245865770 15.3323599102 22.3210661901 
Si 5.3540017690 10.9222170399 0.0693508965 
Si 8.7757814603 4.4957956911 24.5189794809 
H 9.9415753209 14.3510665913 25.5856829486 
Si 12.2168485117 14.8939308462 9.5285018801 
Si 2.7590536152 8.2377064653 16.3983849702 
Si 2.6941542546 10.9812194204 18.9651602474 
Si 1.0571705107 10.4074693252 23.6845105628 
Si 8.1387935844 10.8058738588 2.7160326556 
Si 15.4463247513 15.8198055847 22.2003975849 
Si 10.8241675290 13.5014290535 26.4768976204 
Si 4.0640129472 1.3385770052 14.9994927360 
Si 6.7675828219 12.2179399417 1.4121815355 
Si 4.1409669079 14.9670403669 17.6718238674 
Si 11.3566224739 0.3032448688 21.5804246980 
Si 14.8600150659 14.9268855165 12.3400570406 
Si 3.9612882062 4.1651901381 17.6222260365 
Si 6.7718345119 9.4558726765 4.0665261594 
Si 7.9242542825 10.9801931504 26.6185140153 
Si 4.0737706573 12.2525236121 14.9595518945 
Si 10.3843538150 4.4521710707 21.1186980671 
Si 14.8952177562 9.4800959067 1.3404338967 
Si 2.9391232769 8.4135081470 21.6011099111 
Si 5.4086872995 10.8297712890 5.4152078836 
Si 10.4619919557 8.2431636154 26.2315050580 
Si 13.8607864568 2.4842413127 27.2459265768 
Si 16.2655325688 5.4009169694 10.8750829903 
Si 13.5648460241 10.9203599799 2.6540966348 
Si 15.0419417876 4.0370041269 17.8363136150 
Si 6.7432129817 12.1811897014 6.8088485829 
H 8.5152717779 7.1789541957 23.0811967121 
Si 10.7841755786 10.8657558994 16.0733149512 
Si 10.5304588263 14.5423274830 16.8195580806 
Si 14.9118335564 12.2531589221 4.0425441494 
Si 1.3177453531 6.7622559919 12.2294247023 
Si 1.7015556756 14.5119466327 20.1675575455 
Si 2.5889045637 16.2798514789 26.4605595114 
Si 6.7669800919 9.4812524967 9.5008437956 
Si 5.2825212483 8.4683402874 26.3108615875 
Si 14.9191966364 9.5154452070 6.7898263559 
H 3.2922416101 7.2910456867 24.1244433233 
Si 5.3921692393 0.0446763028 29.1339117746 
Si 8.1272276843 10.8429173192 8.1575594823 
Si 15.1700300587 0.2649747714 24.4078803396 
H 13.8558831667 6.3494185181 26.9011341261 
Si 13.5755811342 10.8465336992 8.1763191325 
Si 5.3746411992 2.6514907443 2.8651908383 
Si 5.3627494991 2.6819367545 13.5653568665 
Si 5.3917945693 10.8429824792 10.8349962729 
Si 6.2366428470 11.9085765489 25.3044048968 
H 10.3079700043 8.3926732368 21.9702636493 
Si 14.9462869067 12.1938307415 9.5327614585 
Si 1.3882338127 9.4760234067 14.9533084028 
Si 1.2809983707 12.2130040717 17.5911252790 
Si 8.0727050538 0.0042018589 2.8303002230 
Si 6.8015148922 1.3241603551 12.2760758386 
Si 9.4958483369 9.4459683564 12.1750421395 
Si 12.2963111325 9.0192029325 23.1096425269 
Si 2.6514744543 2.6951479446 16.3408514863 
Si 0.4208163158 7.6710751002 26.5121412555 
Si 7.6788291402 3.1156742985 0.3120870574 
Si 12.1383958710 3.4833070219 19.8597884169 
Si 8.4911625777 0.2333803161 26.8559125744 
Si 11.4253011145 4.7868979938 0.3777516681 
Si 15.0380158975 6.8869885230 27.9542711283 
Si 6.6900587112 1.3284576571 1.4644780719 
Si 10.8512252192 8.0954784740 2.7014917385 
Si 11.8561227484 12.0143638099 25.0083350212 
Si 12.1312608509 14.6188579037 15.0276467988 
Si 13.6297942547 10.5485895965 19.3366771764 
Si 6.8031764722 4.0553303771 4.1075464831 
Si 4.4386340806 10.3131339343 25.1853409273 
Si 11.0340478909 1.9046756874 25.1983530641 
Si 12.2825786623 6.7237464315 1.4173688851 
Si 13.5916430743 5.4293104397 13.6141669672 
H 13.0600352094 12.7062489862 17.4297572772 
Si 0.0063587201 13.5759720942 13.6257495195 
Si 5.6440452216 8.2875701558 18.9979531662 
Si 5.3978870294 16.2496498186 5.5242355861 
Si 9.5425517673 6.8061086722 4.1719069626 
Si 14.8296830856 1.3379987102 15.0146054868 
Si 0.0012146199 10.8127808189 16.2664547399 
Si 8.1030533241 2.7058504748 5.5261903242 
Si 5.5580177308 2.8044538456 26.4535866398 
Si 10.8595819893 5.4147634695 5.5135282897 
Si 12.0272654900 9.3675808757 27.6969459113 
Si 16.2211423184 13.5098346936 19.0106443759 
Si 16.1042452773 13.4694354932 26.4577878679 
Si 6.7535245518 1.3309174472 6.8612472325 
Si 6.7979636722 3.8502555652 20.3145130011 
Si 9.4466362464 6.7903888221 14.8591600496 
Si 12.2017802616 9.4214519062 14.9435347126 
Si 13.7850379561 3.9431737261 25.3141202366 
Si 12.2382372819 6.7785459920 6.8184180467 
Si 5.3932280893 2.6872472946 8.2002136169 
Si 9.2528504046 3.9667290663 17.4574737121 
Si 8.6186155388 2.9650569571 21.4610106262 
Si 9.4949198068 6.7367947216 9.5321196042 
Si 10.8561610893 8.1072561441 13.5448175295 
Si 14.9428334267 6.7453469717 15.0272091709 
Si 3.3538341007 12.8576156676 20.2633105344 
Si 7.7620221710 2.4236913822 27.2573340779 
Si 5.3232462487 8.0870239640 13.4871965200 
Si 8.1350468844 16.2606781487 8.1827376753 
Si 10.8525121293 8.0930349740 8.1761732565 
Si 13.6821503151 0.0479632990 2.8864303801 
Si 4.0549394171 9.4379536763 1.3433368286 
Si 6.7665076819 4.0340882169 9.5413097906 
Si 10.8483093092 5.3818902492 10.8984814965 
Si 13.1306849401 3.1188834285 0.2499042145 
H 15.3416777903 3.5532074125 22.6923788927 
Si 12.2520674921 3.2244589195 23.6999442408 
Si 0.0654703251 10.6589380575 29.1002727752 
Si 5.7032105022 2.3871692018 24.0950347271 
Si 5.4386608997 16.2736124088 10.8999986066 
Si 14.8557145059 4.0590607871 1.5255855172 
Si 12.2242115918 6.7457216417 12.2258069782 
Si 14.9847475970 9.4983081269 17.7139236733 
H 11.3432483837 6.1016476158 17.1785880263 

