&CONTROL
/
&SYSTEM
   ntyp             = 2
   nat              = 407
   ibrav            = 0
/
&ELECTRONS
/
&IONS
/
&CELL
/

ATOMIC_SPECIES
Si 28.085 None
H 1.008 None

K_POINTS gamma

CELL_PARAMETERS angstrom
16.29000014900000 0.00000000000000 0.00000000000000
0.00000000000000 16.29000014900000 0.00000000000000
0.00000000000000 0.00000000000000 29.17519467510000

ATOMIC_POSITIONS angstrom
Si 2.6702731144 10.8091644389 2.6937019616 
Si 8.1349328544 2.6877197046 10.9038497323 
Si 4.7799584537 0.3056297248 23.2821262779 
Si 8.9544990519 10.0313658017 17.2298780185 
Si 15.0070974773 1.3841042977 4.2236637579 
Si 12.2753947723 4.0229295668 14.9459270785 
Si 0.1017209511 0.1542697223 29.0929206261 
Si 1.2851816428 12.1490332411 1.3219718335 
Si 3.9970773366 15.0987775981 24.9907715540 
Si 7.8294464816 2.6700613444 16.2339827483 
Si 8.2004838150 16.2676013988 13.6345020779 
Si 13.5638849141 2.7156407648 5.5056218119 
H 15.1461489185 9.4633009166 21.8884272282 
Si 1.3056842369 4.0338112869 14.9649493055 
Si 0.0160366906 2.6744596445 2.7515301149 
Si 1.3243395451 9.4802750967 4.0745785131 
Si 9.7008579887 3.4518510316 26.3547410803 
Si 14.9322937966 4.0645179372 6.8429252103 
Si 12.2868955124 0.7981953463 26.8028428953 
Si 13.3587612322 10.7054134279 26.3058142788 
Si 1.3463440773 4.3882491101 20.4749182214 
Si 4.0324429269 12.1770031714 4.0565482428 
Si 2.7269786049 16.2841357489 2.7863332047 
Si 6.6603131709 9.4962555868 27.9436805327 
Si 12.8707616977 2.1521696597 21.6508244428 
H 12.4431003238 11.0697718612 18.5411863184 
Si 13.5751087242 16.2643922687 8.1923946648 
Si 2.7840913455 2.7739752554 0.0465781983 
Si 4.0532778371 9.4864978768 6.7908766630 
Si 1.3812111936 9.4973633069 20.2376947135 
Si 7.2278241961 11.1811303023 21.2969585066 
Si 5.3855880792 13.5743430941 2.7360876844 
Si 8.8938513813 9.5238182671 25.1088727421 
Si 14.9066696263 1.3292591252 9.5755614691 
Si 1.4482070772 1.3675943825 1.3994523980 
Si 2.6436226742 5.4029857994 13.5984123621 
Si 8.0886692540 13.6212257146 0.0695303239 
Si 9.4100489061 6.3145090477 20.2234280433 
Si 13.5350679038 2.6668522144 10.9414273830 
Si 16.2599288087 10.8685577794 5.4047048136 
Si 12.9716619586 14.2850595106 0.2288522693 
Si 1.3340532722 12.1983104916 6.7839621418 
Si 4.1717061382 4.0487655070 1.4241200251 
Si 6.7228016115 14.8988504263 4.1403977523 
Si 5.4489235998 13.5695375441 13.5934525790 
Si 9.5675569175 9.6586668883 19.3874420151 
Si 16.1879432980 8.3559718664 24.2891081221 
Si 14.9137720664 15.1368799084 1.2905355613 
Si 2.0949428892 6.9252211533 23.2355626672 
Si 1.3782545586 4.0696818672 4.0692978029 
Si 1.3252648171 9.4878173668 9.5057744034 
Si 8.1073538841 13.5419748639 5.4794224871 
Si 14.9136254564 4.0513230371 12.2483885789 
Si 14.9754297170 6.7625166318 22.8943295902 
Si 13.5681854741 13.5562449040 5.4660310728 
Si 4.0282075268 1.3211972041 4.2114101762 
Si 2.6846571845 10.8391869091 8.1436429145 
Si 3.8170728349 12.4353951537 22.4752862691 
Si 5.3928534193 13.5448744839 8.1651742081 
Si 9.2241800044 0.5778030473 24.5941639576 
H 9.6669096284 8.8318190608 22.0060324380 
Si 14.9261687565 14.9037537163 6.8335307976 
Si 4.0246888868 12.2017965516 9.5088086237 
Si 3.3648135608 10.2267643535 23.0850478378 
Si 0.0340361634 16.2385889085 5.4989990428 
Si 8.0830654939 5.4150729795 13.5440297992 
Si 6.7592260518 14.9061483463 9.5170943790 
Si 13.6008632144 2.7656836453 16.4428771421 
Si 13.6030134944 13.5592259740 10.8835146216 
Si 2.6721301744 2.7160968848 5.5004286273 
Si 1.2803353677 12.2593654121 25.1203385936 
Si 8.1271625243 13.5615065740 10.8691604258 
H 5.1743719373 13.0109697290 22.7496206247 
Si 10.7676086485 5.0938667566 23.3453197495 
Si 11.5366758455 7.1325928552 24.3689606299 
Si 13.4309259328 16.2085990182 13.7531575946 
Si 1.3483461183 1.3321408262 6.8623558899 
Si 0.0086066261 0.0403219858 16.2812173884 
Si 6.7409323817 12.2017151016 12.1840280994 
Si 4.0753996573 14.9253379665 12.2517145511 
Si 10.5098519761 10.5609699966 23.7227008927 
Si 9.2884277650 11.8780979586 22.2009227384 
Si 14.9472480167 12.1676690013 14.9334109200 
Si 4.0649577672 4.0591911071 6.8287168905 
Si 1.3154468340 1.3348661432 12.2798686139 
Si 4.3252068096 6.9359399734 20.3851461474 
Si 12.4530372239 6.9303036334 17.9686231229 
Si 10.9031251597 13.4796493233 13.4011005205 
H 14.6313034638 11.0050028206 23.7049331991 
H 14.0553053485 12.5762384950 28.6216828817 
H 2.8536007761 2.9178485367 19.8375860937 
Si 4.0356520569 1.4311351571 27.7353988179 
Si 2.6657770744 8.1289544243 10.8664763079 
Si 3.9532898162 6.8339971525 14.9212448638 
Si 10.4053190452 0.5563197951 17.0601075607 
Si 16.2571432187 2.6800634045 8.2014389751 
Si 0.0001105959 8.0993066241 13.6363692904 
Si 2.7104605448 1.0286841874 22.4375335672 
H 3.3947545810 2.5864447736 25.0148119144 
Si 2.6933397546 16.2612971687 8.2185356392 
Si 9.4943170768 4.0317587469 12.2700657485 
Si 12.2663538222 12.1111101208 12.1388065477 
Si 14.1802496497 9.7209435589 24.3691065059 
Si 12.7236467064 14.7995628754 27.1060315183 
Si 1.3374318182 4.0493519470 9.5242423017 
Si 6.0457892053 4.8510154344 0.2283758384 
Si 6.6969493812 6.8156220323 17.5214549141 
Si 5.9231092142 5.6328051215 21.5967044567 
Si 9.3006452651 0.9155436204 20.6898518806 
Si 9.5020874069 9.4581044065 1.3259309074 
Si 8.4038970469 13.5708570341 16.1397760446 
Si 4.0496777470 1.3337633102 9.5684135464 
Si 5.4286262596 8.0862094640 2.7034814868 
Si 6.7361105416 6.7529381118 12.1782514109 
H 6.0952945158 11.2423644128 22.3005268530 
Si 10.8283866390 10.8406204291 29.1255384938 
Si 16.2877847090 10.8356031091 10.9020116950 
Si 12.7718976868 13.8471028566 23.8343543627 
Si 2.7178073349 11.0719221413 26.5643648540 
Si 2.6215660140 16.2399898485 18.8857453675 
Si 9.4230483262 1.4076645249 15.0660705302 
Si 8.2303596753 5.4461705898 2.8267875296 
Si 12.1374836310 12.2871072824 1.3195736325 
Si 16.1824209880 10.5697340167 21.6673376030 
Si 16.2370576485 16.2530055586 10.9489837584 
Si 5.7665948927 1.6970107655 19.9299547601 
Si 2.6601407343 2.6863024746 10.8996776794 
Si 5.6076370713 5.0985419866 27.1200939622 
Si 8.1130065142 8.0794002439 29.1596734715 
Si 7.0038041141 12.6905617161 19.4569373288 
Si 12.2235274118 9.5013706469 4.0132230787 
Si 12.9604055685 8.7088784296 20.8043645197 
H 4.8756459146 3.2788675200 18.4358055152 
Si 6.8551252827 6.7104212114 1.4097716644 
Si 4.8439292843 4.4653985508 23.3035408708 
Si 10.6207054271 5.1876482874 16.0584356019 
Si 9.4437040464 12.1006845207 4.1911625911 
Si 16.2521421886 8.0592820937 19.0732251685 
Si 13.5608386840 10.8066231988 13.6003379249 
Si 5.4250098796 5.4041912594 5.4574243903 
Si 0.7485401678 1.1648132026 25.5283245159 
Si 2.7174489549 10.8721252894 13.6088570818 
Si 10.8410113891 2.6694749044 13.6567335762 
Si 9.4968908969 9.4630728565 6.8370318209 
Si 9.4301507662 12.2660280222 27.9011722740 
Si 16.2131113483 2.6738406244 13.6313219817 
Si 4.0125854167 4.0553140871 12.2343261351 
Si 8.1235624343 8.1367410444 5.4735874482 
Si 8.6543883791 0.2274312081 18.5483634162 
Si 10.3915377050 0.7818711372 28.1416925789 
Si 10.7715019585 5.2100470376 27.4218821759 
Si 10.8767679395 10.7799401786 5.4728872435 
Si 10.8192316589 13.6627000550 19.0628971495 
Si 2.6345002741 4.5458711516 22.4982763225 
Si 1.5275621840 9.3797983758 27.7565216588 
Si 6.7716879019 6.7610994018 6.8192933026 
Si 6.8581063527 14.8903470462 14.9498949050 
Si 11.0771675213 7.9002428223 19.5862709668 
Si 12.2130692317 12.1833562714 6.8098697147 
Si 14.9533078968 11.8323719282 27.6426216988 
Si 1.2421402044 1.3984623038 17.7273734381 
Si 5.4023016194 8.1256475543 8.1542043349 
H 8.0402716635 13.9266795074 24.3463206788 
Si 16.1067702273 1.9796911381 27.5228866999 
Si 12.5599647849 5.7961449530 25.9831658009 
Si 12.2228595218 9.4556609065 9.5025943072 
Si 2.7357426250 13.5845406342 16.3656795770 
Si 8.1167206342 5.4015848594 8.1880183856 
Si 6.9981026140 8.0237861834 24.7878288998 
Si 8.0634360438 8.1417257845 16.1689804145 
Si 9.4815131367 12.1962416615 9.5173569557 
H 14.1232509392 1.3777788906 24.4283029759 
Si 1.3932853417 6.8113051823 17.7007948357 
Si 2.8195220958 5.5946050712 19.0853328742 
Si 8.0038960932 2.4488431424 23.6430817864 
Si 5.3788765992 5.3872496593 10.8600577651 
Si 13.5974748944 5.4601962799 2.8897446822 
Si 16.2145937383 13.6070208344 2.6085337333 
Si 2.6303951941 13.6106046345 0.0877379794 
Si 2.7207069549 16.2856344289 13.6109868710 
Si 8.1164925742 8.1044705541 10.8424359475 
Si 5.1826309674 14.1495267094 19.6238486176 
Si 6.8738750729 15.0358493275 27.7943910615 
Si 13.4997023135 8.1584881946 29.1508917379 
Si 4.0569267971 14.9700214369 1.3669804063 
Si 7.4527076482 9.0464723927 20.3880928421 
Si 9.5173837170 3.9969633066 1.4989048016 
Si 9.0699462829 6.8071512323 27.4069736514 
Si 8.9505894519 13.9989908180 23.1312613462 
Si 14.9870933571 6.8055873922 4.1647006895 
H 0.2170023500 5.3574063790 20.7801782833 
Si 3.8900683256 6.7297900216 27.2262333204 
Si 4.0148497267 9.5152823070 12.1909426206 
Si 1.3153637550 14.8936539162 4.0430109525 
Si 11.2253250727 15.8273967248 0.6798403863 
Si 13.5627771940 8.1656557947 5.4356888703 
Si 2.6805358145 13.5457541439 5.4152954092 
Si 10.7670547885 2.6266647840 2.9118653148 
H 11.8609120085 11.1761129822 20.8707380876 
Si 13.5676804841 5.4113425695 8.1937950741 
Si 14.9435664767 9.4629099565 12.2645808119 
Si 13.9201309273 13.9762011078 21.7758401520 
Si 0.0376359276 5.3981313794 16.3892823095 
Si 1.8339933768 5.7212109523 26.5035637483 
Si 4.0110867367 14.8911615462 6.8296504967 
Si 8.0604223937 15.4181104710 21.5380331402 
Si 12.2650832022 1.3909265497 1.6321070704 
Si 14.9273416365 6.7767866720 9.5238630241 
Si 0.0039219316 13.5474320139 8.1752980007 
Si 5.3033724485 5.4729024801 16.2262513217 
Si 7.9242054125 5.2842642783 18.7595626505 
Si 9.4334250563 1.2865939858 4.2401769181 
Si 13.5790671942 8.1247678943 10.8887661566 
Si 13.7083609254 13.5322660238 16.3524340386 
Si 12.1866305615 4.0558353671 4.1473706238 
Si 2.1132528493 2.5477071533 24.1956016231 
Si 1.3179603811 14.9135765864 9.5696097294 
Si 6.6454241108 4.1207347277 14.8778029990 
Si 13.6829811051 0.1226949779 18.9882086512 
Si 13.6035021944 8.1574130546 16.3559058868 
Si 9.4888762168 4.0559982671 6.8508025128 
Si 2.7061925647 13.5640641041 10.8997360298 
Si 7.3508136972 11.8072690380 17.3209921515 
H 6.7731214219 12.1648997013 23.9187582009 
Si 16.1772733480 5.3847735792 0.1606931795 
Si 14.9271950265 12.2157245017 20.5124958722 
Si 7.7978438813 7.0962009949 21.7543380335 
Si 5.4938025502 10.8811825295 16.2128890825 
Si 5.3867120893 13.7834904061 26.4192182605 
Si 10.8675966694 16.2300203684 5.5011871823 
Si 10.8390891691 15.3392505803 23.5152944337 
Si 16.2832723789 8.1197994443 2.6964123371 
Si 2.7524561652 5.4307276697 2.7079307040 
Si 6.7157154614 1.2575489155 17.7760084876 
Si 8.0617907537 10.7631940584 13.4628060572 
Si 12.2146819417 1.3271202481 6.8402119172 
Si 14.6409145639 7.0141971341 20.5463974484 
Si 15.4131746010 4.6196159823 23.7622332814 
Si 0.0301946556 2.6865305346 19.3367063516 
Si 2.8823363364 7.9700617629 29.0689094409 
Si 1.2728045006 14.8529614958 27.8066154681 
Si 9.4857159567 1.3396668062 9.5316236259 
Si 8.6230789989 14.3781242815 19.5309547977 
Si 12.2401595019 1.7502790660 18.0657181707 
Si 1.3936339477 6.7702706719 1.3275180380 
Si 1.3859418097 14.9354051866 14.9818125680 
Si 10.8516813392 2.6890391946 8.1851008661 
Si 10.5500068265 11.6401173465 20.2663155795 
Si 14.8724606260 1.2694601636 20.6820037532 
Si 13.6095294945 5.2846063683 19.1954108837 
Si 1.1504698575 3.9577206962 28.0087995672 
Si 4.0724511672 6.7718345119 4.1020907217 
Si 1.3213356691 4.8082053140 24.4116731149 
Si 12.2118637717 4.0317913269 9.5482826621 
H 13.5283564237 7.0503120645 23.3143648680 
Si 14.9845521170 14.9971605772 17.6486004125 
Si 0.0263137259 5.3959810994 5.4743751784 
H 6.3991681785 7.9354292226 23.3871861539 
Si 6.6746157910 9.4285217662 14.8019766680 
Si 5.4771053001 16.2457890886 16.2899115964 
H 11.6319397664 11.8030336379 16.8766247614 
Si 10.8568289793 16.2714458388 10.8595617868 
Si 2.6938284546 8.1315445344 5.4374393820 
Si 2.4563365425 13.7866669561 23.8008612392 
Si 5.8277638433 15.9208524556 21.2132256979 
Si 12.1687604313 1.2860189488 12.2990950672 
Si 9.3931724659 14.8052480854 1.6222341846 
Si 12.3948982134 14.9713409269 20.2680952664 
Si 1.3600439674 6.7742454320 6.8176303165 
Si 4.0759860973 12.4174109936 27.9056944292 
Si 10.8442856792 10.8046358188 10.8227135159 
Si 10.7995044688 13.4412537929 2.8762015568 
Si 9.5052965369 14.9243116965 12.2040714582 
Si 14.3355096411 14.6255693838 25.4264155609 
Si 3.4623906617 1.6123956178 20.2832371924 
Si 1.3458488613 12.2139651817 12.2533191868 
H 4.6905100629 5.2605786181 24.5798681122 
H 10.2126897934 2.1693881898 28.7522710531 
Si 16.2646691988 8.1347373744 8.1437012648 
Si 12.2218332518 14.9009192563 4.1007486628 
Si 2.7014847547 5.4143725095 8.1776028411 
Si 7.4778431184 5.9939218448 25.8438542463 
Si 4.1968090284 9.6437615382 17.7155866594 
H 9.9649677611 3.1065844784 18.4780511971 
Si 9.4886481568 12.1536433112 14.6412505206 
Si 9.4877033368 14.8859976161 6.8351937837 
Si 10.8568452693 13.5351330638 8.1731390363 
Si 4.0454749270 6.7793930720 9.5241256009 
Si 1.4246273020 15.3323436202 22.3209786645 
Si 5.3540343490 10.9222007499 0.0692972141 
Si 8.7757325903 4.4957631111 24.5190378313 
H 9.9415753209 14.3509851412 25.5856537734 
Si 12.2168322217 14.8940448762 9.5286769313 
Si 2.7590210352 8.2376901753 16.3983557951 
Si 2.6940402246 10.9811705504 18.9651018970 
Si 1.0571656237 10.4074367452 23.6844813876 
Si 8.1388098744 10.8058738588 2.7160501607 
Si 15.4463899113 15.8197892947 22.2003392345 
Si 10.8242001090 13.5013313135 26.4767809196 
Si 4.0641269772 1.3387317602 14.9996094367 
Si 6.7675991119 12.2179399417 1.4121698654 
Si 4.1409994879 14.9672032669 17.6719113930 
Si 11.3567039239 0.3030835978 21.5805997492 
Si 14.8600802259 14.9269018065 12.3401153909 
Si 3.9612556262 4.1651901381 17.6222843869 
Si 6.7718508019 9.4558563865 4.0665553346 
Si 7.9243031525 10.9801931504 26.6183973145 
Si 4.0737706573 12.2526050621 14.9596102448 
Si 10.3842560750 4.4519430107 21.1187564175 
Si 14.8952177562 9.4800796167 1.3404076390 
Si 2.9391232769 8.4134918569 21.6010807359 
Si 5.4087198795 10.8297387090 5.4152954092 
Si 10.4620082457 8.2432124854 26.2314758828 
Si 13.8608027468 2.4842576027 27.2459265768 
Si 16.2655977288 5.4009658394 10.8751413407 
Si 13.5648460241 10.9203436899 2.6541024698 
Si 15.0421698476 4.0367271969 17.8363136150 
Si 6.7432455617 12.1811571214 6.8089652837 
H 8.5152066179 7.1789379057 23.0811967121 
Si 10.7843710586 10.8660165394 16.0734900023 
Si 10.5304914063 14.5421482930 16.8195872558 
Si 14.9118172664 12.2531589221 4.0426024998 
Si 1.3178186580 6.7622071219 12.2295122279 
Si 1.7015556756 14.5119955027 20.1674408447 
Si 2.5888882737 16.2798514789 26.4604719858 
Si 6.7669963819 9.4812524967 9.5009896715 
Si 5.2825212483 8.4683565775 26.3108032371 
Si 14.9191803464 9.5154289170 6.7898847063 
H 3.2921275801 7.2910619767 24.1243266225 
Si 5.3921692393 0.0446790721 29.1338825994 
Si 8.1272439743 10.8429010292 8.1577053583 
Si 15.1700300587 0.2649617394 24.4077928140 
H 13.8558505867 6.3494348081 26.9011049509 
Si 13.5755811342 10.8465174092 8.1763774829 
Si 5.3746411992 2.6514907443 2.8652287661 
Si 5.3628309491 2.6820833645 13.5654735673 
Si 5.3917945693 10.8430313492 10.8350837984 
Si 6.2366265570 11.9085602589 25.3043465464 
H 10.3079700043 8.3925429168 21.9703511749 
Si 14.9462706167 12.1938144515 9.5328489841 
Si 1.3882240387 9.4760234067 14.9533084028 
Si 1.2810032577 12.2130529417 17.5910377534 
Si 8.0727213438 0.0041955221 2.8303381508 
Si 6.8015637622 1.3242646111 12.2762508898 
Si 9.4958809169 9.4461475464 12.1750713147 
Si 12.2963111325 9.0191703525 23.1094383006 
Si 2.6514581643 2.6952782647 16.3408223112 
Si 0.4207641878 7.6710099402 26.5120537300 
Si 7.6788291402 3.1156905885 0.3120958100 
Si 12.1383307110 3.4830138018 19.8599634681 
Si 8.4911625777 0.2333754291 26.8558833992 
Si 11.4253174045 4.7869305738 0.3777137403 
Si 15.0379996075 6.8869722330 27.9542127779 
Si 6.6900587112 1.3284576571 1.4645043296 
Si 10.8512415092 8.0954947640 2.7015179962 
Si 11.8561716184 12.0142986499 25.0082183204 
Si 12.1313097209 14.6188904837 15.0276759740 
Si 13.6295499047 10.5488665265 19.3364729500 
Si 6.8031601822 4.0553466671 4.1076048335 
Si 4.4386015006 10.3131339343 25.1852534017 
Si 11.0340478909 1.9046756874 25.1984114145 
Si 12.2826112423 6.7237627215 1.4173688851 
Si 13.5918222643 5.4294081797 13.6141377920 
H 13.0598885994 12.7061349562 17.4296405764 
Si 0.0064806019 13.5760209642 13.6257495195 
Si 5.6439637716 8.2877004758 18.9980406918 
Si 5.3979521894 16.2497312686 5.5243522869 
Si 9.5425517673 6.8061249623 4.1719361378 
Si 14.8298622756 1.3380117422 15.0146930124 
Si 0.0011666572 10.8126993689 16.2665130903 
Si 8.1030696141 2.7058667648 5.5262486746 
Si 5.5580177308 2.8044701356 26.4535574646 
Si 10.8595819893 5.4147634695 5.5135866401 
Si 12.0272980700 9.3675808757 27.6969167361 
Si 16.2211260284 13.5098509836 19.0105860255 
Si 16.1042289873 13.4694192032 26.4577295175 
Si 6.7535734218 1.3309988972 6.8613931085 
Si 6.7978659322 3.8503533052 20.3146005267 
Si 9.4466688264 6.7906331721 14.8591892248 
Si 12.2017313916 9.4215170662 14.9437389389 
Si 13.7850868261 3.9432063061 25.3141494118 
Si 12.2382372819 6.7785622820 6.8184763971 
Si 5.3933095393 2.6873450346 8.2003886681 
Si 9.2529807246 3.9669571263 17.4575904129 
Si 8.6184200588 2.9650080871 21.4611273270 
Si 9.4949198068 6.7368273016 9.5321196042 
Si 10.8562588293 8.1073864642 13.5447591791 
Si 14.9429148767 6.7454284217 15.0272675213 
Si 3.3537689407 12.8575993776 20.2631938337 
Si 7.7620221710 2.4236913822 27.2573340779 
Si 5.3232136687 8.0870565440 13.4872840456 
Si 8.1350794644 16.2607595987 8.1828252009 
Si 10.8525284193 8.0930512640 8.1762024317 
Si 13.6821340251 0.0479735617 2.8864508027 
Si 4.0549068371 9.4379373863 1.3432668081 
Si 6.7666054219 4.0341533769 9.5414556665 
Si 10.8483418892 5.3818902492 10.8984231461 
Si 13.1307012301 3.1188997185 0.2498791238 
H 15.3415963403 3.5531096725 22.6922621919 
Si 12.2521163621 3.2243937595 23.7000609416 
Si 0.0654659268 10.6588891875 29.1001852496 
Si 5.7030964722 2.3872017818 24.0950055519 
Si 5.4387260597 16.2737101488 10.9001444826 
Si 14.8557307959 4.0590933671 1.5255621770 
Si 12.2242930418 6.7457216417 12.2257194526 
Si 14.9844706670 9.4982755469 17.7138944981 
H 11.3431017737 6.1016964858 17.1785880263 

