&CONTROL
/
&SYSTEM
   ntyp             = 2
   nat              = 407
   ibrav            = 0
/
&ELECTRONS
/
&IONS
/
&CELL
/

ATOMIC_SPECIES
Si 28.085 None
H 1.008 None

K_POINTS gamma

CELL_PARAMETERS angstrom
16.29000014900000 0.00000000000000 0.00000000000000
0.00000000000000 16.29000014900000 0.00000000000000
0.00000000000000 0.00000000000000 29.17519467510000

ATOMIC_POSITIONS angstrom
Si 2.6693934544 10.8091481489 2.6939966310 
Si 8.1372297444 2.6931931446 10.9114061077 
Si 4.7796815237 0.3056199508 23.2808133941 
Si 8.9413041518 10.0464829219 17.2193749484 
Si 15.0068531272 1.3847298337 4.2239555099 
Si 12.2433686320 4.0811500273 15.0073700385 
Si 0.1005363423 0.1551370019 29.0923079470 
Si 1.2839110227 12.1486097011 1.3213037216 
Si 3.9971913666 15.0994943581 24.9908299044 
Si 7.9116946924 2.7382675750 16.2610573289 
Si 8.2038558450 16.2790206889 13.6393451602 
Si 13.5640315241 2.7159991448 5.5069638709 
H 15.1068085682 9.4774243467 21.9978925587 
Si 1.3022714819 4.0326546969 14.9587349890 
Si 0.0157763927 2.6753393045 2.7514192492 
Si 1.3239290371 9.4798026867 4.0751036666 
Si 9.7004018687 3.4519161916 26.3563165408 
Si 14.9328313666 4.0646482572 6.8449966491 
Si 12.2888666024 0.8010395803 26.8039515527 
Si 13.3503393021 10.6995490279 26.3008836709 
Si 1.3573821814 4.3583406699 20.4538245557 
Si 4.0323451869 12.1765307614 4.0572484475 
Si 2.7268808649 16.2844289689 2.7871851203 
Si 6.6593031909 9.4961415569 27.9468898041 
Si 12.8766586778 2.1385675096 21.6600438043 
H 12.5186207645 11.4299274745 18.5558030909 
Si 13.5744571241 16.2649298388 8.1958956881 
Si 2.7837166755 2.7738938054 0.0474528706 
Si 4.0539294371 9.4852761267 6.7924812987 
Si 1.3846842217 9.4881105868 20.2507652007 
Si 7.2134889960 11.1807230523 21.2932532569 
Si 5.3855554992 13.5745874441 2.7373042900 
Si 8.8836701312 9.5276464171 25.1129280941 
Si 14.9062135063 1.3296956972 9.5797918723 
Si 1.4477330382 1.3674363695 1.3997674901 
Si 2.6437204142 5.4013079294 13.5957865946 
Si 8.0881479740 13.6220076346 0.0711399194 
Si 9.3781856658 6.2968181076 20.2483144844 
Si 13.5355403138 2.6711690644 10.9446658296 
Si 16.2593749487 10.8683460094 5.4050549159 
Si 12.9720366286 14.2847500006 0.2301339356 
Si 1.3336199582 12.1982616216 6.7841080178 
Si 4.1714454981 4.0486840570 1.4248960853 
Si 6.7229970915 14.8992088063 4.1419148624 
Si 5.4502756698 13.5750598542 13.5975662814 
Si 9.5442622173 9.6477037182 19.3676612331 
Si 16.2037445982 8.3729134666 24.2952349130 
Si 14.9140327064 15.1372708684 1.2909848593 
Si 2.1223752494 6.9191612733 23.2486623296 
Si 1.3782024306 4.0698284772 4.0703189347 
Si 1.3262357011 9.4867422268 9.5064746081 
Si 8.1077448441 13.5422843739 5.4814064004 
Si 14.9073049363 4.0548416771 12.2564992830 
Si 15.0427562876 6.7932721521 22.8473867020 
Si 13.5678596741 13.5561145840 5.4671980806 
Si 4.0282726868 1.3215832771 4.2128689359 
Si 2.6844291245 10.8388773991 8.1435845641 
Si 3.8195814949 12.4392558838 22.4736232830 
Si 5.3939611393 13.5459170439 8.1662536903 
Si 9.2250433744 0.5763336893 24.5948058119 
H 9.6807235485 8.8176793406 21.9601106816 
Si 14.9251587765 14.9044378963 6.8350770829 
Si 4.0242490568 12.2023504116 9.5079917183 
Si 3.3692933108 10.2293218836 23.0856021665 
Si 0.0335132544 16.2392730885 5.5001660505 
Si 8.1349165644 5.4266714596 13.5961366969 
Si 6.7605944118 14.9077284763 9.5187281899 
Si 13.5953897743 2.7507457152 16.4121264869 
Si 13.6008469244 13.5560820040 10.8845357534 
Si 2.6722279144 2.7168299348 5.5023250149 
Si 1.2825459207 12.2604242621 25.1199884912 
Si 8.1300784344 13.5658234241 10.8718737189 
H 5.1765385073 13.0170621890 22.7483952665 
Si 10.7509765583 5.0871715665 23.3507755109 
Si 11.4911452951 7.1411288153 24.3664515632 
Si 13.4293295128 16.2079148382 13.7439674083 
Si 1.3475332473 1.3332599492 6.8641355768 
Si 0.0091529113 0.0356632086 16.2772203868 
Si 6.7380327616 12.2068790316 12.1825109893 
Si 4.0766539873 14.9263968165 12.2520646534 
Si 10.4933990760 10.5613446666 23.7224966663 
Si 9.2643185647 11.8765015386 22.2064076750 
Si 14.9526074268 12.1567221212 14.9395085357 
Si 4.0647622872 4.0601359271 6.8319553371 
Si 1.3198483921 1.3343969912 12.2787307813 
Si 4.3269172596 6.9315253834 20.3805948170 
Si 12.2143235617 6.7282913415 17.8014784326 
Si 10.9034509597 13.4846503533 13.4023842291 
H 14.6481961940 11.0184746508 23.7523720656 
H 14.0527966885 12.5705044150 28.6164021715 
H 2.8555229961 2.9272804468 19.8437712350 
Si 4.0350167469 1.4311009481 27.7360114970 
Si 2.6639525944 8.1273905843 10.8704149592 
Si 3.9676575963 6.8278721124 14.9074158216 
Si 10.4133500152 0.5522929071 17.0540974706 
Si 16.2575993387 2.6811548345 8.2056693783 
Si 16.2815456389 8.0986387341 13.6443341185 
Si 2.7117148748 1.0326051904 22.4365999610 
H 3.3873100510 2.5923254637 25.0141117097 
Si 2.6936818446 16.2620465087 8.2189440919 
Si 9.4977542669 4.0382747469 12.2797810884 
Si 12.2646107922 12.1099372408 12.1439413819 
Si 14.1748576596 9.7231752889 24.3696316594 
Si 12.7245100764 14.8011430054 27.1080446068 
Si 1.3374399632 4.0507040171 9.5306608445 
Si 6.0454145353 4.8509502744 0.2293578754 
Si 6.6982525813 6.8266503624 17.5174287372 
Si 5.9186131741 5.6297751815 21.5981340412 
Si 9.3062001551 0.9122611853 20.6917190931 
Si 9.5028204569 9.4581532765 1.3263422777 
Si 8.4045812269 13.5765096642 16.1363917221 
Si 4.0510135271 1.3341607862 9.5688511743 
Si 5.4281375596 8.0862583339 2.7048935662 
Si 6.7731377119 6.7502665517 12.2085060878 
H 6.0846897256 11.2444169528 22.2987763413 
Si 10.8282400290 10.8411091291 29.1254509682 
Si 16.2882082490 10.8351469891 10.9018658190 
Si 12.7683464668 13.8478033266 23.8391974450 
Si 2.7171068648 11.0722479413 26.5662320665 
Si 2.6293200540 16.2484117786 18.8823026945 
Si 9.4341743963 1.4193102460 15.0685212466 
Si 8.2308483753 5.4457307598 2.8270559414 
Si 12.1374184710 12.2869280924 1.3202154868 
Si 16.1635571678 10.5508539065 21.6717722326 
Si 16.2380676285 16.2516209086 10.9508801461 
Si 5.7743489328 1.7009692356 19.9206186978 
Si 2.6666241544 2.6886319446 10.9025660237 
Si 5.6049655113 5.0983790866 27.1217861235 
Si 8.1124200742 8.0788626739 29.1623575894 
Si 7.0013280340 12.6938034261 19.4541365101 
Si 12.2233970918 9.5019570869 4.0141858601 
Si 12.6790283960 8.9729067521 20.7243953111 
H 4.8742612646 3.2588633998 18.4189714279 
Si 6.8542130427 6.7101117014 1.4115688564 
Si 4.8442713743 4.4611631508 23.3044161266 
Si 10.8725814094 5.4340508297 16.3504209502 
Si 9.4437854964 12.1009777407 4.1923295988 
Si 0.0170945633 8.0585653337 19.0357350433 
Si 13.5620441440 10.8041796988 13.6042474010 
Si 5.4250261696 5.4043378694 5.4591749020 
Si 0.7487617118 1.1660903387 25.5296082245 
Si 2.7144841748 10.8735750994 13.6094114105 
Si 10.8449535692 2.7092225048 13.6904601013 
Si 9.4969723469 9.4634638166 6.8387239822 
Si 9.4293362662 12.2673312222 27.9029227857 
Si 16.2136489183 2.6712342244 13.6259245707 
Si 4.0222128068 4.0563729371 12.2395776701 
Si 8.1236275943 8.1367899144 5.4750170327 
Si 8.6650094592 0.2377069402 18.5461461015 
Si 10.3921567250 0.7819981992 28.1418968053 
Si 10.7747436685 5.2123602177 27.4177392983 
Si 10.8770937395 10.7812759586 5.4751045583 
Si 10.8167067089 13.6572917749 19.0634806534 
Si 2.6340115741 4.5448448816 22.4985972497 
Si 1.5272266100 9.3784951758 27.7578345426 
Si 6.7719648319 6.7612623018 6.8218023693 
Si 6.8599959927 14.9016848863 14.9526373733 
Si 10.9937953005 7.8319062716 19.4883006631 
Si 12.2121895717 12.1858160614 6.8138375412 
Si 14.9491702367 11.8265563982 27.6352403746 
Si 1.2448361994 1.3948491818 17.7168120176 
Si 5.4019432394 8.1244583843 8.1584347382 
H 8.0302533134 13.9337167874 24.3455912990 
Si 16.1047828473 1.9817599681 27.5223907216 
Si 12.5516080148 5.8041107631 25.9614594560 
Si 12.2232016118 9.4545857665 9.5057160531 
Si 2.7343579750 13.5810545742 16.3710769880 
Si 8.1181704442 5.4020572694 8.1906149779 
Si 6.9937694740 8.0239165034 24.7890542580 
Si 8.0748390438 8.1461403745 16.1600819801 
Si 9.4828977867 12.1948081415 9.5229002427 
H 14.1191458591 1.3768992306 24.4259106099 
Si 1.4231856370 6.8063530222 17.6639757401 
Si 2.8256634258 5.5908257911 19.0754716584 
Si 7.9988950632 2.4417895723 23.6430526112 
Si 5.3997766694 5.3942380693 10.8815598836 
Si 13.5974748944 5.4605546599 2.8897563523 
Si 16.2145611583 13.6070859944 2.6090647218 
Si 2.6295969840 13.6110118845 0.0883241091 
Si 2.7246002649 16.2862697389 13.6131166602 
Si 8.1209071643 8.1035746041 10.8449741894 
Si 5.1827287074 14.1538435594 19.6213687260 
Si 6.8739239429 15.0362077075 27.7952663173 
Si 13.4975031634 8.1565822646 29.1461070060 
Si 4.0567476071 14.9700865969 1.3676864461 
Si 7.4364665180 9.0474660828 20.3870717103 
Si 9.5185077271 3.9978592566 1.4972914134 
Si 9.0666719929 6.8043819322 27.4105330252 
Si 8.9429657318 14.0010922280 23.1323408284 
Si 14.9878426971 6.8051149822 4.1656342957 
H 0.1634734095 5.3205095287 20.6943156854 
Si 3.8888791556 6.7304904916 27.2279546569 
Si 4.0144098967 9.5146469970 12.1924305555 
Si 1.3151470980 14.8938819762 4.0439445587 
Si 11.2256671627 15.8272012448 0.6800271076 
Si 13.5629075140 8.1654603147 5.4358347463 
Si 2.6807638745 13.5458681739 5.4159080883 
Si 10.7673480085 2.6273163840 2.9113635014 
H 11.8245364381 11.1790614722 20.9186145820 
Si 13.5675175841 5.4120919095 8.1949037315 
Si 14.9443972667 9.4633497865 12.2653977174 
Si 13.9239427873 13.9816908379 21.7872476531 
Si 0.0323141475 5.3931466393 16.3821635620 
Si 1.8345472368 5.7193701823 26.5040013762 
Si 4.0115917267 14.8915525062 6.8302340006 
Si 8.0599174037 15.4173285510 21.5336568610 
Si 12.2654415822 1.3912067377 1.6314973089 
Si 14.9264782665 6.7768355420 9.5263137405 
Si 0.0034943191 13.5473831439 8.1757648038 
Si 5.3133419286 5.4730816701 16.2232462766 
Si 7.9123625824 5.2873105084 18.7613715126 
Si 9.4340277863 1.2871364428 4.2407312468 
Si 13.5790346142 8.1240837143 10.8928798591 
Si 13.7113257054 13.5373485038 16.3393927266 
Si 12.1868260415 4.0560471371 4.1478082518 
Si 2.1063947593 2.5540113834 24.1921005998 
Si 1.3179734131 14.9140001264 9.5694055030 
Si 6.6720419710 4.1261755877 14.8890062737 
Si 13.6879169752 0.1148953259 18.9864873147 
Si 13.5362407838 8.0982151941 16.4092673179 
Si 9.4891368568 4.0563729371 6.8521153966 
Si 2.7069581948 13.5653021441 10.8995318035 
Si 7.3409256671 11.8196331481 17.3149237110 
H 6.7716879019 12.1683694713 23.9179121202 
Si 16.1740479279 5.3870378893 0.1567641560 
Si 14.9585695668 12.2330081919 20.5369738605 
Si 7.7779212111 7.1008925149 21.7662998633 
Si 5.4913916302 10.8812639795 16.2100007382 
Si 5.3859138793 13.7850542461 26.4203560931 
Si 10.8675477994 16.2300855284 5.5028209933 
Si 10.8363035791 15.3343798702 23.5157320616 
Si 16.2827022289 8.1197342843 2.6961701830 
Si 2.7515602152 5.4307765397 2.7079044463 
Si 6.7490122217 1.3003264559 17.7673434548 
Si 8.0567897237 10.7643832284 13.4559790617 
Si 12.2146167817 1.3275584491 6.8422833560 
Si 14.9337598966 6.7053550213 20.4554000162 
Si 15.4064305409 4.6476510725 23.7447865150 
Si 0.0212354813 2.6721301744 19.3168963944 
Si 2.8818313464 7.9698337029 29.0706891278 
Si 1.2715974116 14.8526031158 27.8063820665 
Si 9.4870843168 1.3434183933 9.5380129936 
Si 8.6210264589 14.3828809615 19.5240402766 
Si 12.2499009220 1.7367420759 18.0545440712 
Si 1.3918371607 6.7697168119 1.3267332253 
Si 1.3888007047 14.9320494466 14.9813165897 
Si 10.8517627892 2.6901794946 8.1874932321 
Si 10.5281945163 11.6375109464 20.2674534121 
Si 14.8755231460 1.2652035866 20.6805449935 
Si 13.5405413438 5.2526453880 19.1294749438 
Si 1.1500300275 3.9575577962 28.0100832757 
Si 4.0719298872 6.7714435519 4.1029951527 
Si 1.3129984470 4.8173114241 24.4088722962 
Si 12.2120592517 4.0336320969 9.5502374001 
H 13.5956178343 7.1751260456 23.0815176393 
Si 14.9896997571 14.9908237671 17.6479877334 
Si 0.0279265989 5.3964372194 5.4771468219 
H 6.3929942685 7.9469788327 23.3869235771 
Si 6.6774013811 9.4281470962 14.8000802804 
Si 5.4950894603 16.2698168388 16.2972053951 
H 11.6444667765 11.8258885082 16.7763496173 
Si 10.8618462993 16.2883711490 10.8751413407 
Si 2.6935678146 8.1310395444 5.4388689665 
Si 2.4573791025 13.7879375761 23.8003944361 
Si 5.8285783433 15.9252344656 21.2089952946 
Si 12.1668545013 1.3149662790 12.3217058431 
Si 9.3933353659 14.8058019454 1.6231298630 
Si 12.4016585634 14.9614203168 20.2644483670 
Si 1.3631732765 6.7731702919 6.8225609244 
Si 4.0757580373 12.4180300136 27.9068030866 
Si 10.8448069592 10.8003678388 10.8291612339 
Si 10.7994393088 13.4413026629 2.8768784213 
Si 9.5069255369 14.9325381466 12.2077475327 
Si 14.3353467411 14.6273124138 25.4280493718 
Si 3.4687763417 1.6178560258 20.2834414188 
Si 1.3458472323 12.2148448417 12.2516853759 
H 4.7060507230 5.2574998081 24.5828439821 
H 10.2123802834 2.1693881898 28.7526211554 
Si 16.2644411387 8.1341020644 8.1452475502 
Si 12.2216703518 14.9010332863 4.1017114442 
Si 2.7062903047 5.4155942595 8.1869680786 
Si 7.4728420883 5.9933191148 25.8462757875 
Si 4.1907654383 9.6473942082 17.7129900671 
H 9.9577838711 3.1816976691 18.5537024769 
Si 9.4795583367 12.1570479212 14.6310392024 
Si 9.4879639768 14.8864700261 6.8384030551 
Si 10.8571059093 13.5384725138 8.1804620101 
Si 4.0547439371 6.7769332820 9.5382755703 
Si 1.4282534561 15.3348034102 22.3203076350 
Si 5.3531383990 10.9226731599 0.0712519522 
Si 8.7625051101 4.4882371310 24.5235891617 
H 9.9419174109 14.3519788313 25.5873167595 
Si 12.2145516217 14.9016523063 9.5387423734 
Si 2.7780640454 8.2374458253 16.3727107989 
Si 2.6867748846 10.9797207404 18.9709077607 
Si 1.0625673877 10.4140830652 23.6782962464 
Si 8.1393474444 10.8057924088 2.7167474478 
Si 15.4502343513 15.8214508747 22.2038402579 
Si 10.8242815590 13.5022272635 26.4789398840 
Si 4.0692094572 1.3429378383 15.0001929406 
Si 6.7675502419 12.2180702617 1.4134769141 
Si 4.1497797979 14.9774008070 17.6675059386 
Si 11.3615909239 0.2918939967 21.5814750051 
Si 14.8597707159 14.9220148065 12.3392693103 
Si 3.9683417763 4.1611827981 17.6131817261 
Si 6.7722091819 9.4558075165 4.0673430649 
Si 7.9187971324 10.9842982305 26.6230653457 
Si 4.0722231072 12.2543318021 14.9589975658 
Si 10.3765183249 4.4406540406 21.1261669170 
Si 14.8941426162 9.4779944967 1.3375980678 
Si 2.9518946370 8.4087025969 21.6086079361 
Si 5.4091759995 10.8293803290 5.4166958186 
Si 10.4485852856 8.2486044754 26.2349477309 
Si 13.8606235568 2.4942759528 27.2383993766 
Si 16.2614111987 5.4015196994 10.8811222556 
Si 13.5650252141 10.9190079099 2.6531688636 
Si 15.0212209074 4.0156316467 17.8102893414 
Si 6.7441089317 12.1805869714 6.8109783721 
H 8.4948278277 7.1695711556 23.0931293668 
Si 10.7772034586 10.8539782293 16.0432061503 
Si 10.5342381063 14.5361209929 16.8208709643 
Si 14.9111330864 12.2527190921 4.0425733246 
Si 1.3125879390 6.7631519419 12.2354931428 
Si 1.7111504856 14.5220953028 20.1643482741 
Si 2.5885950537 16.2799329289 26.4607345625 
Si 6.7670452519 9.4800307467 9.5052200747 
Si 5.2812506283 8.4701973475 26.3145084868 
Si 14.9190011564 9.5148913470 6.7906724366 
H 3.3112031703 7.2878365567 24.1437281270 
Si 5.3919574693 0.0449395492 29.1344661033 
Si 8.1277815443 10.8425100692 8.1615273088 
Si 15.1696879687 0.2668807014 24.4098934280 
H 13.8641259068 6.3671257482 26.8571087574 
Si 13.5747992142 10.8454911392 8.1774861403 
Si 5.3745271692 2.6516536443 2.8661769599 
Si 5.3766122892 2.6902120746 13.5773478715 
Si 5.3897908993 10.8443834192 10.8357840031 
Si 6.2353233570 11.9113784289 25.3039380937 
H 10.2902953541 8.3475173563 22.0528294502 
Si 14.9455864367 12.1930488215 9.5328198089 
Si 1.3832849107 9.4762840467 14.9528415997 
Si 1.2687482906 12.1974634116 17.5892288913 
Si 8.0728027938 0.0044938083 2.8314088804 
Si 6.8021664922 1.3287557642 12.2795185116 
Si 9.4965976768 9.4403320163 12.1818107846 
Si 12.2816175523 9.0340268326 23.1078336649 
Si 2.6507251142 2.6980312747 16.3343745931 
Si 0.4219777929 7.6688596601 26.5119953796 
Si 7.6786825302 3.1157883285 0.3129798184 
Si 12.1326617910 3.4545225916 19.8722462250 
Si 8.4913743477 0.2333721711 26.8565252535 
Si 11.4267346345 4.7876473338 0.3745073864 
Si 15.0307831375 6.8834373030 27.9428636272 
Si 6.6898958112 1.3285114142 1.4653970905 
Si 10.8517139192 8.0953644440 2.7019789643 
Si 11.8484990284 12.0126044899 25.0057092537 
Si 12.1362618810 14.6259440538 15.0269174190 
Si 13.6316024447 10.6805548877 19.2816819344 
Si 6.8032579222 4.0554769871 4.1086551405 
Si 4.4386340806 10.3150235743 25.1880542204 
Si 11.0330704909 1.9046105274 25.2001035758 
Si 12.2825949523 6.7238278815 1.4164031861 
Si 13.5854040042 5.4264596896 13.6331891941 
H 13.0326517192 12.7333392565 17.4064462967 
Si 0.0063724852 13.5716715341 13.6286378638 
Si 5.6342712215 8.2908607358 18.9938686389 
Si 5.3989784594 16.2510181786 5.5263070250 
Si 9.5424214473 6.8061901223 4.1725488169 
Si 14.8327781857 1.3264442131 15.0012140725 
Si 16.2654511188 10.7767799186 16.2828511993 
Si 8.1035583141 2.7062088547 5.5272698064 
Si 5.5570403308 2.8044212656 26.4546369468 
Si 10.8595819893 5.4148612095 5.5142284944 
Si 12.0227531600 9.3667663757 27.6940867422 
Si 16.2334901385 13.5144610536 19.0141453992 
Si 16.1034633573 13.4675947232 26.4563291081 
Si 6.7547788818 1.3326767672 6.8644273287 
Si 6.7940540721 3.8494899352 20.3133168181 
Si 9.5236553671 6.7673384719 14.9466856336 
Si 12.2148285517 9.4036143560 14.9449934723 
Si 13.7851194061 3.9562545962 25.2980447043 
Si 12.2383838919 6.7787903420 6.8189140250 
Si 5.3951177293 2.6901143346 8.2040063922 
Si 9.3509650755 4.0600056071 17.4816891237 
Si 8.6118714788 2.9586061171 21.4617400061 
Si 9.4982918369 6.7366481116 9.5341910431 
Si 10.8520234292 8.0996324241 13.5576837903 
Si 14.9258755365 6.7555770918 15.0440724334 
Si 3.3545997307 12.8603360976 20.2605972413 
Si 7.7616312110 2.4233492922 27.2586469617 
Si 5.3331505688 8.0871379940 13.4807488020 
Si 8.1372460344 16.2634311587 8.1867055018 
Si 10.8535058193 8.0932956140 8.1772819139 
Si 13.6818733851 0.0481933138 2.8869409460 
Si 4.0544344271 9.4378396463 1.3445184240 
Si 6.7684299019 4.0373136369 9.5472031799 
Si 10.8516813392 5.3838124692 10.9037330315 
Si 13.1317437901 3.1187042385 0.2478467798 
H 15.3434859803 3.5885730028 22.6709351246 
Si 12.2499335020 3.2225366995 23.7001776424 
Si 0.0634954884 10.6586937075 29.0980262852 
Si 5.7002457221 2.3838460418 24.0968144140 
Si 5.4404527998 16.2759907489 10.9023909726 
Si 14.8556330559 4.0603476971 1.5243309838 
Si 12.2270949218 6.7461777617 12.2350263397 
Si 14.9347861666 9.4608899965 17.7345213608 
H 13.8417760266 7.9849345330 20.2863881134 

