&CONTROL
/
&SYSTEM
   ntyp             = 2
   nat              = 407
   ibrav            = 0
/
&ELECTRONS
/
&IONS
/
&CELL
/

ATOMIC_SPECIES
Si 28.085 None
H 1.008 None

K_POINTS gamma

CELL_PARAMETERS angstrom
16.29000014900000 0.00000000000000 0.00000000000000
0.00000000000000 16.29000014900000 0.00000000000000
0.00000000000000 0.00000000000000 29.17519467510000

ATOMIC_POSITIONS angstrom
Si 2.6712016444 10.8089363789 2.6943408983 
Si 8.1365781444 2.6930465346 10.9106183774 
Si 4.7788181537 0.3039437098 23.2818345259 
Si 8.9320840117 10.0489915819 17.2147069173 
Si 15.0068042572 1.3844235817 4.2242180866 
Si 12.2444274820 4.0666193472 14.9910902799 
Si 0.1014904476 0.1552008587 29.0928914509 
Si 1.2861818488 12.1489680811 1.3228762646 
Si 3.9961813865 15.0966273181 24.9899546486 
Si 7.9101471423 2.7326475250 16.2563892978 
Si 8.2020639450 16.2767726689 13.6381781524 
Si 13.5640803941 2.7161294648 5.5069346957 
H 15.1597347786 9.4685951666 21.8633949112 
Si 1.2961154909 4.0368412269 14.9665539412 
Si 0.0159237684 2.6749809245 2.7520435983 
Si 1.3242385471 9.4799167167 4.0747827395 
Si 9.6985448087 3.4525515016 26.3548286058 
Si 14.9328150766 4.0648437372 6.8448799483 
Si 12.2859832724 0.8001045343 26.8015883619 
Si 13.3647722422 10.7136887480 26.3131956030 
Si 1.3512196744 4.3756080700 20.4680620507 
Si 4.0331922669 12.1767751114 4.0573651483 
Si 2.7271415049 16.2843475189 2.7869575538 
Si 6.6611602509 9.4932745168 27.9390125015 
Si 12.8713807177 2.1626441298 21.6545296925 
H 12.4576310039 11.0478618110 18.5304206715 
Si 13.5747014741 16.2654999888 8.1948453811 
Si 2.7838307055 2.7742033154 0.0471555754 
Si 4.0538642771 9.4854553168 6.7923354227 
Si 1.3839544297 9.5008004969 20.2352439972 
Si 7.2208846560 11.1800877422 21.3003136540 
Si 5.3861908093 13.5739032641 2.7360643442 
Si 8.8984940314 9.5296663772 25.0868746453 
Si 14.9063438263 1.3304010542 9.5786540398 
Si 1.4480327742 1.3678908605 1.3999950566 
Si 2.6378723041 5.4017314694 13.5980622597 
Si 8.0893208540 13.6188310846 0.0672794577 
Si 9.2569229047 6.2332545270 20.1929983153 
Si 13.5359149838 2.6706803644 10.9443740777 
Si 16.2598310687 10.8684274594 5.4051424415 
Si 12.9715805086 14.2853364406 0.2283379106 
Si 1.3341624152 12.1983593616 6.7843997698 
Si 4.1721622582 4.0491727570 1.4238778710 
Si 6.7229808015 14.8989155863 4.1411854826 
Si 5.4498358398 13.5735774641 13.5973912303 
Si 9.5148750570 9.6470358282 19.3671944300 
Si 16.1884645781 8.3525672564 24.2806764908 
Si 14.9136580364 15.1370265184 1.2905939117 
Si 2.0981194392 6.9224192733 23.2390636905 
Si 1.3783881366 4.0700239572 4.0701438835 
Si 1.3262829421 9.4873775368 9.5065037833 
Si 8.1077285542 13.5423658239 5.4810271228 
Si 14.9093086064 4.0552000571 12.2537859899 
Si 15.0002230972 6.7460800217 22.8674008856 
Si 13.5678270941 13.5563100640 5.4671105550 
Si 4.0285170368 1.3216305181 4.2124896584 
Si 2.6852110446 10.8391869091 8.1441097176 
Si 3.8113224649 12.4351508037 22.4731564799 
Si 5.3938308193 13.5459659139 8.1663120407 
Si 9.2249130544 0.5754491423 24.5956810677 
H 9.6678870284 8.7369786799 22.2936706823 
Si 14.9253705465 14.9044541863 6.8348145061 
Si 4.0251287168 12.2024807316 9.5091587260 
Si 3.3641293808 10.2258032435 23.0848436115 
Si 0.0337481562 16.2390938985 5.5000201746 
Si 8.1273091343 5.4254008396 13.5897473293 
Si 6.7603500618 14.9075981563 9.5191658178 
Si 13.5985174544 2.7765327854 16.4350290148 
Si 13.6026225344 13.5610667440 10.8848275054 
Si 2.6723419444 2.7167484849 5.5019457374 
Si 1.2806008947 12.2579807621 25.1224392076 
Si 8.1297200544 13.5651881141 10.8723113468 
H 5.1676767473 13.0125335690 22.7498248510 
Si 10.7438415383 5.1052208867 23.3379092501 
Si 11.5220148454 7.1249691352 24.3752332968 
Si 13.4299648228 16.2120036283 13.7561918149 
Si 1.3478525313 1.3330270022 6.8638146497 
Si 0.0092920279 0.0457703392 16.2793793512 
Si 6.7415188217 12.2053477716 12.1862454142 
Si 4.0766376973 14.9265271365 12.2525898069 
Si 10.5206359562 10.5759242167 23.7169533793 
Si 9.2795660049 11.8740743286 22.1959921305 
Si 14.9472317267 12.1678644813 14.9337318472 
Si 4.0648926072 4.0599404471 6.8315177091 
Si 1.3181314261 1.3366466402 12.2815607752 
Si 4.3131684994 6.9287886634 20.3848252203 
Si 12.2060156616 6.7113008714 17.7316330165 
Si 10.9035161197 13.4837706933 13.4021216523 
H 14.6375262439 10.9883055705 23.6796091301 
H 14.0614792586 12.5838133451 28.6308147176 
H 2.8610453062 2.9213183067 19.8378194953 
Si 4.0350330369 1.4308712591 27.7365074753 
Si 2.6646367744 8.1281073443 10.8698022801 
Si 3.9498200461 6.8349419725 14.9121130279 
Si 10.4185791053 0.5628048441 17.0584153994 
Si 16.2579414287 2.6812037045 8.2047941225 
Si 16.2824578789 8.0985735741 13.6422918549 
Si 2.7104931248 1.0292966914 22.4373876912 
H 3.3911870710 2.5840012736 25.0175543827 
Si 2.6935515246 16.2621605387 8.2194984206 
Si 9.4969397669 4.0382258769 12.2781764526 
Si 12.2645130522 12.1132115308 12.1393025260 
Si 14.1861792097 9.7209272689 24.3855613157 
Si 12.7246241064 14.8018271854 27.1053313137 
Si 1.3381762712 4.0502641870 9.5296397127 
Si 6.0460987153 4.8518462244 0.2274749084 
Si 6.6767660711 6.8260476324 17.5149780209 
Si 5.8925003039 5.6134363113 21.6035606274 
Si 9.3045385751 0.9081642503 20.6944907365 
Si 9.5022665969 9.4583813365 1.3250673217 
Si 8.4054283069 13.5828953442 16.1388132632 
Si 4.0501827370 1.3346543732 9.5699598317 
Si 5.4280398196 8.0863723640 2.7036711256 
Si 6.7656443119 6.7514231418 12.2076600071 
H 6.0910754057 11.2512098829 22.3053407601 
Si 10.8284680890 10.8395778691 29.1226209743 
Si 16.2888598490 10.8364176091 10.9020700454 
Si 12.7766380769 13.8467607666 23.8298030323 
Si 2.7206580849 11.0707818412 26.5644523796 
Si 2.6172980339 16.2454307086 18.8817483658 
Si 9.4335227963 1.4152524069 15.0665956837 
Si 8.2300175853 5.4462520398 2.8276977957 
Si 12.1368646110 12.2864719724 1.3184241298 
Si 16.2092343282 10.5912693969 21.6692631658 
Si 16.2380513385 16.2542273087 10.9512885988 
Si 5.7614472527 1.6798736854 19.9155130387 
Si 2.6657119144 2.6893975746 10.9044040610 
Si 5.6085493113 5.1006759766 27.1188102536 
Si 8.1120454042 8.0795468539 29.1598776979 
Si 6.9994709740 12.6925165161 19.4587170157 
Si 12.2232341918 9.5020222469 4.0140399842 
Si 13.2576166212 8.8445415509 20.9273671404 
H 4.8750757646 3.2671061399 18.4208969907 
Si 6.8548483527 6.7105189514 1.4105010442 
Si 4.8311579242 4.4573350008 23.3187994976 
Si 10.8599566593 5.4191617696 16.3068040342 
Si 9.4438180764 12.1010917707 4.1918627957 
Si 16.2733517688 8.0562358637 19.0610007619 
Si 13.5618486640 10.8108260189 13.5994918443 
Si 5.4251401996 5.4044518994 5.4592624276 
Si 0.7471555178 1.1644711127 25.5277701872 
Si 2.7187358649 10.8732818794 13.6069023437 
Si 10.8428358692 2.6984222347 13.6809198126 
Si 9.4971026669 9.4634801065 6.8383738799 
Si 9.4302973762 12.2637474222 27.8960957901 
Si 16.2114171883 2.6743293245 13.6299799227 
Si 4.0200788168 4.0576761371 12.2422909632 
Si 8.1235624343 8.1369039444 5.4747544560 
Si 8.6684792293 0.2356299652 18.5467296053 
Si 10.3916680250 0.7824396582 28.1418384549 
Si 10.7682928285 5.2099167176 27.4248580458 
Si 10.8770285795 10.7812433786 5.4747252808 
Si 10.8192153689 13.6446507348 19.0644434349 
Si 2.6285707140 4.5410004415 22.5009896156 
Si 1.5266417990 9.3797495058 27.7541584681 
Si 6.7721277319 6.7613437518 6.8217148437 
Si 6.8577968427 14.9009844163 14.9519371686 
Si 10.8268390890 7.7238058306 19.3397405718 
Si 12.2123850517 12.1854251014 6.8132832125 
Si 14.9565984768 11.8388390583 27.6505573518 
Si 1.2357463793 1.4063662119 17.7265273574 
Si 5.4019758194 8.1246538643 8.1579679350 
H 8.0515443436 13.9189417573 24.3389685298 
Si 16.1058905673 1.9807336981 27.5220989696 
Si 12.5572606448 5.7974481530 25.9872503281 
Si 12.2232016118 9.4547975365 9.5051617244 
Si 2.7358566550 13.5867560743 16.3698516299 
Si 8.1178283542 5.4022038794 8.1909942554 
Si 7.0115581541 8.0216684834 24.7723952219 
Si 8.0665637238 8.1414814345 16.1639622810 
Si 9.4821484467 12.1957855415 9.5214414830 
H 14.1232020692 1.3798574946 24.4239558719 
Si 1.4021927138 6.8061738322 17.6903792912 
Si 2.8200433758 5.5873071511 19.0797312369 
Si 7.9992045732 2.4438095323 23.6488584749 
Si 5.3962254494 5.3937167893 10.8803053502 
Si 13.5979473044 5.4607012699 2.8902289904 
Si 16.2145122883 13.6069393844 2.6087963100 
Si 2.6311282441 13.6104091545 0.0875168315 
Si 2.7247631649 16.2879964790 13.6130583098 
Si 8.1183496343 8.1043239441 10.8466080003 
Si 5.1796336074 14.1524100394 19.6227691354 
Si 6.8738424929 15.0350348275 27.7940701344 
Si 13.4973728434 8.1591886646 29.1471864882 
Si 4.0570408271 14.9698585369 1.3674442919 
Si 7.4192642778 9.0385554527 20.4102076396 
Si 9.5169601770 3.9966049265 1.5002556131 
Si 9.0662321629 6.8072163923 27.4071487026 
Si 8.9572194819 13.9960749080 23.1215168312 
Si 14.9881847871 6.8054407822 4.1658676973 
H 0.2216156780 5.3508252189 20.7478813428 
Si 3.8937009956 6.7334878516 27.2232282754 
Si 4.0170977467 9.5151845670 12.1900381895 
Si 1.3151552430 14.8939145562 4.0436528068 
Si 11.2250155627 15.8274293048 0.6797382731 
Si 13.5628912240 8.1657535347 5.4360097974 
Si 2.6808616145 13.5459822039 5.4157330371 
Si 10.7670873685 2.6262901140 2.9128631064 
H 11.8561227484 11.1741581822 20.8827290926 
Si 13.5672406541 5.4119941695 8.1949620819 
Si 14.9447067767 9.4648810466 12.2652226662 
Si 13.9219879873 13.9761685278 21.7704427410 
Si 0.0240419225 5.4005097194 16.3904493173 
Si 1.8355246368 5.7241431523 26.5056643623 
Si 4.0114776967 14.8917479862 6.8303507014 
Si 8.0603246537 15.4134678210 21.5335109850 
Si 12.2649040122 1.3906300717 1.6325476159 
Si 14.9257777965 6.7775197220 9.5258761126 
Si 0.0037984859 13.5477578139 8.1757939790 
Si 5.2980781984 5.4763070901 16.2157190764 
Si 7.8307985516 5.2149340377 18.7217515982 
Si 9.4333110263 1.2860059168 4.2409938236 
Si 13.5789531642 8.1250285343 10.8932299614 
Si 13.7115048954 13.5370552838 16.3527841410 
Si 12.1868260415 4.0560634271 4.1479541277 
Si 2.1114283693 2.5477397333 24.1960392511 
Si 1.3176345811 14.9144399564 9.5703391093 
Si 6.6680020510 4.1277882977 14.8909026614 
Si 13.6807982451 0.1262422884 18.9880919504 
Si 13.5402807038 8.1190989743 16.3936002383 
Si 9.4889087968 4.0564543871 6.8522904477 
Si 2.7068930348 13.5654324641 10.9000861322 
Si 7.3405347071 11.8249111081 17.3155072149 
H 6.7756952420 12.1636779512 23.9145569728 
Si 16.1771756080 5.3858161393 0.1600845849 
Si 14.9412370066 12.2234622518 20.5102785574 
Si 7.7405845308 7.0807580748 21.7747023194 
Si 5.4919617802 10.8819807395 16.2110510452 
Si 5.3879827093 13.7818776960 26.4176136248 
Si 10.8676781194 16.2300529484 5.5027918181 
Si 10.8423308792 15.3375727103 23.5162280399 
Si 16.2831257689 8.1196039643 2.6958725960 
Si 2.7527656752 5.4308254097 2.7081961983 
Si 6.7496312417 1.2940531768 17.7657971695 
Si 8.0611554437 10.7657352985 13.4644106929 
Si 12.2143887217 1.3281562922 6.8421374800 
Si 14.7042500845 6.9785383238 20.5100743310 
Si 15.4161230910 4.6109659922 23.7633419388 
Si 0.0158505611 2.6920854246 19.3312797654 
Si 2.8826621364 7.9709902929 29.0668088269 
Si 1.2740490567 14.8545253359 27.8070822712 
Si 9.4871983468 1.3432897023 9.5379546432 
Si 8.6248708989 14.3778962215 19.5248863572 
Si 12.2469198520 1.7617798061 18.0693942453 
Si 1.3945315268 6.7705313119 1.3267974107 
Si 1.3879568827 14.9379952966 14.9831546269 
Si 10.8517953692 2.6907007746 8.1879016848 
Si 10.5457388464 11.6056151261 20.2609765189 
Si 14.8687790860 1.2724966196 20.6827039579 
Si 13.5288288337 5.3405136488 19.1590294160 
Si 1.1508689625 3.9584374562 28.0088870928 
Si 4.0725326173 6.7718019319 4.1030535031 
Si 1.3202800771 4.8105836540 24.4153783646 
Si 12.2116520017 4.0343162769 9.5513168823 
H 13.5528077139 7.0647287146 23.2418936844 
Si 14.9858553171 15.0049146172 17.6474042295 
Si 0.0279213861 5.3964860893 5.4770009460 
H 6.3833831684 7.9371885426 23.3829265755 
Si 6.6752511010 9.4270556662 14.8015390401 
Si 5.4933301402 16.2693118488 16.2958925114 
H 11.6351814764 11.7835182178 16.8928461696 
Si 10.8620254893 16.2856507189 10.8729823763 
Si 2.6935515246 8.1311209944 5.4387522657 
Si 2.4526712924 13.7863085761 23.7999859833 
Si 5.8273240133 15.9175455856 21.2124379676 
Si 12.1700799213 1.3079485470 12.3187883236 
Si 9.3928629559 14.8040426254 1.6210175789 
Si 12.3920800433 14.9699399869 20.2641274399 
Si 1.3627513655 6.7734635120 6.8222399972 
Si 4.0773544573 12.4171340636 27.9054610276 
Si 10.8442856792 10.8019316788 10.8267105176 
Si 10.7995207588 13.4410420229 2.8758893822 
Si 9.5069906969 14.9314792966 12.2074849560 
Si 14.3365196211 14.6258626038 25.4249568012 
Si 3.4607290816 1.6105581057 20.2818659583 
Si 1.3460475993 12.2156756317 12.2532900116 
H 4.6889136429 5.2583631781 24.5934054025 
H 10.2124617334 2.1698768898 28.7525628050 
Si 16.2643596887 8.1345907644 8.1452767254 
Si 12.2215400318 14.9008703863 4.1013321666 
Si 2.7059482147 5.4154476495 8.1856551948 
Si 7.4761489584 5.9960721248 25.8397988942 
Si 4.1907817283 9.6478177482 17.7133693446 
H 9.9987043514 3.1976944493 18.5263069691 
Si 9.4866119068 12.1610552612 14.6411921702 
Si 9.4878825268 14.8866003461 6.8380237776 
Si 10.8571221993 13.5381141338 8.1790324256 
Si 4.0535710571 6.7771939220 9.5365834090 
Si 1.4240180560 15.3337771402 22.3191989776 
Si 5.3556307690 10.9203762699 0.0666212653 
Si 8.7667568002 4.4955513411 24.5213134965 
H 9.9399463209 14.3544874913 25.5874042851 
Si 12.2149425817 14.9012287663 9.5361749563 
Si 2.7609758353 8.2382929053 16.3916455003 
Si 2.6904890046 10.9867743105 18.9596753108 
Si 1.0611729637 10.4027452251 23.6914250840 
Si 8.1392171244 10.8059553088 2.7161639439 
Si 15.4459012113 15.8215811947 22.1978301678 
Si 10.8248679990 13.5048988235 26.4758473134 
Si 4.0666519272 1.3449072993 15.0021768539 
Si 6.7677620119 12.2169299617 1.4111195584 
Si 4.1473037179 14.9815710470 17.6695773774 
Si 11.3632687939 0.3031552738 21.5844508749 
Si 14.8591842759 14.9290520865 12.3424202313 
Si 3.9634384862 4.1640335481 17.6150197634 
Si 6.7720625719 9.4557097765 4.0667595610 
Si 7.9278706625 10.9730092604 26.6123288741 
Si 4.0718973072 12.2545761521 14.9602812743 
Si 10.3509756047 4.4534416907 21.1187564175 
Si 14.8938656862 9.4792488267 1.3392143736 
Si 2.9343665968 8.4102338569 21.6026853716 
Si 5.4093877695 10.8292988790 5.4166082930 
Si 10.4521853756 8.2449066454 26.2278581586 
Si 13.8595647068 2.4858703127 27.2454014233 
Si 16.2621279587 5.4019432394 10.8782922617 
Si 13.5646016741 10.9202622399 2.6538953259 
Si 15.0100459673 4.0600056071 17.8503177084 
Si 6.7439949017 12.1807987414 6.8107157953 
H 8.5226511480 7.1370726053 23.0664924140 
Si 10.7822370686 10.8687858394 16.0682384673 
Si 10.5340589163 14.5447546930 16.8263267257 
Si 14.9114263064 12.2530774721 4.0430693029 
Si 1.3122491070 6.7632659719 12.2331299521 
Si 1.7038688556 14.5169965328 20.1644941501 
Si 2.5892955237 16.2803238889 26.4594508540 
Si 6.7674036319 9.4802913867 9.5042572933 
Si 5.2937124784 8.4648705174 26.2999500647 
Si 14.9190174464 9.5154777870 6.7908474878 
H 3.2988390602 7.2898402267 24.1229553884 
Si 5.3922669793 0.0441706612 29.1340576506 
Si 8.1278629943 10.8426240992 8.1606228778 
Si 15.1692318487 0.2658137064 24.4056046744 
H 13.8645657368 6.3507542981 26.8940737290 
Si 13.5751413042 10.8464033792 8.1780404690 
Si 5.3747063592 2.6517025143 2.8655263531 
Si 5.3753579592 2.6907985146 13.5786024049 
Si 5.3931629293 10.8453933992 10.8361049302 
Si 6.2401614871 11.9071104489 25.3014873773 
H 10.1928811532 8.4170267870 21.7976631976 
Si 14.9457656267 12.1946941115 9.5337534152 
Si 1.3885579837 9.4760885667 14.9481735685 
Si 1.2683345246 12.2082636817 17.5857278679 
Si 8.0730145638 0.0035111303 2.8301514295 
Si 6.8014334422 1.3294057352 12.2799269643 
Si 9.4947080368 9.4444370964 12.1800602730 
Si 12.3011492625 9.0140552924 23.1425521465 
Si 2.6466851942 2.6991878647 16.3386925219 
Si 0.4201077008 7.6720850802 26.5068897205 
Si 7.6786336602 3.1158534885 0.3126413861 
Si 12.1341441810 3.5023989020 19.8767392050 
Si 8.4913580577 0.2328688101 26.8567003046 
Si 11.4248612845 4.7866373538 0.3795021798 
Si 15.0395797375 6.8896275030 27.9522288647 
Si 6.6900424212 1.3283289661 1.4647639888 
Si 10.8512089292 8.0959183040 2.7015734291 
Si 11.8648541885 12.0206843299 25.0090935763 
Si 12.1321079310 14.6200796537 15.0298057632 
Si 13.6794950451 10.5705648067 19.2990995256 
Si 6.8029158322 4.0554281171 4.1088010165 
Si 4.4417291806 10.3118307343 25.1838529924 
Si 11.0325980809 1.9072657974 25.1972152315 
Si 12.2830184923 6.7243328715 1.4170800506 
Si 13.5854040042 5.4252053596 13.6284628126 
H 13.0595953794 12.7225715664 17.4338418045 
Si 0.0074969187 13.5777802842 13.6276750823 
Si 5.6252954314 8.2902417158 19.0043133586 
Si 5.3990436194 16.2508226986 5.5259860978 
Si 9.5425191873 6.8064018923 4.1724904665 
Si 14.8279889256 1.3420272273 15.0153932171 
Si 16.2776034589 10.7961324387 16.2619034096 
Si 8.1033628341 2.7059970847 5.5273281568 
Si 5.5573009708 2.8045352957 26.4566792105 
Si 10.8594679593 5.4148774995 5.5142868448 
Si 12.0254735900 9.3686071457 27.6891853095 
Si 16.2238301684 13.5188267736 19.0079602580 
Si 16.1058091173 13.4716346432 26.4594216788 
Si 6.7546159818 1.3323591122 6.8645732047 
Si 6.7610179518 3.8185063549 20.3264164805 
Si 9.5114704470 6.7736589919 14.9320688611 
Si 12.2078075616 9.4239116962 14.9415507993 
Si 13.7802812760 3.9458127061 25.3132449808 
Si 12.2381395419 6.7788229220 6.8190307258 
Si 5.3945312893 2.6897233746 8.2040355674 
Si 9.3510953955 4.0602988271 17.4677433807 
Si 8.6009734687 2.9501027370 21.4631112403 
Si 9.4967442868 6.7376418016 9.5352413501 
Si 10.8507039392 8.1084127342 13.5568960601 
Si 14.9222917365 6.7579391418 15.0398128550 
Si 3.3517001106 12.8595378876 20.2604221902 
Si 7.7616312110 2.4229583322 27.2585010857 
Si 5.3266997287 8.0868773540 13.4855043587 
Si 8.1372623244 16.2631216487 8.1868805530 
Si 10.8529356693 8.0932141640 8.1775153155 
Si 13.6821340251 0.0478147342 2.8868913481 
Si 4.0550697371 9.4381328663 1.3421318930 
Si 6.7674036319 4.0373462169 9.5471448295 
Si 10.8512903792 5.3857672693 10.9043457106 
Si 13.1304405901 3.1188019785 0.2504051526 
H 15.3406189403 3.5392305924 22.7017733054 
Si 12.2418862420 3.2380447796 23.6982812547 
Si 0.0669416379 10.6583841975 29.1018774109 
Si 5.6996429921 2.3822822018 24.1006947149 
Si 5.4402410298 16.2762188089 10.9026535493 
Si 14.8558285359 4.0597286771 1.5254104660 
Si 12.2253193118 6.7496638217 12.2361349971 
Si 14.9764234070 9.4588211665 17.6974396884 
H 11.8994704388 7.8998844423 20.5502193989 

