&CONTROL
  dt          = 30.D0,
  prefix = 'aSiHcSi_merged-7',
  pseudo_dir = './',
  outdir='./',
 wf_collect=.true.,
 verbosity ="high",
/

&SYSTEM
    ibrav= 0, nat=  388, ntyp= 2,
  ecutwfc     = 42.D0,
  nbnd=1468,
  degauss     = 0.05D0,
  occupations = "smearing",
  smearing    = "methfessel-paxton",
/
&ELECTRONS
  electron_maxstep=200,
  conv_thr    = 1.D-8,
  mixing_beta = 0.3D0,
  scf_must_converge=.false.,
/
&IONS
/
ATOMIC_SPECIES
Si  28.08  Si.pbe-hgh.UPF
H  1.00784  H.pbe-hgh.UPF

K_POINTS {automatic}
2 2 2 0 0 0

CELL_PARAMETERS angstrom
16.29000014898320 0.00000000000000 0.00000000000000
0.00000000000000 16.29000014898320 0.00000000000000
0.00000000000000 0.00000000000000 29.27583429601014

ATOMIC_POSITIONS angstrom
Si 0.1443491122 0.1962488898 29.0854535456 
Si 2.7227920749 0.1287942798 2.7860874673 
Si 1.4920939666 1.4946873347 1.2733377748 
Si 4.1390446879 1.5178370539 4.0920882904 
Si 0.1052614198 0.1831126337 5.5747043666 
Si 1.5219975199 1.5506304532 6.9242032244 
Si 2.7570662352 0.1380152344 8.3769286738 
Si 4.3000550493 1.4095052949 9.6688419654 
Si 11.2897520233 15.3830869707 25.3439433709 
Si 9.8606628902 13.2134055608 18.4998973808 
Si 12.9378602083 11.5732143158 17.2045588166 
Si 11.7541962175 12.6346381456 12.4698659634 
H 4.5215338914 3.9808362064 20.7577375492 
Si 0.7232515716 1.3774514616 16.7735892599 
Si 6.2703468573 4.4997378712 25.5759836335 
Si 9.1188977334 10.5960423669 15.6479919829 
Si 0.1060407334 2.9012978965 2.6185857814 
Si 3.4006841411 2.2768207408 0.0606782652 
Si 4.1873934083 4.1660372181 1.3089166962 
Si 1.4356295681 4.2236223686 4.0975628714 
Si 2.8362030559 2.9019657865 5.5111758062 
Si 4.1451371479 4.2196150286 7.0282495394 
Si 0.1496575346 2.8340853559 8.3778069488 
Si 1.1193885372 4.4673533509 9.8838144167 
Si 3.5512363225 5.6108136213 18.0874594273 
Si 13.3995676825 7.1194794051 25.7036848227 
Si 13.2706649114 9.0620619229 11.8960888870 
Si 6.1193711360 8.1576411146 17.0125093436 
H 7.6620341501 4.8527421744 22.9578164966 
Si 10.5478891265 11.0960476315 17.5784404964 
H 2.9295121768 3.5106253521 12.4750185102 
Si 14.1212309791 10.5493063565 18.9566296717 
Si 3.7403958042 14.8800843461 12.3950076551 
Si 16.0828076371 5.7451246725 29.0848094772 
Si 2.7455003351 5.5304876306 2.6335398775 
Si 0.1381910035 5.5469731107 5.5899570763 
Si 2.7880335255 5.5752525510 8.5033124504 
Si 13.5617509240 2.0864232191 15.7686962477 
Si 0.3566614083 3.7182414040 16.6506600317 
Si 12.1077380907 15.9871853362 23.0733389387 
Si 11.4615952348 8.4301891071 26.7510863463 
Si 15.1477616285 7.9976896031 22.1810115094 
Si 0.0410942947 14.2529519204 15.6557793548 
Si 0.1655096595 8.2207159952 2.8149827157 
Si 2.8237249158 8.3544080264 29.2388589173 
Si 1.3868898877 6.9236084433 1.2209018280 
Si 4.0976843775 6.8714478628 4.1068433109 
Si 2.8128269057 8.2595350655 5.5350063353 
Si 1.4990888927 6.9139810532 6.9797102062 
Si 0.1425772489 8.4242758370 8.2133353117 
Si 4.2166502486 6.9258075933 9.8827604866 
Si 13.9361114175 8.8275510807 24.0655262388 
H 7.3573134073 3.9212962559 20.7730780864 
Si 1.5379519461 6.2298336270 19.1949056870 
Si 15.9969430463 13.5519280539 21.2913481810 
Si 15.1129010282 5.6559206317 14.2366918390 
Si 3.3565382407 12.1755696514 15.4479794830 
Si 4.1600587880 9.6411714282 1.4149537680 
Si 1.4698874384 9.6626090684 4.1725382830 
Si 4.1484277279 9.5881637677 6.9650430132 
Si 1.4674618574 9.7486528492 9.7201332271 
Si 14.7802592252 5.0578169863 25.4758017286 
Si 8.2606590755 16.1485866577 22.3326017794 
H 14.3627139414 1.8219876467 22.6804865183 
Si 8.7688907902 7.6720362102 24.5259180090 
Si 10.1865769232 14.0361808884 13.7707669362 
Si 14.7506765849 7.3002984068 27.8101103761 
H 8.8095669206 7.3103330469 16.8000253383 
Si 0.3998022157 4.8408993443 26.9953639077 
Si 1.5661825163 9.7827152395 27.8621920854 
Si 16.2751762488 10.8897999396 29.2205615209 
Si 2.7361661650 11.0334125809 2.6981340783 
Si 1.3459205373 12.3739004032 1.2682847658 
Si 4.1380672878 12.3584249030 4.0832177126 
Si 0.1442235163 11.0910303114 5.5483561158 
Si 1.4874382846 12.4061871835 7.0346316713 
Si 1.3988891018 8.4819750176 18.8158421846 
Si 2.9027802865 11.0350904509 8.3863554924 
Si 4.7339066233 11.9336142791 9.6632210053 
Si 1.1039570201 8.8307276308 16.3357691580 
Si 11.2485709029 14.9559631668 17.6668535159 
Si 13.0985284798 3.2809689300 11.5279452707 
Si 7.1508213654 4.1686436181 11.5620223419 
Si 3.6600209435 7.8011018813 21.8858232722 
Si 12.5554850348 10.7747436685 20.6728376298 
Si 7.0481292045 9.0446153327 20.9164125711 
H 3.3341720705 3.6504261334 15.6433078494 
H 14.2549881704 0.6282189687 20.5259607691 
Si 11.7565419775 5.3884876993 25.0802852072 
Si 0.0842220701 13.7694484259 2.7072798489 
Si 2.8360075759 13.7277948956 0.0012850100 
Si 2.7777708254 13.7037182753 5.5210417624 
Si -0.0016246001 13.7282673056 8.3875265258 
Si 9.0563604228 15.4018204709 12.1762000696 
Si 4.3832155001 6.7760210420 16.2308152921 
Si 6.7741476920 15.8305895648 15.0783720750 
Si 2.2139250502 14.2072584699 18.3013486726 
Si 2.3841066818 14.2944751307 15.9300646463 
Si 5.7964381730 5.2058605076 15.1675169904 
Si 3.2273259595 2.9288931568 23.5931021008 
H 8.8888340613 0.1352676000 28.8292021680 
H 3.5587623025 2.4055443220 10.5328011113 
Si 16.1992322682 12.1114033408 14.8515429109 
Si 4.1336526978 15.0800929679 1.4474470165 
Si 1.4061120879 15.0775843079 4.1819065500 
Si 4.0931068874 15.0552507177 6.9155375774 
Si 0.9445039826 15.4666383815 9.6827479867 
Si 2.6153432339 7.6396028199 14.8726215116 
H 9.2256949744 5.8953510539 27.1064656988 
Si 15.1330028884 10.0174215616 25.6959267266 
Si 10.7868634287 15.6616133932 15.4277206056 
Si 6.4546519190 13.0072230290 20.1213980150 
Si 8.2044585750 13.2120209108 27.1243825094 
Si 13.1594367904 13.7210997055 18.2025427319 
Si 5.1250621069 0.5537508621 0.2183274618 
Si 8.3027198559 0.0839638736 2.5693057695 
Si 6.9194870733 1.5864782275 1.3511061010 
Si 5.4563844199 0.0688759125 5.4116086938 
Si 6.8164528223 1.4227914190 6.7347007490 
Si 8.1153848542 0.1146053638 8.1799608606 
Si 12.2444600620 7.3011617768 19.2758533688 
Si 10.2115006234 0.9366864116 11.2472192957 
Si 11.3834032341 0.6266502417 27.2376507123 
Si 0.8508674328 2.7533358252 24.0776757101 
Si 11.9698758195 2.3494252715 19.1958717896 
Si 12.3882193133 0.7188663036 14.2341448414 
Si 8.5396741981 2.0283167886 23.1992543020 
Si 9.7801251294 9.5709452375 25.5259512327 
Si 1.4828005216 11.1195378117 16.3335734704 
Si 5.5654785509 2.9070319766 2.7834321491 
Si 8.2345950753 2.9617989571 29.1781701128 
Si 6.8685645328 4.2644939790 4.1757586248 
Si 8.2249839752 2.8122730457 5.4368151871 
Si 5.6136643713 2.7625722553 8.2332428791 
Si 7.5329684789 3.5900553928 9.3643147371 
Si 7.0849120248 12.3189542327 12.4823374688 
Si 11.0495722611 9.4984710269 19.3621878042 
Si 9.0351997126 12.2651972322 22.5385279978 
Si 0.2495807213 9.4185359961 20.8116050843 
Si 1.5802733665 4.1210116577 12.2323218439 
H 6.3493207781 6.0703382355 21.6767352636 
Si 3.4066137012 0.0059942151 26.4441584996 
Si 1.0791522369 12.2897136824 12.7226042409 
Si 5.3935375993 5.6687734418 29.2010638152 
Si 8.2040024550 5.5668794909 2.6859933898 
Si 5.4624931700 5.5879587511 5.5839262544 
Si 8.3235384761 5.4631447700 8.1588237083 
Si 0.1428395179 2.4645955725 13.0588664736 
Si 16.2799655089 10.9465217201 11.1640173746 
Si 0.4367935480 6.4298585388 22.9980707687 
Si 1.3882142647 14.5957912635 11.9417591885 
Si 7.3121249469 10.0422801018 11.8407868360 
Si 3.9098606758 4.0134324967 25.5728511192 
Si 6.9709308938 11.3156694135 21.8183131983 
Si 6.5876271902 4.1245465877 27.9153570004 
Si 5.4835724302 8.2678429656 2.8095842519 
Si 8.1742894948 8.3561347664 0.1342627819 
Si 6.7862511621 6.9381228335 1.3753933331 
Si 8.2238110952 8.2350186153 5.5890495255 
Si 6.8456282126 6.9086705132 6.9905715407 
Si 5.5317582506 8.3027850159 8.4396667867 
Si 5.3291432287 16.1306024975 11.1173809706 
Si 4.2929526093 10.0437950719 25.0361958008 
Si 11.7918098278 7.2660242465 14.7170204523 
Si 4.9438521452 14.7043966945 20.8995204147 
Si 10.9886639505 5.2058279276 15.7063972723 
Si 4.0323940569 7.0046837741 27.7366865837 
Si 6.8427937526 9.5862904177 4.2257617498 
Si 6.4531695290 10.1729747730 9.6086801260 
Si 5.8957094339 13.6855223452 26.8461742561 
Si 4.9653060754 0.8939202742 15.6820397782 
Si 13.0692227695 3.3878802010 25.2151004241 
Si 1.2373867823 0.3380631151 21.2974082787 
Si 15.5967791926 4.4628898908 23.3812621638 
H 9.1122025433 7.3616628373 28.7574178223 
Si 0.3685156414 0.5460147410 23.5483100743 
H 3.9976149066 2.8972905565 13.5418591878 
Si 12.7023882562 10.5996913269 23.0320014607 
Si 6.8597027727 9.5453536473 27.8473492374 
Si 5.5452137907 10.9185680799 29.2684567858 
Si 8.1962158350 10.9623230203 2.8866206823 
Si 6.9903648639 12.2547227621 1.3332419869 
Si 5.4398500698 10.9655484403 5.5076627061 
Si 6.8711383528 12.3847984133 6.7272061354 
Si 8.1381582744 11.0261309508 8.1643861168 
H 11.3893165042 0.0345699867 10.3511445595 
Si 8.4395395672 2.7544435452 15.1670778529 
Si 15.2497858995 3.4481369115 14.8289419668 
Si 1.3475576823 12.7879107570 25.0824223431 
Si 15.5315703220 9.1378755836 12.5813776162 
Si 1.3215213751 10.2966158742 22.7166128978 
Si 5.5839514111 13.6667236850 2.6757790512 
Si 8.9114934515 13.0438429493 0.0810495617 
Si 8.2408341454 13.7724620760 5.4299353661 
Si 5.4931183702 13.6176419145 8.1621026017 
Si 1.6177973818 13.5199996536 22.7794388382 
Si 14.7560034150 1.5760461114 11.6151579811 
Si 13.3317849919 6.7299855016 21.3474992311 
Si 11.3384917037 2.3411173714 12.8143254297 
H 13.2135847508 4.9382320952 17.4602539533 
H 14.3371712211 9.0542264328 18.6883459262 
Si 6.8983426531 15.0815101979 4.0049926834 
Si 6.7214006715 15.0130759073 9.5386523303 
Si 5.5746009510 15.9617729360 27.3548418770 
Si 3.4805865918 8.9748289721 19.8472005510 
Si 10.5806157368 0.3916995696 19.2014634739 
H 11.6354421164 12.2727232122 26.0741705057 
Si 15.6059178827 3.4216819513 20.0058755729 
Si 2.6369926441 3.8068427148 16.9879469186 
Si 13.8048628863 14.2199483801 22.2060130719 
Si 11.6451183765 15.8944463654 0.0869700137 
Si 12.3266268227 1.5078121878 1.3933628402 
Si 9.5745616176 1.4356083911 4.0689311055 
Si 10.9685458003 0.1683995055 5.5059061561 
Si 12.3793249732 1.4889972376 6.8727948593 
Si 8.4281528571 12.6298814655 14.5144902306 
Si 9.1916814541 1.8608392970 9.3345997653 
Si 3.0116626475 15.2796617597 22.1993089058 
Si 0.4362331720 15.0607893177 19.6066995722 
Si 12.5819237051 13.1385367202 20.4905077338 
Si 9.1327768135 1.2612548905 27.8256265683 
Si 5.5023059303 11.8400445183 16.3520465219 
Si 13.1892963606 2.1853361000 27.2440035684 
Si 9.6388582482 4.2388535188 1.3039017458 
Si 10.8997531297 2.8147654157 2.7271639956 
Si 12.3294612828 4.1862205283 4.0631052144 
Si 9.6609149084 4.2132130585 6.6916652725 
Si 10.9382138200 2.8552134861 8.1068298266 
Si 12.2311674219 4.2068436685 9.5183056255 
Si 13.4112964827 13.9662967877 11.3283133567 
Si 5.0558621862 1.2982641419 23.4233315377 
Si 3.2683604699 15.9953140463 14.5298307678 
Si 3.0614285980 11.8175154481 22.1071193036 
Si 5.4564658699 8.3445199963 26.3072646984 
Si 6.8245000824 2.2593741507 24.7477410054 
Si 11.4180031944 5.1880881174 0.0257087788 
Si 10.9596677502 5.6048677713 5.3523836810 
Si 10.7645949984 11.0863225014 10.8968461108 
Si 2.7272066649 8.3079000760 11.1133409054 
Si 2.1441875596 6.0523703654 21.4519846837 
Si 5.3373533888 11.5329617255 18.6934399214 
Si 10.9455280301 8.2722738457 2.7686946941 
Si 12.3220819127 6.8823947429 1.4415625738 
Si 9.5213584771 6.9440361035 4.0809049217 
Si 12.2913752624 6.9460234835 6.7652354441 
Si 9.5348628872 7.0517455845 9.3523409209 
Si 11.0695438012 8.3434774363 8.2361704625 
Si 6.4958656194 1.4445630042 19.3216993254 
Si 9.2578351447 8.3233755761 20.3660268864 
Si 0.0542900093 14.2274417801 26.4099057734 
Si 10.0022067015 3.9858535265 13.9756099487 
Si 14.1956925698 1.6303195049 19.4054574873 
Si 10.4187582953 10.4983023660 23.4658107733 
Si 8.1056923041 10.9425958301 26.4192447646 
Si 5.7011090921 13.7572309258 24.4484248756 
Si 6.9724458638 13.6788923151 16.0739553719 
Si 9.5747896776 9.6827272186 1.4923356532 
Si 12.3191497127 9.6601004083 4.1248186731 
Si 9.5962761878 9.6360074981 6.9124928906 
Si 12.3556067330 9.7244133289 9.7574306400 
Si 15.1920378489 14.8513650758 17.6966563153 
Si 6.7578088218 9.8802108904 15.5904649685 
Si 8.2974907659 3.9624285062 21.9262824752 
Si 7.5311765789 0.5523857601 26.2730997998 
H 9.9065681106 2.3506796015 23.7387786523 
Si 4.1333106078 15.5942053726 24.2593908136 
Si 10.7224690581 11.3013830834 0.2356028389 
Si 12.3668468331 12.4489647239 1.4635165220 
Si 9.6146513079 12.3598258430 4.1692593896 
Si 10.9587555102 10.9954243006 5.5414762947 
Si 12.3234991427 12.3681663231 6.9081893430 
Si 9.4833701967 12.4017400134 9.4798371792 
Si 15.3249968302 1.1013147821 27.1023670820 
H 4.6516258325 4.9776701855 18.9209424297 
H 1.6123353447 16.2649949988 24.2294416351 
Si 3.0017257475 2.2834670609 26.9801990255 
Si 9.9611721911 8.2983215559 22.6029641091 
Si 1.2269986492 0.9385695356 14.4949339733 
H 6.6651024310 2.9227192467 19.5441371143 
Si 14.2483581403 13.4449027530 27.3520313969 
Si 3.3033676802 11.3098538834 19.8259170194 
H 5.5926176911 2.9564395470 27.9262768866 
Si 15.3340377802 9.0240573525 15.0560053376 
Si 10.9950822106 13.7376340556 2.8528334419 
Si 10.9264198599 13.7506823458 8.2157359302 
Si 10.3665814248 15.7342342139 21.3802003380 
Si 11.4550792348 6.4386551389 22.8350336476 
Si 7.0100757641 0.1551171281 12.7988677892 
Si 10.3669398048 4.8927504147 21.3838598173 
Si 2.5287130131 5.7555339826 26.3484265214 
Si 14.8245191556 0.8146075215 17.3324942124 
Si 14.0529107185 15.9007668854 12.7699725407 
Si 9.7665229793 14.9478996167 1.2517322091 
Si 12.3624811131 15.1417669085 4.1347724568 
Si 9.5724113375 15.1022799481 6.8513063970 
Si 12.2969301525 15.0952589581 9.5883334211 
Si 15.7306015439 5.9798147047 10.6406240091 
Si 7.0754964047 2.4618262725 13.2361316502 
Si 6.6315776107 6.5886045903 13.4500794473 
Si 2.8072394357 11.2845880932 26.4168441462 
Si 0.1979137278 8.3883563867 26.5814036107 
Si 3.6772883436 9.0638212429 13.1861285253 
Si 13.7613522959 0.2486701103 2.7847583444 
Si 15.1141879382 1.5746337684 4.1359142143 
Si 13.7242762555 0.0947063142 8.2444847994 
Si 15.5412791621 0.9509922897 9.5153487662 
Si 13.9875715279 6.4339147488 17.8325254622 
Si 1.4757795315 7.2746416565 24.9282557997 
Si 10.7280239481 6.1180679360 27.1691745359 
Si 3.2236769995 11.4058019843 13.2573566301 
Si 12.2340507519 3.5990311829 17.0748375948 
Si 16.0152530065 11.4453215247 24.1333290711 
Si 12.5310663246 10.6784860577 13.5447282196 
Si 13.9815279379 7.2024443759 15.5991013396 
Si 13.0612406695 3.3479371206 0.0464537228 
Si 14.9345092366 4.2550783589 1.2464010797 
Si 13.7010630053 2.8769443463 5.4925856514 
Si 15.0614572077 4.1604171680 6.9372309706 
Si 10.6254295272 9.3901262359 14.2764484220 
Si 4.5979828621 0.8072151194 18.0181342517 
Si 4.7288893032 12.6802501460 12.0082738840 
Si 10.2827205040 13.4435669730 20.8251597956 
H 7.2473721963 10.9647502303 25.1556997564 
Si 4.3925822502 14.8530429458 18.6536833384 
Si 14.1466922494 4.5144640313 21.5047982888 
Si 13.7412015657 5.5857107311 2.7940182908 
Si 13.6004396744 5.5739982210 8.1318899407 
Si 8.7200533698 0.5490658580 15.9884699357 
Si 7.5444692190 4.4522199407 16.6107277937 
Si 0.7317288877 2.6190410640 26.4368980927 
Si 13.8580497367 12.5171383745 23.8043565211 
Si 15.9883582162 11.5473457956 19.9391852223 
Si 15.2235752892 15.9104268555 25.2130511157 
Si 14.1312167492 11.0289491209 15.2311041025 
Si 13.5637708840 8.4403703572 0.2170741634 
Si 15.0759227279 6.9220934733 4.2187355496 
Si 13.7129221254 8.3587085864 5.5203391424 
Si 14.6047344736 7.3727237474 9.2258107650 
Si 12.3396262429 10.0088856015 28.2809536191 
Si 1.1401908674 6.0141051550 13.7287561139 
H 6.8725881629 3.9205469159 17.8638213291 
Si 9.5853618877 9.3844573158 12.1194049510 
Si 8.1270484943 13.7098596054 10.8526103252 
Si 7.9570297628 14.1744504096 23.6568941437 
Si 5.3293387087 5.7049535322 11.6477419847 
Si 6.0715599855 8.9115423215 13.4907435811 
Si 10.0544976020 7.1039061650 11.5767188107 
Si 12.9232317882 1.9753254181 23.1741063604 
Si 7.7318205107 14.1403554393 18.3280775093 
Si 15.1012373881 9.6088683579 1.5215031669 
Si 15.0386186275 9.7841487595 6.9110583748 
Si 9.3053530751 5.9257481942 17.1994062697 
Si 12.1069561707 3.3215473204 21.3554622581 
Si 10.0946198723 6.2438593171 19.4463851036 
Si 14.0067285681 5.3649975191 12.1757902079 
Si 2.7599169852 8.8249935507 23.7925290840 
Si 6.1345208361 0.3773562245 21.4242311928 
Si 5.1173895168 11.6540615866 23.3935580143 
Si 13.7211974455 11.0306269909 2.7904876252 
Si 15.0688528678 12.4097384035 4.1312008050 
Si 13.6921197952 11.1093076916 8.3935573477 
Si 14.8945987362 12.4854706142 9.9285478915 
Si 12.6169146254 13.3809319224 25.6671485815 
Si 8.9313835417 14.9308602766 25.6190191099 
Si 8.6915621595 5.5704144209 12.7242144117 
Si 0.7139157725 7.4218543879 11.9494001813 
Si 13.3605205522 14.1889322198 0.1479749972 
Si 13.6619181349 13.7128406754 5.4836565220 
Si 5.1785747574 2.9538983070 14.4819940545 
Si 3.1559268889 3.9206935259 21.4761372470 
Si 5.9371674843 7.3652303474 22.3292350584 
Si 6.5288528697 6.8964693031 24.6733803863 
Si 1.6934758355 15.1810583888 27.8186003681 
Si 15.9144667755 5.0828384265 18.4017355084 
Si 1.5096757638 11.9750886195 18.5050792035 
Si 12.2824809223 6.9919124139 12.4127195348 
Si 8.3412782863 0.2548130693 18.3395829122 
Si 4.2463306288 12.3900275033 27.9451597998 
Si 15.0896063280 15.2159026992 1.3442760489 
Si 15.0200480274 15.0206833374 6.8614065598 
Si 2.4819607127 1.8577930670 18.2614749863 
Si 5.6547640417 9.2060329442 19.0294679474 
H 4.1560677380 5.0054446358 12.2743033903 
H 9.5845473877 6.4410660589 24.8833466699 
Si 16.2077356482 15.4859257416 13.6747129238 
H 11.2161049326 5.1941805775 10.0954494228 
Si 14.4052471317 11.1458787419 27.6677127181 
Si 1.5498175822 2.4937709628 20.3603473745 

