&CONTROL
  dt          = 30.D0,
  prefix = 'aSiHcSi_merged-17',
  pseudo_dir = './',
  outdir='./',
 wf_collect=.true.,
 verbosity ="high",
/

&SYSTEM
    ibrav= 0, nat=  388, ntyp= 2,
  ecutwfc     = 42.D0,
  nbnd=1468,
  degauss     = 0.05D0,
  occupations = "smearing",
  smearing    = "methfessel-paxton",
/
&ELECTRONS
  electron_maxstep=200,
  conv_thr    = 1.D-8,
  mixing_beta = 0.3D0,
  scf_must_converge=.false.,
/
&IONS
/
ATOMIC_SPECIES
Si  28.08  Si.pbe-hgh.UPF
H  1.00784  H.pbe-hgh.UPF

K_POINTS {automatic}
2 2 2 0 0 0

CELL_PARAMETERS angstrom
16.29000014898320 0.00000000000000 0.00000000000000
0.00000000000000 16.29000014898320 0.00000000000000
0.00000000000000 0.00000000000000 29.20415829535462

ATOMIC_POSITIONS angstrom
Si 15.8611658951 16.1331763175 0.0220477377 
Si 15.9726220761 2.6399900041 2.6101858968 
Si 2.4042411220 16.1771104480 2.6532211445 
Si 2.4484358924 2.5082201929 29.1470057576 
Si 1.0250270824 1.2214502752 1.2881720591 
Si 3.7863010246 3.8307238550 1.3507127641 
Si 1.0770312789 3.9635036462 3.9878570194 
Si 3.7574677244 1.1617115866 4.1184580153 
Si 16.0143896365 16.1464526677 5.3540567486 
Si 2.4167681321 2.5959418437 5.4029153054 
Si 1.0866602979 1.1604197896 6.7406993886 
Si 3.8005221948 4.0353751269 6.6843353631 
Si 16.1034633573 2.5307981331 8.1495663931 
Si 2.4118485521 16.1672875779 8.2327106318 
Si 1.5673048973 3.4463287215 9.4832034858 
Si 3.3077171103 1.7868501163 9.3698913516 
Si 1.8438814069 4.3791267101 25.6667170094 
Si 13.9842809479 13.7184281455 14.1200061067 
Si 6.9919287039 0.8791159220 25.9832608811 
Si 9.7335031490 14.1802985197 20.4408081074 
Si 3.6860523637 10.7434017083 17.4291000790 
Si 14.8494591458 6.0257525051 19.5191540757 
Si 5.2813972383 0.6637425721 18.7260859530 
Si 14.1693516396 16.0350290667 18.6557039315 
Si 15.8428070649 11.9008713788 24.9696429550 
Si 1.7255671358 11.0746262813 24.2944428152 
Si 13.2512472312 5.3059462685 26.1726498477 
Si 9.4759256667 12.1864839515 27.2206994764 
Si 5.2870987384 13.9812184279 15.4586371105 
Si 8.7072005596 15.5888785426 26.2545675117 
Si 1.0096151132 3.7469769643 27.7739430512 
Si 11.8015023779 3.9966537966 27.6039164416 
Si 16.0016997263 5.3115663186 28.9759570024 
Si 16.0471325368 8.0290804334 2.5119635512 
Si 2.4385804423 5.3139283686 2.5898948476 
Si 2.5024209529 7.9715604429 28.8910897184 
Si 1.1335510634 6.6433227008 1.1213754294 
Si 3.7921002647 6.6982525813 3.9336541016 
Si 16.0066518864 5.3190108486 5.3757846424 
Si 2.4137544821 7.9943012831 5.3426671269 
Si 1.0709925758 6.6368229907 6.7790444485 
Si 16.0695149970 8.0632568537 8.1398706126 
Si 2.4164097521 5.2557893581 8.1567798202 
Si 3.8283780950 6.6750393310 9.3532741856 
Si 12.1276118909 1.6820076754 16.7599452000 
Si 2.9139063566 8.4653429274 14.4993097146 
Si 5.4808520001 2.7753761954 12.8946872371 
Si 10.3232826044 5.9807432347 23.9496293182 
H 10.5175082762 12.4599930540 16.0629295539 
H 5.5825504711 0.5406080899 10.6958477507 
Si 3.0078019175 2.8174206858 21.6144356168 
H 9.3051575951 10.6024932070 12.3072455930 
H 7.6627183301 13.5996088844 10.3062642791 
Si 0.4869260235 16.1909895281 23.7827567577 
Si 8.0532059237 3.2092277694 17.3927116977 
H 13.3252852819 7.9714789929 9.4905921379 
Si 11.8403540283 8.2469591854 19.2282222508 
Si 11.0672143312 10.8804657695 24.2690644017 
Si 14.2639313805 3.8994513657 14.3394169480 
Si 10.2956710542 15.0524162577 14.5889664806 
Si 3.7945437647 9.4136164161 1.1173014493 
Si 16.1177333974 10.7190970280 29.0018610908 
Si 2.4371795023 10.7452424783 2.5741654880 
Si 1.1190220122 12.1436249611 1.1615515900 
Si 1.0675765628 9.3778435758 3.9536881542 
Si 3.7277221841 12.0626636603 4.0845227833 
Si 3.8186040949 9.3331763954 6.6744059493 
Si 15.9817281862 10.7410396582 5.3366510703 
Si 1.0289301664 12.0919042106 6.7500447193 
Si 1.1829961008 9.3932213359 9.5051358087 
Si 2.4404049223 10.6805223077 8.0094448416 
Si 3.7089886839 11.8722824286 9.5761895258 
Si 2.9016725665 8.3031108159 10.7573517081 
Si 2.2984375710 8.9380787317 16.6970102388 
Si 0.1456536154 11.1063266216 10.8003402291 
Si 13.3853302224 7.2092535959 15.9057819781 
Si 8.3688246765 1.4670774134 15.8532436974 
Si 9.4630402765 11.5665842858 15.4431297024 
Si 9.6137879379 11.7942533279 20.8190311614 
Si 4.4640953508 6.5451917399 23.5166776715 
Si 0.7128113105 7.4098323678 24.1378501184 
H 5.8685214237 5.6487367417 11.9204365164 
Si 8.7705523702 10.6258693572 18.9343700100 
Si 1.1542100416 9.3846690858 27.5627093742 
Si 13.7219467855 10.9704191503 21.2326496554 
Si 15.9768900561 13.4273095528 2.5547739268 
Si 2.3688429517 13.5788065542 28.9236815591 
Si 3.7294000541 14.8157714255 1.2609829877 
Si 1.0553346277 14.7682860751 3.9775479515 
Si 2.4123535421 13.4719441532 5.4499340003 
Si 3.8009457348 14.7565246950 6.9295918845 
Si 13.6941723352 3.4756833018 16.8144109552 
Si 15.9692663360 13.4815389633 8.1212967679 
Si 1.0441613165 14.7409677448 9.5880756183 
Si 14.2875030107 13.2427112711 21.0695736354 
Si 15.3155649201 13.2321227710 26.8246618858 
Si 13.0797461096 1.3598175364 24.7873505989 
Si 10.9644081403 1.1786206068 18.7180840137 
Si 5.0094356858 16.1776317280 14.5772264090 
Si 14.7467181149 9.5123501070 22.8073086665 
Si 6.2795995774 1.0267147264 23.7140685774 
Si 5.8403885934 8.4154303670 20.5260550454 
Si 4.6887507429 6.2327169570 17.4944589852 
Si 13.8311060765 1.8169540366 21.6906876741 
Si 1.2324720893 0.2480738963 26.0117349355 
Si 3.7429207542 7.0753335047 27.0031577013 
H 10.5007784460 6.1915684166 19.8665375386 
Si 0.7032604834 14.7916459353 27.6495041327 
Si 5.5394960007 15.8333262848 0.1437454955 
Si 5.0994705166 2.5125370430 2.7675291404 
Si 7.8873574321 0.0227346500 2.8121852189 
Si 7.3909359676 3.0621453580 0.0463303528 
Si 6.5175476096 1.2927141388 1.3601457072 
Si 6.5325018297 3.9302557559 4.0151921116 
Si 5.1155161668 16.1096535573 5.5025306894 
Si 7.8270355616 2.6065466338 5.5171327685 
Si 6.4414081489 1.1921413069 6.8812297983 
Si 5.0883933165 2.6927044446 8.1067823012 
Si 7.7043229905 16.2026042982 8.4514205733 
Si 6.8163387923 3.6494813134 9.4410618854 
Si 10.9741821404 12.9541013385 25.4959602958 
Si 6.5492153699 9.4088108661 14.6286257276 
Si 14.3287167110 10.4357650554 17.1311884602 
Si 8.8201391307 1.8263370767 12.3057561809 
Si 7.9171681324 8.0820880939 23.9690208793 
Si 4.4363860606 1.2692565386 11.3505465714 
Si 1.9491148078 12.8991225880 10.7921630648 
Si 12.7768824269 9.4735473266 15.4461669349 
Si 5.0931174166 13.7386603256 24.1423183547 
Si 14.2469734903 1.4941758287 14.5367494456 
Si 3.9532898162 11.7951004079 21.2171422473 
Si 7.2283617661 2.7459238751 21.0618345335 
Si 2.4249782922 6.8267806824 20.0757269245 
Si 5.6359002215 4.6972215430 0.1823866855 
Si 5.1244919569 8.0425522636 2.5201962034 
Si 7.9100819823 5.3596869790 2.6808833232 
Si 7.7638629410 8.0834890339 29.0095125803 
Si 6.5336584198 6.6305513406 1.2428997729 
Si 5.1601670572 5.3424032889 5.2974006815 
Si 7.8576281819 8.0051992932 5.2821561109 
Si 6.5647397400 6.6181220705 6.6892708659 
Si 5.2212219778 7.9878993131 8.0165998604 
Si 7.9224298025 5.2913178484 8.1283057659 
Si 12.4654339140 12.3420371629 12.8895181011 
Si 10.7619885984 3.9073845957 22.8512317206 
Si 1.3705493885 8.9031529714 20.4821319913 
H 7.6147279896 9.9130189507 19.6343060719 
H 0.3538106582 15.7552808941 14.9124901462 
H 10.5380336764 8.1335970744 27.5748583041 
Si 11.3819697141 8.4563019773 21.5446376784 
H 4.7019130630 5.7061101222 10.1244975978 
Si 3.2919809701 1.0469925186 20.0006138294 
Si 12.2710290522 6.5462505899 12.1219744128 
H 3.4387538714 4.0480324570 19.3683438023 
Si 11.6114958162 4.5832567019 17.5348191320 
Si 13.1422508402 10.1259944126 13.1533484671 
Si 13.6609570249 0.0389045929 16.3512622088 
Si 12.2835234823 7.0315134043 24.7619721854 
Si 13.2496019412 13.4380772429 10.9315253082 
H 2.1931064301 10.6926257778 12.3043251772 
Si 5.1488292171 10.9331313400 29.0874292746 
Si 7.8609024719 10.8186452189 2.6535511514 
Si 6.4223977187 12.2087360917 1.3872062803 
Si 6.4871993393 9.3849460158 3.9287770072 
Si 5.1851233374 10.7347842982 5.3777413210 
Si 6.5028703195 12.0915947006 6.8330137330 
Si 6.4831757093 9.3368090654 9.4960533155 
Si 7.8874551721 10.6580583975 8.1149886697 
Si 4.6529779026 10.0721885421 10.8455190620 
Si 2.5191507830 10.8266110290 19.5867909063 
Si 15.0095409773 3.9634873562 12.0218917623 
Si 10.7020251079 0.7389160358 13.2895858656 
Si 15.9204289156 8.1953035950 26.1230903910 
Si 13.1204711100 3.8841550555 22.5880146419 
Si 15.9562343359 2.0321449386 20.8459865995 
Si 5.6880770920 10.2779964040 21.9908188089 
Si 16.0973871872 16.1333717976 11.0610457502 
Si 13.1861849706 14.3979003417 22.7943420202 
Si 1.7776625563 0.1998506088 18.3539957722 
Si 10.5215807762 2.2024243101 15.1375665942 
H 9.7039856687 2.0337413586 9.1393537261 
Si 9.3116735952 14.4528302222 24.3187406749 
Si 5.0138014059 13.4739152432 2.7485931642 
Si 7.2550610764 14.1472786894 0.3366509347 
Si 6.4679445592 14.8415910757 4.0544425003 
Si 7.8199819915 13.5202277137 5.4932145629 
Si 5.1189696468 13.3269468619 8.3198558401 
Si 6.6147011705 14.5415618530 9.7630669348 
Si 9.2646280747 3.9175658458 20.9340371368 
Si 6.1977097467 14.8137677555 19.1821964973 
Si 12.5619521649 0.5592031251 20.2152643928 
Si 11.7442918974 8.8529146110 11.7129701758 
Si 6.1316375061 8.0430246736 18.2250886175 
Si 5.3587421590 4.4502814307 24.1775969779 
Si 2.6009428738 14.1993903999 18.3073859356 
Si 15.6567915532 7.2289807861 15.3750256053 
Si 2.7239486649 10.6876247477 13.7302474101 
Si 4.4682004309 6.6544650609 21.1680792614 
Si 13.5002235935 2.5176358130 10.9340076616 
Si 6.6472323008 4.3888192601 11.6575114792 
Si 3.5270619623 0.8541319488 25.6889121697 
H 6.4422552289 13.5115940136 12.5085498561 
H 9.2875643949 11.9179758790 10.6851298246 
Si 7.8140035615 11.4025765643 22.4187181362 
Si 12.3773375932 14.5267379529 15.6254804668 
H 5.1905316175 7.4145401778 12.7498054078 
Si 5.4858041602 5.6866109920 15.4048430509 
Si 9.1874623440 4.0140352267 1.2564738657 
Si 10.9458864101 15.7951262345 0.2158736336 
Si 10.5142339862 2.6256222240 2.6793033782 
Si 11.9406841392 1.2893421088 1.3780566175 
Si 9.2513517246 1.3017648629 4.1930162314 
Si 11.9637344894 3.9619072262 4.0081539094 
Si 9.2814882249 4.0177167667 6.7249291431 
Si 10.5538186865 16.1559986078 5.5482644013 
Si 12.0131909299 1.2037772540 6.8271436972 
Si 8.2556906255 1.7396579859 9.9468487029 
Si 10.7471809883 2.7432034451 8.0448986898 
Si 11.9946529097 3.8921045756 9.6468635889 
Si 1.0096395482 12.6435976456 19.0680666467 
Si 3.2742248699 16.1929769081 12.8748284095 
Si 16.1269535375 3.6342338732 17.3129259373 
Si 15.4818858216 9.9590056211 12.7127453309 
Si 9.9251875808 0.1621948074 23.1454052071 
Si 0.8255104185 5.6221025914 16.3700112784 
Si 12.5973666252 5.6483620717 14.3120818558 
Si 15.4348077212 12.5005551543 17.5406891678 
Si 5.4645945800 13.7392467657 26.4759058274 
Si 14.2515672703 15.1609239487 12.2171215605 
Si 8.8296199108 8.2658881656 14.3399426228 
Si 10.1621093429 15.2657989696 18.3624941823 
Si 5.1702016973 16.0536159568 27.0214979127 
H 15.2875135398 12.5951348952 23.7331680969 
Si 10.5375775564 5.3679948791 29.0339564608 
Si 10.5768038767 8.1138047242 2.5013040334 
Si 11.9508816793 6.6741270910 1.2062339522 
Si 9.2992117450 6.7371042316 3.9507677384 
Si 10.6239634272 5.3713831991 5.3339934919 
Si 12.0052414098 6.6733451710 6.7345373112 
Si 9.3187434552 6.6278146206 9.4712005768 
Si 10.6020696670 8.0237373134 8.0768772431 
Si 1.0574409247 1.9848713582 22.7513534992 
Si 1.2968338799 1.8598618970 16.6374921642 
Si 1.0444724556 3.4498962316 11.8356860490 
Si 5.5884637411 8.6302954689 23.9054142226 
Si 14.1279261692 3.5220120622 24.7865036783 
Si 10.1744082931 12.8985361480 13.5399531146 
Si 8.8846475313 4.3245226296 12.4478928193 
Si 7.2976757167 13.5882058843 23.1011901114 
Si 7.0255838443 13.9763640078 17.0575355730 
Si 0.2692020265 0.9614586148 14.6580051108 
Si 1.9703406780 12.8434433675 14.6099350663 
Si 16.2521747686 9.1542796137 16.5699137419 
Si 10.5962215569 0.3177706619 27.2673385172 
Si 9.1340474335 9.4816597467 1.1683561588 
Si 10.4672862057 10.8878614296 28.9765410856 
Si 11.8212784381 12.1935701015 1.2151733450 
Si 11.9496273493 9.4174771461 3.9214759676 
Si 9.1745443739 12.1089109707 4.1445665328 
Si 9.1954607341 9.3065748251 6.6822618679 
Si 10.6021674070 10.7066677579 5.3861813227 
Si 12.0074079798 12.0847366105 6.7093341226 
Si 11.5200763354 9.7486365592 9.4452964884 
Si 9.7738208994 11.4715321349 9.3285382635 
Si 7.8587521919 10.8222778890 26.2477337386 
H 15.6386444930 4.3629018699 14.7814802921 
Si 12.9023968780 6.4218601487 18.1578606451 
H 9.2434510745 12.8356730374 12.3533589589 
Si 4.7796978137 9.0073275224 26.1337207047 
Si 11.3958162142 15.3776298206 21.6563435839 
Si 11.8103478480 13.6831114251 17.7685400109 
Si 2.6323174141 6.4992865194 25.0185599201 
Si 11.7961918379 9.3057603251 27.8216918500 
Si 15.9352691057 12.9151519481 15.2577709097 
Si 10.3920426950 9.4112543661 15.7369819432 
Si 7.5919056994 14.8608458559 21.0951564781 
Si 0.1511391101 3.6217394431 24.1993540758 
Si 7.7206455706 11.7014980670 17.1100738538 
Si 13.2912554716 7.6332497198 22.6942593697 
Si 9.1652264938 14.8995508963 1.4693926226 
Si 10.4881699859 13.4285801728 2.7363186565 
Si 11.8630459985 14.8360036057 4.0674967591 
Si 9.1293070435 14.8652115760 6.9771070500 
Si 8.8070582605 15.4548607113 16.4421747536 
Si 10.5773088667 13.3361181320 8.0989555868 
Si 11.8908530287 14.6801083043 9.4991781604 
Si 9.8902292405 8.7693143302 17.9605865558 
Si 1.9502876878 7.2546701163 12.7443150260 
Si 15.7423792140 8.2496307454 19.1751582951 
H 7.1056654850 7.8372005217 21.0601114882 
Si 6.9961966840 1.2477814314 13.9116636414 
Si 0.1172523260 5.5393982607 22.7881215345 
Si 8.2543222655 6.9884263539 18.0887051982 
Si 9.9973359914 3.2938869001 18.7813110164 
H 15.3706902806 11.8372915083 27.9476785889 
Si 14.6944435044 6.6515980208 27.5099082560 
Si 5.0058355958 5.0748237464 27.1954378795 
Si 5.3339487788 2.8671540562 22.5160555958 
Si 4.4176851404 15.9697224561 23.7052489216 
Si 7.8860216521 2.8591393761 26.9196046044 
Si 13.2777673514 16.2414885285 2.7765094191 
Si 13.1658876304 2.6891532246 29.0992277546 
Si 14.6269540338 4.0073237466 1.2062777584 
Si 14.6832848543 1.2987186329 4.0679348214 
Si 13.3198118418 2.6217614940 5.4473056260 
Si 14.7178848146 3.9583885862 6.8264720015 
Si 13.3422594620 16.1147849074 8.2195395564 
Si 14.8078381954 1.1620422736 9.5472774091 
Si 2.4492992624 6.8242557324 17.6981871935 
Si 12.3350324628 9.3581326756 25.5521198922 
Si 5.2588355881 13.0158078590 13.2917761774 
Si 5.1044878367 7.6571960200 14.2310695207 
Si 7.8828451021 0.6725424302 22.0572874732 
Si 10.2185053235 2.5251129231 26.5545234215 
H 5.1686541473 5.3729633291 20.7216060894 
Si 7.9858467730 8.0536783337 10.7341636064 
Si 13.8706093269 13.7484994857 18.8112452786 
Si 8.5854002285 6.4000641285 25.5188563559 
H 1.5756942474 5.1926004475 14.9637142398 
Si 10.5864638468 5.2767057183 10.9714473926 
Si 0.8206462245 9.3251128453 22.7839161357 
Si 3.3846710710 12.9706845586 16.4814251423 
Si 9.4049175560 7.3611089773 22.2286866782 
H 11.0187515808 15.5764818525 10.3572839436 
Si 14.2841961406 5.7631414127 21.7733938504 
Si 14.4319301520 1.1315359903 27.9048068845 
Si 13.2994656316 5.3358872888 2.6284969040 
Si 13.3373724620 7.9756981029 28.9934210891 
Si 14.6975060244 6.6991648213 3.9599962524 
Si 13.3285595719 8.0596730537 5.3328545297 
Si 1.6245170069 4.8313045342 21.0443412427 
Si 13.2882906915 5.2716883982 8.1617445271 
Si 14.4321907920 6.9208717233 9.3611885125 
Si 12.8393871574 16.2357870285 26.6292276585 
Si 3.0405936878 12.7100445562 23.2077268809 
Si 5.9638505045 10.0409931918 16.8768786498 
Si 10.7887367787 4.5934216620 15.3013435139 
H 6.7460474417 11.7025569170 25.7001557706 
Si 6.4752913492 9.5811264876 27.6814826860 
Si 3.4591326616 15.5884061326 21.5528148428 
Si 16.2404459685 4.0420214470 19.5816509745 
Si 3.0408054578 13.8264471365 12.7067876826 
Si 9.0277714726 6.1413626362 20.2499297287 
Si 5.1207452568 10.7063582479 13.0981234038 
Si 0.1678391295 14.0570320886 20.7694132965 
Si 12.9722321086 0.8528010558 12.5938259983 
Si 7.6802789502 5.3269114987 16.3257961827 
Si 9.4603198465 9.0985678132 12.2449239192 
Si 14.3866276616 0.0939603951 23.2836576925 
Si 14.6570742440 9.4029464660 1.1361147681 
Si 13.2755030414 10.7882806587 2.4973410291 
Si 14.6373633439 12.0813971605 3.9333328559 
Si 14.6648608641 9.3960232159 6.7725319212 
Si 13.3075454717 10.7442324983 8.1933434264 
Si 14.6808739343 12.1243213109 9.5545200404 
Si 2.3023960411 4.9439173052 13.2293084828 
H 6.0064651449 14.9300131965 11.1072175245 
Si 1.6249600949 14.5111321327 22.5219256316 
Si 0.2106541369 10.6987671078 14.6922323843 
Si 3.4306740314 2.8822385964 16.4005880321 
Si 3.9193577458 3.3387006905 25.7631783442 
Si 6.9527838336 4.7609317335 25.8688389889 
Si 8.8012101505 10.2114843334 24.2162632835 
Si 3.8814834955 12.2910168824 27.6051138121 
Si 4.2294053187 13.9004851871 20.0548167472 
Si 14.5894707434 9.8902618205 25.1272577973 
Si 4.3514499998 0.7809735581 16.5989134711 
Si 7.7391184308 13.7749544460 27.3412250377 
Si 12.6294742155 14.0496690085 29.1912792615 
Si 14.4773792524 14.8146474155 1.3314497013 
Si 13.3059327617 13.4569736431 5.3205887832 
Si 14.6342193738 14.8081314154 6.7271194550 
Si 1.2310467143 1.1391613394 12.5414045342 
Si 16.2011056182 16.2436062286 19.7251310042 
Si 16.1012804973 2.1051730093 26.5587580245 
Si 11.4753114149 10.7866353687 21.9381637115 
Si 6.3402635380 2.7251052549 18.9010772695 
Si 10.8278979390 2.0114077684 24.3038465542 
Si 14.5741907233 6.2290028370 11.5814930552 
Si 2.8693369162 10.5105524461 26.3194591514 
Si 15.9173501056 7.6270758098 12.9917326551 
H 11.1210364917 12.3624648231 18.0596178566 
Si 13.7801998260 9.6120937779 19.2649610819 
Si 4.1371876278 3.9977126466 14.4160486593 
Si 9.3455405055 6.9420975935 27.7023928633 
Si 8.9678894320 5.7710746428 14.4261825023 
Si 4.4635414908 4.0078938967 18.2437792788 
Si 12.9861600588 13.8779561169 26.8055039579 

