&CONTROL
  dt          = 30.D0,
  prefix = 'aSiHcSi_merged-9',
  pseudo_dir = './',
  outdir='./',
 wf_collect=.true.,
 verbosity ="high",
/

&SYSTEM
    ibrav= 0, nat=  388, ntyp= 2,
  ecutwfc     = 42.D0,
  nbnd=1468,
  degauss     = 0.05D0,
  occupations = "smearing",
  smearing    = "methfessel-paxton",
/
&ELECTRONS
  electron_maxstep=200,
  conv_thr    = 1.D-8,
  mixing_beta = 0.3D0,
  scf_must_converge=.false.,
/
&IONS
/
ATOMIC_SPECIES
Si  28.08  Si.pbe-hgh.UPF
H  1.00784  H.pbe-hgh.UPF

K_POINTS {automatic}
2 2 2 0 0 0

CELL_PARAMETERS angstrom
16.29000014898320 0.00000000000000 0.00000000000000
0.00000000000000 16.29000014898320 0.00000000000000
0.00000000000000 0.00000000000000 29.20704162538098

ATOMIC_POSITIONS angstrom
Si 15.9595086260 0.2465621843 0.0169088618 
Si 2.5909733937 16.1813947180 2.6274362576 
Si 1.3350534782 1.3483510053 1.2401514323 
Si 4.0053037866 1.2617712835 3.9713398639 
Si 16.1794562080 16.2241559684 5.3874140701 
Si 1.3667652215 1.2633953966 6.6325102545 
Si 2.5885298937 16.1833820980 8.1288746181 
Si 4.3722686200 0.7564343019 9.4063029977 
Si 1.4736683475 8.8421957909 18.9694478089 
Si 8.1935768549 11.9968031897 19.4633972969 
Si 2.4352572823 5.3591656990 12.4628783179 
Si 0.1896432947 11.0182628808 27.2234161864 
Si 4.4917557711 8.7587747001 17.3471426819 
Si 5.5560303508 7.3737174374 15.8008050700 
Si 11.8125469980 5.8410727734 17.5118411896 
H 2.2686594507 8.9639635420 23.3400771389 
Si 16.2493077286 2.7714665953 2.5372215474 
Si 3.1241776786 2.1808726399 29.1235386934 
Si 4.0775825173 3.9489240961 1.2064640305 
Si 1.3429932243 4.0822414573 3.8916046402 
Si 2.6602710543 2.6823114245 5.2746164753 
Si 3.9969144366 3.9993090666 6.7005042474 
Si 0.0049794784 2.6438018642 7.8885006656 
Si 1.5781686984 3.7619637644 9.1886229165 
Si 6.1527819263 7.2557452564 12.3114398071 
Si 11.7814168077 9.7273455290 27.4966480608 
Si 14.6709696142 12.5149392245 27.1751661536 
H 8.2720132057 13.3959838825 10.1684315419 
Si 3.3157480803 1.7261535758 20.9005005730 
Si 6.0341092752 14.3208975110 11.7400332447 
Si 15.0418277576 10.6371746173 20.7150066517 
Si 6.5004105295 1.8271678667 14.1392456790 
Si 16.1836753180 5.6490951217 28.8757169452 
Si 2.6981453047 5.4189499996 2.4841757184 
Si 16.2441112186 5.4431569398 5.2173414667 
Si 3.5434497024 4.0415001670 13.9965692807 
Si 2.6193668640 5.4263456596 7.9464474361 
H 11.2062169025 5.1429322370 9.5887009727 
Si 3.0384596978 9.2991954550 13.6648357019 
Si 1.5254037590 8.0534991437 15.0211230939 
Si 3.8677836054 14.9022713263 14.8518974947 
Si 16.0662244169 9.6146838879 15.2338087710 
Si 16.1265625775 8.1069140541 2.6409532764 
Si 2.1922593500 8.6600410092 0.0468358278 
Si 1.2472585224 6.8325636325 1.2093146378 
Si 4.0025019066 6.7249518915 3.9943842197 
Si 2.6173306139 8.1265272143 5.3496493652 
Si 1.1858240448 6.7746852620 6.6961523982 
Si 16.2877521290 8.1358125144 8.2787651558 
Si 3.6581964635 7.0947674749 9.2054169654 
Si 10.3664185248 9.4272511462 16.3297445939 
Si 12.7280612964 10.2486418237 21.0123051284 
Si 7.7912138513 14.6379497839 13.2426479152 
Si 10.8003352588 14.9915242371 18.4052553859 
Si 1.5335080340 11.1759175022 18.3926963580 
Si 12.1842033514 8.3011234359 22.5666746766 
H 8.2921476458 2.7510552252 11.5998978590 
Si 4.0196552768 9.5010611369 1.3086156586 
Si 1.2853363978 9.4957994668 3.9523260798 
Si 4.0217729768 9.5499800073 6.6367452756 
Si 2.0218496585 8.8343114308 9.3154690982 
H 6.3243970778 9.6861318286 28.5104244756 
Si 14.0575859486 7.7239035706 23.8785673653 
H 8.4712887775 7.6348298498 14.7120541794 
H 5.7917629430 0.1325004177 21.5811122640 
Si 12.5613331449 2.8098295457 27.2798733978 
Si 9.5979214778 1.0448520126 15.3352156195 
Si 5.0428953461 5.0523272562 15.4525110987 
Si 7.0685568646 2.0733097690 19.1963573153 
Si 13.3226951718 6.5896145703 13.8224076915 
Si 0.9382323326 3.8993210457 11.3893442959 
Si 0.4951345545 10.3566445247 0.2230235095 
Si 2.7394241651 10.8899139696 2.7021361872 
Si 1.4002949288 12.2048753616 1.2879253903 
Si 4.0890343874 12.2638125822 3.9986484478 
Si 16.2418631985 10.8465336992 5.3538843863 
Si 1.2428553354 12.1832259514 6.8113741775 
Si 10.5253763463 5.8394274834 26.8924711977 
Si 2.6523378243 10.8113147189 8.0877511035 
Si 3.7522386343 12.3676613331 9.5093162335 
Si 2.5364344732 5.3921040793 17.8830334816 
Si 15.7280765938 7.0162170942 22.3695855598 
Si 15.5690373224 13.6939768552 13.7701562940 
Si 3.0393067778 15.7865251144 25.7880069186 
Si 5.0185255059 13.6485929148 24.0152855272 
Si 16.2267949484 13.5472528239 2.5977560619 
Si 2.7621487153 13.3811111124 28.9274426159 
Si 2.6070190438 13.4888368834 5.3644281283 
Si 16.2109447783 13.5728444141 8.2724272277 
Si 14.5433537530 15.6167181528 12.6794777386 
Si 15.4382774912 8.7696238402 19.2362541342 
Si 0.3129080969 10.8813454295 11.3573333783 
Si 15.7000740836 0.2463080603 26.9132374043 
Si 13.9479216676 3.7553663143 9.8997851730 
Si 2.2981280610 2.8134133457 26.9840936873 
H 10.8484559192 13.3537602021 28.2662536076 
Si 1.5117950928 14.2957294607 22.6086159884 
Si 3.6158587531 12.2468709820 18.7330460140 
H 2.7393101351 2.7930671355 9.4032654654 
Si 3.9369672360 14.9117846864 1.1275086349 
Si 1.2455497014 14.8606666659 4.0255189261 
Si 3.9234791159 14.8672804060 6.6971162306 
Si 1.1112207312 15.0837745080 9.6617185767 
Si 3.6760177236 1.6570351052 16.9660199957 
Si 1.8950482973 13.9665411377 26.7725470848 
Si 8.7568687701 6.4195958387 22.7900209240 
Si 13.3501601121 10.1855832332 13.3904355458 
Si 12.8868562179 2.8979910265 13.7098729601 
Si 2.4875156028 13.7988030062 11.0713672337 
Si 3.1709462690 7.8852234421 22.7932044915 
Si 10.3869602150 8.1263317343 26.1790599990 
Si 4.8392377643 0.4385512390 29.1095193134 
Si 8.0376163935 16.2417491685 2.4801918779 
Si 6.6341351407 1.3865021857 1.1726305935 
Si 5.3619349990 16.2105375283 5.3655087888 
Si 6.7487027117 1.2498779544 6.7559684195 
Si 7.9852440430 16.1472020077 8.2613577589 
Si 10.6005546969 12.1513138411 23.0009249715 
Si 5.1801711774 10.3381227945 24.3953859669 
H 8.4161959970 15.2002317190 20.3290355966 
Si 5.9580512645 9.5757833676 20.9234281007 
Si 7.2310984861 10.9469126801 17.5764471657 
Si 9.8373356100 13.3686003923 13.1251479867 
Si 5.3746574892 2.6674386544 2.6962188406 
Si 7.6102482396 3.1892888092 29.1726649374 
Si 6.7201789215 4.0129275067 4.0937465753 
Si 8.0827396939 2.6423357642 5.4207685116 
Si 5.2816090083 2.5246893831 8.0472993509 
Si 6.8019873022 3.7497788443 9.3081381308 
Si 11.1266728318 11.6625486767 16.8583336332 
Si 4.5889093320 12.5618707149 14.8553731326 
Si 4.9055380649 11.1560925720 17.0174243889 
H 8.6853230894 1.9895465882 16.0952704637 
Si 14.8969444962 7.2369465962 27.6105263161 
H 7.8175547815 2.6275444440 9.5069796702 
Si 9.4457077164 8.5465322882 19.7555553343 
Si 11.7715124877 8.7534804501 19.4724514798 
Si 15.8970527654 14.9479321967 23.8725799218 
Si 5.8395252234 4.9381669352 0.0044221213 
Si 8.1292150643 5.4033604694 2.8385564373 
Si 5.3814015492 5.4034582094 5.4217615510 
Si 8.1065393841 5.4055433294 8.2773632178 
Si 7.4574643282 6.9055102532 17.0671347738 
Si 12.1860929915 10.5666389166 11.4137029686 
Si 2.2597488207 5.2981922285 20.2145439934 
H 8.8306624708 15.8254093447 25.9265359171 
Si 10.1031395424 8.2412088154 23.7600159834 
Si 9.4142354361 15.2979228499 16.5327335332 
Si 14.4562022522 9.4926229168 17.0680109850 
Si 0.0117637584 4.3442661097 14.8385206696 
H 12.0961884806 4.2959825493 22.7533368797 
Si 5.1051231467 5.8972244039 27.2092799782 
Si 9.4151639661 1.7331745659 11.6576985944 
Si 5.3811409092 8.0764191739 2.6411869328 
Si 8.5219018079 7.6751313102 0.1110802207 
Si 6.7947545421 6.6585049809 1.3602040562 
Si 8.1487304845 8.1201415343 5.5688774197 
Si 6.7525471518 6.7330154416 6.8535199385 
Si 5.3467364289 8.1982032150 8.0424509820 
Si 4.3057402594 6.1736982865 11.2565690847 
Si 8.7450911000 9.6619574684 12.5270169813 
Si 2.7455166251 14.5454388730 18.6182039263 
Si 15.0744077579 6.9454859135 12.1844767971 
Si 3.9184943758 11.7871020178 22.9819111874 
Si 16.2899675690 8.8244559807 26.4410179553 
Si 6.7476601517 9.3814436658 4.1207630888 
Si 6.4306730388 9.6571844983 9.5472561806 
Si 8.8682109211 6.3700090783 20.4063466358 
Si 6.1192733960 16.1714415279 19.0623262013 
H 8.3869228667 3.9563523362 17.5207201302 
Si 13.7786848560 16.0976804072 20.3036546774 
Si 15.4704502415 9.4076705660 12.8633360656 
H 16.0818465271 6.2574451772 17.1941269908 
Si 13.9436373975 0.7975600363 16.7948667318 
Si 8.3456928763 2.5556078034 27.0004496306 
Si 5.5794227910 13.7193403855 26.3598223796 
H 7.3203351069 2.0275674485 17.7234462062 
Si 5.5572521008 10.7448678083 0.0543744573 
Si 8.1428986645 10.7197160480 2.8337343547 
Si 6.8898392730 12.0770803105 1.4160303956 
Si 5.4273230596 10.8884315796 5.3562501566 
Si 6.7217101815 12.2345394519 6.8070223283 
Si 8.0090274432 10.9043957797 8.2685134841 
Si 9.7199498689 15.9825426862 20.2581793136 
H 8.8756228712 1.3751073306 23.5935358461 
Si 0.2236454120 1.0241865184 23.6686855642 
Si 10.9334245600 5.3140261086 19.6624724926 
Si 3.6494487334 10.4145880552 26.2318371232 
Si 4.7237416632 0.7585487439 22.4776224067 
Si 6.7485723917 6.1966834767 19.2350274384 
Si 9.3070635251 14.0930981489 23.2936087357 
Si 5.3997277994 13.5960576643 2.5173315521 
Si 8.7818413403 12.7848482369 0.1790797630 
Si 8.0689257738 13.5515208039 5.3699190521 
Si 5.2517820180 13.5723231341 8.1253113591 
Si 1.5862143295 12.0696846504 23.3725845762 
Si 3.8411494551 0.3819842135 18.9669067963 
Si 15.9768574761 1.3524121024 17.9298231623 
Si 5.3956227193 8.5181388179 22.9737624228 
Si 4.7425729034 11.6513411566 20.7655932478 
Si 3.9153504058 15.1488204785 12.4516628139 
Si 6.7283890815 14.9087221664 3.9432426898 
Si 6.1069255759 15.2807857698 9.5106889645 
Si 14.3106348109 13.3025281517 23.1731004819 
Si 0.4352916100 4.8898182147 17.0853307607 
Si 7.0116233141 10.6224647471 13.7563121563 
Si 6.4368143689 1.6045975947 25.8921884361 
Si 11.8949418188 0.4261610649 25.2784900775 
Si 10.8655441294 15.5091878618 22.2200747137 
Si 14.7488683949 6.7366155316 20.2520166278 
Si 10.8864767796 0.0153939850 29.0185393787 
Si 12.1293060509 1.2642180416 1.3940988280 
Si 9.3736081757 1.3198190701 3.9330494323 
Si 10.7106913880 16.2758930089 5.3908312939 
Si 12.1570805012 1.3923470377 6.6525462851 
Si 9.8075411997 0.7598942979 9.5049059702 
Si 1.9580417279 15.0507709676 16.3640044537 
Si 12.3031529325 4.6870402929 25.9272368861 
Si 7.9064330223 11.9019465189 15.5701570623 
Si 13.2091701608 15.2901850998 18.1304171242 
Si 10.5819840968 1.4646892994 27.1003669200 
Si 2.3459717915 8.4636650574 26.8807883810 
Si 4.9712030555 4.6146964022 23.1496764345 
Si 13.7330891456 12.2686181322 14.3427311380 
Si 6.5626220400 13.1497442403 20.6930137493 
Si 9.3600711856 4.1489490079 1.2578859480 
Si 10.7336277082 2.7219449949 2.5965790181 
Si 12.1366528410 4.0964789175 3.9373428674 
Si 9.4110425961 4.0011661266 6.8426257120 
Si 10.7063745379 2.4817652327 8.1295755871 
Si 11.6728765368 3.7343033442 9.8704320962 
Si 14.3921662616 3.4461169515 22.0283304854 
Si 12.8594401476 14.3037441408 21.5863403245 
Si 6.9768767438 15.4368439712 16.9410187681 
Si 10.0312843517 11.4350588246 11.7114979650 
Si 0.0714065641 13.6938954052 15.9917899152 
Si 10.2621951039 5.9862003847 0.0353060561 
Si 10.8661794394 5.3418657189 5.5245119234 
H 0.3986684316 8.1891948449 22.2891493671 
Si 11.9024515089 14.4320604720 28.0411549378 
Si 0.8007365863 5.2178825277 23.1314220335 
Si 11.5166554353 1.3284397381 23.1509031303 
Si 15.0010538872 4.4797826210 11.8371466581 
Si 10.8861021096 8.1489422545 2.8243968635 
Si 12.1016619207 6.9293425234 1.2053015903 
Si 9.5178235470 6.7625655018 4.1927000324 
Si 12.1631892512 6.6475418108 7.0314492361 
Si 9.2919301150 6.7557237018 9.9118476812 
Si 10.8331921891 8.0134583233 8.4910419343 
Si 5.7852143629 4.2951354693 11.3367424139 
Si 4.0863139574 4.0072585866 20.9906335035 
Si 13.5046870535 11.6949331970 16.6702986992 
Si 2.9892476073 5.8182993532 23.9350829909 
Si 4.3083303694 3.9435972661 17.3795624981 
Si 0.6909468723 6.3168873878 13.6549345148 
Si 7.1016418549 13.3068612917 22.9447014164 
Si 5.7023797122 4.0508669170 19.2905208175 
Si 9.4861557868 9.4068723560 1.4184312144 
Si 12.2042889216 9.4811221767 4.2431405933 
Si 9.4766912967 9.4503014964 7.0521278216 
Si 12.6939174561 9.0812841231 9.5838233967 
Si 13.3945666525 8.5338097980 15.0927095529 
Si 8.4981672777 8.9214955116 17.6503993951 
Si 12.2344742919 2.3426323414 17.4953684181 
H 12.5297957046 13.1444174102 13.9917793258 
Si 4.6811758928 10.7574762684 10.8889984658 
Si 9.7148185188 5.4846801502 11.9956532730 
Si 6.6386963407 13.8407171766 15.2265362176 
Si 10.5414057064 10.9993990606 0.0414932758 
Si 12.1811897014 12.1231484309 1.3461291829 
Si 9.5219286271 12.1609412312 4.1219313705 
Si 10.8270182790 10.8328338091 5.6308255550 
Si 12.2144538817 12.1824277414 7.0046663789 
Si 9.2684236448 12.3574637930 9.6571038641 
Si 0.9910624321 11.5016523452 16.0856321400 
Si 11.2574815330 2.7056061247 15.3910010690 
Si 11.6399707365 14.4460372921 25.7482853420 
Si 10.9478412101 6.4746723292 13.7457976213 
Si 8.4786192775 4.9027524748 16.3636247622 
Si 7.0427209244 4.0858089674 14.7351277423 
Si 5.0776744964 7.9316173625 19.5063900622 
Si 10.8360429391 13.5699447941 2.6749123037 
Si 10.7787998786 13.6113213945 8.2885787217 
Si 7.4366619980 5.2818370683 12.7468875906 
Si 2.4772040327 9.7959101396 11.3895487452 
Si 9.3004660751 14.4453368221 25.5647482924 
Si 14.7029143045 13.4204677527 17.7197369119 
Si 1.1325003584 4.8234527541 26.9911325843 
Si 11.1840136323 2.8964760565 19.7026613819 
H 13.8177156964 4.8535729644 22.0454458118 
Si 9.4874264068 14.8749041260 1.1556350160 
Si 12.1367668710 14.8739918860 4.1458811446 
Si 9.3826654158 14.8620187359 6.8119291112 
Si 11.6978002370 15.4589983714 9.5026278210 
Si 2.5000426129 11.5263805654 14.3125894711 
Si 11.6598282466 12.3416624929 20.9024282378 
Si 11.0275644709 3.4073630412 12.0820769092 
H 6.2162640569 14.6912995344 20.1861255419 
Si 12.4471565338 6.8383465825 20.6829081129 
Si 0.2685390235 3.8473396552 20.9665084871 
Si 10.4071923952 12.6939500361 18.9212269832 
Si 8.1671218947 8.1683925147 26.9987264151 
Si 13.4880712534 16.2132579583 2.7529973295 
Si 14.9079891163 1.3793916006 3.9719240047 
Si 13.4277330928 0.1118446975 8.1428063770 
Si 14.8176773555 1.5941833976 9.3598053874 
Si 9.7148999688 8.4146321570 14.2744450747 
Si 7.7264611007 8.2782196957 10.8977313713 
Si 3.4947426020 15.3314802502 23.5334569615 
Si 4.8402477443 2.5960721637 12.6894957539 
Si 8.3757805066 0.6065907355 13.3977373062 
Si 1.3113433830 1.0661593328 25.7893796496 
Si 9.8913858305 13.1536049703 15.4741535165 
H 2.5591916034 3.3007938602 14.8776873124 
Si 8.6367463090 4.6921716429 26.0166396405 
Si 12.4195938536 12.6096167053 24.4843506157 
Si 13.5458030139 2.6425475342 0.1684606668 
Si 14.9235949365 4.2230359286 1.1658282735 
Si 13.5330642338 2.7812894654 5.3157107829 
Si 14.9656231369 4.1514739580 6.6674126693 
Si 6.5171892296 6.5002964994 23.5615249285 
Si 16.0402092867 12.4339616337 19.4419885354 
Si 12.5980996752 14.6726637742 11.5631846077 
Si 9.0997569832 10.3262310944 23.1674635229 
Si 5.1622195972 16.0921418072 26.8424395354 
Si 5.3257711987 0.4193241518 15.6770840417 
Si 15.6484836531 11.2289577427 22.9454315924 
H 11.0445386510 14.3623555614 12.5739234901 
Si 13.4596289131 5.4953663903 2.5350397814 
Si 13.8778257969 5.5347067406 8.3074464706 
Si 2.8790783363 7.5976560695 20.4795102751 
Si 7.7498861209 12.8191712672 26.1921739606 
Si 1.8525151069 11.8598694485 25.7234885637 
Si 13.2354622210 11.0054263607 25.9958150198 
Si 6.9576219636 6.3868366484 25.9110269780 
H 8.1851386349 12.8194970672 27.8821810102 
Si 13.9205055973 1.4531673823 25.9124873300 
Si 1.1271523513 12.6290995455 12.6532498152 
Si 10.6409701873 5.0026101758 15.6202179317 
Si 13.2945786316 8.3906369867 28.9251936737 
Si 14.7603691350 6.7944450321 4.0227734642 
Si 13.5081894035 8.0469831436 5.6054738428 
Si 14.5298819229 7.4009054477 9.7749834841 
Si 16.1125368874 0.1417008469 19.9904675701 
H 3.4925760319 3.1321597786 26.1092843765 
Si 13.9772925378 4.6141099622 14.9651331951 
Si 16.0024816464 0.2879957996 10.9754513090 
Si 14.1588771695 6.1170090859 25.6417088471 
H 7.5045750086 9.4997416469 26.7981324532 
H 14.8342768657 1.5539633872 0.0298636159 
Si 13.4541228930 12.5123654044 11.1296352818 
Si 14.8015665454 9.4910916568 1.2422864671 
Si 15.0019498372 9.4609877365 6.7832477964 
Si 1.2306785603 1.6837669954 12.1484061007 
Si 5.9667989946 2.3979368919 23.6695033614 
Si 5.4209373796 8.8034907505 13.9438797776 
Si 14.9781175670 2.7080333348 24.2265400593 
Si 0.3480830942 1.9730773980 14.3845848287 
Si 15.9423715458 4.6615953126 25.1266718751 
Si 15.9262933157 14.3411622712 26.1860696889 
Si 13.5213517237 10.8019968388 2.7562772803 
Si 14.8669546060 12.2336272119 4.0442698468 
Si 13.6952963453 10.7427989783 8.2257835822 
Si 15.1572749886 11.9485684993 9.6651650076 
Si 14.3669819214 1.0629143647 14.3523402547 
Si 12.8048197771 1.8682186671 21.1987336751 
Si 15.5226596920 3.6013117829 18.5991317282 
Si 2.9425441769 6.2364310770 26.3090605412 
Si 3.4962575720 1.0262113654 11.6233803204 
Si 7.3286592970 11.3781741441 24.3165561615 
Si 5.5886266411 12.0988437507 12.6163029075 
Si 13.6363265447 13.3888325725 29.1449766619 
Si 13.5024553235 13.5223942837 5.5211239066 
Si 14.8779829361 9.7365493790 24.7313545667 
Si 8.2227033752 2.4550822125 22.7476122995 
Si 9.0626320729 1.9510207378 20.4555020868 
Si 0.9680023079 14.3640823014 20.2334117423 
Si 2.4297838422 7.6699999601 17.1742369954 
Si 4.4117718703 12.0936146606 27.7604460607 
Si 12.2019431616 8.1984801450 17.1937472992 
Si 14.8241770656 14.9193432464 1.2850484967 
Si 14.8244539956 14.9198808165 6.8888604589 
Si 11.3996769443 3.6532117234 23.9133237449 
Si 1.0099213652 1.6112797527 21.4653355510 
Si 9.2030844542 4.3377501097 23.7675514001 
Si 8.2676149056 10.1386517427 20.9466476988 
Si 1.4334076121 1.0767054788 16.3261229207 
Si 13.5499732539 4.2745937791 17.3278368273 

