&CONTROL
  dt          = 30.D0,
  prefix = 'aSiHcSi_merged-26',
  pseudo_dir = './',
  outdir='./',
 wf_collect=.true.,
 verbosity ="high",
/

&SYSTEM
    ibrav= 0, nat=  388, ntyp= 2,
  ecutwfc     = 42.D0,
  nbnd=1468,
  degauss     = 0.05D0,
  occupations = "smearing",
  smearing    = "methfessel-paxton",
/
&ELECTRONS
  electron_maxstep=200,
  conv_thr    = 1.D-8,
  mixing_beta = 0.3D0,
  scf_must_converge=.false.,
/
&IONS
/
ATOMIC_SPECIES
Si  28.08  Si.pbe-hgh.UPF
H  1.00784  H.pbe-hgh.UPF

K_POINTS {automatic}
2 2 2 0 0 0

CELL_PARAMETERS angstrom
16.29000014898320 0.00000000000000 0.00000000000000
0.00000000000000 16.29000014898320 0.00000000000000
0.00000000000000 0.00000000000000 29.17113846505263

ATOMIC_POSITIONS angstrom
Si 15.5518350822 0.3172053989 29.0156271259 
Si 15.9443100558 2.6686604044 2.5501846813 
Si 2.4531925724 16.1589470978 2.4548008928 
Si 2.0468385187 3.0311129077 29.1468972490 
Si 0.9746551439 1.3016557199 1.1701681313 
Si 3.7668344745 3.9152689558 1.3556032243 
Si 1.0734051248 3.9278937059 3.9821521119 
Si 3.7850466946 1.1688694127 3.9536519096 
Si 15.9851002162 16.1105983773 5.2228881442 
Si 2.4543002924 2.5477071533 5.3441525668 
Si 1.0475528946 1.1390815184 6.6219651161 
Si 3.8481052852 3.8814509155 6.7571441718 
Si 16.0807062271 2.5823396936 7.9639249989 
Si 2.3296817913 16.2673896288 8.2110628840 
Si 1.3469973063 3.6399679533 9.3828966873 
Si 3.1158371985 1.8232256867 9.5315236378 
Si 10.9927201605 12.9025923580 26.5270664746 
Si 9.5577666274 13.2597180313 17.1525127329 
Si 14.0446516884 7.0751543147 16.9587580312 
Si 1.7346243759 15.3461901204 20.1838899288 
Si 1.2327164393 6.4959470694 12.3145669319 
Si 13.0155146390 8.6145104588 22.8991394971 
Si 9.4256547262 3.9000540957 12.3967420289 
Si 13.5018200135 5.0409568361 24.1975760413 
Si 8.7677830702 5.2118715177 21.6126339485 
Si 3.1086044384 12.5961774552 26.8231243589 
Si 2.4962307528 13.4462874030 10.8621651188 
Si 6.8374180525 9.2317385644 16.1097320462 
Si 9.8768062803 12.7379656165 19.4687886404 
Si 12.6880693460 7.2100029359 21.0242812568 
Si 0.8167235925 5.0475868662 28.5246768655 
Si 16.0145362465 7.8509329918 2.6135910679 
Si 2.4915229428 5.3229693187 2.7141002255 
Si 2.1002045592 8.4814211576 0.2219491904 
Si 1.1686641587 6.5729499001 1.2110427305 
Si 3.7739532045 6.6160858205 4.1890921681 
Si 16.0317873566 5.2816090083 5.3632304914 
Si 2.4085742620 8.0231508734 5.4568990170 
Si 1.0941716170 6.6037217104 6.7942206888 
Si 15.9990770363 7.9198885624 8.1497743221 
Si 2.5147361930 5.2482470880 8.1296170654 
Si 3.8930656856 6.5382684898 9.5983838871 
Si 2.2385066605 5.0636976763 13.9523805010 
Si 4.1271366977 3.9479466961 16.6650338380 
H 3.8024444148 7.1109108650 12.9315073393 
Si 2.8319839459 15.9243222256 24.2172665598 
Si 5.7589223027 15.5789416425 11.7945330465 
Si 14.8683229660 14.4310830720 12.5206026829 
Si 12.1020528807 6.4442100289 12.2052043338 
Si 4.7530962435 9.2746464248 21.1384862639 
Si 2.8420674560 8.6492570291 22.3458213427 
Si 4.4275731705 4.4770459009 13.2275943947 
Si 1.8696358971 5.9812482247 26.5895218820 
Si 10.3874000450 5.3582860390 18.4084469284 
Si 1.2244248292 14.9439248567 22.7207871565 
Si 11.8140945480 6.2328635670 16.6603664559 
Si 0.3302211090 3.1160000985 24.6189239653 
Si 3.8350732851 9.3913642759 1.4974828904 
Si 0.3257723100 10.1246586326 0.0302210077 
Si 2.4809344427 10.7951876187 2.7750387337 
Si 1.1637201436 11.9800244896 1.2181663225 
Si 1.0696209578 9.3062490251 3.9762887130 
Si 3.8065006248 12.1150197208 4.1836955075 
Si 3.8128374349 9.3324922154 6.8227792333 
Si 16.0120601664 10.6970077878 5.3599049816 
Si 1.0917541810 12.0706294704 6.7703878686 
Si 1.0842835869 9.2703295748 9.4987644493 
Si 2.4450801524 10.6872500777 8.1688522466 
Si 3.8316523850 12.0776341705 9.4937178423 
Si 16.1329319675 10.6112409370 10.9906931549 
Si 11.2406539628 1.4788290195 18.8005070293 
Si 6.4780606492 10.0729541721 18.3333895891 
Si 6.5360693398 12.8951966979 14.4901796097 
Si 7.6804744302 0.9060498083 15.1092786814 
Si 8.7568850601 12.7348379365 23.1825954496 
Si 11.6840026069 8.4509588573 24.7794819114 
Si 6.8202321024 11.6525140366 24.0054257522 
H 12.1807987414 2.3439355414 19.5944870761 
Si 12.2165715817 4.2041883985 15.3285289581 
Si 6.6865237812 1.2193293172 12.9235436185 
Si 9.7009720187 15.0244789074 12.9191096054 
Si 9.9128560507 3.1267840786 17.7432574580 
Si 16.0136891665 13.3807038624 2.5051181895 
Si 2.3772974617 13.4417424929 28.9734164885 
Si 3.8740063854 14.7001775844 1.1608246156 
Si 1.0965711340 14.7688073551 3.8544700388 
Si 2.3962427319 13.5199507836 5.4283404724 
Si 3.7305240641 14.9037700063 6.8225458642 
H 8.2246907552 10.0952226023 13.2443677993 
Si 16.0547725468 13.4464991730 8.1692314714 
Si 1.0312042504 14.8621979259 9.6159157413 
Si 14.5220301428 2.6289779640 19.0733446874 
Si 10.3472940646 2.6614928043 25.7976713284 
Si 13.5668334041 13.1205688500 16.5665812457 
Si 3.5780007927 1.0381910315 11.7230637572 
H 1.3424084133 14.5028405226 28.7033792598 
Si 7.7541541009 15.9013696154 20.9149186587 
Si 15.4948689517 6.1320773361 23.3629605987 
Si 10.9845100005 5.5296568406 20.8024347488 
Si 11.3673412940 13.5818690742 13.7459363541 
H 6.6329785507 3.0847070082 18.1123598730 
Si 9.9245359808 0.3213870419 14.6988991055 
Si 1.6152887218 2.8884287964 21.0072744831 
Si 8.9262033216 10.1409975027 26.6862825483 
Si 7.0546289145 11.5604592457 26.3214974618 
Si 11.0906556414 15.6591698932 24.0102098190 
Si 8.2923431258 13.6069556744 21.0274317398 
Si 5.7158026723 15.4906009717 29.0748737081 
Si 5.1614865472 2.4614678925 2.5539302555 
Si 7.8518126518 16.2124271683 2.6330132119 
Si 7.8510633118 2.6216148840 28.9389070317 
Si 6.5175801896 1.1449442895 1.0783694756 
Si 6.4961751294 3.8499949252 3.9741883911 
Si 5.1395439170 16.1756932179 5.4268819155 
Si 7.7898292012 2.5331764732 5.4830655282 
Si 6.4538211290 1.1765599218 6.9490027495 
Si 5.0664018163 2.5799450636 8.3211547606 
Si 7.8792938821 16.1128789774 8.3440832754 
Si 6.5373399598 3.8158347949 9.7478859718 
Si 7.9157183224 2.4902034528 11.2208826086 
Si 6.7561798218 6.7472854817 12.1888684962 
Si 13.4318707528 10.5914160069 13.6410077690 
Si 5.8357948134 5.2530363480 26.0032111700 
Si 0.5593024941 3.3623049008 14.1703180765 
Si 3.6217231531 1.7517940360 15.7075203890 
Si 8.5263163980 5.8261837133 13.4769201152 
Si 9.5216191171 14.0268630083 25.0534280727 
Si 0.5989442095 2.5845225536 18.9125533722 
Si 8.9422815518 5.9371837743 27.5690303694 
Si 10.1646342930 10.5182413262 20.4183091975 
Si 0.1469628427 16.2805519489 26.7468710029 
Si 2.1097179193 5.2047853676 20.7706382079 
Si 5.0281691860 5.3005216985 29.1173760569 
Si 5.1006433966 7.9644091328 2.8500873217 
Si 7.8338936516 5.2689190982 2.6217152300 
Si 7.2279219361 8.5766036284 0.2532533225 
Si 6.3645845082 6.6846504311 1.3667174280 
Si 5.2076686976 5.2214174578 5.4086207828 
Si 7.8789029221 7.9617864428 5.4488769539 
Si 6.5464297799 6.5672484001 6.8330183029 
Si 5.1706578173 7.9454149927 8.1754740951 
Si 7.8591268619 5.1872899074 8.2631917084 
Si 5.2758423483 5.2748323682 11.1131535942 
Si 9.6219655180 9.4475321964 24.4845908727 
Si 12.2935418324 4.0642410072 22.2909212601 
H 11.4452889447 8.3176740761 18.4875007136 
Si 1.3627578815 11.9331744491 12.2796490791 
Si 7.1689032656 0.6888275433 25.9562748082 
H 15.6802654434 13.0578686394 26.7907443952 
H 13.9933870580 1.7334840759 16.1190084682 
Si 14.8566430359 9.1770530339 12.4086730246 
Si 5.8506512935 15.1970225890 26.6693632880 
Si 4.6103306822 2.1685736898 13.4896387315 
Si 8.1903351449 1.3769204076 22.4804753178 
Si 3.2738664899 10.2010424433 24.1915959579 
H 9.2985438550 9.3224901553 17.9650747948 
Si 5.5529841208 10.3205784644 0.2062597853 
Si 7.9242542825 10.8073236688 2.7738397999 
Si 6.5447844899 12.1046918607 1.3815626204 
Si 6.5402069998 9.3758561957 4.0896477571 
Si 5.1873387774 10.7182173680 5.4879954506 
Si 6.5423572798 12.1313423009 6.8058599730 
Si 6.5902010103 9.4008287660 9.3741161746 
Si 7.9918903631 10.7144869580 8.0451666196 
Si 12.5367678247 12.2130529417 22.9903284759 
Si 14.5148136727 3.5564002525 25.7997424792 
Si 10.3706213448 11.0409548510 22.7607224451 
Si 15.4318429411 10.0013596215 20.9358343650 
Si 6.6690446110 15.8281949348 16.8436195477 
Si 14.6842785443 1.4840027236 11.4346195401 
Si 8.2876516058 6.2997177276 17.6207095053 
Si 14.8247635056 15.6769911534 25.1521140342 
Si 10.0299485717 5.0580613363 25.6477316767 
Si 15.1967945290 3.6220489531 12.4410821594 
Si 3.7194957340 1.7578864961 21.0357455142 
Si 14.3705983014 0.2611124124 19.3509664122 
Si 0.3211215149 0.2586135264 18.6143659948 
Si 5.0998614766 13.4058882026 2.7138960275 
Si 7.4869818085 13.8423787566 0.0321524288 
Si 6.4994982894 14.8228249956 4.0149988138 
Si 7.8810369121 13.4976497734 5.4274945094 
Si 5.0938993366 13.4994253835 8.1237828377 
Si 6.4459041890 14.7143824646 9.6280801061 
Si 16.0431577767 2.3961938619 22.4581302258 
Si 7.2265535761 13.5175072836 16.6316328845 
Si 3.8530574452 16.2051455382 19.5245638572 
Si 13.1003529598 15.2604232696 13.8728891487 
Si 11.3530712538 12.4208318936 15.8196542453 
H 0.9802914840 15.0303595975 26.6986802822 
H 13.0870766097 9.9828053113 16.6354834747 
Si 7.9571926628 8.0748553339 10.7199558188 
Si 10.2918754841 7.4471201781 13.4002291921 
Si 3.3113497803 14.0907360989 16.3184515419 
Si 15.6229409329 0.0617125479 22.9845817617 
Si 0.4025878057 6.1680619464 19.5175336128 
Si 0.2705459515 12.7625635167 23.7848627743 
Si 11.8506330184 13.9644560177 19.7425014327 
Si 13.4786230533 7.8786097021 10.9495910208 
Si 3.5184934222 12.1330201710 17.7607893122 
Si 5.4946822103 5.2092651176 15.2352104861 
H 12.4291397937 1.0359544145 22.4183699641 
Si 9.1894334340 3.8265861950 1.3085093383 
Si 10.3872045650 16.1912501681 28.8416796272 
Si 10.5551055965 2.4952207728 2.6774700269 
Si 11.7963384479 1.0437573245 1.2446099595 
Si 9.1704067139 1.1966585239 4.0945193372 
Si 11.9117368089 3.8818581655 4.0117608174 
Si 9.1956562141 3.8824446055 6.8129485597 
Si 10.5348897063 16.0673810069 5.3920224050 
Si 11.8943227988 1.1328098684 6.7361409521 
Si 9.2791424649 1.1560589566 9.7558205214 
Si 10.5210106262 2.4464973824 8.1537999392 
Si 11.9459783893 3.8478609352 9.3668817323 
Si 8.8989175714 8.4078555169 16.8249208479 
Si 1.7128609357 1.4062505529 25.6042958515 
Si 10.7964256587 16.1262204875 11.0624249844 
Si 7.9023116523 0.2933666127 18.6789508954 
Si 15.0090685673 13.3443771620 25.4680374637 
Si 0.0774574846 10.5431813164 16.2855173266 
Si 1.0328299924 8.2499076755 18.6530760955 
Si 10.6943036478 5.1490735671 10.8360861211 
Si 6.4861567793 4.2186864986 24.0684937536 
Si 14.9043401563 8.6556427092 26.1777420915 
H 14.6164958537 6.1067463859 17.9784935185 
Si 12.6154485254 0.7398103568 12.3526352676 
Si 4.9668210454 10.1159271925 12.8030959878 
H 10.3310040645 0.9024708953 19.8517181751 
Si 10.5042645061 5.2803709683 0.0341591114 
Si 10.4676608757 8.0864049440 2.6654019269 
Si 11.8015838279 6.6950271612 1.3685114530 
Si 9.1867130040 6.6218850606 4.0266964403 
Si 10.5605464566 5.2490127180 5.4037783738 
Si 11.9778742095 6.6084621004 6.7460007969 
Si 9.3123089052 6.5708484901 9.5120664884 
Si 10.6696731676 7.9631873828 8.1592841132 
Si 4.7984638939 8.4610097874 18.8308741845 
Si 6.8939932231 8.5421014081 21.8381268488 
Si 16.2791510089 5.0360861261 10.8658115112 
Si 6.2118657568 7.6141741296 25.7254435896 
Si 1.7486011960 9.3139216152 15.1164839526 
Si 1.4580657853 9.6068972679 20.5543633873 
Si 3.8427947451 4.7883478038 27.0228883151 
Si 12.9724112986 9.9708810312 26.0561276152 
Si 5.1559805272 5.1821096874 22.3630906567 
Si 12.1126088008 6.2996525676 25.6311332989 
Si 12.9200878182 12.1977403416 25.3097840376 
Si 12.0693099804 10.1331945927 15.5134156337 
Si 1.0467823776 14.1540553294 15.7226018676 
Si 4.5406420615 11.6778612768 21.4025142381 
Si 4.8371200642 4.5134214713 18.8166386689 
H 11.2811020332 2.7714177253 22.8211942151 
Si 14.8647391659 4.7498871134 27.9331445197 
Si 2.4415778023 7.8994283222 10.8344525373 
Si 8.0480257036 9.5662862975 20.1006354996 
Si 9.1547520237 9.5090106570 1.2591226009 
Si 10.2119567434 10.9095108398 28.7125098261 
Si 11.8915697888 12.0409816701 1.0648690728 
Si 11.9781837195 9.3896864059 3.9425960481 
Si 9.2904965950 12.1469807011 4.0978740182 
Si 9.3306188653 9.3123414852 6.7282064024 
Si 10.6711392676 10.7281216881 5.3926058278 
Si 11.9879577196 12.0455265802 6.8487707177 
Si 10.6989137178 10.6716116776 10.9446027561 
Si 12.0667850304 9.2651656447 9.5873571968 
Si 9.2856258849 11.9828915296 9.5577776624 
H 12.1482187411 1.9942543982 13.1171524645 
H 3.5400125124 10.8532777593 16.9266406078 
Si 13.8875509270 15.4436206112 16.1249885516 
Si 4.2996152193 9.0737581430 26.0003232273 
H 16.2126226483 9.2512214046 23.4354508778 
Si 0.9230402784 12.4921820942 17.3585484839 
Si 10.4935782660 2.7616600153 14.2612736862 
Si 8.4908041977 5.5498401508 23.8952463623 
H 9.3682813457 16.2812198389 17.9155713729 
Si 2.4577049025 5.5907932111 16.3624707898 
Si 12.6287574555 2.1566494097 26.3245312602 
Si 3.1534833888 2.5024535329 27.1405355165 
Si 12.6505046057 16.1456055877 25.7986631471 
Si 0.7954407073 4.6429595525 17.7621020134 
Si 1.0027016372 13.2155721309 19.5928534923 
Si 9.2037523442 14.8628821059 1.2501145534 
Si 10.5845904968 13.4022392426 2.5569377999 
Si 11.9185786090 14.7066447145 4.0193453134 
Si 9.2222903643 14.7864005552 6.8884142949 
Si 10.6261951572 13.4217220828 8.2365292879 
Si 12.0583956803 14.7415053148 9.5993757058 
Si 0.0437422342 13.1424951902 13.8086834729 
Si 0.5440843760 9.7972622096 26.8447985147 
Si 15.1181138283 8.3296960962 23.9071481868 
H 3.3809569509 5.1092282267 19.6072640347 
Si 5.8832964538 12.3738189532 18.2204972832 
Si 5.1494645271 7.5536893591 15.6649888691 
Si 0.0014608726 15.9846603862 11.5024132659 
Si 14.8675247560 11.8122863580 15.0270744132 
Si 13.8358953365 3.1024631084 16.7563103303 
Si 3.6746167836 14.6156813537 12.5535368982 
Si 12.2082148117 14.4383647020 22.1483619064 
Si 7.5005839586 14.0944990889 12.6986633121 
Si 12.1578298412 9.8378243100 28.1892379443 
Si 2.9318253568 7.9505952127 16.9372880733 
H 12.6994397661 2.9530512270 10.3603048527 
Si 9.0294819226 1.3527916594 27.3375282146 
Si 13.5338461538 5.0695132064 13.5277654095 
Si 4.5502205816 12.1989295116 23.6997997345 
Si 13.2356251210 16.0723983270 2.6325289710 
Si 13.6898880652 1.8851602672 0.1519084118 
Si 14.4739420624 3.9023346957 1.0595686769 
Si 14.5969967235 1.2428080944 3.9190257682 
Si 13.2678141613 2.5311890931 5.3921099184 
Si 14.6721587842 3.9246194159 6.6880377447 
Si 13.2986674216 16.1093929173 8.0938240785 
Si 14.3797695715 1.5823731475 9.1533781698 
Si 9.3376887254 9.2335141744 12.1972114418 
Si 6.9865530039 4.5992209021 27.9608571013 
Si 4.1347604178 13.0903671897 14.3582677216 
Si 15.1553364786 13.3227277518 20.5356063452 
Si 2.9507706270 6.1823156965 22.7339725111 
Si 4.9231312650 10.9954894606 27.2217479660 
Si 6.4239941388 1.7697456162 24.0007000278 
Si 14.9620556268 6.3751730083 14.9186452915 
Si 7.9087299123 2.6106842939 18.8045326464 
Si 7.7118326805 3.1570997689 21.0350454069 
Si 16.2599776787 16.1222131474 16.3043327109 
Si 7.8098170314 7.8909086522 23.9410158785 
Si 10.8191827889 8.1189686543 15.5471082986 
Si 1.2549099355 5.3315704388 24.3483033138 
Si 4.0784295973 14.1603432695 25.3005076155 
Si 13.2098054708 5.2470090480 2.5866602729 
Si 13.1414852102 8.0167163233 0.0103119683 
Si 14.6282246538 6.5610744900 3.9820354273 
Si 13.2969406816 7.9775062930 5.3295961687 
Si 13.3619866522 5.2455103680 8.1152648653 
Si 14.7945781353 6.4526482490 9.5732967080 
Si 5.6272991015 11.0964060115 10.7112336484 
Si 6.8311138225 10.6020045070 14.1734393883 
Si 13.9128818772 10.2671961339 19.1487520803 
Si 7.7878581112 5.1124699368 15.5959991267 
Si 14.8716787060 5.9683139646 21.0521688652 
H 11.5289706754 4.4478216407 28.4411598961 
Si 5.3385914288 3.4152636912 20.8109818924 
Si 5.4556839499 15.3874364007 21.0472389428 
Si 1.3937691547 1.2401740013 14.8772514460 
Si 13.8223257664 6.7999836322 27.2984972313 
Si 11.8567906384 14.8033421554 27.6135746978 
Si 15.6884430235 4.3717636300 15.9514494489 
Si 2.6423520542 11.6126198262 19.9927022873 
Si 10.2334921236 1.5753342384 23.6507047085 
Si 6.7745386520 6.3863968184 21.0725886621 
Si 14.7472068149 9.2474909946 1.2218856427 
Si 13.3247802919 10.7150408180 2.4805269198 
Si 14.6420222839 12.0541928602 3.9464466384 
Si 14.6703017242 9.2997330251 6.7390872371 
Si 13.3721516123 10.6490174474 8.1790329740 
Si 14.8081965754 11.9698921095 9.5233848901 
Si 14.2797489706 15.3456036803 21.3754142505 
Si 2.3513963615 8.2268084552 27.0621818386 
Si 1.5733843254 11.3847064341 25.3528406379 
Si 15.2629156396 9.0187956825 17.6754345610 
Si 7.3878245776 12.8099022572 10.7371959617 
Si 4.5995467021 0.5229513588 22.8911757763 
H 3.2672364599 8.9671726720 11.5412983935 
H 14.9655091069 8.6283895389 21.3971467487 
Si 12.3790480432 15.7856291644 18.0865142443 
Si 6.0424986253 13.1559344403 20.4231807776 
Si 13.6309345547 12.6092257453 18.8878454179 
Si 6.1655858664 6.4649471991 18.8143049778 
Si 8.6945920995 2.9691457472 15.7509562142 
Si 14.3485579312 3.6461744433 21.1990747185 
H 4.2658297590 1.5302255990 27.4526666981 
H 12.7568294367 1.0388295995 21.7176500470 
H 6.9061455632 10.2549134738 23.4048795247 
Si 14.8653418960 11.8109668680 22.3141706575 
Si 13.2180482109 13.5727629641 29.0440106436 
Si 14.6558036240 14.8281355356 1.1860897386 
Si 13.3098749417 13.3811599824 5.4032241222 
Si 14.7029631745 14.7707458651 6.7217595808 
Si 13.5156502236 13.3420314020 10.8866105329 
Si 10.3792387549 15.4658890414 16.7617069909 
Si 5.0515290462 7.8698945520 13.3546638739 
Si 7.9398763926 8.0730634338 27.2883456751 
Si 11.9650865594 9.0651733129 19.6974611949 
Si 4.3214275295 16.1588493578 17.1062764784 
H 12.7221806064 2.3901502719 27.9369951100 
Si 12.1647856713 11.9896844597 12.2296205767 
Si 0.1055992744 7.9310472125 13.7900722866 
Si 2.9861036373 11.0008651606 13.7531999676 
Si 7.7138526405 13.7518552258 26.7886440732 
Si 1.8798497272 16.2459845686 12.9149381326 

