&CONTROL
  dt          = 30.D0,
  prefix = 'aSiHcSi_merged-6',
  pseudo_dir = './',
  outdir='./',
 wf_collect=.true.,
 verbosity ="high",
/

&SYSTEM
    ibrav= 0, nat=  388, ntyp= 2,
  ecutwfc     = 42.D0,
  nbnd=1468,
  degauss     = 0.05D0,
  occupations = "smearing",
  smearing    = "methfessel-paxton",
/
&ELECTRONS
  electron_maxstep=200,
  conv_thr    = 1.D-8,
  mixing_beta = 0.3D0,
  scf_must_converge=.false.,
/
&IONS
/
ATOMIC_SPECIES
Si  28.08  Si.pbe-hgh.UPF
H  1.00784  H.pbe-hgh.UPF

K_POINTS {automatic}
2 2 2 0 0 0

CELL_PARAMETERS angstrom
16.29000014898320 0.00000000000000 0.00000000000000
0.00000000000000 16.29000014898320 0.00000000000000
0.00000000000000 0.00000000000000 29.24716389574793

ATOMIC_POSITIONS angstrom
Si 16.0636831769 0.0448999645 29.0789049619 
Si 2.5746508135 0.0512838527 2.6308789081 
Si 1.1838057138 1.4015916128 1.2235989723 
Si 3.9258900359 1.3758794766 4.0507614467 
Si 16.2557911487 16.2295805384 5.5099024535 
Si 1.3092093930 1.2831209577 6.9483364682 
Si 2.6644575844 16.1824046980 8.3276034704 
Si 4.1343694578 1.1763905058 9.7083913250 
Si 7.6640052401 10.2189451535 14.1992640941 
Si 2.6966303347 5.0119117658 15.5443704088 
Si 1.5686553383 1.5637341293 24.9493809028 
Si 14.7428736748 3.9412352160 12.4036637139 
Si 14.7658099950 6.3235988678 15.3600255348 
Si 12.0005335998 4.1332943178 15.1901580069 
Si 2.7345208750 13.9765431978 19.2009385805 
Si 16.2093320682 2.7000186547 2.7574109132 
Si 2.4838992227 2.9010372565 29.1379842329 
Si 3.8845297255 4.1085823876 1.3721160706 
Si 1.2419887074 4.0173258067 4.2294031238 
Si 2.6354939641 2.6710876144 5.5654720649 
Si 4.0016059566 4.0522678571 6.9207856398 
Si 16.2633659987 2.6829304445 8.3179226591 
Si 1.3980680858 3.9550328462 9.7612117030 
Si 2.7053129047 13.6290774946 11.2367018744 
Si 1.3305851312 13.8320346065 14.2125715536 
Si 11.7769859277 12.9554371185 18.7495086058 
Si 14.3029459308 15.1191075183 14.5197837632 
Si 9.2142431043 3.5932808129 18.7372247970 
Si 5.1569090572 13.5313863638 26.4689173030 
Si 3.7400048442 7.9386057726 18.3510159977 
Si 16.2238790384 5.5273925306 -0.0057549937 
Si 2.5927978737 5.3715786791 2.8776635523 
Si 16.2307371284 5.4368852897 5.6009781219 
Si 2.7512018352 5.4022527494 8.4266928616 
Si 2.6501549642 8.1341509344 27.2001256475 
Si 2.4483870224 0.0164980235 19.5000493257 
Si 7.8860705221 8.0347656435 10.9162699468 
Si 7.3906264576 1.9192878176 21.7877624856 
Si 8.1046008741 9.0410315327 18.2536521891 
Si 1.2548235985 14.9765211470 27.8115668559 
Si 1.1384624984 8.3310807462 22.5850694206 
Si 11.8867479487 15.0944933280 19.9403946253 
Si 16.2763328389 8.1462381145 2.7657668280 
Si 3.1590219889 7.5612967892 0.1571710416 
Si 1.3384499432 6.7338299416 1.4358690384 
Si 3.9596917862 6.7860393921 4.1888373075 
Si 2.6156364539 8.1316911444 5.5910340861 
Si 1.3332289982 6.7599916818 7.0416056739 
Si 16.2182589883 8.1642874347 8.3531947388 
Si 4.2577499189 6.8707962628 9.6156778155 
Si 2.7317515750 2.4587148825 11.1149751783 
Si 14.1137212891 4.3621688199 21.5615356729 
Si 5.4520838599 6.3726806383 18.6437801083 
Si 13.0060338589 11.5301761355 23.6400438695 
Si 0.6079330316 5.4898603702 18.3392878850 
Si 8.7146287997 12.0366811101 15.3309538539 
Si 3.8840898955 5.6169549514 25.3200887051 
Si 4.0274418968 9.4235858962 1.3433017647 
Si 1.2990737549 9.4921016368 4.1672236534 
Si 3.9608320862 9.5592815974 6.8903393422 
Si 0.9176531754 9.9034567206 9.6718908645 
Si 8.3813353967 14.3222495810 18.2916150079 
Si 3.9948130265 1.4513347573 28.0637359030 
Si 0.0522803120 7.1724544856 24.3783300277 
Si 16.2151638883 5.2844434683 11.0648162922 
H 4.5423199315 10.1822437831 25.7341700516 
Si 15.9905899462 15.5076240218 22.0777481157 
Si 15.3531296604 11.0047747606 13.1630078301 
Si 8.3415552163 5.5817359710 13.7166566426 
Si 11.9873875696 12.0849158005 12.5839432321 
Si 9.6489417582 14.7962234253 25.0161521779 
Si 16.1265951575 10.8102069989 29.0035935148 
Si 2.5778599436 10.7931187887 2.6428176004 
Si 1.1853239418 12.1641666512 1.2404190163 
Si 3.9711762363 12.1574063012 4.0201396661 
Si 16.2087619182 10.8394475491 5.5392081117 
Si 1.3164014280 12.2155453117 6.8715334158 
Si 2.6432480042 10.9139417198 8.3472868117 
Si 4.0119012367 12.3313509228 9.7028051167 
Si 5.4467081598 16.1742922779 23.9668516788 
Si 1.3223016661 6.6831680411 12.3738608538 
Si 8.0864049440 2.6967117847 23.9326617443 
Si 14.8259852556 6.8627164228 27.8645334697 
Si 15.4617025114 3.4735981818 26.5384963059 
Si 8.7682880602 16.2676828488 21.5250352124 
Si 0.9605089078 3.3336833705 15.5680898587 
Si 16.1815250380 13.5427730739 2.6737610998 
Si 2.5698615535 13.6171206345 -0.0040044047 
Si 2.6019202738 13.5320542538 5.3829697622 
Si 16.2432641386 13.4541066030 8.3482812152 
Si 3.4183099213 9.0309480226 22.8615428609 
H 10.8884641596 7.7623968410 17.1073096002 
Si 11.0673446512 13.5406553738 26.4594119747 
Si 9.8058633297 7.4407344981 18.1327444136 
Si 6.4349247289 4.3091285794 11.3436295056 
Si 4.8266781741 8.7471273500 26.2262828313 
Si 0.6264042627 12.9164388581 19.3328725369 
Si 2.2134200602 14.3698489614 24.1648257313 
Si 3.9771872464 14.9202717765 1.3584488709 
Si 1.2667543946 14.9262339165 4.0184433306 
Si 3.9193577458 14.9099276264 6.7608036533 
Si 1.2886009138 14.8295527656 9.7499222978 
Si 5.0473588062 2.2336359504 14.3587196316 
H 16.2625514987 6.2205809069 19.5274539183 
H 3.2606878798 8.0439532036 10.2810215470 
H 3.4645898117 10.6152645671 20.0357696268 
Si 13.3667759122 5.3009615285 13.7314264604 
Si 14.8002307654 14.0825096488 25.4069820291 
Si 1.8521241469 3.2461571997 21.3032832157 
Si 9.2079062942 9.1446685136 12.6327859958 
Si 8.2022920050 16.0654262069 26.4873137691 
Si 5.3776548492 16.2064487382 29.2135296573 
Si 8.0596730537 16.2296131184 2.7253180003 
Si 6.6871428012 1.2879656038 1.3699166839 
Si 5.2697498882 16.2231296984 5.3395377238 
Si 6.6362691307 1.2376604543 6.7068718831 
Si 8.0532222137 16.2572409587 8.0991246260 
Si 11.6481157365 1.4702588504 12.0518203322 
Si 10.2992059842 5.8575419636 21.5768904339 
Si 1.7686216062 1.1316891164 16.1885391936 
Si 2.1757087099 8.7145147697 11.4120093748 
Si 12.0859909405 14.6942154444 22.2605721372 
Si 9.7296424190 8.3882260667 26.2465218687 
H 9.6375224681 16.0028888964 15.2647382748 
Si 5.3051806385 2.7085057448 2.6660135261 
Si 8.0758653139 2.6191713840 0.0352992795 
Si 6.6640435809 4.0404087370 4.0722873594 
Si 8.0251871234 2.6735148245 5.4308181223 
Si 5.3207375887 2.5366299532 8.1510090948 
Si 7.1206848651 3.5438080824 9.2244092569 
Si 7.8306356516 14.1000865590 21.8963864523 
H 1.2144113661 7.1343684652 21.6424625754 
H 9.8516708101 12.4869367142 14.4580430002 
Si 6.6698916910 4.5265186314 24.2716948681 
Si 15.8703371651 9.6658996484 21.2512817583 
Si 5.5300803806 5.0489878062 27.0552936919 
Si 2.0513019788 6.8722949429 17.0332265341 
Si 3.2515491897 9.1594109638 20.4208670338 
Si 14.4643798323 8.8315747108 13.0246102505 
Si 4.8702050545 5.8098122631 0.0710530600 
Si 8.0283636734 5.3874451393 2.7035259385 
Si 5.3384936888 5.3943195193 5.4984960596 
Si 8.0763214339 5.3890578493 8.0989198959 
Si 4.8854687847 7.1806646457 13.3350396481 
Si 7.6137180096 11.2992816733 24.4506290168 
Si 5.5518601108 11.8625410085 20.0007900188 
Si 13.1329981201 4.8357028342 19.3296845960 
Si 13.1751403505 12.4751101741 25.7975779029 
H 12.9972372589 12.5987024052 17.9271953457 
Si 9.1953304141 6.8346813325 27.9709346520 
Si 4.3617452799 3.5744332827 12.4641760960 
Si 5.3419960389 8.1533731346 2.8387618996 
Si 7.8369724617 8.1404225844 0.0516346980 
Si 6.5857049702 6.7461451817 1.4235179611 
Si 8.1046823241 8.1169161142 5.4666458981 
Si 6.6970634112 6.7951129221 6.8156713328 
Si 5.4144050895 8.2627116156 8.1629126905 
Si 4.6867796529 3.6038041530 23.3829028045 
Si 9.0347598826 13.0029224689 23.5839770563 
Si 5.2796542083 11.6161873362 17.7018459479 
H 11.3893816642 11.5618113157 15.8857140586 
Si 3.8928539156 13.4555075431 17.1770348390 
Si 4.8867068247 7.5224125588 24.1614623074 
Si 6.7383911416 9.5044657469 4.1428022715 
Si 6.8299735225 9.5950870178 9.5039244023 
Si 4.6846782428 3.8462808052 16.1502254089 
Si 3.6231078031 0.8314155436 17.6961719981 
Si 11.6155357362 1.9503528478 14.3498577410 
Si 8.3900179667 14.3754527215 12.7184801860 
Si 2.0599193888 11.5517603856 26.1419632578 
H 7.1693105156 3.4778987418 28.4332445717 
Si 7.0020773740 7.6148094396 19.8465989707 
Si 14.0993046389 8.1234972743 21.2296973513 
Si 6.5762567701 9.4346630963 27.7570208953 
Si 4.8354259042 15.5289150520 16.4911303513 
Si 5.2276402378 10.8349840891 29.0996996954 
Si 8.0443604536 10.8489934892 2.6915346013 
Si 6.6638806809 12.1464105511 1.2515270891 
Si 5.3320102688 10.8590607093 5.4645985966 
Si 6.7112520014 12.1882269815 6.8505339521 
Si 8.2111700551 10.8591747393 8.1341042340 
H 6.6672364210 11.9453756592 17.1090351829 
H 14.5518571331 15.1093660982 26.5009137003 
Si 9.0480362328 11.0581082211 19.2942077862 
H 7.4588489782 10.1070817224 23.5527703324 
H 14.2356193602 14.2299993101 18.1554402128 
Si 10.7206445780 7.6907534203 13.8961757346 
Si 7.1926052158 13.6834046451 14.6865218446 
H 8.7171211697 6.6859373411 12.7301205573 
Si 9.5480414973 12.1249240409 27.7257849242 
Si 5.3481862389 13.5143470236 2.6687218134 
Si 8.1099439942 13.4437950330 29.1440383959 
Si 8.0573598737 13.5509506539 5.4792514257 
Si 5.2675833182 13.5691791641 8.1161172282 
Si 0.2825533106 10.5269564763 19.0868453942 
Si 4.4582635308 14.7498457949 12.4189599806 
Si 12.4104388735 1.5844354615 17.6978683336 
Si 12.3370687128 2.6160762839 21.3378826106 
Si 7.4058901877 3.7789542346 20.3052529949 
Si 6.6122088005 6.8413439426 14.9077473923 
Si 14.3564911613 6.4253136288 22.9757237887 
Si 6.6937728312 14.8576693059 4.0630452556 
Si 6.7388798416 14.8356289357 9.3969967710 
Si 13.0969483498 0.8878701681 19.8625971694 
Si 7.8782839021 5.3684835791 26.5908194821 
Si 10.6908990378 5.5339574006 23.9455889907 
Si 8.7343722799 3.9968492766 11.9721803049 
Si 13.7145348354 5.1682306073 26.6433766356 
Si 10.7330738482 16.2623885987 0.1005321539 
Si 12.1135699108 1.3267667551 1.4558068301 
Si 9.4115638761 1.3090269450 4.0969427185 
Si 10.7946663387 16.2295642484 5.4471965341 
Si 12.1370112210 1.3205423461 6.7870091122 
Si 8.8924341513 1.8697987971 9.2186768128 
Si 4.2584015189 16.2279515384 14.2956334991 
H 12.8366667274 8.6972799495 16.2092169385 
Si 12.5972525952 8.9623182520 14.5326525153 
Si 15.6874656235 13.5674850041 15.5756941213 
Si 12.0974591006 4.1063343676 27.9833062023 
Si 15.5051479418 4.5179500913 16.6905082676 
Si 9.4031419460 1.2542909155 27.9074683063 
Si 9.4142191461 4.0605757571 1.3351184083 
Si 10.7567432184 2.7203811549 2.7642518249 
Si 12.1809779314 4.0644039072 4.0934915532 
Si 9.4475647764 4.1064646876 6.6828599615 
Si 10.7509602683 2.7320936650 8.0679179021 
Si 12.0483447502 4.0494008170 9.5247483829 
Si 13.3630129222 2.6862047346 10.9270036559 
Si 2.3658130116 12.7004008762 22.5652105963 
Si 11.0584503111 2.4120440321 26.7157341191 
Si 7.6569353800 12.8486887475 19.9382010880 
Si 15.3116227400 1.0252616584 20.7515647160 
H 10.2015474333 10.1010707124 23.7062302014 
Si 3.6936923738 4.6606342026 21.5949066869 
Si 14.7688562251 11.6456722365 21.9709374731 
Si 5.6598302318 14.1279261692 22.7535038375 
Si 10.7101701080 5.5122917004 29.2237954118 
Si 10.8221475690 5.4710780000 5.3911589681 
Si 10.5165145862 5.2246754578 10.8819630235 
Si 2.9823569373 10.0829725222 15.1855954493 
Si 11.9459946793 6.5014856695 12.2787490769 
Si 7.0337288443 6.6371487907 23.3342355238 
Si 14.9671055269 0.9444339356 15.2603804474 
Si 5.1009203267 1.5090339378 22.3653939726 
Si 5.2068704876 2.6765936345 26.5093953778 
Si 10.7505367283 8.1788995648 2.6917715033 
Si 12.1117617208 6.8020687522 1.3726746914 
Si 9.4128833661 6.7849479621 4.0345000236 
Si 12.1506948211 6.7829605820 6.8564711264 
Si 9.3405720554 6.7629890419 9.5400154025 
Si 10.8063462688 8.1176817442 8.2816854230 
Si 4.6828537628 9.5239811671 16.7825490923 
H 8.6423011990 4.0495962970 26.7188050713 
Si 5.9535063544 6.6255340206 11.3080942015 
Si 15.9080159355 2.9486529270 22.1364471736 
Si 1.7513542060 6.2197338269 26.0429031137 
Si 15.5951990626 9.7888402795 16.9952637153 
Si 15.6907562035 14.2933022507 17.7860485328 
Si 9.3729077057 9.4866933568 1.2813270244 
Si 12.1727677713 9.4991389169 4.0574005529 
Si 9.5165855070 9.4484444364 6.8098511472 
Si 12.1230344009 9.4243678162 9.7716821877 
Si 14.7650117850 11.4279075145 15.4036915505 
Si 6.8923805130 8.9242322316 16.0482113012 
Si 3.3030418802 3.2422313097 25.1844403590 
Si 5.7140759323 16.1581163078 11.0133412837 
Si 12.8660701777 0.7498287069 26.6700792962 
Si 12.4450388338 11.2564552629 14.8123138965 
Si 10.8302111190 10.7855765186 29.1594224041 
Si 12.0951296306 12.1884061715 1.3582616890 
Si 9.4117430661 12.1671477213 4.1240255923 
Si 10.8527890593 10.8439110092 5.4746888682 
Si 12.1883410115 12.1581230612 6.9460551894 
Si 9.4843150167 12.0837266305 9.7068704725 
Si 5.0790428565 12.9473084084 13.8673965253 
Si 10.3225821344 3.2414493896 24.5734671052 
Si 3.2203701295 5.5417114407 13.3312375168 
Si 1.6375848450 0.0656438136 23.1218133724 
Si 7.6705538202 0.3437776471 12.3611968319 
H 13.9362417375 11.9566483394 20.7521789064 
Si 3.7441750842 12.2030834616 27.7798044359 
Si 5.4836701702 12.3745520032 24.4033948472 
Si 10.7716974385 13.5185661336 2.7671385199 
Si 10.7678367085 13.4925347134 8.2918049418 
Si 7.6969762004 13.1673863104 10.7613477196 
Si 10.4752845958 16.1133188074 23.1883799174 
Si 4.0601522171 13.3394250020 21.0975586649 
Si 10.6470137774 10.6170890471 11.2354734935 
Si 3.0779140781 12.5182949645 15.1579276322 
Si 5.1565180972 4.3242294095 19.7578630754 
Si 11.0104599707 4.1305575978 20.1787882582 
Si 8.8331711308 6.7171489814 24.8388266232 
Si 9.3918855559 14.8265228256 1.3666351521 
Si 12.1704220113 14.8618721259 4.1185856198 
Si 9.4720486466 14.8660749460 6.8440703289 
Si 12.1551094112 14.9669263369 9.4123222849 
Si 11.1647588521 12.5784702250 22.5459367153 
Si 16.0558802668 16.1517957877 11.0059125041 
Si 3.8415729951 9.3046526051 13.1120300234 
Si 1.6525879351 3.4478762715 18.9782799218 
Si 0.9066346193 9.7466817591 27.1485921447 
Si 6.4155559187 5.4300271997 16.7268332451 
Si 14.0773945887 7.9350219726 17.0539042790 
Si 13.5174747036 16.2260456084 2.7419040669 
Si 14.8748226760 1.3018821509 4.1290561045 
Si 6.8267806824 1.2558791905 25.3319338065 
Si 13.5441577239 16.2991225491 8.1447794489 
Si 14.8145496755 1.3276203511 9.6208838107 
Si 3.9139005958 3.0738415781 18.2069152212 
Si 9.7242830089 15.9610887560 19.3801944481 
Si 1.0866326049 8.7259503498 15.8059570427 
Si 11.6551204366 9.6388093782 23.6973975579 
Si 7.9612325828 5.9519750944 21.2391441853 
Si 14.6915764644 1.6207035178 27.8782796368 
Si 13.4271303628 2.7992736256 0.1852152696 
Si 14.8921226562 4.1433778279 1.4167443180 
Si 13.5275419237 2.7014684647 5.4799533577 
Si 14.8730307760 4.0304229669 6.9252312087 
Si 16.0321946066 2.4793868927 13.7413120018 
Si 0.5294494398 1.3553296414 19.0331768484 
Si 0.2038530619 13.2174129009 21.6231009529 
Si 13.6883242252 1.0032457232 24.4745239497 
H 1.5929323256 9.8313083099 18.8343253811 
Si 2.9545499070 1.1184958452 21.4847911148 
Si 15.4517493213 8.4598369074 26.1636354062 
Si 9.7016887787 12.5256906246 17.5143131330 
Si 7.3488914772 1.6547545051 14.3224239012 
Si 13.5129949536 5.4746292201 2.7572617527 
Si 13.4938867834 5.4187870996 8.2484313977 
Si 12.7600711467 6.3867389084 24.8022091740 
Si 14.3833859515 14.8776897161 12.1889602837 
Si 7.1328534952 15.1962080890 16.5047302825 
Si 9.3655934957 1.7565832961 11.4745690584 
Si 1.1606739136 1.1531984325 12.4121746386 
H 10.1634614130 1.8692775171 14.7818675989 
Si 13.5122944836 8.1364478244 0.0477261070 
Si 14.9046007963 6.7862185821 4.1476865479 
Si 13.5021621035 8.1391030944 5.4687809410 
Si 14.8882945062 6.7075053013 9.6854030542 
H 11.0711076413 14.5597089132 14.3150243688 
Si 12.1536270212 15.5261783320 11.6459281916 
H 5.9873569748 10.6859631677 20.7882114123 
Si 14.1326176893 15.2368027694 23.4479777442 
Si 13.4198487327 7.9213872424 11.0905537964 
Si 11.7270733673 1.7919163064 23.4170927391 
Si 0.7893987462 13.6082100045 25.8922509724 
Si 14.9481765467 9.4748342367 1.3411491735 
Si 14.8398969157 9.4434596964 6.8999909063 
Si 11.0919262614 7.5272506888 20.1104668834 
Si 5.9838220447 11.4398969546 10.7394708410 
Si 1.9632219480 16.1349193476 14.2250600926 
Si 6.7084664114 14.7788745752 27.7898362132 
Si 8.6394830290 0.5890382604 15.9912670731 
Si 14.1095836290 11.6353443764 27.8644749754 
H 6.2515807772 8.4753775675 20.8383410512 
Si 12.1109146408 15.0734792279 27.8814675776 
Si 12.5744303050 9.7529208292 27.8845385298 
Si 1.1373401174 4.3602954699 27.5901073309 
Si 13.5489632739 10.8538153293 2.6854775136 
Si 14.8674433060 12.1968443915 4.1199602365 
Si 13.5235182937 10.7608157184 8.3616764163 
Si 15.2816654298 11.6944607870 9.6777110501 
Si 14.2578226304 12.5170569245 11.7394606218 
H 0.5493688520 11.0410200110 12.8459978206 
Si 9.9348149709 1.4948029937 17.8434607155 
Si 10.1239255826 5.6344667015 15.2245526716 
Si 12.7089694162 0.3619589163 15.6783224194 
Si 13.4103190826 13.5413232638 29.1798369245 
Si 13.5181914636 13.5204394837 5.5373947875 
Si 13.2638068213 7.1550078954 19.2058813512 
Si 2.5285012431 0.2829312386 26.7117857520 
Si 8.8335620908 5.4218984896 17.2473450210 
Si 15.6700516133 2.3768902117 24.4767174870 
Si 13.2943831516 3.7570767644 17.2219292355 
Si 12.0023743698 9.2763731648 21.3713121189 
Si 12.0416984301 8.5348360681 25.7725423306 
H 8.0988016341 2.9375268569 14.0677395980 
Si 16.2254917484 7.6071694296 14.0652828363 
Si 14.8253010756 14.8931815062 1.2743749736 
Si 14.9178934364 14.8447187558 6.9009560627 
Si 10.7895186987 14.1184453891 12.8902487796 
Si 5.6493068917 10.8538153293 12.9569615604 
Si 3.3436365606 11.1465792119 24.0581613245 
Si 8.3769045166 10.3973043651 26.5098048381 
Si 11.1444452219 11.3405931137 20.4734241873 
H 3.3488819406 6.1237857260 21.7491269821 
Si 16.1433249876 0.2448533632 17.1660379053 
Si 3.9314286360 15.2264586193 25.4397388526 

