&CONTROL
  dt          = 30.D0,
  prefix = 'aSiHcSi_merged-1',
  pseudo_dir = './',
  outdir='./',
 wf_collect=.true.,
 verbosity ="high",
/

&SYSTEM
    ibrav= 0, nat=  388, ntyp= 2,
  ecutwfc     = 42.D0,
  nbnd=1468,
  degauss     = 0.05D0,
  occupations = "smearing",
  smearing    = "methfessel-paxton",
/
&ELECTRONS
  electron_maxstep=200,
  conv_thr    = 1.D-8,
  mixing_beta = 0.3D0,
  scf_must_converge=.false.,
/
&IONS
/
ATOMIC_SPECIES
Si  28.08  Si.pbe-hgh.UPF
H  1.00784  H.pbe-hgh.UPF

K_POINTS {automatic}
2 2 2 0 0 0

CELL_PARAMETERS angstrom
16.29000014898320 0.00000000000000 0.00000000000000
0.00000000000000 16.29000014898320 0.00000000000000
0.00000000000000 0.00000000000000 29.46693228775786

ATOMIC_POSITIONS angstrom
Si 0.0834974909 0.0536571428 29.3371599180 
Si 2.7799211054 0.0567209660 2.6798436367 
Si 1.4525548783 1.4146447899 1.2527188523 
Si 4.1217935777 1.3947661028 4.1149392263 
Si 0.0567393737 0.0310171377 5.5121727545 
Si 1.3693944275 1.4162151460 6.9316243498 
Si 10.9112375798 2.8053009257 26.5171155642 
Si 2.7983776756 0.0588371999 8.2429912374 
Si 4.2214395086 1.4037027968 9.6035973688 
Si 9.8558247601 6.6713415010 17.0967730472 
Si 5.5015240103 13.6363265447 26.5543028327 
H 13.8425579466 13.9696688178 19.5551697411 
H 6.8131296623 10.6991091979 16.9228886798 
H 11.3415705137 15.7106788737 10.3864748259 
Si 11.5627887157 1.4564726233 20.2585159478 
H 2.2415203105 10.0741759221 12.0782008754 
H 13.8914116570 8.4875299076 19.1000235049 
Si 6.8084381423 15.0003859972 22.2867248972 
Si 0.0894167882 2.7573920352 2.6557838865 
Si 2.8204506258 2.7823808954 29.3273474295 
Si 4.1570614280 4.1256705977 1.2805621566 
Si 1.4457179652 4.1098204276 4.0662009203 
Si 2.7643315753 2.7618717853 5.5198636239 
Si 4.1408528779 4.1271529877 6.9140325912 
Si 0.0025926838 2.7621812953 8.4043816255 
Si 1.4665756814 3.9229415459 9.9063995650 
Si 9.4537386865 9.5265549871 19.6761314981 
Si 4.0305044169 4.2584340989 17.2551578083 
H 0.4944910995 11.4497361147 19.0055230531 
Si 7.0694039447 14.7828004652 11.9605394148 
Si 4.0958761875 12.3561931730 22.4679465308 
Si 9.5230689271 6.9043536631 22.3354926701 
Si 5.4697259300 10.9122149798 23.7676445132 
Si 13.2340775710 15.6544620832 14.7545055335 
Si 4.1811869182 1.4537098393 27.8978476104 
Si 0.0887309792 5.4901861702 29.3309718622 
Si 2.7957386956 5.4803958801 2.6744629748 
Si 0.0772004284 5.4612388399 5.4469624334 
Si 2.7279722949 5.3586281290 8.3762996391 
Si 0.0252832205 5.3555493190 11.2078950303 
Si 12.9490351484 5.3031280985 13.5170417121 
Si 15.5051805218 3.2817508500 17.4042899526 
Si 12.2820085123 14.9942935371 22.5219004838 
Si 15.8512452850 10.0659657621 17.3605020912 
Si 2.2929152610 0.4689891043 12.6479145443 
Si 13.0020916789 15.9135871155 17.1276838592 
Si 14.6579050341 12.1927067315 11.5681577445 
Si 1.4754227805 4.1537219780 27.9385119769 
Si 0.0740393539 8.1915406049 2.6538921094 
Si 2.7819736454 8.1961018050 29.3246364717 
Si 1.4404530372 6.8382651325 1.2698597668 
Si 4.1344020378 6.8384769025 4.0884189872 
Si 2.7370295350 8.1462544045 5.5029790717 
Si 1.3983808538 6.7650904519 6.9371051992 
Si 16.2009101382 8.1171441742 8.2196239601 
Si 4.1614271481 6.8112237323 9.5868012174 
Si 15.3280756402 15.8961893954 17.9000121545 
Si 10.8977168797 0.0783285109 23.7983195897 
Si 5.5361728406 5.4798094401 23.5444030342 
Si 6.9335942134 4.1328219078 22.0917422063 
Si 6.8485929926 11.4303998845 13.5868488747 
Si 4.1342228478 9.5517881974 1.2546960834 
Si 1.4167608610 9.5251051771 4.0797851760 
Si 4.0911032174 9.5314582772 6.8513858932 
Si 0.8731488950 9.9636156911 9.3527748412 
Si 9.8202473998 13.0389722393 14.4617515613 
Si 15.0374946175 4.1929808783 25.2414625985 
Si 11.5669589558 10.3404685546 16.5464486198 
Si 1.4062586979 12.2751341323 25.1367960550 
Si 5.5610313809 2.7886851255 26.4578575633 
Si 2.1436011196 5.1330442069 15.9500673772 
Si 15.4420893512 12.1243538909 16.2231374388 
Si 0.0592931570 10.9232107299 29.3372777857 
Si 2.7599332752 10.8904189596 2.6560844492 
Si 1.4163796750 12.2688950622 1.2720638933 
Si 4.1295964878 12.2749549423 4.0011084668 
Si 0.0840171419 10.8772892195 5.5057194964 
Si 1.5383168421 12.2594142821 6.8297866318 
Si 2.8298499559 10.9143000998 8.3363719458 
Si 4.5409678615 11.8028055779 9.8315535570 
Si 10.4464675855 11.2303912627 18.4430877165 
Si 8.0846944939 9.6819127185 14.4724480577 
Si 0.8191345125 6.2989358076 19.5917971379 
Si 0.0851952347 8.2207811552 26.5389210941 
Si 4.1334572178 12.2687484522 27.9302023020 
Si 1.4250231490 9.5723624675 27.9453188383 
Si 0.0743086276 13.6228221346 2.6870188347 
Si 2.7820225154 13.6224311746 29.3411968877 
Si 2.8377180260 13.6364731547 5.4395072995 
Si 0.1066341781 13.5321031238 8.1891846190 
Si 3.8151669049 12.1741850013 16.2441768284 
Si 10.9011377797 0.4262848689 18.2052306391 
Si 10.9190241999 13.6464752148 26.5292559403 
Si 6.8093829623 9.4622257765 22.4350025005 
Si 10.9173789098 8.2393191754 26.5536840271 
Si 0.1848898727 14.2408484502 16.6735984326 
Si 14.9979424972 12.2822202823 27.9372743658 
Si 2.7717435253 10.9142838098 26.5272521889 
Si 4.1310625878 15.0028620772 1.2560220954 
Si 1.4287926551 14.9898463671 4.0886841896 
Si 4.1702726181 14.9224220565 6.9475954271 
Si 1.2863577808 15.0747009779 9.5394773242 
Si 5.5321492106 0.0751545673 23.7488446104 
Si 16.1559986078 13.6417836948 12.7780699842 
Si 15.1128521582 4.2789920791 13.0424178337 
Si 11.2474143129 9.2695802348 13.1809124155 
Si 14.9319517066 9.5032602869 19.5165385928 
Si 14.9415953867 6.8756181029 22.3511690781 
Si 10.0671712221 5.3384611088 19.0895038101 
Si 12.3462236929 9.6617782784 22.2813913825 
Si 5.4886386202 0.0770872129 29.3239292654 
Si 8.2011191250 0.0728034316 2.6388669206 
Si 6.8382488425 1.4297765711 1.2625991147 
Si 5.4855598102 0.0334865388 5.5200698924 
Si 6.8417837726 1.4234511640 6.8910189171 
Si 8.2123266451 0.0015686016 8.2023563378 
Si 5.6377247016 6.0870843557 17.2101323357 
Si 5.1265282069 14.1783437197 13.2366343845 
Si 15.4703362115 4.4572535508 19.5813658439 
Si 9.2001196741 5.5567471108 15.1088748612 
H 6.5634854100 14.8351728157 18.0878343809 
Si 6.8524211427 15.0178977473 27.9277270797 
H 2.8444132160 15.0589159677 15.0714518572 
Si 5.4835235602 2.7585812052 2.7009478536 
Si 8.2072441651 2.7768097154 29.3327104112 
Si 6.8389818925 4.1283421578 4.0876233800 
Si 8.2071627151 2.7626211253 5.4664400756 
Si 5.5877144011 2.8610453062 8.3270603952 
Si 6.9426025835 4.2924639093 9.7634260096 
Si 2.9553969870 2.4482241224 11.3176593531 
Si 12.3862319333 4.2213254786 22.5319781746 
Si 7.0746981947 9.2805108249 16.4919053282 
Si 9.5500451673 12.3246231527 22.3690849729 
Si 10.9379368900 10.9429705001 23.7180811331 
Si 6.8633680228 4.1239112777 27.9195352725 
Si 5.4967184603 5.4757206501 29.3204521674 
Si 8.1894717749 5.4754437201 2.6581972282 
Si 5.4953338103 5.4990642203 5.5036273442 
Si 8.2691298756 5.5653645209 8.2881051107 
Si 5.3367995288 13.6693789550 20.9463625482 
Si 2.7928227855 0.0808184374 26.5642921228 
Si 8.7482024900 3.1830008691 10.9114282246 
Si 4.1740356082 15.0355235275 25.1845619522 
Si 5.4818456901 8.1829720648 26.5071852080 
Si 5.5506546508 15.9779326161 18.2183728909 
Si 8.4298307271 8.8850547813 10.6542997734 
Si 5.4762582201 8.1844055849 2.6523863492 
Si 8.1917523749 8.1852037949 29.2992359761 
Si 6.8430055226 6.8352189025 1.2519085116 
Si 8.2008096150 8.2080912451 5.4087732891 
Si 6.8922501930 6.8737447529 6.8633200007 
Si 5.5060363404 8.2392865954 8.2321768732 
Si 2.4343613323 13.6387211747 17.7875074070 
Si 3.8471441752 10.0257946217 17.4577429677 
Si 4.2278088987 4.1000464275 12.6193316200 
Si 9.2104801142 1.5002699177 16.6628724693 
Si 8.1998973750 8.1774334648 23.8168542901 
Si 4.1399732179 6.8403339626 27.9259590638 
Si 10.5054699661 10.0121761816 11.0634481282 
H 5.7698203128 10.9029133897 12.6581395698 
Si 6.8320749325 9.5558769874 4.0225898605 
Si 6.5498995499 9.9519520510 9.5376209074 
Si 11.8640722685 7.9336047426 16.6647878199 
Si 1.4596850113 9.5432359473 22.2428486350 
Si 0.0387456025 5.5561932508 23.7990267961 
Si 9.6244741780 15.0091988873 19.4413684486 
Si 14.8215380856 15.0551203977 19.9835894696 
Si 0.0540481028 0.1172521631 23.7796375546 
H 0.2425206352 16.1060045973 9.9347172870 
Si 6.8441295326 9.5508759573 27.9010889729 
Si 5.4936722302 10.9063342897 29.3164446646 
Si 8.1966230850 10.9099995398 2.6254034793 
Si 6.8530564527 12.2820899623 1.2310665504 
Si 5.4309231497 10.8909891096 5.3997858748 
Si 6.7681692619 12.3085286326 6.7165452110 
Si 8.1121757242 10.9922966205 8.0860208891 
Si 8.2125384151 10.9319258800 26.5315543610 
Si 2.8037045056 8.1800724448 23.6460344836 
Si 8.3556297764 2.7675244153 23.4821394062 
Si 12.1465408711 12.4270709637 19.5618587347 
Si 13.6449439548 0.0610923876 26.5558940471 
Si 15.4687723715 10.1066256024 12.8268082902 
Si 4.1063669476 9.5364918872 25.1182908215 
Si 15.0125057573 15.0054684772 25.1627858893 
Si 10.1238278426 7.0756918847 13.3714750666 
Si 5.4999764603 13.6418977248 2.6295494766 
Si 8.2130922751 13.6499124048 29.3138221076 
Si 8.1876472949 13.6483485648 5.3772436716 
Si 5.5244114605 13.5026019335 8.3726752064 
Si 12.2839470223 6.9208880133 25.1560379618 
Si 15.0237132774 9.5759136876 25.1326412176 
Si 12.8130462272 1.3670340065 13.4690695463 
Si 2.7666610453 13.7123356854 23.8346817841 
Si 3.8682234354 14.8784553461 19.4163804900 
Si 9.5725090775 12.2855434424 27.9297013642 
Si 6.8280350124 15.0239576274 4.0332568900 
Si 7.3625750773 14.5061799727 9.5443688349 
Si 4.2134736985 4.1653856181 25.0654860789 
Si 12.3960548034 13.6147911645 17.4803441048 
Si 8.3161102361 8.1735564448 18.1148555578 
Si 4.1600913680 1.3940688907 22.3632210534 
Si 11.0148419807 4.0489446970 11.0940937378 
Si 12.2815849723 12.2662560822 25.1608705387 
Si 4.1982425484 7.8197865115 14.1822871754 
Si 10.9245953799 0.0663333693 29.3187136184 
Si 12.2933952224 1.4092495419 1.2471672822 
Si 9.5602752874 1.4513803693 4.0063830477 
Si 10.9482321701 0.0435454510 5.2900510190 
Si 12.3351139128 1.2486920424 6.7537914134 
Si 9.5079355170 1.4748542595 9.4815453353 
H 14.2416955303 2.4762755026 17.2493822895 
Si 8.9053847014 13.1243644200 18.1043063960 
Si 5.5629373109 2.7308882050 16.2094942491 
Si 2.9596160971 5.8301747633 13.7962408955 
Si 5.0022192157 8.2271831252 16.3618382890 
Si 12.2814709423 14.9913613371 27.9360367546 
Si 9.5632237775 4.1439642679 1.2512838127 
Si 10.9365033700 2.7814849454 2.6227278818 
Si 12.3074697826 4.0835935273 4.0484323601 
Si 9.5701633175 4.1469942079 6.8375364350 
Si 10.9493724701 2.6269417140 8.0158601233 
Si 12.6089976853 3.5609288726 9.3884592962 
Si 6.9630791137 1.4770762155 25.0169245745 
Si 6.7048174513 1.3135897740 19.5233454542 
Si 8.0892231140 13.8159075064 15.9648303103 
Si 3.8446355152 15.8849492953 14.2932301755 
Si 16.1564058578 4.4342846506 15.3752559291 
Si 5.3851971193 2.7440342351 20.8588162924 
Si 9.6771886185 3.1818768591 14.9016633934 
Si 8.1992294850 0.1019998359 26.5228910829 
H 10.2225615335 3.9004450557 18.6647674481 
Si 10.9098203498 5.4992434103 29.3124960956 
Si 10.9188287199 5.4475552398 5.3964266445 
Si 13.0807072196 12.1354473810 15.7665473230 
Si 6.1254635960 3.5250257122 14.0635059714 
Si 11.1786868022 6.3531000581 11.3902953412 
H 12.5310989046 3.3583301407 15.9440855900 
Si 0.6228351237 1.3979117018 17.7469019743 
Si 12.2741730223 4.1466032479 27.9276681458 
Si 15.0355723975 12.2872538924 22.3425352670 
Si 12.4472705638 13.2143503809 11.6562638720 
Si 10.9071976598 8.1923551049 2.6154466028 
Si 12.2863090724 6.8292730525 1.2502878304 
Si 9.5647550375 6.8379719125 4.0268920326 
Si 12.2964088725 6.7616043918 6.7770408230 
Si 9.5838469177 7.0649404846 9.6122901139 
Si 10.9381323700 8.1786877948 8.0637733552 
Si 13.6277254246 5.5434870507 26.5669146797 
Si 1.7414661759 9.1521456237 16.9581016639 
Si 11.9947343597 3.3528892807 14.5189763438 
Si 2.8289702959 11.0556647211 20.9871153156 
Si 12.2876285624 1.4337676211 25.1766648144 
Si 9.5500777473 6.8343555325 27.8912764845 
Si 9.5494261473 9.5489537373 1.2238206318 
Si 12.2557164521 9.5445228573 4.0122469672 
Si 9.5472595773 9.5884244077 6.7790740413 
Si 12.2513833120 9.3794725758 9.5723034867 
H 12.4433609638 7.3977777677 18.1947993451 
Si 15.6197806729 6.7120013414 15.7356365110 
H 10.3884588950 0.6342576718 10.3628718131 
Si 2.6615416743 11.5575759157 14.1592145675 
Si 8.2749779857 5.6223143614 20.7203511776 
H 11.3928188542 3.2291830195 21.9638851871 
Si 6.3955843785 11.8466093883 19.9030858106 
Si 5.4295547897 5.5522510708 11.1798425108 
Si 3.5521648525 3.6113138430 19.5397290685 
Si 12.2961482325 9.5629957175 27.9473815235 
Si 10.9264198599 10.9178187399 29.3234577944 
Si 12.2964251625 12.2580785021 1.2523416755 
Si 9.5579783974 12.2704426122 4.0115397609 
Si 10.9235202399 10.9251003699 5.4083607521 
Si 12.2972559525 12.2292452018 6.8356210844 
Si 9.1064033033 12.8185033772 9.2280413168 
Si 8.1695653947 2.4994887529 13.1382148306 
Si 4.6328597524 10.1817876631 19.6925445794 
Si 2.2926709110 9.2424899645 14.6498979239 
Si 8.1981380550 0.0027513322 20.8433166860 
Si 0.3160194869 8.0950875140 14.0430264534 
Si 0.0979665948 10.8873564396 23.6960693347 
Si 10.9202622399 13.6129829745 2.6137522542 
Si 10.9239926499 13.7005743053 8.0644805616 
Si 10.9211256099 5.5927154311 23.7611323212 
Si 9.5704565375 1.4361524771 27.9265189355 
H 0.2447409622 1.8731382471 14.7032920052 
Si 1.3747733856 6.9184445133 12.3109896405 
Si 9.7658550893 1.2929519728 22.0796902309 
Si 5.5147189104 8.2465356454 20.8074554294 
Si 9.5648364875 15.0016566172 1.2483312261 
Si 12.3126825826 14.9348187466 3.9920031848 
Si 9.5796766776 15.0511782177 6.6888168277 
Si 12.2858529524 14.7524033249 9.7166619880 
H 11.5125340653 3.4269110413 12.4016004573 
Si 6.7776826220 6.8531379027 19.3016951895 
Si 0.0282566343 8.1629353647 20.9095583498 
Si 4.1061714676 6.8357727625 22.1408930493 
Si 1.4302994801 1.4389462122 25.1799945777 
Si 0.1267259385 13.7256120355 21.0799656192 
Si 6.1216843160 6.8751294029 13.0866476991 
Si 13.7028060353 2.8351604959 23.8847755690 
Si 13.6623905450 0.0485521825 2.6399424637 
Si 15.0326076175 1.3823922186 4.0547382836 
Si 13.6107023745 0.0091462486 8.4005509243 
Si 14.4306921120 1.9082269075 9.7320437267 
Si 1.4580218023 15.0930109380 22.4128728343 
Si 3.5801184927 12.7653002367 12.0657068961 
Si 8.0715973338 8.0787323539 12.7981074982 
Si 1.4436980052 4.1864160083 22.4983269380 
Si 7.7516454409 16.1479839277 15.5594831898 
Si 8.1513368845 10.8564868893 21.1341258408 
Si 7.4214145579 2.6205071640 17.7083297599 
Si 10.2200528735 12.2871235724 11.2039464614 
H 12.0873593005 2.8538451261 20.0256977158 
Si 15.0106486973 1.4160326980 27.9465859164 
Si 13.6406433948 2.7762558554 29.3186546845 
Si 15.0176859773 4.1121498976 1.2474678449 
Si 13.6823620851 2.7241441449 5.4592206772 
Si 15.0471382976 4.0990364475 6.8554817967 
Si 14.7644742150 2.0154313984 12.2219995050 
Si 8.2481646454 0.1272498249 13.2638912968 
Si 1.0631961817 9.2409912845 11.5735501931 
H 15.0159266573 9.1109156333 16.4751975775 
Si 13.3963911325 7.1411125253 15.0012321576 
Si 13.6740216051 11.0517714111 20.8307048390 
Si 13.6459050648 5.4519535399 2.6389081743 
Si 13.6327753247 5.3909963593 8.2293775147 
Si 15.6121569528 15.1787289188 14.5232195820 
Si 9.5796278076 9.5865999277 25.1351753737 
Si 10.1708244930 10.6846925477 14.7257163407 
Si 1.4666734214 12.4266962937 19.6050277905 
Si 12.1311956909 13.6372550747 14.0510414590 
Si 5.3956390093 0.4160596358 15.9649481780 
Si 14.9962483372 1.5249199459 22.4180884813 
Si 0.2792106026 11.7814168077 14.1672590400 
Si 13.6515739849 8.2071301351 29.3472081419 
Si 15.0150307073 6.8026877722 4.0188475601 
Si 13.6041537944 8.1362849244 5.3531102541 
Si 14.9375554666 6.6898143612 9.7341948127 
Si 8.1599705846 13.6623090950 23.7280114893 
H 1.5429285411 1.1251551973 16.5423527162 
Si 12.0088089198 6.5410214998 19.6933401866 
Si 1.4553925963 6.8890573530 25.1293703881 
Si 13.6828996551 5.4127272195 20.9138605219 
Si 0.1371679915 2.8802023463 21.0779913348 
H 10.8884641596 13.7125474554 17.1566498536 
H 5.1997680476 0.4073037607 10.2094374967 
Si 6.8094481223 6.7873914621 25.1033805538 
Si 15.0038068972 9.5640545675 1.2755321512 
Si 14.9115077564 9.4624701265 6.7675230039 
Si 13.1800925105 7.7027591504 10.9954973824 
Si 6.8444064626 12.2809659523 25.1413339626 
Si 0.0718863046 13.6362939647 26.5495586566 
Si 1.8151458466 1.8907640273 19.7330910782 
Si 2.8133481857 2.7613993753 23.7809930335 
Si 1.1490233055 6.8945959531 17.3020396975 
Si 2.8207275558 5.4914405002 26.4903006558 
Si 13.6817267751 13.5991038944 23.7968167762 
H 3.2006592293 7.7801529412 10.2584704720 
Si 10.9084682798 13.7732765760 21.0344097419 
Si 13.6548156949 10.9210930299 2.6766788881 
Si 15.0252608274 12.2585020421 4.0987324135 
Si 13.6223334346 10.8070956088 8.2313223322 
Si 15.4686909215 11.7156377871 9.4103237600 
Si 1.8913178873 14.4839115425 11.7169657525 
Si 8.4126447769 12.9122034581 12.5957580741 
H 7.3444605972 12.4331634237 18.5871515485 
H 11.5337273555 1.1997259310 12.7008960885 
Si 13.4444303430 0.2358743152 21.1909086193 
Si 8.2008747750 5.4518557999 26.4862342191 
Si 9.5234273071 15.0010538872 25.1529734008 
Si 13.6518672049 10.9149354098 26.5428991299 
Si 13.6426959348 13.6339156247 29.3332113490 
Si 13.6465729548 13.6242719446 5.4708011816 
Si 2.7853619655 0.0914328386 20.9234667418 
H 9.6478666182 15.9072991755 13.0855868896 
Si 13.6268946346 8.2694882556 23.7348478175 
Si 10.9582016502 8.2393843354 20.9904450789 
Si 13.5538665640 8.6932237395 13.1512097478 
Si 9.5722484375 4.1234388677 25.0488667291 
Si 0.1321044078 0.8944627312 13.5560264635 
Si 0.0971097408 2.7949241956 26.5897220853 
Si 1.4405980182 14.9876797971 27.9427257482 
Si 15.0208462374 14.9775474170 1.2620009359 
Si 14.9764071170 14.9679363169 6.9313591474 
Si 2.6556772743 5.3956552993 20.8583742884 
Si 5.9107776841 12.9333641683 15.1401982102 
Si 15.0195756174 6.8673916528 27.9487370024 
H 7.8293650316 4.0138560367 18.1388121737 
Si 6.8056851322 5.6170526914 15.0229492867 

