&CONTROL
  dt          = 30.D0,
  prefix = 'aSiHcSi_merged-24',
  pseudo_dir = './',
  outdir='./',
 wf_collect=.true.,
 verbosity ="high",
/

&SYSTEM
    ibrav= 0, nat=  388, ntyp= 2,
  ecutwfc     = 42.D0,
  nbnd=1468,
  degauss     = 0.05D0,
  occupations = "smearing",
  smearing    = "methfessel-paxton",
/
&ELECTRONS
  electron_maxstep=200,
  conv_thr    = 1.D-8,
  mixing_beta = 0.3D0,
  scf_must_converge=.false.,
/
&IONS
/
ATOMIC_SPECIES
Si  28.08  Si.pbe-hgh.UPF
H  1.00784  H.pbe-hgh.UPF

K_POINTS {automatic}
2 2 2 0 0 0

CELL_PARAMETERS angstrom
16.29000014898320 0.00000000000000 0.00000000000000
0.00000000000000 16.29000014898320 0.00000000000000
0.00000000000000 0.00000000000000 29.17179006505858

ATOMIC_POSITIONS angstrom
Si 0.1366357971 16.2208653884 29.1352378121 
Si 0.1864781477 2.7548833752 2.7344439964 
Si 2.9084329166 0.1018193427 2.5591623786 
Si 2.7107700548 2.9773721972 29.0647295955 
Si 1.4714382465 1.4454491802 1.2401890626 
Si 4.1705495481 4.2576847589 1.2591157200 
Si 1.5175145119 4.2195335786 4.0445520054 
Si 4.2255120086 1.4618939354 3.9731686351 
Si 0.1124532919 0.1316753292 5.4621843154 
Si 2.8773678863 2.8172740758 5.3777028113 
Si 1.4800947525 1.5349057160 6.7864377254 
Si 4.2161452586 4.1304272778 6.7993024848 
Si 0.1143390223 2.8263801858 8.2429560315 
Si 2.8024990456 0.0942093063 8.0887539492 
Si 1.0327632034 4.6614649926 9.4611408129 
Si 4.1230153277 1.4761313955 9.4565900136 
Si 11.3241076336 5.3460685389 11.5003364538 
Si 10.0228135517 7.3785718575 11.7365404379 
Si 3.8123813149 2.3815980218 17.8261516140 
Si 13.2593270713 5.6287326215 12.8762822758 
Si 1.7206964257 3.8686143954 27.0582063595 
Si 6.9123194732 9.8064171897 11.5484407356 
Si 3.9106588858 8.9745520421 16.4379536402 
Si 12.7722723568 12.2735702923 21.5923463986 
Si 5.7733389528 13.1559833103 12.6898161937 
Si 4.0241187368 8.1178935142 12.8413344713 
Si 15.2735041397 1.3336932632 27.6855748766 
H 10.6145478071 2.5006779229 26.9179192211 
Si 9.7780237194 12.4908788942 11.7041597510 
H 1.9662355980 1.7872736563 12.0884980851 
Si 6.4402026889 5.5660324109 24.4048570223 
Si 8.8763070512 5.3711551391 18.5336258667 
Si 11.0397331010 8.2348557153 18.0636683287 
Si 0.5888949084 5.1269028769 0.1809059389 
Si 0.1066633372 8.2300338753 2.6493644706 
Si 2.8789317263 5.6175902614 2.6816022158 
Si 2.7244373649 8.4957237777 29.0706514689 
Si 1.5373834251 6.9703770337 1.2676601373 
Si 4.2603074490 6.9074487632 4.0768160052 
Si 0.1446016072 5.5516483408 5.4579544058 
Si 2.8894713564 8.2995433059 5.4016528510 
Si 1.5258501050 6.9814705239 6.7650256315 
Si 0.1160915006 8.2477411054 8.2049743609 
Si 2.7869420955 5.5047494303 8.0852241626 
Si 4.1272507277 6.7415025317 9.5398754742 
Si 3.1240962286 11.8297329482 14.4939747220 
Si 3.6581801735 5.2467972780 19.8815084266 
Si 8.0111451433 7.9149364024 27.2118833495 
Si 16.2423030285 0.6692453341 18.4782286373 
Si 0.4887016335 11.2273450327 26.0888277756 
Si 3.3073587302 16.2234229184 24.3710469176 
Si 4.9156378650 0.4724458423 11.4326870726 
Si 12.7088879662 7.9655005628 26.3040280709 
Si 8.6127348488 5.8357459434 20.9466871691 
Si 12.2964903225 14.4678333123 18.7534644766 
Si 15.0848985180 3.5386115724 23.7102183573 
Si 13.3284292519 16.1210239774 22.2942780111 
Si 3.9517259761 0.7281206527 16.2070589218 
Si 4.5374329315 5.2680883082 14.6346702655 
H 0.6371133088 8.3507427764 26.6318023041 
Si 4.1835652583 9.6034437878 1.3798606762 
Si 16.1554773278 11.3183409735 0.1594742999 
Si 2.8471336460 10.9872141405 2.7079326735 
Si 1.4826392506 12.4184046836 1.4475333948 
Si 1.4849068186 9.5981984078 4.0146217488 
Si 4.2538240289 12.3485857429 3.9980521720 
Si 4.1777823082 9.6434520282 6.8670977249 
Si 0.1528047626 10.9234876599 5.4319331691 
Si 1.5365102811 12.3676613331 6.6890914619 
Si 0.8646422569 10.1793441631 9.4110236775 
Si 2.7543295152 11.0321093809 8.1993442054 
Si 4.1703540681 12.3916565033 9.5189593008 
Si 1.6197570688 0.8051723534 15.1625046350 
Si 16.1680694979 8.3647033065 17.4540654317 
Si 13.7147628954 11.2609187230 23.4948430312 
Si 5.2647488581 2.2107647902 19.7863500474 
Si 12.8162227772 4.9543917753 18.5109593858 
Si 1.6084208577 8.8620370110 20.6274019268 
Si 7.6562512000 3.0022470275 15.4894620580 
Si 16.2667543188 15.9371424558 20.5895661151 
Si 4.9208832450 3.9397039560 21.3974496691 
Si 13.8782493369 8.4705231475 20.5294722275 
Si 6.7745223620 11.4892882351 21.1973311893 
Si 8.1304693944 13.0431913493 22.2630933675 
Si 0.1555651031 13.7403219057 2.8359326540 
Si 2.8211510958 13.6365546047 29.0811533133 
Si 4.2847587392 15.0246092274 1.1439075695 
Si 1.5529273432 15.1363749184 4.0797040124 
Si 2.9269220668 13.7230870855 5.3690096179 
Si 4.2677682690 15.0535565577 6.7834913746 
Si 0.0572507168 13.6510852848 7.9957251107 
Si 1.3022942879 15.0547620177 9.3663324951 
Si 0.1904235857 1.7424109959 23.9917261314 
Si 5.0382526961 11.3040872234 11.4223019153 
Si 3.7552685743 12.0921159806 19.4298416010 
Si 1.3645269755 4.6475533325 17.0275738610 
Si 16.0987229672 13.5458030139 26.3659014377 
H 2.8067344457 8.9264313816 23.6419563685 
Si 12.2203182818 6.9521485236 19.6229880231 
Si 0.9732069629 6.9971903740 26.0220535482 
Si 1.7789657563 10.7801030786 19.2574071500 
Si 1.7894239364 2.0435805187 19.0426736033 
Si 7.1378871053 0.9485048067 24.4770863745 
H 10.1242839626 12.7002868462 15.2656560846 
Si 5.9709692346 9.0680077729 27.4348141692 
Si 3.6443336733 4.4272799505 16.6108256681 
Si 7.8715235520 9.7287464690 22.2375097076 
Si 5.6671770218 0.0473046943 28.8784968877 
Si 5.5645663109 2.8200759558 2.5677884769 
Si 8.3509871264 0.1184744018 2.5299234934 
Si 8.2823084857 2.9088401666 29.0478099573 
Si 6.9456976835 1.4499224143 1.1674987961 
Si 6.9029853031 4.1124431176 4.0684728732 
Si 5.6058777513 0.0998337546 5.3378541461 
Si 8.3210135261 2.8112630657 5.4342960841 
Si 6.9314276434 1.4401744782 6.7811576314 
Si 5.6271036215 2.8226986458 8.2015904332 
Si 8.3368962762 0.0289761636 8.0499262967 
Si 7.0689641147 4.1231782277 9.6261948010 
Si 10.9078818398 6.5398974898 21.5228591946 
Si 14.1706548396 11.2778114531 18.0630557211 
Si 8.1660304647 12.6415288156 24.5627055784 
Si 13.7305316156 2.7934255155 10.9405298024 
Si 10.0524450619 10.2661535739 21.6234435268 
Si 11.1949279324 8.5603950783 22.7026539002 
Si 2.7466569251 14.0406932184 18.6804474861 
Si 6.5969776503 15.1311621184 11.6526423697 
Si 2.3072341711 0.7275912277 20.9009458022 
Si 12.6327485055 6.2735234074 15.0643123896 
H 12.6607510158 13.2708929714 14.0819523592 
H 6.6563872809 3.0131613276 12.5889693154 
Si 15.1738744988 11.3643113539 14.8418774904 
H 10.3704910248 15.5069398418 22.1047197193 
Si 10.2684178839 14.6800594343 12.5664778653 
Si 5.5277346206 5.6547314617 29.0851498486 
Si 5.6230474114 8.2512108755 2.6926612414 
Si 8.2887267458 5.4780175401 2.7788376265 
Si 8.8528005810 7.6438545099 0.1758358818 
Si 6.9830995239 6.8254611924 1.3771768715 
Si 5.5705773209 5.5095549804 5.4375633245 
Si 8.2748802457 8.3015306859 5.5322841269 
Si 6.8600611527 6.8881776930 6.8462107232 
Si 5.5132202304 8.2423979854 8.2623552719 
Si 8.2898833358 5.6310458015 8.2695607041 
Si 4.9839092556 7.8965449922 18.2565230328 
Si 4.4955676311 15.4821627516 17.9799452912 
Si 13.1931245107 3.0982765783 19.9297293956 
Si 5.6623877618 5.5948820012 10.9423384534 
Si 12.3421349029 15.4560987514 11.7133780366 
H 7.5491118690 9.3452147055 15.3165900301 
Si 14.1106098991 12.3536356430 11.1871481156 
Si 8.6318430189 0.0923136389 26.1327896632 
Si 7.1141525751 4.4793916610 22.3796930124 
Si 6.2856105875 13.8126495063 25.4961736887 
H 10.3493954747 3.9233162159 20.3030699648 
Si 1.4889630286 4.3337427696 19.3381546649 
Si 8.6856977594 4.6953481929 14.1001555562 
Si 15.7261869538 12.4042975434 22.9363782822 
Si 5.9039521740 1.4399350152 14.8894566799 
Si 16.2317471085 5.4672172700 20.6914048342 
Si 13.6203134746 14.3112212509 20.7639842479 
Si 5.4577364899 10.8123735689 29.0009600624 
Si 8.3004066759 10.9199201499 2.5056642328 
Si 6.9193241733 12.2429125120 1.0926877405 
Si 6.9836533839 9.6243764380 4.0294993617 
Si 5.5479505107 10.9421560001 5.3843831513 
Si 6.9094035632 12.3060362625 6.6961218633 
Si 7.4328501380 9.2164911243 9.3571725531 
Si 8.3020030959 11.0499632211 8.1321324011 
Si 1.1985302450 9.0075392924 22.9280643221 
Si 13.7609124659 4.4465184407 27.1498057803 
Si 10.9745079404 2.3362629514 13.7112955946 
Si 16.2452678086 14.3096737009 24.1766752804 
Si 15.9955909763 7.7437610808 19.7929428720 
Si 11.4497849847 3.8998423257 24.1806718157 
Si 4.3769764300 7.3565477773 27.8214279029 
Si 0.5890170834 7.7101222305 12.3289903224 
Si 4.2681918090 4.6514792225 25.0680484977 
Si 10.5171987662 13.0911328197 24.4311991487 
H 9.4734821666 15.6060807827 11.6275254585 
Si 5.3601756790 14.8527985958 21.7638181806 
Si 9.3877478959 9.2875481049 25.9293455993 
Si 7.4964137186 14.1268998992 15.5430798081 
Si 3.1800849591 3.8708461254 23.0829081837 
Si 7.1334073552 14.9991479572 27.4052048023 
Si 5.6078325513 13.6357401047 2.5269275506 
Si 8.3360817762 13.6555813249 28.9596236359 
Si 6.9587459736 15.0398403775 3.8977012142 
Si 8.2900136558 13.6418325648 5.2594695462 
Si 1.2052352090 11.1349155718 23.8183581831 
Si 5.6385392016 13.6693952450 8.1446762708 
Si 7.4091807678 14.5969804335 9.4315314459 
Si 7.9839408430 5.6997896021 26.2103866248 
H 1.7610304661 12.9056222980 11.5575131623 
Si 7.2226439761 7.7752822311 21.1453178876 
Si 7.3208075170 10.9975582906 18.9222524539 
Si 3.6107925630 7.6056544596 20.2116164030 
Si 10.6583190375 9.6697440884 14.8105761596 
H 2.4911645628 6.5649678000 22.0854079942 
Si 5.3152315686 2.3201847212 12.8228978999 
H 6.1346674461 2.0798094790 25.3584536678 
H 9.3013783151 12.6424084756 28.3361641386 
Si 1.1242787953 11.6969368670 15.7259869319 
Si 3.2144079894 10.3525720247 12.6269218143 
Si 15.8452179849 13.5171489036 20.7895679078 
Si 2.1729882799 14.4361003920 23.3302266199 
H 6.2339875770 7.0658201446 24.1542130021 
H 14.9134136864 14.4081304618 13.3328791339 
Si 10.8131229089 10.1480836528 19.3887677206 
H 4.3800063701 14.6116577236 15.2291330035 
Si 15.1333938484 10.7162788580 12.5347097859 
Si 9.6500006083 4.2371104888 1.2840576005 
Si 11.1439239419 0.1419943927 28.8444825805 
Si 11.0747728913 2.8376039960 2.5258890348 
Si 12.4648148940 1.5493288822 1.0542101494 
Si 9.6713079285 1.5139013898 3.9310445702 
Si 12.3474617329 4.2207879086 3.9754732065 
Si 9.6235945180 4.2589065090 6.8259655009 
Si 11.0275644709 0.1322140395 5.2831570397 
Si 12.3890663933 1.5461441871 6.6508764169 
Si 9.9872524813 1.2007505720 9.2435484308 
Si 11.0692994512 2.8981539265 8.0797690379 
Si 12.3459304729 4.2209833886 9.6252321320 
Si 14.4175135019 9.6399822582 16.4176792461 
Si 12.6343449255 5.4856412602 22.8542305214 
Si 7.9950343331 2.3330375313 22.7651982181 
Si 13.9475795776 7.1408030153 24.2098144339 
Si 6.2845517375 7.5793623993 12.2200045147 
Si 5.0394418661 7.5402338190 22.0599993651 
Si 1.8795076372 14.5950745035 20.9168152560 
Si 12.6610768158 0.1907184347 17.4701974316 
Si 4.2384625588 4.3651173099 12.4605842673 
H 7.7331725807 1.4177610670 11.1985542855 
Si 14.6181085637 3.6905972738 12.9372221452 
Si 6.8805376829 4.2504357089 27.7202601350 
Si 1.3570303174 14.8381864657 27.6992856179 
Si 2.6671780144 13.7789129160 10.7052009720 
Si 10.6623426675 6.0611832554 0.1386692709 
Si 10.9979492506 8.2971649659 2.8615979949 
Si 12.3516971330 7.0289070043 1.4355175345 
Si 9.6121263579 6.9066994232 4.1537420156 
Si 11.0321908309 5.5623508709 5.4677269555 
Si 12.3412389529 6.9236084433 6.9192568855 
Si 9.1576027738 7.5304923989 9.5083407692 
Si 11.0036833306 8.3938786968 8.2793040819 
Si 3.2484052197 12.3451648429 23.5967984375 
Si 12.3256494227 8.4649845474 16.0264563695 
Si 9.7919842496 3.7254904541 12.2880914727 
Si 14.2209257801 1.7872899463 18.2174328341 
Si 9.5271740071 11.7735976077 18.3235014628 
Si 13.7881656361 0.7559407149 25.9576714075 
Si 0.9854993970 9.9502090210 11.7749305137 
Si 5.5699745909 12.1185383608 17.8648042358 
H 3.1064052884 2.4564017025 10.0033277030 
Si 3.3650742008 6.7634614519 25.7465551628 
Si 10.2799674940 5.4994877603 25.5307714317 
Si 13.6354794647 9.0478407527 11.6060841928 
Si 7.1283248752 4.2013539384 17.5656767005 
H 15.4597802914 10.4897664059 26.1896163103 
Si 12.6335304255 1.3255026511 12.4808294896 
Si 1.4261976580 5.5655925809 22.5671217636 
Si 6.6169491905 14.3531028413 17.7562560050 
Si 9.7638514193 9.5152171470 1.2576629648 
Si 11.5645643258 10.3365100845 29.1149925898 
Si 12.4669814640 12.1499780611 1.1963992885 
Si 12.3701211231 9.6627882584 4.1655274188 
Si 9.6621529484 12.3185958527 3.8455712253 
Si 9.7239246289 9.7295609690 6.7939640472 
Si 10.9876051005 11.1015699415 5.3939514984 
Si 12.2921408924 12.4578753539 6.8355630198 
Si 12.4678774140 9.7822428295 9.5608499913 
Si 9.0973134832 12.8735961577 9.4630953228 
Si 4.5768710219 12.1289476709 25.5808885670 
Si 13.7002485053 13.5261084037 26.9101595249 
Si 8.6898842895 8.3477617063 15.3142854587 
Si 3.2803987800 7.2423060062 14.8390186549 
Si 0.6244690107 2.9817542073 15.5064108680 
Si 4.0990038675 1.4739908895 27.8042457186 
Si 14.1168326791 5.1679699673 16.5158714914 
Si 2.6141703539 6.8756832629 11.3909130692 
H 9.9508280410 6.5837013002 15.9956801310 
Si 5.0109343658 11.1124353716 15.7600887544 
Si 5.5796671410 9.9945829814 25.3015686771 
Si 12.6515308757 12.7464852866 17.0901181789 
Si 7.0722384047 15.8592436750 13.9140395355 
Si 9.7398399591 15.0720457078 1.0926323141 
Si 11.0566584111 13.6396985747 2.4468364009 
Si 12.3446761429 15.0379670275 3.8788562378 
Si 9.6534215083 15.0248698674 6.5962668259 
Si 10.8941493696 13.8417271566 8.2223899195 
Si 11.7640516676 15.7254864838 9.4312105562 
H 13.5540457540 1.1009824661 21.4779638097 
Si 2.0183473085 4.5615910017 11.6632609013 
Si 5.5170320905 15.5463290622 24.0340835706 
Si 11.4080500043 9.3062490251 12.5050420754 
Si 10.7684231485 4.1677313781 17.5847550512 
Si 11.8037666880 11.3655168139 11.2352523974 
Si 5.2850624883 3.0212900376 26.4728452200 
Si 9.2964913150 15.4119202710 14.6500729707 
Si 14.5205640428 14.5811628434 11.8620958224 
Si 8.4932965677 10.9249700499 13.0558346436 
H 11.7595556275 3.3732680709 14.5218629533 
Si 4.4747164309 0.0828732581 20.2052277810 
Si 10.3596907547 2.2381157005 22.8532970241 
H 4.8827972247 6.0872798357 22.4509013520 
H 7.4967069386 1.6550965951 21.4860152238 
Si 13.7061291954 0.0991497375 2.4998298748 
Si 13.9964169980 2.8879075164 28.9369571550 
Si 15.1656154687 4.1089244776 1.3761733620 
Si 15.0684781978 1.3811492916 3.9801698647 
Si 13.7489067357 2.8385488160 5.2676959910 
Si 15.0525791577 4.1179165577 6.7605040040 
Si 13.6233759946 0.2137199150 8.1496063033 
Si 15.0623042878 1.4186016310 9.6148469747 
Si 14.7556939050 6.9964573240 11.5921692489 
Si 13.3829518824 3.0337681777 25.2573442434 
Si 8.5904827086 2.5373304232 10.6567466287 
Si 9.3649744756 1.2158318541 19.1602650891 
Si 14.9334992566 16.2383282685 24.0241068184 
Si 16.1884808681 12.2449324720 18.8472226099 
Si 9.6684571784 1.5730617834 27.6660297773 
Si 1.0194835953 6.5614328700 14.3202858840 
Si 0.5576083341 4.3293118896 13.5158446012 
Si 11.1299634118 0.0367222215 23.1379261798 
Si 12.2774798923 15.5027533118 26.8855385341 
Si 7.7936410613 10.3192101044 24.5092045154 
Si 13.0352092492 10.6010433970 19.9327924336 
Si 8.4769902775 15.2487270495 19.3097413413 
Si 13.7463329157 5.5479179307 2.6169400260 
Si 13.2979017916 8.6551702992 0.0228152570 
Si 15.0643731178 6.8623417528 4.0426266672 
Si 13.6744614351 8.1750714148 5.4198560480 
Si 13.7381227556 5.4789460701 8.1785447191 
Si 15.5253149620 6.3794572783 9.4329900354 
Si 10.6542139574 11.6635260767 16.2280626107 
Si 13.7391816057 13.3951693825 15.1314950221 
Si 3.2081852093 15.4145592510 12.2876830676 
Si 10.5899336169 15.3151250901 25.2054184571 
Si 6.9008676031 12.0884833106 14.4421364511 
Si 11.8412173983 5.9130094141 27.2553493167 
Si 10.2105558034 13.6604031649 19.5983670322 
Si 10.4508658856 12.6209056754 21.9433413766 
Si 0.9624685948 13.5727140941 17.1981121457 
Si 10.7201070080 7.7370984708 24.8278771501 
Si 16.1863305880 6.3409802980 16.3420951380 
Si 0.1136053207 7.1022120050 23.8840530543 
Si 0.7847691282 1.8926699573 26.2598328090 
H 8.1459937645 15.9725569161 22.6247943925 
Si 15.0378367075 9.6121915179 1.3224301731 
Si 13.7475546657 10.9504313201 2.7662208273 
Si 15.0676474078 12.3328007328 4.1344886341 
Si 15.0558697377 9.4962067168 6.7193426082 
Si 13.7186399155 10.9378228600 7.9666116642 
Si 15.4053391109 11.8901199787 9.2341842861 
Si 7.1392717553 8.6275587489 18.9167389856 
Si 8.2533611555 6.9433193435 13.4262580339 
Si 4.2737955691 8.3586922964 24.1418149913 
Si 8.8095669206 7.5683177792 17.6054961940 
Si 9.5372738072 1.4031049538 15.3239121494 
Si 16.1139052474 5.3071680185 27.1751852376 
Si 4.6675411627 12.5212434545 21.5957303262 
Si 2.3384458114 1.6489715551 23.0529487553 
Si 1.7539931860 9.8236194298 17.1131930648 
Si 1.4065763529 0.5200093848 12.7234512676 
Si 2.4905781228 0.2882711006 26.5318889231 
Si 0.1282886382 15.6912611935 16.4769271517 
Si 13.4998163435 8.9533913319 22.8076723445 
Si 14.3026201308 13.0096339490 29.1555997216 
Si 15.0779752679 14.8745620360 1.2951020402 
Si 13.6351047947 13.7408268957 5.3757483014 
Si 14.9472154367 15.0775354379 6.7747690093 
Si 10.5556757465 5.2649280482 15.5069651320 
Si 14.3296289511 4.3094217994 21.6394296677 
H 5.9964142148 5.6541613117 14.8235284344 
Si 5.1212828268 5.5091477304 18.0269410450 
Si 16.1692097979 16.0879226971 10.9636922037 
Si 7.6301546198 15.1146603482 21.4744631949 
Si 14.1389707893 1.4803342155 14.2725024919 
Si 7.3809176175 2.4033940420 18.9413599764 
Si 1.7445449860 10.5041504761 27.9753090955 
Si 12.4452668938 11.9436000492 25.4660100577 
Si 14.1404857593 15.7372152839 15.6647845163 
Si 14.6015416335 2.8764393563 16.1198936131 
Si 10.7278121781 1.7071268556 17.3014386261 
Si 10.8918850596 2.5299836331 20.5780724298 
Si 3.9441348361 13.9484429476 13.9259124541 
Si 3.7078158039 11.8855261987 27.8025245830 
Si 11.4850202550 10.1349050427 26.7351871281 

