&CONTROL
  dt          = 30.D0,
  prefix = 'aSiHcSi_merged-15',
  pseudo_dir = './',
  outdir='./',
 wf_collect=.true.,
 verbosity ="high",
/

&SYSTEM
    ibrav= 0, nat=  388, ntyp= 2,
  ecutwfc     = 42.D0,
  nbnd=1468,
  degauss     = 0.05D0,
  occupations = "smearing",
  smearing    = "methfessel-paxton",
/
&ELECTRONS
  electron_maxstep=200,
  conv_thr    = 1.D-8,
  mixing_beta = 0.3D0,
  scf_must_converge=.false.,
/
&IONS
/
ATOMIC_SPECIES
Si  28.08  Si.pbe-hgh.UPF
H  1.00784  H.pbe-hgh.UPF

K_POINTS {automatic}
2 2 2 0 0 0

CELL_PARAMETERS angstrom
16.29000014898320 0.00000000000000 0.00000000000000
0.00000000000000 16.29000014898320 0.00000000000000
0.00000000000000 0.00000000000000 29.24947707576909

ATOMIC_POSITIONS angstrom
Si 16.2319751685 16.2084198282 28.9226434189 
Si 0.0075291566 2.5312379631 2.6370977538 
Si 2.7526516452 0.0104476242 2.4605186607 
Si 2.0509110188 3.3629076308 29.1582772062 
Si 1.3194460291 1.3287199262 1.0194612740 
Si 4.0405390570 4.1181934877 1.0736313055 
Si 1.4005751168 3.9855440165 3.9119128125 
Si 4.0359615669 1.3244698651 3.9843637673 
Si 0.0199787078 16.1495966377 5.3761416350 
Si 2.7124967948 2.6866119846 5.4036361434 
Si 1.3090969920 1.2741142167 6.7077825778 
Si 4.1259801077 4.0885945574 6.7377340423 
Si 15.5024600918 16.2231296984 16.1779735190 
Si 16.2781736089 2.6270883240 8.0989754559 
Si 2.5566829434 0.0069415600 8.2228177419 
Si 1.8423664368 3.5355327623 9.2977067749 
Si 3.5228754322 1.8029935065 9.4304994009 
Si 14.8370624557 8.8998135214 16.3833340976 
Si 11.9985299297 10.9448927201 17.4958087087 
H 1.8919531973 3.3979474211 21.9731431626 
H 4.7784434837 15.5017922018 22.3045689873 
Si 2.9437659269 11.5031998952 13.9595176808 
Si 6.4621616091 7.3830678975 14.9293133427 
H 2.9761667372 7.1404772153 20.5989734801 
Si 6.9529304436 3.2954018701 15.2801900697 
Si 15.3136589901 8.1422470645 19.8914578791 
Si 11.1804298323 8.8397034208 13.4956209743 
Si 15.1789081088 12.7839848669 15.7960923463 
Si 11.5079891552 3.1695779090 13.7509981587 
Si 0.3073694968 5.0897128065 0.2546123105 
Si 16.2360150885 8.1749248048 2.6147716279 
Si 2.8246534458 5.4323077997 2.6638551754 
Si 2.7673452253 8.1662096547 29.1794538276 
Si 1.4269160471 6.8131948223 1.3755941320 
Si 4.0716692472 6.7831560620 4.1255217436 
Si 16.2499430386 5.3472088389 5.2072844038 
Si 2.6663146444 8.0982966441 5.4904193419 
Si 1.2280216612 6.6569900109 6.6767488826 
Si 16.2614111987 8.0458428436 8.1132784502 
Si 2.6404787041 5.3875591693 8.0288644594 
Si 3.2786557500 7.2727194365 9.3772361031 
Si 5.6707608219 7.4073562877 18.7114169760 
H 6.7235509515 9.5977911578 0.4733764619 
Si 4.3282367496 2.1719457199 21.3680884798 
Si 1.1062571681 6.0613787354 22.7968084370 
Si 10.6507116074 16.3364266494 27.3778615366 
Si 6.9882145839 13.0448366393 20.2009173466 
Si 4.5731080318 9.5991106478 18.4487566718 
Si 11.7512314375 4.0403924470 15.9573447135 
Si 14.1064233690 8.2876190258 23.6513611593 
Si 12.4216789736 5.0021377657 22.3744459881 
Si 9.1531067337 9.8885513704 26.1107741897 
Si 4.1101625176 15.4357525412 19.1438412450 
Si 13.5811848942 13.6830462651 27.3091252655 
Si 4.0380466869 9.5182470871 1.3898971263 
Si 0.0608366346 10.8884315796 29.0851242641 
Si 2.6581207743 10.7885250087 2.8103307067 
Si 1.4043934928 12.1113056008 1.3304270895 
Si 1.2842759187 9.4330992563 4.1214853158 
Si 4.0206163868 12.1956063515 4.1471078577 
Si 4.0360755969 9.5089780770 6.8302501383 
Si 16.2254754584 10.8299016090 5.4438249249 
Si 1.2890358568 12.2098275217 6.8244294924 
Si 1.5306344780 9.1879836240 9.4665055071 
Si 2.6614113543 10.8594516693 8.2055020515 
Si 3.9080036157 12.2636171022 9.6863153274 
Si 1.8363228468 12.1738429113 18.8106897012 
H 15.0177674273 13.0631303095 18.8754480434 
Si 9.8244339299 2.6987480347 22.3755867177 
Si 13.9180295173 6.4261118388 19.1711310072 
Si 2.9828293473 0.4523781911 24.4659883453 
Si 7.9695241929 11.0708470013 13.7316350049 
Si 9.1233774834 6.8246304024 23.4903135385 
Si 14.3378228211 2.1182050094 13.3174916589 
Si 7.3438904472 15.6355982630 13.1533728431 
Si 1.5046470408 3.0097404275 13.1333077018 
Si 12.2250586718 6.2659159773 15.6550806174 
Si 4.4894588811 5.3579276590 18.4875707279 
Si 11.0481713210 4.2587110289 19.5858008437 
H 12.8878173279 11.5432407156 18.5745294232 
Si 1.7467767160 7.1707440356 24.7984086523 
Si 12.0133864099 6.2374736370 20.4434540105 
Si 4.2262124787 6.9644311837 27.7794276074 
Si 16.2824415889 13.5345954938 2.5815208224 
Si 3.2828585700 13.0185282891 0.2102493361 
Si 4.2560720489 14.8523424758 1.3019351739 
Si 1.3988988758 14.9104326164 3.9041909506 
Si 2.6567849943 13.5971490944 5.4613746112 
Si 3.9954972065 14.9487304067 6.8976701830 
Si 16.2011219082 13.4969330134 8.2428828832 
Si 1.0659296437 15.0343343575 9.6108516765 
Si 13.4939682334 3.0484780479 17.1404860612 
Si 6.1984916667 9.7223607889 14.6526425390 
Si 3.1390178687 5.4592840399 16.6209860988 
Si 0.1909774457 7.8419572017 26.4941470858 
Si 10.0282544117 1.4057064669 13.8930921183 
Si 1.4025820448 8.0556331337 14.6232468146 
Si 10.0031515215 12.1540831412 21.5638844793 
Si 4.2764997091 1.0786293279 11.5680219361 
Si 6.5236726497 16.1035773873 24.7170073576 
Si 7.3319498771 3.8442608452 19.4989298967 
Si 11.3246452036 10.4139201652 26.9672281280 
Si 15.6676244033 12.5656499949 27.5201602426 
Si 11.5398035255 13.8081860463 22.4455807163 
Si 4.4176688504 6.2239366469 14.7840311900 
Si 1.3951538048 9.4367807963 27.7427780126 
Si 8.9325564217 11.9600366594 19.3919938086 
Si 16.1006126073 3.0708442181 19.9056438755 
Si 6.0615416354 15.7167876237 29.2503545601 
Si 5.3342908688 2.6812525745 2.5385913649 
Si 8.1281236343 0.0606442497 2.8014125411 
Si 8.0982966441 2.6226085740 29.1019134639 
Si 6.7776011720 1.2887735878 1.2765934270 
Si 6.7735775419 3.9955623665 3.9728687228 
Si 5.3608272790 0.0295345848 5.5068282985 
Si 8.0961463640 2.7400268951 5.5270689367 
Si 6.7293013215 1.3854335617 6.9114174372 
Si 5.3574063790 2.7803120654 8.2884828179 
Si 8.2019336250 0.0369929613 8.2028695985 
Si 6.6971937313 4.0383236169 9.8494689105 
Si 7.9682861529 2.4670390726 11.0943851538 
Si 11.2202425926 2.1349511295 26.2318377753 
Si 8.1628702047 13.5083197235 10.7299659189 
Si 5.9372163543 1.3213063471 16.3055889875 
Si 2.8992616465 0.2132279570 20.8931354710 
Si 5.8345404834 2.0917826291 25.0382251148 
Si 3.5460723924 11.2682492231 22.2310358020 
Si 14.2256987501 6.0097394350 14.4640711603 
Si 15.3990185908 8.0674596738 14.1906177991 
Si 3.7724708145 12.1539854012 25.9972277197 
Si 1.5253092769 11.8934757188 21.1651848573 
Si 6.7372671316 12.2615482721 12.1043403477 
Si 3.7480195243 2.4203193521 13.4520977524 
Si 15.6990966836 16.2879313190 10.8932657494 
Si 5.5485695307 5.4241790896 28.9757604693 
Si 5.4100067895 8.1064742241 2.7226173749 
Si 8.2003860750 5.3064512585 2.6113377393 
Si 7.7694829911 8.5132518179 0.2818593684 
Si 6.7465850117 6.6921927012 1.3531597831 
Si 5.4939165802 5.4074655495 5.3874904321 
Si 8.0919598340 8.0250079334 5.4761163476 
Si 6.7225246815 6.7059251713 6.9441476020 
Si 5.2562780581 8.0980197141 8.2684761756 
Si 8.0816156839 5.3826884592 8.4090199129 
Si 12.0303280100 12.5219765045 25.9718099241 
Si 0.0971133246 10.1766726031 21.9363473204 
Si 6.5376331798 0.5660986822 11.3178219092 
Si 3.0283273177 5.7457274025 26.1423051260 
Si 6.7753042820 9.8079158697 21.1211058954 
Si 2.0298317586 10.6291273572 25.7634074000 
H 3.1531575888 0.4707419083 25.9702304524 
Si 3.1787165991 6.0470109553 21.6466312500 
Si 15.3483566904 13.1642260504 24.0505287729 
Si 12.4177530836 1.2930969538 18.2023005780 
H 10.3848750950 15.3918835708 16.0960457337 
Si 12.9495727184 8.6393527090 26.8472175235 
Si 5.9827631947 10.6197117371 16.8201457882 
Si 0.3880603835 8.5653961083 17.9829294999 
Si 5.6680078118 5.1901080775 11.7213769444 
Si 7.4156804778 6.8771819429 17.0998292880 
Si 2.8774167563 9.3170981652 23.9633653313 
Si 5.2440768480 4.2042046885 13.8341544220 
Si 15.7690296542 3.2531618998 26.1599718102 
Si 0.1562997821 1.0798103529 12.7886026145 
Si 4.1182097777 13.3750675223 14.8744998226 
Si 0.0871966241 15.7706260742 18.3079496892 
Si 4.9936018057 11.3215989735 0.1722182886 
Si 8.1514509146 10.8217891890 2.7727100293 
Si 6.7571409318 12.2378789019 1.4645417918 
Si 6.7676805619 9.4519467864 4.1154891730 
Si 5.4074981295 10.8488631692 5.4771400793 
Si 6.6646300210 12.2217680918 6.9484765246 
Si 6.6143916605 9.4286520862 9.6866078221 
Si 8.0034888432 10.7217522981 8.2007928856 
Si 1.2984563639 12.2261501018 12.4098218863 
H 13.2046089608 3.4401059415 24.3912559314 
Si 10.0409606118 3.7460647243 17.5200272757 
H 8.1606873446 10.3298474745 20.7183698455 
Si 6.7878801621 12.1095462808 24.0059818194 
Si 6.0825557356 0.3382325311 18.5551955189 
H 15.9306916157 10.7232998481 23.2937570526 
Si 8.0632242737 8.1860345849 11.0943266548 
Si 5.6465213016 8.5211850479 26.6189253550 
H 16.1841314380 6.8228059224 12.2836981412 
Si 7.3039147868 4.3705418800 27.7007172646 
Si 1.7838364663 3.7842159046 26.8159790820 
Si 2.9503470870 15.4514561013 14.6149984620 
H 14.2523329003 11.4217336045 19.7868617491 
Si 5.4423098598 13.5786110742 2.8811202911 
Si 7.7804298712 13.9821306679 0.2492111021 
Si 6.7862348721 14.9623488468 4.2014533861 
Si 8.0692841538 13.5394824938 5.5733416094 
Si 5.3425010289 13.6519812349 8.3602902841 
Si 6.8234249424 15.0855012480 9.6278748722 
Si 4.5816439919 15.1236850083 23.7502828908 
Si 5.2486217580 10.8069978688 11.0446025438 
Si 12.1280517209 2.6979335347 21.6382074006 
H 12.7331111965 0.0641625639 17.3695972151 
Si 6.8854898430 9.8747374503 23.4034133421 
H 6.9322095634 6.6923067312 25.5201687486 
H 6.3491252981 4.9221212850 19.9323193986 
Si 13.0588297494 12.4337172837 23.7307149906 
Si 7.5198224488 11.6784965868 26.2183537664 
Si 14.9121756464 4.4789844110 18.3312322729 
Si 7.9708273929 8.1662911047 27.2485788480 
Si 4.3925822502 9.8398442700 13.0796641608 
Si 3.6874533037 15.2023168390 12.3169547966 
H 12.9078051581 14.4548338922 17.1440837469 
Si 8.4780328375 0.9208639344 21.5157690896 
Si 12.1602244712 4.1214677777 11.6250584164 
Si 9.3591100756 9.7244459089 12.3185050189 
H 5.2255388278 1.9545719579 26.4427850040 
Si 9.5693813975 3.9213614159 1.2038997016 
Si 11.2974083233 15.7906953544 0.3016264575 
Si 10.8537338793 2.6530871643 2.7077293910 
Si 12.2866511624 1.2977493779 1.4169733672 
Si 9.4733681366 1.3979475398 4.1504715476 
Si 12.1919085215 4.0345932069 4.0725509406 
Si 9.4759908267 4.0643713272 6.9633937580 
Si 10.8298690290 16.2263714084 5.3714324691 
Si 12.1567058312 1.2646318076 6.7478251119 
Si 9.5583856474 1.3658578685 9.6669814230 
Si 10.9216468899 2.6276421840 8.2273806603 
Si 12.8233577973 3.3473506806 9.4824757216 
Si 7.8484569118 4.4933684811 17.2171489406 
Si 2.9539145970 13.9210920373 27.3607798420 
Si 3.4840889419 6.1666447164 11.4312221318 
Si 13.4749252232 2.1638495898 23.5845261042 
Si 7.4080893378 16.0451940267 15.4252089770 
Si 11.9780371095 12.1405298610 12.2841076339 
Si 11.6910235969 15.1124937782 20.4169247348 
Si 2.4527527424 3.1365580787 16.5971477750 
Si 0.4273095099 3.8240775350 22.1628260214 
Si 4.5183247613 12.7527732266 23.8537090417 
Si 8.2945748559 13.6543595749 27.1862482123 
Si 0.6952914154 0.3675154354 23.8941610685 
Si 9.8404307100 3.4250214013 24.6857104171 
Si 13.9029938472 15.9065661255 26.2949581469 
Si 10.8107934389 5.2671760682 28.9466572396 
Si 10.8936606696 8.0134420333 2.6270183840 
Si 12.1774918714 6.6916551312 1.0691415108 
Si 9.4855204768 6.6967539012 4.0475718872 
Si 10.8123409889 5.3549628790 5.4824927336 
Si 12.1994996616 6.6509138408 6.8792137629 
Si 9.4414234463 6.8257869924 9.7046547495 
Si 10.8226199790 8.0482700536 8.2232857335 
Si 0.6816957812 14.5413012130 27.3121672111 
Si 12.9736330487 10.2187985435 22.6741653797 
Si 1.8602039870 10.1709711030 15.5128989093 
Si 5.3603711590 12.8852923778 16.7938212589 
Si 2.2448271805 10.0666010721 17.8129022897 
Si 14.7657611250 9.4536898165 12.3681413815 
Si 6.9347345134 15.5607782923 26.9895454790 
Si 5.0571490963 11.2794078732 20.2623412484 
H 12.2732444922 14.1376675893 19.3653182855 
Si 13.0852847097 7.5844285894 17.3545922334 
Si 1.6621338752 4.5681884518 11.3759698696 
Si 10.3675099548 14.2619277104 26.1625750136 
Si 10.5636252666 15.2940621199 24.0316336107 
Si 3.2836893600 7.6657645601 13.2590219543 
Si 14.3618017013 10.2233760335 20.7148306588 
Si 9.5489048673 9.4916943868 1.4046008384 
Si 10.6799195777 10.9562305602 29.1975592540 
Si 12.0943965806 12.1849038214 1.3669772361 
Si 12.2017965516 9.4046080460 4.0342633752 
Si 9.4195296861 12.1403669610 4.2402089432 
Si 9.4403157263 9.3834799158 6.8427981640 
Si 10.8396593191 10.7345562382 5.4828144779 
Si 12.2264270318 12.1525844611 6.7830707318 
Si 12.1355614110 9.4930953268 9.5233957401 
Si 9.4460172264 12.1554515012 9.3573172092 
Si 10.7077103179 10.8683460094 10.8184748365 
Si 15.3249153802 6.3348878379 27.9317296346 
Si 6.5131167296 1.7905642364 20.3733722634 
Si 7.2154112160 6.6792258611 12.7335843481 
Si 2.2009582101 0.4437558941 18.6292844443 
Si 8.0098419433 13.2849186615 22.3623074551 
Si 0.1455019555 10.5942504669 11.0579110559 
Si 8.5199470079 0.9744417449 27.4450768350 
Si 9.1892868240 5.5869487711 13.4014084087 
Si 12.6557988557 15.1327911184 13.9011064750 
Si 10.2350396736 7.2603716164 14.9430605969 
Si 15.9733877061 7.8285831116 22.1380809638 
Si 9.5478948873 16.1276214275 19.6703903314 
Si 9.5027552969 14.9061972163 1.5425501472 
Si 10.7650674085 13.4357803529 2.8500485716 
Si 12.2149425817 14.8680949060 4.0364278365 
Si 9.4907658568 14.9351445466 6.8074647957 
Si 10.8534080793 13.5451025439 8.1081597917 
Si 12.2097623617 14.8361339257 9.5424079002 
Si 16.0727567070 11.4238187245 25.5004838505 
H 9.6605891084 5.8219483132 26.1121196657 
Si 12.9649178986 10.4574470456 13.5936067225 
Si 10.9380183400 16.2609062087 10.9976571331 
Si 1.2141148881 6.8024434222 16.6153409498 
Si 6.5814044102 7.4852224885 20.8843313784 
Si 9.1023959632 12.7050598162 15.1738389710 
Si 5.5910212711 14.0237027483 13.1122773278 
Si 3.7216297240 1.2835982547 15.4935650049 
Si 10.7615650584 13.6625371550 13.6282381034 
Si 7.4722393583 13.9987627580 16.5218888705 
Si 13.7051192153 10.8955503096 15.8077628877 
Si 7.7001853304 14.8489541558 18.7646802737 
H 15.1210948983 13.3050042317 21.0332112168 
H 2.5653166435 2.8547084961 25.9124042362 
Si 13.6548156949 16.2651741888 2.7674480484 
Si 13.5607083640 2.5938893037 29.1553230091 
Si 14.8895814162 3.9295389959 1.3669713862 
Si 14.9664050569 1.3047980609 4.1413457107 
Si 13.5628423540 2.6700287644 5.4541207408 
Si 14.9937070971 4.0559656871 6.7272042306 
Si 13.5185661336 16.1952737981 8.0873341641 
Si 14.5956120735 1.5455658921 9.3800148034 
Si 13.4509300530 13.2862544415 10.8496547791 
Si 9.9677533512 12.0781880305 17.2402852770 
Si 14.9467756067 2.0949428892 15.5873388284 
Si 8.8220613507 6.7635429019 21.1668228280 
Si 2.4635530125 13.6903116052 10.9785279751 
Si 9.2919626950 8.2944771159 16.9080697163 
Si 15.8758757652 15.1350554284 25.2838622233 
Si 7.0965756649 5.8549518535 24.2533153975 
Si 1.9385751777 2.7917802255 18.8849833729 
Si 8.5821422285 3.2119644894 13.4206838141 
H 4.1973954684 5.1897985675 25.3421271816 
H 5.4737984301 4.3995055002 17.8874299573 
Si 5.0953165666 8.5813765985 24.2747552642 
H 8.3161428161 1.7215109257 26.1401406647 
Si 10.6219271771 8.1693210447 20.4820340707 
Si 13.4753161832 5.3730610691 2.5894942298 
Si 13.7837673361 7.8639975719 28.9785391696 
Si 14.8546393659 6.7560169218 3.9291992535 
Si 13.5321357038 8.0272885334 5.4410462246 
Si 13.6142698845 5.2416007679 8.2138381524 
Si 14.9202229065 6.6991485313 9.5188913206 
Si 13.5908774443 8.1591723746 10.7836679588 
Si 10.5522222665 5.7867944929 11.4954832329 
Si 3.4385421014 4.0979287275 20.2237904376 
Si 3.9669734163 2.4378636823 23.6726547786 
Si 4.0370204169 13.1041648198 18.7765263119 
Si 15.4080432509 0.7484147348 20.1379432224 
Si 15.7946864045 5.2765102383 16.2073107445 
Si 9.5924969077 0.3805376615 15.9352906077 
Si 13.0314299692 0.8180398245 20.4098756108 
Si 14.0539532785 4.9927221457 26.4824180454 
Si 5.3197276087 6.6972426013 22.7925380134 
Si 12.9015009280 6.7581509118 25.2067313523 
Si 13.7658809159 14.6443517539 15.9166586908 
Si 16.0827261871 13.5462917139 13.6799511789 
Si 0.5618649111 3.4246141513 15.2766216335 
Si 7.4922923485 3.7882884046 25.3328258479 
H 9.5009959769 11.8570349884 28.8716030814 
Si 14.8997626663 9.4861069168 1.1146273726 
Si 13.5413558438 10.7693842585 2.5966691266 
Si 14.9191966364 12.1482187411 3.9617539215 
Si 14.8755720160 9.4239931462 6.7909973401 
Si 13.5618323740 10.7938355487 8.1826582099 
Si 15.0068042572 11.9779719495 9.6355674846 
Si 16.2111239683 13.3461853521 17.9778985899 
Si 12.2764210423 3.8396670651 27.6291145447 
Si 14.2600706504 4.4450523407 12.6712537124 
Si 12.2325683619 0.9204420234 12.8697699133 
Si 0.0297357663 13.5754019442 21.9068345981 
Si 12.2332362519 7.1231283651 12.3199089938 
H 13.8911835970 5.1556384372 22.7138276706 
Si 9.1070711933 9.1345198435 23.8678950381 
Si 10.6634829675 9.9138823207 22.1864010999 
Si 9.0255723225 6.0318938352 27.4916420025 
Si 0.6480846239 15.9171872056 21.6661991502 
Si 11.2234843026 8.7696564202 18.2160478322 
Si 5.4598378999 10.8805960895 27.1293872289 
Si 9.1199728734 4.4231911605 20.8659919563 
Si 12.9540850485 14.0708622987 0.2551940826 
Si 14.9037537163 14.9622673968 1.2578445122 
Si 13.5670451741 13.4837544033 5.3746499116 
Si 14.9168508764 14.8196484455 6.7731844085 
Si 12.2938839224 0.5472071690 24.7968584300 
Si 14.9012450563 9.3274260253 25.6114563666 
Si 9.3895886659 14.8645111059 12.1774055415 
Si 15.8902435453 5.6276737715 11.3840134758 
Si 15.8461465149 2.4366256423 23.9130854802 
Si 10.1060717424 1.4274861971 17.9491171044 
Si 14.4868763225 14.6986300344 12.3429283322 
Si 8.3223493061 15.5502386622 23.1981697615 
Si 0.6376231858 15.6401431730 14.3947206502 
H 3.7770157245 15.1519644486 27.3195965783 
Si 11.0169108108 5.5496283808 24.2060189931 
Si 8.2746847657 10.3698720048 17.5068065121 
Si 14.8857369761 1.3929253327 27.6021465269 

