&CONTROL
  dt          = 30.D0,
  prefix = 'aSiHcSi_merged-3',
  pseudo_dir = './',
  outdir='./',
 wf_collect=.true.,
 verbosity ="high",
/

&SYSTEM
    ibrav= 0, nat=  388, ntyp= 2,
  ecutwfc     = 42.D0,
  nbnd=1468,
  degauss     = 0.05D0,
  occupations = "smearing",
  smearing    = "methfessel-paxton",
/
&ELECTRONS
  electron_maxstep=200,
  conv_thr    = 1.D-8,
  mixing_beta = 0.3D0,
  scf_must_converge=.false.,
/
&IONS
/
ATOMIC_SPECIES
Si  28.08  Si.pbe-hgh.UPF
H  1.00784  H.pbe-hgh.UPF

K_POINTS {automatic}
2 2 2 0 0 0

CELL_PARAMETERS angstrom
16.29000014898320 0.00000000000000 0.00000000000000
0.00000000000000 16.29000014898320 0.00000000000000
0.00000000000000 0.00000000000000 29.47023915778811

ATOMIC_POSITIONS angstrom
Si 16.1731356879 16.1473974877 29.1760967008 
Si 16.1277191675 2.6464897142 2.6691018784 
Si 1.1255314963 1.3352864252 1.1954248871 
Si 1.2376034393 4.0732656673 4.0009386085 
Si 16.1699428479 0.1043555329 5.3834169977 
Si 1.1357665034 1.5056228118 6.8668604262 
Si 15.8158471146 2.7589884552 8.2079625995 
Si 16.0379938467 4.3177296995 10.0111875931 
Si 2.3949558219 1.4868469576 13.4379870024 
Si 12.0820813405 8.3338826262 17.9579259927 
Si 14.8745131660 1.2969935219 27.7782937873 
Si 9.5287215571 1.1741669207 15.2054645959 
Si 15.9268797557 0.5280175488 21.2014794549 
Si 14.7399414748 0.2747601745 13.4135856443 
Si 7.9207845124 0.8961487462 25.2778618757 
Si 0.3530824952 9.5159339070 22.5238385561 
Si 0.2142851780 5.0720870264 0.1045061833 
Si 16.1964792581 8.1266575343 2.7193014838 
Si 1.2859912558 6.7900304421 1.3239976465 
Si 16.2082895082 5.4371296397 5.4115610761 
Si 1.2794475627 6.7261736415 6.9512042506 
Si 16.1961860381 8.1051873141 8.3017369005 
Si 4.3883305601 0.6613788930 21.3348617573 
Si 6.5599667700 15.2052979091 13.7304791260 
Si 0.8950622032 11.7494558275 23.1446291440 
H 12.1028510907 15.7461259140 16.6189751468 
Si 14.7166630646 10.6217154071 19.6839389597 
Si 3.4476156315 6.3451179580 22.4983173290 
Si 0.3882232836 4.5567528717 18.3453417567 
Si 4.1796719482 8.3649150765 16.3981841150 
H 11.5705427558 8.9306016217 27.0596325352 
Si 6.2866531475 9.7321510790 11.8239904144 
Si 16.0354363167 11.0524718811 0.0405198106 
Si 1.3063195469 12.2163109417 1.3585485549 
Si 1.2740474277 9.4653697466 4.1175523449 
Si 16.1744551779 10.8514695692 5.4588608099 
Si 1.2003156290 12.2548367921 6.8314077284 
Si 1.2221197942 9.5034068969 9.7420064286 
H 3.4778824518 9.7187932789 16.3547155123 
Si 13.4084457326 0.0790793170 24.1884355447 
Si 6.9850217439 7.5114005187 25.0067651457 
H 10.9460167301 0.1871036837 20.2919984042 
Si 12.1290779909 8.2808749657 15.5849823357 
Si 9.8313083099 13.9773902778 12.8101530273 
Si 10.6702107376 5.0247645760 20.5836358910 
Si 6.2797950574 2.8650200662 13.9731665455 
Si 16.1959742681 13.5944286643 2.6698533695 
Si 1.2378787403 14.9802026870 4.0604095512 
Si 16.0608161369 13.7350276556 8.0007868182 
Si 0.9497933457 15.2565299595 9.3414174678 
Si 9.7418436291 7.2241263661 20.5133493706 
Si 15.3158092701 13.0907581497 22.4099655520 
Si 10.6442281873 11.5210211554 16.0661429305 
H 6.2259403169 0.8424438737 11.4017408278 
Si 0.7614727990 10.8827137895 13.6861264161 
Si 15.9158840056 12.7736407168 14.6577896713 
Si 2.5746345235 0.0919917485 2.6880306130 
Si 1.9701940680 3.3052410302 0.1046921405 
Si 3.9069773457 4.1443715179 1.2329346075 
Si 3.9471810661 1.4335134971 4.0702820813 
Si 2.5738851835 2.8035090256 5.4801383226 
Si 3.9813086164 4.0827464473 6.9072051836 
Si 2.5670108035 0.1564656143 8.1695039374 
Si 3.9787999564 1.3388034362 9.6468470264 
Si 16.1980268081 13.5503153439 18.4271216703 
Si 1.5939895466 9.6161174079 25.9154504999 
H 13.0215745191 14.4274666919 28.4391933706 
Si 5.7699506328 8.8680806011 18.0839112651 
Si 0.2407955242 8.2422676654 24.5116651278 
Si 13.9976550380 1.8814461472 15.0592332692 
Si 5.9557380845 15.3820932807 20.3160166492 
Si 12.5945810352 10.5363232264 18.7499681403 
Si 2.6486074142 5.4827253501 2.7223899648 
Si 2.5368580132 8.1254032043 29.3031134315 
Si 3.9632104262 6.8149704323 4.1420126434 
Si 2.6129648939 8.1253380443 5.5676354626 
Si 2.7532380852 5.4606361099 8.4245983276 
Si 4.1672100981 6.8939443530 9.6552460445 
Si 1.4382392262 3.9855603065 27.3401892119 
Si 0.0024742555 5.8083624531 24.4350425060 
Si 8.4611889774 3.5539404625 14.5203699462 
Si 14.7778971752 1.6471796551 17.2652869618 
Si 3.5822687728 5.8218342832 13.5576951138 
Si 13.7283487556 1.4484335082 21.0764372301 
Si 10.8016058788 6.8770353329 24.2372382608 
Si 14.1233160992 12.9275160582 13.1168792765 
Si 0.4243952289 8.1730677447 16.9548179923 
Si 3.9354685560 9.5050521869 1.2087542763 
Si 2.6262575340 10.8097182989 2.6970337711 
Si 3.9419845561 12.2176467217 4.0781211649 
Si 3.9390034860 9.5519673874 6.9351135000 
Si 2.4915066528 10.9018219597 8.2947819241 
Si 3.9788162464 12.1754556214 9.5872582028 
Si 12.9767933087 0.5455390730 26.4642158232 
Si 8.0165534233 3.3990714311 18.0600109012 
H 2.9653338871 1.6982650955 28.3468925816 
Si 15.6008516927 12.8875892679 11.2611677870 
Si 7.7196518806 1.2567376735 17.0958330866 
Si 8.3190913061 3.1094678084 10.7938876749 
Si 2.7240301149 13.6237180846 0.0983336417 
Si 4.0235322968 14.9689300069 1.4837793892 
Si 2.5951273437 13.6113213945 5.4665820126 
Si 3.9469041361 14.9979424972 6.8593749854 
Si 15.9993376763 7.0691270147 13.4483310563 
Si 7.8467627518 0.1071041446 19.2983208803 
Si 14.6889700643 13.1345945401 16.6290539686 
Si 11.4003285443 4.5098376712 16.3576035957 
Si 11.3302489636 15.5372392421 15.3085220222 
Si 13.3827564024 2.2979488710 23.3317651627 
Si 4.5466042016 12.8544716976 28.2701520788 
Si 5.3221711087 16.1119667374 29.3414542127 
Si 5.2827981783 2.6975099947 2.5376351415 
Si 5.3143844886 0.0192274130 5.4289779874 
Si 5.3609901790 2.6608574943 8.2125599568 
Si 11.4311492245 11.9596782794 22.5923863324 
Si 3.2754792000 11.8217834281 22.7998273459 
Si 1.5216342529 11.8595110685 17.8996633299 
Si 13.2590501413 2.4032311420 18.9399333019 
Si 12.3634096431 4.2854429192 11.5023227540 
Si 9.8022795296 8.2788224257 18.4056378660 
Si 15.2982486499 3.6704954136 14.2116397207 
Si 9.1271893435 1.7538302860 27.1997340521 
Si 3.6550036234 10.0702011621 21.2603904630 
Si 13.0673168395 11.8124818380 27.1446541751 
Si 5.2819022283 5.5696325009 29.3858658631 
Si 5.2625822881 8.1897161249 2.7154232003 
Si 5.3373533888 5.3930326093 5.4322491840 
Si 5.4440691798 8.1976493550 8.1944062895 
Si 1.8371047668 1.2717032966 24.8928332011 
Si 4.2115026085 12.3733791232 15.4987229457 
Si 5.3506460289 8.2096062151 26.6040815783 
Si 1.2986893109 14.3258822510 11.4444726745 
Si 5.6689689218 5.5048308803 10.8964441072 
Si 13.6954592453 11.4874637551 23.1534112753 
Si 3.9479629861 6.7827813920 27.8555942246 
Si 5.3562172090 10.9180793799 29.3676827255 
Si 5.2585749481 10.8442530992 5.4537035181 
Si 0.7780837121 16.0231047865 13.0780964418 
Si 2.6938610346 4.9035832648 15.4592917657 
H 5.5561118008 4.6774129028 16.4806713144 
Si 5.4378952697 1.5448898571 16.0092064284 
Si 7.1959283758 10.0862142322 16.5674316985 
Si 9.5752620876 3.1350268187 19.7786857786 
Si 0.6602174160 2.5236631131 17.1105387360 
Si 8.2947214659 10.3191286544 26.4979592471 
Si 12.3020777925 6.0785321056 14.7801501043 
Si 6.6816042011 9.5225150671 28.0217769032 
Si 5.3821183092 13.5337484138 2.7389846565 
Si 5.3083897685 13.5643247441 8.1981784801 
Si 4.7911008138 14.7687747751 25.0554205105 
Si 9.9188181907 13.6352188247 15.1776741603 
H 13.9434256275 14.4284115120 16.5655750735 
Si 11.2834315032 2.3639559516 26.3557653431 
H 8.5984648086 13.4685558332 18.7271287050 
Si 7.0699578047 11.6863809469 20.7549169209 
Si 6.4109458486 14.4346180020 28.0457067374 
Si 7.9706156229 0.0203333411 2.5058662237 
Si 8.0006543832 2.8465960760 29.0544730238 
Si 6.6553773009 1.4105136459 1.0330497634 
Si 6.6516143108 4.0168696867 3.9854667330 
Si 8.0191598233 2.6931279846 5.4250879158 
Si 6.7176213914 1.2763215117 6.8687465215 
Si 8.0085224532 16.1914945181 8.3739389864 
Si 6.7678108819 4.1432637979 9.3864774634 
Si 4.0410603370 9.4311770363 12.5704715723 
Si 3.8475677152 9.2696942648 25.1478097103 
Si 3.7145924440 12.9881311488 26.1052683103 
Si 8.0499967936 5.3590190890 2.5954027043 
Si 7.9425968226 8.0774943139 29.4122711974 
Si 6.6095698204 6.8062389922 1.3928371782 
Si 8.0791070239 8.1609479846 5.3936431707 
Si 6.6991322413 6.8090082923 6.7415824395 
Si 8.1183333442 5.6229170914 8.1799658723 
Si 4.2987029793 8.4815840576 22.9117847844 
Si 4.6681276027 11.3797868541 24.7054319503 
Si 0.8416179707 9.3349520054 28.1510039019 
Si 1.9069888674 6.6968353512 20.8023050655 
Si 6.9702141337 4.6916340729 27.9802533362 
Si 16.0656379769 4.2385928788 20.6041471774 
Si 8.0404671435 10.8163320389 2.7032225213 
Si 6.7402482016 12.1715297313 1.3160789933 
Si 6.6508812608 9.5146632870 4.0853708437 
Si 6.6136911905 12.2128085917 6.7691665833 
H 0.4962683385 15.4792468416 16.0885108420 
Si 7.0929104149 9.1852469040 9.5888790660 
Si 7.9835173030 10.8941493696 8.1898678727 
Si 4.3109367694 14.4175623719 18.8511100011 
Si 16.1912664581 10.6320106872 11.4045699707 
H 7.2404326562 14.3918241716 16.8744821203 
Si 2.5406210032 2.9062011866 23.2840528455 
Si 3.3895092010 14.6155184537 15.2934037895 
Si 8.1105955942 13.4054157926 29.2767375675 
Si 6.7041495613 14.9726441269 4.0424621755 
Si 8.0470808836 13.5853877142 5.4336342852 
Si 7.0572027345 14.2927972607 9.6382122463 
Si 9.0694250029 4.6843198628 12.5026310817 
Si 3.9368532060 12.1868260415 17.9647630882 
H 13.1788218905 6.7873588821 12.0811477213 
Si 14.6964960444 5.7712538328 15.0251362024 
H 4.7531939835 0.1555315457 10.1933726116 
Si 2.7180516849 8.1951406950 11.0297379989 
Si 13.0875001497 6.7863163221 24.9519799711 
H 5.1723682673 5.6228030614 23.4294884757 
Si 9.4209957862 4.0564543871 1.0788907204 
Si 9.3284848753 1.3766402196 3.9030090038 
Si 9.3707085557 4.1501707580 6.7717304942 
Si 9.4292873962 1.4415917082 9.5678373152 
Si 12.9995830189 11.4520655847 16.6152913669 
Si 5.7637441427 1.9688257080 25.0291625274 
Si 14.4562674122 9.6663068984 21.7822199877 
Si 14.9335318366 3.5229731722 24.7919565724 
Si 12.6605229558 14.0139124582 19.7961911007 
Si 7.9793633530 13.5562286140 24.0496012481 
Si 4.9284906751 2.3838786218 22.8348085197 
Si 9.5497193673 1.0727714438 23.3442310738 
Si 13.7855918161 9.8181948598 15.0337709825 
Si 9.4019364860 6.7725024019 3.9587666963 
Si 8.8112122106 7.4495799681 9.7901313292 
Si 8.4564648773 1.6071567537 21.1504664709 
Si 1.1707655687 2.4538115924 21.3634184191 
Si 14.7600433350 12.9399453283 20.1331538152 
Si 5.1457178271 10.6853930177 19.5122158761 
Si 6.9724295738 8.0200069033 13.3599203388 
Si 11.9133983890 15.0796694279 27.6367187583 
Si 14.5113439027 7.3462850772 11.6259209370 
Si 9.3520890855 9.4257850462 1.2964989664 
Si 9.4059438260 12.2289356918 4.0010859597 
Si 9.4033211360 9.5559910174 6.8281070617 
Si 8.8815850112 12.6239030355 9.5242508315 
Si 3.8409702651 16.0204983865 17.1365020167 
Si 10.4310735354 13.5579553540 24.0900344162 
Si 15.3007084399 7.8943784222 27.7396877740 
Si 13.7903484961 4.9628788654 26.3390557175 
Si 14.4914701025 8.6229812589 25.6271726204 
Si 2.2991217510 5.1299002369 24.1446427693 
Si 0.6428832269 15.6339855530 19.3230464110 
H 10.2189125735 9.9280383308 24.4267318986 
Si 6.6534387909 8.3699975565 22.8226962514 
Si 9.3612440656 14.8490844758 1.2121138836 
Si 9.3839686158 14.9705752969 6.8271934842 
Si 3.1015345784 11.4288197545 13.4930963496 
Si 11.6103718062 14.9864906271 11.6231802048 
Si 7.0410104744 14.9789972270 25.7161432724 
H 16.2235532384 0.0542597099 9.6993924628 
Si 13.0096665290 10.7918970387 13.0191559635 
Si 15.9091888155 5.6757292719 27.2144986419 
Si 4.4057771503 3.6771743136 16.5893575565 
Si 6.6081525904 13.7129058354 21.9472533270 
Si 10.7514163883 16.1500853377 29.3498827011 
Si 10.7413328782 2.6965000147 2.5064291053 
Si 12.1339649910 1.3181151361 1.1228868405 
Si 12.0595196903 4.0818342073 3.9078126528 
Si 10.6442933473 16.2371390985 5.2424903140 
Si 11.9721075495 1.2856621978 6.6103514645 
Si 10.7114407280 2.6736614345 8.0301097062 
Si 12.4590971039 3.6334030832 9.2506196609 
Si 0.1326188460 2.3325814113 26.2261847015 
Si 10.6902800178 10.1783178931 12.5330443685 
Si 15.3890654007 15.3922419508 23.0917300647 
Si 11.1334168918 8.0644786038 22.1870526630 
H 9.6798113085 0.5599801581 28.2659967751 
Si 10.7203513580 5.4368527097 29.0814677628 
Si 10.8120314789 8.0742037338 2.5559508951 
Si 12.1470295711 6.7867072821 1.0363799005 
Si 10.7436460583 5.4341485697 5.3584851753 
Si 12.0050296398 6.8041538722 6.8352978000 
Si 10.7558472684 8.2432613554 8.2654885063 
Si 10.1423658628 10.0679205621 22.9264904338 
Si 9.1468350837 7.8501673618 25.9137412260 
Si 12.2709964722 9.7734136494 28.1014054894 
Si 3.5021219720 0.3263864430 27.9191910007 
Si 8.6950482195 0.0160259067 13.1922052078 
Si 8.2446460054 8.4636976374 15.2740123721 
Si 6.7377558316 6.7527100518 18.9421140996 
Si 11.6512922866 2.4596597025 15.0032103445 
H 5.0078555558 11.1127774616 9.9750276096 
Si 10.6721003776 10.8161365589 29.4236761799 
Si 12.1790068414 12.0971170106 1.2296103646 
Si 12.0875384905 9.4178843961 4.0608221345 
Si 10.7152037180 10.8257150790 5.3544477526 
Si 12.0266953400 12.1726211613 6.7424370764 
Si 12.2434337920 9.4999045469 9.6723387833 
Si 14.6900126244 3.8381358051 11.9265763169 
Si 7.7821240312 10.3758178549 22.6183496131 
Si 11.1265588018 5.9763938047 12.5709725663 
Si 6.4123793686 5.3777037192 24.3519659018 
Si 3.9905124665 3.8685981054 18.8912484668 
Si 1.0573887967 14.6557873340 14.9390831041 
Si 1.2453639954 3.1338702287 14.8760757328 
Si 8.8417396709 6.4489504190 27.9064893276 
Si 14.2887899207 6.0762840856 23.0180839371 
Si 10.7891928987 13.5179471136 2.5500568473 
Si 12.0884670206 14.9055944863 3.9114080220 
Si 10.6702596076 13.5021783935 8.1716257946 
Si 12.4354928937 14.4353021820 9.4367242212 
Si 12.9947448888 14.9683924369 13.5035288143 
Si 11.7998570879 2.2940229810 12.5760414475 
Si 2.4377333623 5.6363726315 18.8109715354 
Si 4.7524446435 7.7932663913 14.1539664627 
Si 9.1883420040 10.5673230966 17.7561432652 
Si 7.5533961391 6.8700632128 21.2335136049 
Si 7.9044456423 4.9178695950 22.6153731190 
Si 8.9828925222 12.1708781313 19.4336482185 
Si 0.4692415993 11.6800767168 25.4413627625 
Si 13.4824023333 16.1386986276 2.4317456252 
Si 13.5524656239 2.6904075546 29.2366285720 
Si 13.3764521723 2.6548790643 5.2551919871 
Si 13.2571605012 16.2201649183 8.0695703564 
Si 14.0457594085 9.5959992578 11.3012767825 
Si 7.6475197599 6.4371890389 11.7732721328 
H 2.0214912785 12.9282979782 20.3985038486 
Si 2.4218343221 6.8694930628 16.8514953338 
Si 12.1907030615 4.0037073666 27.8041391870 
H 1.2216539002 11.7765623877 16.4015142521 
Si 14.4143206618 11.0202339708 25.3861650046 
Si 3.1180363485 2.6899840146 11.4628915740 
Si 13.4405859029 5.4664516400 2.5637664026 
Si 13.6176093345 8.3037624159 29.3617886777 
Si 13.4545301431 8.1391030944 5.5116420082 
Si 13.4325549328 5.4073678095 8.0593736537 
Si 7.2224973661 1.6161700108 12.2304734231 
Si 12.1212587909 15.9282969857 21.0711915276 
Si 10.3998130251 0.6877361133 11.5667152266 
Si 1.7451802960 6.3844583084 12.2075455770 
H 12.1797724714 1.3863018187 18.5316820789 
Si 13.4355522929 10.8323451091 2.7782566972 
Si 13.4412700829 10.9596840402 8.1808499795 
H 13.7261007355 4.6907869929 22.6985381339 
Si 3.3317774405 5.0255139160 26.3148901214 
Si 5.5781684610 4.0648274472 26.1031169828 
Si 9.0503168328 4.7516953035 16.4590401589 
Si 3.9748414864 0.5862673314 25.6763289793 
Si 11.1202708617 13.1555109003 26.4803360440 
Si 0.4981025926 9.8452036800 18.6917349477 
Si 14.0936357189 12.6165562454 29.2590848942 
Si 13.3883601624 13.5951128443 5.3857746168 
Si 4.4651867808 13.8433724466 22.9027963615 
Si 3.4551904816 13.1309292901 11.7297740598 
Si 11.2880415732 15.6425703831 23.2815478751 
Si 13.9571906776 1.6254813749 11.6903428798 
H 0.5280012588 5.7356601825 21.1079703860 
Si 6.2435498071 4.3526391698 19.3525461204 
Si 6.9226962033 11.8325185382 12.6496286347 
Si 10.2693138339 4.8331127242 23.0442829797 
Si 11.2703017631 12.1222687709 20.1805714300 
Si 6.4780932292 11.8553408284 15.0524551141 
Si 14.7906522453 4.0025181966 1.2921226359 
Si 14.7442909048 1.2596715025 3.9224004212 
Si 14.7211428146 4.0662283872 6.6037206607 
Si 13.9953581480 1.7436979059 9.3376158069 
Si 1.2433815024 15.4271514211 24.0818416897 
Si 2.8795507463 15.3944248108 22.2749918567 
Si 12.2670217122 4.6186548722 18.7383273958 
Si 9.4459683564 12.0233721800 27.8057011097 
Si 10.2982448742 9.5485464873 14.7682146575 
Si 13.4675458532 6.6762610811 18.9446190700 
Si 7.1258650852 11.4146800344 24.6341434418 
Si 6.7183544414 3.2461571997 21.4759357922 
Si 14.7852276752 6.7846547421 4.0602622000 
Si 15.0303758875 6.4177061987 9.4976392055 
H 8.8489561409 15.2728362497 19.1003398137 
Si 1.6389369150 9.0168408825 20.6203558089 
Si 4.7636195836 4.0657559772 12.5313350947 
H 14.7457244249 0.1588926615 17.5048800061 
Si 2.9995428874 1.9694610180 19.9012230330 
H 10.7220129381 2.4372609523 19.1011060399 
Si 5.8837851538 13.8669603668 11.8289119443 
Si 16.0689122670 9.0312901126 14.8167521414 
Si 14.8618069659 9.5644781075 1.4353332631 
Si 14.8199905355 12.2364128019 4.0775907006 
Si 14.8370461657 9.5115030270 6.8988061654 
Si 14.2959575207 12.8947242879 9.3011611211 
Si 13.4170305627 7.5712173992 21.3515419127 
Si 1.9367832777 4.5948714720 10.5671731250 
Si 8.3693622465 6.9030015931 17.1091831050 
Si 7.5563446291 13.8968036471 15.4892924692 
Si 10.6822001777 8.0891579540 11.2694194539 
Si 11.1086886716 2.8041117556 23.9719471679 
Si 1.4802543945 13.8142296363 25.9288299884 
Si 14.8492636658 14.6716212142 1.0427719953 
Si 14.7407233948 15.0579222777 6.6463346265 
Si 9.1543610637 11.9576908994 11.8142062950 
H 12.4665253440 14.5186418228 18.3833288950 
Si 2.3945159919 14.4036181317 20.2537755041 
Si 2.0071072084 0.8608971859 18.1124679269 
Si 15.2972386699 6.2899437275 17.3642480249 
Si 4.4793753710 0.1805257817 14.2519550079 
Si 1.6633882052 15.0408666476 28.0263447903 

