&CONTROL
  dt          = 30.D0,
  prefix = 'aSiHcSi_merged-8',
  pseudo_dir = './',
  outdir='./',
 wf_collect=.true.,
 verbosity ="high",
/

&SYSTEM
    ibrav= 0, nat=  388, ntyp= 2,
  ecutwfc     = 42.D0,
  nbnd=1468,
  degauss     = 0.05D0,
  occupations = "smearing",
  smearing    = "methfessel-paxton",
/
&ELECTRONS
  electron_maxstep=200,
  conv_thr    = 1.D-8,
  mixing_beta = 0.3D0,
  scf_must_converge=.false.,
/
&IONS
/
ATOMIC_SPECIES
Si  28.08  Si.pbe-hgh.UPF
H  1.00784  H.pbe-hgh.UPF

K_POINTS {automatic}
2 2 2 0 0 0

CELL_PARAMETERS angstrom
16.29000014898320 0.00000000000000 0.00000000000000
0.00000000000000 16.29000014898320 0.00000000000000
0.00000000000000 0.00000000000000 29.20513569536355

ATOMIC_POSITIONS angstrom
Si 16.1024207973 0.0519559781 29.0336723437 
Si 2.6340930241 16.2525331486 2.6041080499 
Si 1.2055479770 1.3321440842 1.2872484814 
Si 3.9778551364 1.2716886356 4.0328495728 
Si 16.2556282487 16.2014802882 5.4220502624 
Si 1.3142055360 1.2820262697 6.7892010746 
Si 2.6457403742 16.1997861282 8.1838923297 
Si 4.0471853770 1.2982853189 9.4643915043 
Si 13.4454077430 13.5552837940 10.9180187232 
Si 7.2600132364 15.1656154687 18.8796891754 
Si 8.5552637282 6.0321381852 15.2603259138 
Si 1.1505154695 4.0029254466 18.9691153009 
Si 3.3844755910 10.4564859356 12.7806346625 
Si 13.7704584059 10.7030513779 26.3509761941 
Si 12.5501419148 15.4063490909 21.2126246199 
Si 5.9398227543 9.7994613596 26.9262297519 
Si 14.3329358211 13.5890366743 18.4374942158 
Si 14.7998398054 1.5030620237 27.6194428528 
H 13.0864250097 10.7888182287 20.2939770766 
Si 16.1957136281 2.6093485139 2.7777793099 
Si 2.1564376397 3.1317199486 0.0670523631 
Si 4.0302600669 4.0167230767 1.2457509041 
Si 1.3302186062 4.0602988271 3.9863549967 
Si 2.6247751440 2.6481350042 5.3616832469 
Si 3.9898282865 3.9970121766 6.6949853068 
Si 16.2707616588 2.6108960639 8.2053288993 
Si 1.3832360407 3.9116362858 9.6286703925 
Si 2.3061264511 8.9191660416 21.1533673996 
Si 8.2191847352 8.2853058458 15.9549700663 
Si 0.0608825724 15.8044766945 20.4473624493 
Si 13.3006873816 7.5844285894 19.7689563522 
H 10.2782244640 2.8717804163 13.5324040604 
Si 0.4775625314 4.9146767549 0.1274503360 
Si 2.7429428051 5.4611085199 2.6203139797 
Si 16.2839076889 5.3425987689 5.4761673788 
Si 2.7328104250 5.2816252983 8.2172445947 
Si 10.7454868283 13.4376048329 26.2777881241 
Si 7.4321822480 6.0190736050 25.8693250962 
H 4.7160364931 0.0673905903 20.3793144831 
Si 0.4608359592 7.4938073185 21.7598996577 
Si 4.3979579502 6.3389603380 23.2608099913 
H 7.4256662479 3.2067191093 20.0333504456 
Si 5.8220134732 0.3928268376 24.5149077232 
Si 16.1338442076 13.4683929332 26.2870461521 
Si 2.5942639737 8.7669197002 17.8864225104 
Si 16.0451125767 5.3623748290 27.1457647569 
Si 5.4017640494 5.4998950103 26.9951246670 
Si 16.1786579980 8.0270278934 2.6951755041 
Si 1.9639061280 8.7045941596 29.1588747604 
Si 1.3060637939 6.8006678122 1.2743777781 
Si 4.0998998175 6.7728933619 3.9766296866 
Si 2.6646204844 8.0395549035 5.3636107859 
Si 1.3761808416 6.7007449513 6.8622139138 
Si 0.0226409825 8.0281356134 8.2961276662 
Si 4.5961583820 6.1548018863 9.4311560598 
Si 12.5473726148 2.3292908313 16.5864727155 
Si 7.7008043504 12.9556325985 19.7577707852 
Si 12.0370069101 10.3868787650 23.4167070057 
Si 1.0580338807 5.7687940428 13.0252276739 
Si 15.1814493488 16.1349356376 16.3291754700 
H 3.9162137758 14.4746099524 20.1031507200 
Si 5.5647617909 1.3931599087 16.3590523238 
Si 9.3683790857 11.9818815496 27.6057164390 
Si 1.1348721824 14.9716178569 27.6382801653 
Si 3.9033283857 9.4886644468 1.1437811728 
Si 1.2976679279 9.4259805262 4.0061560787 
Si 4.0380141069 9.3539787255 6.7354344197 
Si 1.4215387180 9.4893649168 9.5568549639 
Si 2.0356147086 0.2983334337 26.1328430356 
Si 10.8732167194 6.0375301752 15.9452447561 
Si 5.0482547562 13.7126289054 22.5809728426 
Si 4.7608177035 10.7579649684 25.0832396639 
H 12.6865217960 3.7038084639 28.4514387585 
Si 0.2167156460 10.5427740664 0.0296989945 
Si 2.6938610346 10.8242163990 2.6766156403 
Si 1.2781655397 12.1754882014 1.3472387507 
Si 4.0612762271 12.1406601810 4.0450281144 
Si 16.2322520985 10.7686837885 5.4132887217 
Si 1.3164177180 12.1596706112 6.7449844991 
Si 2.7063554648 10.7744504485 8.0541339118 
Si 4.3192772495 11.9063611089 9.3610345290 
Si 10.8005796088 16.0221762565 10.6566035536 
Si 9.2312498644 9.2848602549 12.0090641825 
Si 14.0831286688 15.4228834411 12.3132940811 
Si 3.7753215645 8.0786509039 16.0077437465 
Si 4.6715159227 12.0548444602 17.2012408219 
Si 14.9134136864 8.8087035506 20.9880371264 
Si 8.6745716893 12.6343286355 22.1079664649 
Si 8.6324620389 3.5360540423 23.0050314129 
Si 14.7763333351 8.3453344963 16.2186924417 
Si 5.0311828360 13.8015560162 26.4720606867 
Si 16.1793095980 13.5295293037 2.6620890058 
Si 2.4580469925 13.6398940547 29.1110659533 
Si 2.6600267043 13.5176701836 5.3585582974 
Si 16.2785645689 13.5234205537 8.1606158365 
H 13.0014563689 13.1558529903 24.0451723207 
Si 11.5770424659 6.1080658759 20.3994076164 
Si 4.0579367771 14.2559492804 16.8619355553 
Si 15.3827611707 9.9801337513 24.6664531724 
Si 12.2943400424 13.7430586257 19.5242173151 
Si 13.4367903329 16.2208979684 26.3421562431 
Si 3.9670059963 14.8521632858 1.2590830486 
Si 1.2947178088 14.8793838761 3.9898304079 
Si 3.9893232965 14.8685836060 6.7523733984 
Si 1.3304662142 14.8159994855 9.6229169808 
Si 7.3441510872 4.6663682827 16.7589582469 
Si 11.4060952043 7.9075081623 14.5290877263 
Si 12.9717108286 9.4236999262 15.2534335018 
Si 7.9355921226 8.4508936973 19.7247689819 
Si 7.3452099372 14.5809673634 14.7412630371 
Si 5.3758466592 16.2252962684 29.1565383496 
Si 8.0997301641 16.2530055586 2.5404642182 
Si 6.6833798111 1.3788800946 1.2825201700 
Si 5.3686301891 16.2075890382 5.3686632743 
Si 6.7315819216 1.2886465258 6.7418887547 
Si 8.1305508444 16.1674504779 8.0192921849 
Si 5.6241877114 0.0340405617 10.6498571673 
Si 6.1419816562 11.1377826119 15.5854374844 
Si 2.6867748846 2.4650842725 11.0037357965 
Si 15.9971548163 7.6884402403 24.1295459577 
H 11.4568711348 4.7873541138 10.5167401588 
Si 2.9705303972 13.4623656331 10.7813970984 
Si 1.6258495289 0.1011410271 18.7789022521 
Si 14.1838008697 0.6039989965 20.2475117057 
Si 3.1388386787 8.8528983210 11.0834074067 
Si 8.6119203488 5.0601953263 18.6934188199 
Si 5.6559695017 11.1884445123 13.2395933699 
Si 5.3073309185 2.6557587243 2.7000994899 
Si 7.6060454196 3.0837947682 29.1366204470 
Si 6.7187454014 4.0317587469 4.0322070598 
Si 8.0838148339 2.6434597742 5.3705908133 
Si 5.3523401890 2.6898374046 8.0791043028 
Si 6.2776447774 4.3988376102 9.4476861666 
Si 11.3750138840 0.7078526345 25.4326499073 
Si 4.2065830285 6.8231968824 11.6517393473 
Si 14.4723619324 4.8481158143 16.9736451994 
Si 2.5889371437 2.1700397898 19.3597924011 
Si 14.2119174100 11.9364487392 16.8454638588 
Si 16.2011056182 4.7628050836 15.2383928569 
Si 1.4496927253 5.2843620183 21.0741922767 
Si 6.6943104012 14.9374740166 27.6858845365 
Si 5.8943899439 4.8252772341 29.1833778693 
Si 8.1407646745 5.3546044990 2.6860342966 
Si 5.3941891993 5.4236578096 5.4179031331 
Si 8.0313121635 5.3708944991 8.1615211957 
Si 12.3079910626 0.8066808074 12.0710666856 
Si 0.0060882409 2.5679719135 13.8850852791 
Si 11.0311156909 0.7496267109 15.7779869440 
Si 5.0581102063 6.0945777557 19.5085633623 
Si 1.5821483455 16.2581857787 22.3173964930 
Si 6.7455424517 6.8306577025 23.7654455310 
Si 10.4324744754 1.5576954262 27.3979511037 
Si 5.3754556992 8.0484329536 2.4118331186 
Si 8.7664472902 7.5020337686 29.1133439539 
Si 6.8859296730 6.6359270407 1.1457788041 
Si 8.0929209440 8.1077774242 5.3145753630 
Si 6.7834981520 6.8055873922 6.7607552724 
Si 5.4149263695 8.0859325340 8.2214793393 
Si 4.7085430931 11.7063361971 21.3999171551 
Si 16.2295316684 5.1416127470 11.0326196757 
Si 4.0487655070 8.2431961954 19.5890235112 
Si 3.0727501481 16.0931843672 13.5208388267 
Si 5.9943128048 9.4140725361 18.8956059744 
Si 13.4471019030 2.4873689927 10.8832646117 
Si 8.3174460161 5.7852958129 22.3290201370 
Si 6.1056060858 15.4114967309 16.6740005071 
H 8.3334753762 2.4064239820 14.9299574188 
Si 6.7261899315 9.3942801859 3.8506679363 
Si 6.1674266364 10.0552143620 9.4672244024 
Si 12.0415029501 6.9176788833 12.4725204809 
H 2.5593056334 8.6804035094 24.2888599729 
Si 14.5265587629 3.9168490858 22.8443739615 
Si 2.8900740864 14.4849215225 23.2138481331 
Si 3.6062313630 5.7203964523 15.7929691786 
Si 1.3253022841 1.0767396878 12.3815464832 
Si 9.4772777367 8.5404561181 17.9873554594 
Si 5.1899614675 10.8868840296 28.9346377286 
Si 8.0887669940 10.7357291182 2.4629304240 
Si 6.6995720713 12.1267485209 1.1036124292 
Si 5.4242116696 10.7131348880 5.3398086003 
Si 6.7996904122 12.1511183611 6.6168907740 
Si 8.0214892934 10.8420539492 8.1462761149 
Si 10.3001670942 0.0380140185 21.2560818618 
H 12.5594272149 8.6620283892 18.9751899691 
Si 1.7489595760 12.0934680506 12.2630028374 
Si 11.7483318174 5.6252791414 27.0486284756 
H 15.2656523596 5.1998657876 22.4732935073 
H 11.2618472530 2.7916661955 27.7003994889 
Si 4.7063602330 2.6109612239 18.2413525245 
Si 5.3676364991 13.4600035831 2.5714304236 
Si 8.0801658739 13.4828910333 28.9449763466 
Si 8.1094064242 13.5059250935 5.2172054406 
Si 5.4033930494 13.4548070731 7.9799528671 
Si 2.2272665604 2.5398065032 26.9770466880 
Si 11.7609565676 3.6737371236 20.3730353789 
Si 4.4533602407 14.8411675357 12.0478778079 
Si 6.6421009507 15.5101163919 22.5830172021 
Si 1.3551830314 12.5844160751 23.0213570838 
Si 7.7103177105 2.4131191721 16.2922893836 
Si 12.2970604725 12.0450867502 25.0795014065 
Si 1.3423123023 10.9605637002 15.6686721211 
Si 6.7138909814 14.8855252061 3.9057780274 
Si 6.7728282019 14.7968098653 9.3249953916 
Si 6.8959643131 9.7148673888 11.7367262922 
Si 10.7636338884 14.2503618103 17.8005886166 
Si 10.9622741503 16.1891813381 29.0206760583 
Si 12.2120755417 1.2707438156 1.2964743838 
Si 9.4414723163 1.2904807798 3.9724825573 
Si 10.8302762791 16.2415211085 5.3550244760 
Si 12.0702710904 1.3137038040 6.8633237090 
Si 9.2458294146 1.1700895337 9.6542248863 
Si 14.7123136346 6.8980983031 18.0265195463 
Si 10.4678563557 6.4110272986 18.2681920442 
Si 8.9958919423 14.9171440964 22.7643226845 
Si 11.0505822411 3.2051389793 18.1653315563 
Si 13.7744494560 6.8745266729 24.6972645905 
Si 9.4259316562 4.0282401068 1.1869025557 
Si 10.7924997687 2.6507088242 2.5828934394 
Si 12.1518514111 3.9985597266 4.0082296434 
Si 9.3996233060 3.9810153964 6.8193115695 
Si 10.6344704773 2.6239280640 8.3008881033 
Si 12.1760909314 3.9142589758 9.5337244964 
Si 0.4153428758 0.4316980359 24.3154074413 
Si 3.9390034860 3.8516076352 25.8885420755 
Si 10.0999955724 11.6459491665 14.9188302621 
Si 6.2087869468 0.2004500808 20.4959890002 
Si 10.4740628458 2.3938481019 21.9659418900 
H 15.3805783107 9.5729651976 19.7677589416 
Si 4.2215861186 3.2606715898 12.6656832484 
Si 10.5157815362 5.7669044027 29.1607730942 
Si 10.8229783590 5.3313097988 5.4579141690 
Si 13.5182240436 5.3720836691 13.5450498842 
Si 15.8422043349 10.2727021540 16.9432426531 
Si 4.7287915632 3.1068776984 21.9952638462 
Si 11.7493255075 8.0338371135 24.0225091354 
Si 13.9945436480 2.9517480270 20.7091864908 
Si 13.9965473180 14.8928557062 14.6659137870 
H 16.1296576775 6.9184608033 18.5655879410 
Si 10.8880731996 8.0901190640 2.7214688877 
Si 12.1963882715 6.7449885917 1.3025140059 
Si 9.5037489869 6.7055342113 4.0556879889 
Si 12.1993693416 6.6917202912 6.8249773658 
Si 9.7721918994 6.9626555737 11.6321134961 
Si 9.4041193460 6.8352351925 9.3371447280 
Si 10.8410765491 8.1471992245 8.0846532786 
H 9.0632185129 3.7724545245 19.3423861402 
H 4.4487990407 0.7391554988 28.2685854039 
Si 8.1681481647 10.3038486342 26.2911932814 
Si 0.5787494963 8.0989645341 13.2509541677 
Si 5.8677395037 12.7355709865 24.5717993276 
Si 14.9143096364 12.7271001864 14.7497909367 
Si 1.1975414420 6.6911827212 25.7148007233 
Si 9.5747408076 9.4021156760 14.3158610306 
Si 11.9710161195 11.1781818122 16.3895716906 
Si 9.5678175575 9.3412399454 1.2077082944 
Si 12.2147959717 9.4295806162 4.1014816416 
Si 9.3976359259 9.4714296266 6.7460942943 
Si 12.1828187014 9.4442741964 9.5677484795 
Si 2.3354321614 9.2181364143 14.4703854035 
Si 9.5544760474 1.5068510778 17.4996296933 
Si 3.4425494415 8.4274360971 23.0813736376 
Si 6.0185686150 9.0042975824 16.5302528293 
Si 11.8806391987 2.3442613414 23.8394513449 
Si 3.8663175054 5.2103076777 21.2870685108 
Si 11.7067434471 14.7904078953 15.5489310648 
Si 3.7151463040 12.2659791522 27.7335473179 
Si 10.8466640192 10.7380748782 28.9893389477 
Si 12.1602407612 12.0949993106 1.2288820177 
Si 9.4534454665 12.1180985308 3.8605684773 
Si 10.7765192786 10.8100440989 5.3581202203 
Si 12.1560705212 12.0922463006 6.7829219704 
Si 9.3458988855 12.1485445411 9.5965739484 
Si 10.7556517884 10.7676900985 10.9195958005 
Si 0.1285409703 10.9363404700 10.8995318723 
Si 10.3859502350 11.0339012809 21.8513993478 
Si 11.7693622076 11.5012776752 20.0521877582 
Si 8.2570101155 2.2285208904 26.9781564832 
Si 9.6646941884 15.3128607800 25.0570134520 
Si 9.5212770271 14.7025396345 12.1039224633 
Si 2.5639157034 11.0857197714 17.6182317493 
Si 8.1056271441 12.5103128644 15.8339147789 
Si 10.8000094588 13.5339927638 2.5287500383 
Si 10.7083944979 13.4174703927 8.0837187143 
Si 3.3885806710 5.3684347091 13.3607946831 
Si 9.4973470169 15.9605674760 18.9425386274 
Si 10.5306705963 1.3824752976 13.6174786207 
Si 13.8325395965 10.8973422097 13.5880106388 
Si 2.5054183129 8.3877699467 26.8887303577 
Si 9.0965478532 9.0621759529 21.6393116524 
Si 7.3317543971 6.2368546170 20.2170215440 
Si 8.6827818494 3.9854136964 25.3874695624 
Si 9.4401854063 14.8951851762 1.1100229565 
Si 12.1571130812 14.8361665057 3.9927509215 
Si 9.4666729466 14.8212774456 6.6395831644 
Si 12.1693305813 14.7352825348 9.3266892895 
Si 7.8758404020 13.5018363035 10.9618848370 
Si 15.1547174586 9.4748342367 12.2207430060 
Si 1.9190760476 2.3255115513 15.5363728564 
Si 16.1068028073 16.1196719074 11.0666436588 
Si 16.2280981484 3.1134914385 26.4307938300 
Si 4.0030394766 1.7414335959 14.5189243391 
Si 10.9620949603 7.7486806609 26.2550957336 
Si 7.3439718972 9.1461509036 23.2318969070 
Si 13.5422029239 16.2162716083 2.6847171450 
Si 14.8359710257 1.2697908506 4.1400032156 
Si 13.5405250538 16.2007635282 8.1015338470 
Si 14.9107909964 1.2118065951 9.5413762419 
Si 1.1923270129 0.1944863118 16.4622924785 
H 10.1165787925 4.4030241403 25.6892170244 
Si 7.7628529610 11.3660380940 24.1039330537 
Si 7.6572937600 0.0834965135 26.0573185547 
Si 5.2985831885 2.7326312350 24.2749291232 
Si 12.2153172517 12.0838406605 12.2915654601 
Si 6.3904530284 3.4180818613 11.6378669078 
Si 6.1965694467 7.6362470798 12.5988034876 
Si 8.6744250793 7.9471417327 26.7676750702 
Si 13.5596169340 2.7250400949 29.1994991042 
Si 14.9607524268 3.9963117065 1.3644989859 
Si 13.4603456731 2.6573714343 5.4740354039 
Si 14.8959508062 3.9821068264 6.8389666258 
Si 1.7561597561 4.4760359209 16.6464892693 
Si 14.3356888311 10.4959566060 22.5911654350 
Si 15.9958679063 13.4648254231 20.0242676484 
Si 13.8631973768 14.2581321404 22.9814044581 
Si 13.5566032840 5.3735986391 2.6719895468 
Si 13.5591119440 5.3506134489 8.2459240379 
H 7.2049041659 4.6362643624 12.5419410884 
Si 14.2384538202 1.3253983951 17.8986302571 
Si 12.8343535474 4.5617213217 24.3962472569 
Si 2.3899222119 11.3185853235 21.2862799721 
H 14.7486892049 14.8845315161 17.5275205978 
Si 5.0804112165 4.8455582843 17.4553255024 
Si 7.9957836731 6.1069418659 12.9494695519 
Si 10.8510623192 13.4662589432 13.6531380914 
Si 13.5175398636 7.9937474231 28.9771896113 
Si 14.8869424362 6.6936588012 4.1252838272 
Si 13.5687067541 8.0796608839 5.4976623587 
Si 14.9208419265 6.6754791611 9.7061516175 
Si 13.5504782439 8.1256475543 11.0200906725 
Si 0.8339209456 11.6188751863 25.0757631491 
Si 1.5482716612 3.7757125245 22.9374799341 
Si 10.3334475645 7.1127353451 22.2161130824 
Si 14.9812452470 15.1477779185 24.8886458447 
Si 9.1618707538 12.4822289042 17.9539155790 
Si 14.8720696660 9.3417123554 1.2238236882 
Si 14.9483883167 9.4167115161 6.8962671020 
H 5.7532370926 7.9367975826 14.0183775184 
Si 5.1813114774 9.9397834209 22.9168903134 
Si 4.7635870036 7.7554084309 26.7582710165 
Si 15.0768512579 11.9876319196 27.8301287017 
Si 1.7561434661 12.5051652244 19.3439924227 
Si 2.6854553946 5.2248220678 24.5015317711 
H 4.2955915893 9.1672627438 10.1331599065 
Si 15.2635672396 6.8194827624 14.4560456819 
Si 13.5158945736 10.7307606681 2.6120021981 
Si 14.8517397458 12.1079824407 4.0123767726 
Si 13.5688207841 10.8206163090 8.2311754444 
Si 14.9351608366 12.2414138320 9.5989687695 
Si 2.9860058973 14.4901506125 18.9234676738 
H 15.2846790798 1.6449805050 14.5625568118 
Si 2.6994647947 10.7165557880 26.2142085437 
H 13.2016767607 1.7566810361 23.3540911947 
Si 16.0961817272 2.7140606348 24.1286405985 
Si 14.7888929253 3.7874901946 12.3048245917 
Si 6.2560605272 13.4609321131 12.8315100088 
Si 12.1982779116 9.3658867157 27.5851560235 
Si 12.2566286921 14.6718329842 27.7111761840 
H 8.9700885820 4.5354129715 11.1891299979 
Si 13.6262430346 13.3657985122 29.1162644674 
Si 13.4954994934 13.4668779632 5.3945974348 
Si 8.4748725775 0.1148873438 13.2915201012 
Si 2.3012720310 14.7469135949 15.2844493559 
Si 7.5036953486 1.3311145562 11.4202302366 
Si 5.7701786928 11.6861365969 19.3064054130 
H 7.3790279775 2.8265756659 22.5295425987 
Si 6.0951153257 2.4863753027 20.1696800191 
Si 15.3769456406 12.6425225056 22.1299579321 
H 6.5727544201 3.5001183020 24.6249526745 
Si 14.8576367259 14.8899886662 1.2430611111 
Si 14.8944358362 14.8252359156 6.7491900387 
H 9.1052141333 4.0128949267 10.6135843887 
Si 13.9717376478 6.5103311395 27.1155666466 
Si 0.9873613440 12.8926228779 14.3995921546 
Si 12.6126629354 4.4830569110 15.5766175334 
Si 2.6585280243 2.0330408886 21.7377913700 
Si 3.8546864453 15.4304420011 25.1918827686 
Si 15.1641493687 3.3849154210 18.6658491718 
Si 10.6240937472 10.6304305572 18.1984793853 

