&CONTROL
  dt          = 30.D0,
  prefix = 'aSiHcSi_merged-5',
  pseudo_dir = './',
  outdir='./',
 wf_collect=.true.,
 verbosity ="high",
/

&SYSTEM
    ibrav= 0, nat=  388, ntyp= 2,
  ecutwfc     = 42.D0,
  nbnd=1468,
  degauss     = 0.05D0,
  occupations = "smearing",
  smearing    = "methfessel-paxton",
/
&ELECTRONS
  electron_maxstep=200,
  conv_thr    = 1.D-8,
  mixing_beta = 0.3D0,
  scf_must_converge=.false.,
/
&IONS
/
ATOMIC_SPECIES
Si  28.08  Si.pbe-hgh.UPF
H  1.00784  H.pbe-hgh.UPF

K_POINTS {automatic}
2 2 2 0 0 0

CELL_PARAMETERS angstrom
16.29000014898320 0.00000000000000 0.00000000000000
0.00000000000000 16.29000014898320 0.00000000000000
0.00000000000000 0.00000000000000 28.96283823314758

ATOMIC_POSITIONS angstrom
Si 0.0183788669 0.1907868527 28.9129642257 
Si 2.6723419444 0.0428777239 2.6834214437 
Si 1.2929568598 1.5387485271 1.3816577165 
Si 4.0847501174 1.3837980457 4.0578094878 
Si 16.2756160789 0.0318972864 5.3936045500 
Si 1.3550722594 1.3812144516 6.7726990553 
Si 2.6524192743 0.1335105606 8.3100465087 
Si 3.6385181433 1.8547957070 9.6186165029 
Si 14.8379746957 14.8196484455 14.4957557215 
Si 1.5279873530 14.0265534983 21.8716348458 
Si 5.0239663659 2.5543697634 14.9032628554 
Si 1.1533417845 7.7781981411 22.5911296732 
Si 3.0204592476 2.2267941504 17.8612954499 
H 16.0606532369 5.5448391207 10.0048069879 
H 0.5274702048 12.8178517772 11.8617014355 
Si 7.1636578855 8.3321884662 22.2000734314 
H 3.3904866010 14.9360404966 10.9668076598 
Si 3.9514001761 1.1451462855 27.8345619069 
Si 6.7266134715 14.6319713538 27.4720340608 
Si 16.1740805079 2.8494956961 2.7256811210 
Si 2.7109655348 2.8124522357 28.9298785232 
Si 3.9996511566 4.2408083188 1.3206069498 
Si 1.2659236046 4.0998509475 4.1808146618 
Si 2.7215866149 2.7386585350 5.4346159289 
Si 4.1043306975 4.0935792974 6.8127836234 
Si 0.0874971746 2.6719672744 8.3021396539 
Si 1.9089110875 3.5851521028 9.5554195899 
Si 5.5083332304 13.7363960156 12.7388989171 
Si 13.0196034291 3.2748927600 11.6235689796 
Si 13.9977039080 7.5234876988 19.8240490713 
H 9.8270566199 10.3673796348 20.6373834945 
Si 6.9193404633 3.7528576543 27.1035109071 
Si 13.4818484733 16.2231134084 13.1305633785 
Si 15.8273478548 5.9686560546 0.1930584597 
Si 2.6229506640 5.4321123197 2.8268946555 
Si 16.2881593790 5.4215238196 5.6627851685 
Si 2.8621204462 5.3866795093 8.3467424247 
Si 12.2869769624 12.0613604603 17.4075925889 
Si 5.2671923582 9.6782474685 15.1217005814 
Si 6.5704738201 7.7787194211 12.6241771149 
Si 15.0140533073 8.5276521780 25.6367748533 
Si 6.0924600557 5.9270676842 27.2191305573 
Si 10.8209909790 9.6294914981 24.7602435170 
Si 3.7223464840 0.8138744714 13.9825631908 
Si 1.2422281704 11.3975755342 24.6631021576 
Si 0.0087477464 8.2069672351 2.9644623445 
Si 3.0379709978 7.9242054125 0.3521388761 
Si 1.2905703748 6.8593932627 1.5450283981 
Si 3.9807221764 6.8539035327 4.1641320670 
Si 2.7294546850 8.1688160547 5.6649284185 
Si 1.4132210439 6.7516512017 7.0076166362 
Si 0.0079353152 8.1314305044 8.2676449135 
Si 4.6598359926 6.3631835682 9.6056990771 
Si 12.0352801701 1.0872695439 14.6778161226 
Si 13.5146891136 13.9636578077 18.0744040136 
Si 3.8579933153 4.7693047936 12.5108455289 
Si 10.4105644252 4.7047475230 16.6739928593 
Si 11.8642677485 0.5978153125 22.4297487386 
Si 11.1433375019 5.5742099910 20.1730802348 
Si 4.0681831872 9.6302245481 1.5876095629 
Si 1.3388555642 9.5565448774 4.3616875866 
Si 4.0689488172 9.5561539174 7.0439360353 
Si 1.4791059495 9.3120645552 9.6586431453 
Si 1.2006072200 1.6348644150 16.3729820816 
Si 5.7158026723 2.2464887605 20.8937046129 
Si 15.1393885685 7.1625012955 13.8564879560 
Si 1.6518711751 13.1483921703 12.8489866652 
Si 13.4323920328 6.5023979095 16.5020115259 
Si 1.7322949058 3.5550970525 26.8629455727 
Si 0.2823301376 10.5914322969 0.0215822382 
Si 2.6748180245 10.9055523697 2.9660553006 
Si 1.4533987003 12.1452050911 1.3771337212 
Si 4.0867374974 12.2761766923 4.2794620888 
Si 16.2500733586 10.9493073101 5.6675350740 
Si 1.3337519072 12.3017194125 7.0489755692 
Si 2.6840544545 10.9159942598 8.4231753548 
Si 4.2210648386 12.1451236411 9.7057656831 
Si 1.9299740577 5.2236654778 17.6352694603 
Si 1.5538917112 6.9691389937 19.1170661900 
Si 10.0602805520 15.2755240997 17.8687388993 
Si 5.0412989261 8.0427477436 16.7945941177 
Si 10.1954549732 6.6148152005 13.5664830568 
H 3.3459986106 8.0525869036 12.3093800261 
Si 3.9158879758 0.9714541589 22.0231394526 
H 13.8526414567 4.0947195974 20.9357586540 
H 13.6335898247 10.7874335787 11.9494009097 
Si 0.0681769086 13.5851107842 2.6676859337 
Si 3.1607161489 13.1212530300 0.0268325636 
Si 2.6997905947 13.6516554349 5.6264078437 
Si 16.1807268280 13.6800163251 8.3189670629 
Si 0.2116038439 2.6270557440 12.8899401185 
Si 10.7610274884 2.6228203440 21.9384231508 
Si 6.7461451817 7.9833218230 18.5432254761 
Si 6.6751696510 14.8190131355 21.9594212085 
Si 4.0023227166 14.0109150981 24.8805841099 
Si 6.6085761304 1.1372570384 18.8172139258 
H 6.8078517023 9.6209555380 0.2665458691 
H 8.2214653352 9.4067420360 22.0535214699 
Si 0.6005992735 6.0063185349 21.1230902917 
Si 0.7489523048 1.5189170809 26.1190640355 
H 7.9463435227 6.7607084418 16.4219872039 
Si 4.0520072171 14.8485631958 1.4165955883 
Si 1.3852657747 14.9377183666 4.0979809444 
Si 4.0643550372 15.0199665774 7.0050679064 
Si 0.7915099302 15.5227248520 9.4908614235 
Si 16.2435573586 4.1329033578 18.3421364902 
Si 0.2336947131 9.6408944982 11.6385717298 
Si 11.0595580311 13.5331293938 21.1113313794 
Si 6.2288888070 15.7919008144 11.7395651467 
Si 13.0547735394 4.2653736390 19.6480419033 
Si 13.8478196166 15.8126705646 25.8012258488 
Si 5.4639266900 16.0641555869 0.0009541720 
Si 8.1804145348 16.2827673889 2.7007672875 
Si 6.7600079718 1.2880975528 1.3056273698 
Si 5.4236252296 0.1013044158 5.5880900087 
Si 6.7809080420 1.4304705251 7.0408370116 
Si 8.2059898350 0.0714305104 8.3911424557 
Si 11.4435622047 4.7746967837 14.3902441018 
Si 10.2361148136 13.8979765271 14.2328600389 
Si 8.3377107763 9.6084122379 17.7506284450 
Si 5.6686105418 8.9017194514 20.4240432281 
Si 3.8162094649 5.2574183581 21.6906750325 
Si 14.7592939950 13.7548525858 20.0220390334 
Si 7.9136006224 5.9903706248 13.3408335841 
Si 10.8415326692 11.3783533341 11.2536266468 
Si 5.4024319394 2.7528634152 2.6187271520 
Si 8.0801821639 2.6138282639 28.8337798260 
Si 6.7662470419 4.0327361469 4.0699449170 
Si 8.0966350640 2.7347163550 5.5537980082 
Si 5.4095506695 2.8606054762 8.3697099555 
Si 6.4529414690 4.6405323424 9.6357335403 
Si 14.4552085622 5.6865621220 18.4461710051 
H 10.8502803992 0.5271167118 10.0786911882 
Si 4.1500404380 4.3479476498 18.0199828405 
Si 13.4097652226 1.4627540474 16.6829713392 
Si 3.6549384634 10.8035769688 22.4626505228 
Si 8.8494774209 0.4506579671 19.4078530858 
Si 9.3021276551 1.1344681904 27.3920966272 
Si 4.7816037437 6.1954617267 0.1834694432 
Si 8.0870239640 5.4230387896 2.7095517164 
Si 5.4029532194 5.4349630697 5.3831200025 
Si 8.0594938637 5.5574312908 8.1853035644 
Si 11.8614821585 12.8191549772 12.9363385854 
Si 6.3638188782 0.9657738358 24.7196376178 
Si 7.0448223344 9.8864010904 13.7145121230 
Si 5.4674290400 11.2343334427 21.0344060810 
Si 1.3681254365 12.6969636861 17.6062486964 
Si 16.1837404780 15.3896681307 22.9560324721 
Si 0.1578255035 11.5738170459 15.8934733318 
Si 5.4049080194 8.3097571360 2.9893414226 
Si 7.7939831513 8.4605210874 0.4465345585 
Si 6.5712068701 6.8797557629 1.6088393233 
Si 8.2213513052 8.1743546548 5.4554402096 
Si 6.7743594620 6.8072326823 6.6967005678 
Si 5.5214466805 8.0897443940 8.2127603351 
Si 15.0691460878 14.1398830293 24.6058715892 
Si 1.9261133276 16.2128669983 27.4079103369 
Si 2.7219775749 12.7012642462 23.3918942247 
Si 9.3952575859 14.3626324914 24.7972869871 
Si 9.7911208795 2.3147438612 25.4056514042 
Si 5.5242811405 3.1023327884 12.6138373816 
Si 6.8263897224 9.6275204081 4.2675293995 
Si 7.2236213761 9.1613006038 9.4469827235 
Si 8.6144778788 16.1605760978 21.7660653005 
Si 12.9877890588 0.4162714058 20.3888244168 
Si 5.8893074639 13.0124846990 25.9055210293 
Si 10.2023945133 2.4019279420 19.6032943182 
Si 2.4127770821 2.4186903521 23.1493883802 
Si 15.2260839493 12.0226228400 27.6732968237 
Si 1.3563363634 2.6577623943 19.5670907704 
H 9.4998882569 11.0119260707 11.8736920506 
Si 3.0540003579 10.4083815652 26.0906514912 
Si 13.8547591567 10.4790638758 26.5631222713 
Si 4.9123147049 11.3886649042 0.1851834640 
Si 8.1181867342 10.9538196402 2.8151647060 
Si 6.7486212617 12.3012307125 1.4172704224 
Si 5.4391658897 10.9193174199 5.6590199995 
Si 6.8309835025 12.3139043326 6.9406835170 
Si 8.2607079455 10.8671731294 8.1573544255 
Si 0.8532913848 7.6087006896 26.2535384935 
Si 10.5047206261 8.4160819670 15.1005866723 
Si 14.1513674794 4.7532265635 23.4389588368 
Si 15.5482187022 9.6927129886 17.0105410396 
Si 3.3698471708 8.3799018766 19.8376616052 
H 12.9224498682 8.4535489673 23.0378524901 
Si 9.4350051863 4.5393062815 18.9278809306 
Si 5.4539083399 13.6426796448 2.8938422561 
Si 8.2019824950 13.4454729030 28.8738933569 
Si 8.2096550851 13.6670820650 5.5689166098 
Si 5.4661258400 13.6383953747 8.3470320531 
Si 8.3368962762 13.3565132122 10.9165860983 
Si 3.9546907562 14.7716906851 19.2014928634 
Si 3.7788890746 5.5215932905 24.0448614126 
Si 3.1473909288 9.1297957435 17.6575418829 
Si 14.7298742547 6.5999098504 21.9370908602 
Si 8.0054762232 15.9832594462 26.0204455714 
Si 8.2202110052 6.2166875969 21.9853719116 
Si 6.8256240924 15.0283722174 4.2177712434 
Si 6.9515946636 14.8587933159 9.7196678455 
Si 12.4306384737 9.4965650969 14.2764780732 
Si 8.9207298816 12.4732042441 15.4898472182 
Si 7.4649740183 5.7708140028 19.6908200154 
Si 0.3156936869 13.0270153791 26.0475547880 
Si 2.3943693819 14.0141079382 26.7907412170 
Si 10.4066711152 15.0617015577 22.7453857496 
Si 10.9293846400 16.2729282288 28.7090658445 
Si 12.1204442908 1.4743541565 1.2259448093 
Si 9.4638547766 1.3686434585 4.1595849014 
Si 10.9013006797 0.0343134192 5.4786973687 
Si 12.2514321820 1.3177632721 6.9294459358 
Si 9.6631303484 1.4034665918 9.7312240180 
Si 13.8110367963 5.3137165986 14.5209244279 
Si 5.0383830161 5.7280364624 16.2654141004 
Si 3.3202115404 3.4836328219 25.0856699674 
H 2.4602950125 8.1975190350 9.9844171498 
Si 1.9627658280 11.2829265132 14.3370972937 
Si 12.8085664771 10.9389142900 19.5909561492 
Si 12.9660907786 9.2377495745 11.9224365073 
Si 14.5050070927 4.9722293255 25.8340986702 
Si 11.6601866266 7.6231662097 19.2046787756 
Si 9.4061067260 4.0251450068 1.3106842814 
Si 10.7809012886 2.7193060149 2.7644710502 
Si 12.1662191913 4.0501338670 4.2290377875 
Si 9.4653860366 4.1170043177 6.9179187262 
Si 10.8546135393 2.7098578148 8.2145849939 
Si 12.1015804707 4.0718647272 9.6187033914 
Si 7.1913508858 14.0305608383 15.9972182183 
H 6.9286420534 8.2767210157 11.2110802375 
H 9.3835776558 8.7524053100 12.3494356314 
H 0.9370024376 5.5931389712 11.9477789908 
Si 1.6297330649 4.2386091688 11.7872959041 
Si 12.4612799640 2.1190683794 18.8383278348 
Si 2.4280245222 7.3994882177 24.4746409692 
Si 5.1471513471 13.6390306847 15.0023157622 
Si 11.0347483609 5.1740298473 0.0530463071 
Si 10.8387307891 5.4832303401 5.5806175964 
Si 12.3561768830 14.8204140755 27.3801929007 
Si 9.8897731204 6.1675895364 27.0025754159 
Si 3.5407129824 13.5311745938 11.5071094071 
Si 7.3902029176 4.8786269846 23.7862232672 
Si 15.7545804241 10.7617931184 23.0493796997 
Si 8.7518840300 4.4065753603 25.6912249892 
Si 6.0673734555 8.4269148171 24.2775198922 
Si 0.8546515998 14.9829556970 14.1759480617 
Si 10.8986128297 8.1430126945 2.7710456145 
Si 12.2132647117 6.7278678015 1.4269324252 
Si 9.5121546270 6.7608387618 4.0819934577 
Si 12.1784366914 6.8653716928 7.0145677174 
Si 8.9847658722 7.3551957073 9.3927353275 
Si 10.8278653590 8.3275458162 8.3506234451 
Si 10.3316067945 15.8896082353 15.5625149793 
Si 4.5559057917 1.1318992574 11.7365240487 
Si 9.6012609278 14.8712062960 12.2288343730 
Si 13.5890203843 3.0815467482 26.9226669452 
Si 1.0488284016 8.1983661150 17.0708416688 
Si 7.9890070331 16.2815782189 15.2609828705 
H 3.3712155308 6.6516794708 21.2533651381 
Si 9.5277115771 9.5683877075 1.5295651388 
Si 12.2950568024 9.5128876770 4.0944474782 
Si 9.6103670379 9.5727860075 6.7601002206 
Si 11.9798290096 9.8099195397 9.8535051210 
Si 14.8956412962 2.4865056227 23.1384693901 
Si 8.1385003644 0.3251272260 12.8639604526 
Si 14.5104968227 15.6102184428 16.7310786135 
Si 4.0408485670 11.6097527862 15.4064342441 
Si 15.7434380640 3.9483539461 14.6888799268 
Si 13.2183251409 1.1693320487 24.2048810939 
Si 8.9708542120 1.7964123464 23.1583668600 
Si 10.9097551898 10.8154523789 0.1119268884 
Si 12.3227986727 12.2475388720 1.3376805429 
Si 9.5217168571 12.3479504329 4.0968513938 
Si 10.9153752398 10.9294172200 5.3698260598 
Si 12.2693511822 12.2400291819 6.7692814404 
Si 9.6823199686 12.2477343520 9.4306187199 
Si 5.7877881829 6.1996156767 24.8959054513 
Si 8.7032909596 10.0473462919 15.4053336562 
Si 1.8284873567 9.1701134939 27.7114119188 
Si 7.3000703468 5.6512942717 15.5936500304 
Si 7.7891938912 12.5786982850 24.4888327599 
H 9.4737590966 6.7003702813 10.6650148854 
H 13.8015885962 4.4855492810 12.1408452704 
H 10.8813128495 4.8526607244 10.0398230593 
Si 13.5753530742 6.9803465138 26.6094628125 
Si 10.9023269497 13.6340296547 2.6541892511 
Si 11.0272386709 13.6515088249 8.1724151014 
Si 4.4436025306 6.9755898338 11.8885499866 
Si 0.1138765492 10.7214753681 20.7464285805 
Si 12.3227986727 11.5040143952 25.0848300451 
Si 1.8555287570 3.9851693464 21.4554678232 
Si 8.4572793773 11.7913699978 18.7690197629 
Si 11.4059485943 7.8819654421 26.3317381567 
H 9.6398193582 8.9351954017 18.1288831123 
H 10.8038050288 6.9414459935 12.2297611838 
Si 1.8112362466 9.1428277436 13.3274237900 
Si 9.6037370078 12.0000611897 27.5197358553 
Si 9.5517230374 14.9419537667 1.2141134899 
Si 12.2417233420 15.0226055574 4.0061397844 
Si 9.5703587975 15.0469265276 6.9399594461 
Si 12.7650884667 14.4381040620 9.6054384115 
Si 13.9458854175 12.2536802021 23.5197361926 
Si 6.9306131434 11.8731457986 12.2418386874 
Si 8.4565463273 3.6490414834 15.7655155125 
Si 11.7947420279 4.3343780796 23.3022542403 
Si 9.2128095843 12.0569295803 20.9484733400 
Si 6.7749947720 13.3519194321 18.2595344756 
Si 13.5829442142 0.0982642131 2.5688415594 
Si 14.8788951761 1.4128072779 4.0629938359 
Si 13.6491304848 16.2108796183 8.2748566602 
Si 15.3724333106 0.9180506514 9.5568966946 
Si 1.4807512395 5.1616168672 15.2935371006 
Si 9.1210317234 2.3151185312 11.9021045949 
Si 6.9286909234 1.8783673372 16.3636270848 
Si 3.6904017938 4.5650281918 14.7942467323 
H 9.2997981851 9.5247305071 12.2529314544 
Si 14.1705245196 8.5167378779 15.5091654313 
Si 7.0611937846 9.3549398356 26.1533849989 
Si 14.9890481571 1.1145976482 27.1239586709 
Si 12.8594727276 3.4942376120 0.1241940985 
Si 14.7495362849 4.2584992589 1.4104236074 
Si 13.5990061544 2.7122687348 5.5853095762 
Si 14.9107095464 4.0824369373 7.0441677380 
Si 3.3411930606 11.4538900648 17.6001665004 
Si 14.8082780254 9.7012326587 19.2864698308 
Si 1.0295654764 7.4144587278 14.7861081748 
Si 6.2424583771 15.1687105687 19.6697350691 
Si 6.8516066427 2.6667218944 23.0311620745 
Si 11.4037657343 8.4969781077 22.7436479793 
Si 13.5206349637 5.4948125303 2.9653891553 
Si 13.5177842136 5.4821226201 8.3931988173 
Si 7.4922108985 4.1242370777 11.8082939618 
Si 13.1791476905 12.5601276849 21.2973017637 
Si 3.8806364155 9.2416103045 24.2333226010 
Si 11.9926818197 2.8887057264 25.1998704385 
Si 11.0408245310 13.2820842015 26.1708785531 
Si 2.5879760337 15.7537333441 20.7714235099 
Si 12.0036775698 14.9152870364 11.8021828030 
Si 13.9100311272 7.6528791700 0.0423396147 
Si 14.9281561365 6.8314233325 4.3253971503 
Si 13.5560005540 8.2319072253 5.6430325128 
Si 15.1041370081 6.6750719110 9.6705468719 
Si 11.2199656626 2.8039651456 13.1323301117 
Si 7.8837899221 7.4494659381 27.3522727247 
Si 15.2929706899 8.4690081775 23.3166487709 
Si 11.8173688381 14.9544970668 19.3370679092 
Si 5.0506982562 15.7441711140 23.4931193443 
Si 0.4304876889 16.0397042967 17.5013742591 
Si 15.0325098775 9.3658867157 1.3540821982 
Si 14.8906891362 9.5860460677 7.0582436774 
Si 15.4400205212 2.7537430752 16.6193110208 
Si 15.1006020781 11.6090523162 11.9008881557 
Si 8.8360218808 10.7392477582 25.5962268798 
Si 5.3002121885 10.9161245798 26.8777166202 
Si 14.8489541558 12.4330982637 14.2984898303 
Si 0.6085569386 12.8558563476 19.9407403465 
Si 14.8794327461 7.9348916526 11.6678241964 
Si 0.2462868833 5.4227618596 26.9551053240 
H 8.7824929403 3.3229971304 14.3132898406 
Si 13.6658440250 10.8167718689 2.6626637776 
Si 15.0055173472 12.2031649116 4.0589969642 
Si 13.4925672934 10.9876213905 8.4036833647 
Si 14.5045346827 12.6932006961 9.7194940685 
Si 4.4805319610 0.3012021028 17.7677744452 
Si 12.7260739164 11.7193356172 14.9287501531 
Si 0.6881857173 0.4219777929 19.7333664247 
Si 11.1589270321 7.0092612641 16.9490818969 
Si 2.0430592387 9.5412648573 21.3142450240 
Si 4.7444136734 12.5119418644 19.1209182475 
H 1.1146709532 15.0463563776 10.8922573142 
Si 13.7373734156 13.5201136837 28.8480005796 
Si 13.5948684943 13.5988432544 5.3445994277 
Si 10.0555890320 12.8782713878 17.4955237658 
Si 15.1228542183 15.8853402553 20.8947183122 
Si 10.6114364170 6.2199944669 22.4092140863 
Si 3.9527848262 15.4949504017 15.7350176438 
Si 14.6666690541 1.5706019934 11.7430696501 
Si 12.3460445029 9.3336650954 27.9781306961 
H 4.7794697537 9.6503752783 11.4302709972 
Si 5.7132125623 10.5983718369 10.6808285951 
Si 7.2334931162 12.4964826543 22.1762659784 
H 14.8837495961 2.1836582300 21.6542108192 
Si 15.0201457674 14.9679200269 1.2652502771 
Si 14.9230573665 14.9375880466 6.7495287847 
Si 11.2127491925 9.4666403666 20.5462664054 
Si 5.3846269692 4.4837899610 20.0807756693 
Si 0.5064316696 1.2687841286 23.8136221122 
Si 1.8288620267 14.6269703238 16.3165045470 
Si 1.4296478801 0.9999665461 14.1024403783 
Si 5.1492853371 2.3500117115 26.1712261072 

