&CONTROL
  dt          = 30.D0,
  prefix = 'aSiHcSi_merged-14',
  pseudo_dir = './',
  outdir='./',
 wf_collect=.true.,
 verbosity ="high",
/

&SYSTEM
    ibrav= 0, nat=  388, ntyp= 2,
  ecutwfc     = 42.D0,
  nbnd=1468,
  degauss     = 0.05D0,
  occupations = "smearing",
  smearing    = "methfessel-paxton",
/
&ELECTRONS
  electron_maxstep=200,
  conv_thr    = 1.D-8,
  mixing_beta = 0.3D0,
  scf_must_converge=.false.,
/
&IONS
/
ATOMIC_SPECIES
Si  28.08  Si.pbe-hgh.UPF
H  1.00784  H.pbe-hgh.UPF

K_POINTS {automatic}
2 2 2 0 0 0

CELL_PARAMETERS angstrom
16.29000014898320 0.00000000000000 0.00000000000000
0.00000000000000 16.29000014898320 0.00000000000000
0.00000000000000 0.00000000000000 29.24102256569176

ATOMIC_POSITIONS angstrom
Si 15.5807009625 0.4581090132 29.1352870281 
Si 16.0554404368 2.7623116153 2.7955557973 
Si 2.4148784921 0.0630810708 2.7682593027 
Si 2.4409262023 2.7663189553 0.0893392190 
Si 0.9978586201 1.3891509397 1.3318408548 
Si 3.8689076154 4.0641269772 1.4325440124 
Si 1.1518398465 4.1382301878 4.1024569839 
Si 3.8205588949 1.4072735649 4.1426341489 
Si 16.0259229566 0.0690567315 5.5776958134 
Si 2.4827100527 2.8008211756 5.5250912138 
Si 1.1264274463 1.4397183582 6.9210283901 
Si 3.8105405449 4.1904559283 6.8982496335 
Si 15.9675721760 2.8400149160 8.1340337291 
Si 2.4404049223 0.0959555943 8.3772605548 
Si 0.6334219948 4.6377141724 9.3022125806 
Si 3.8790725755 1.4749340805 9.6809423049 
Si 7.8068196714 5.5701374909 26.3778001181 
Si 2.5000100329 11.1646936921 21.4805136588 
Si 4.9677658654 1.2546509245 18.7653092674 
Si 12.2471804920 12.4691969040 13.4650815172 
Si 14.1446234194 5.2982573885 26.3163062476 
Si 15.4427246612 14.9668285969 16.3604398486 
Si 3.9972728166 1.7837387263 23.0716639017 
Si 2.9706770072 15.1654525687 21.0052300780 
Si 15.2395720694 15.0275577174 20.1916863482 
Si 13.1146555799 4.7118336731 22.0036940345 
Si 11.3844132141 11.1614194021 18.4725481495 
Si 4.9679287654 16.0933309772 23.6999657536 
H 10.1570757329 13.9981600280 12.9060224068 
Si 16.0042409664 0.4355098960 10.9904430185 
Si 7.4954200286 9.8906853605 21.3062956464 
Si 7.6643147501 13.7197476355 27.1334173822 
H 1.7567624861 9.1411335836 18.4501495262 
Si 16.2410161185 5.4698073800 29.2433618475 
Si 16.0036219464 8.2799953057 2.5973747668 
Si 2.5181896730 5.5211371705 2.7420710429 
Si 2.6462779442 8.1068000241 29.0858404589 
Si 1.1903640679 6.9431238635 1.3394581412 
Si 3.8647047953 6.8223335124 4.1982213328 
Si 16.0293275666 5.5173904705 5.3783305215 
Si 2.4825308627 8.2973767359 5.4188585788 
Si 1.1107955622 6.9161639133 6.7113994993 
Si 16.1514536977 8.1936094349 8.2562612035 
Si 2.4303539922 5.6389790316 8.1795912423 
Si 3.2886903901 7.4160062778 9.5162861068 
Si 12.1213076609 13.2316340710 23.7115159575 
Si 2.2992194910 9.9752141712 27.6634986393 
Si 10.1849805031 5.2596175081 26.9096358365 
Si 9.1964544241 15.0186796674 12.2997975269 
Si 8.0307908834 8.5101892978 14.4389830148 
Si 14.0386895484 10.1357847027 23.1378948178 
Si 12.4471728238 9.8518011301 24.8410966592 
Si 7.9573066928 12.9546226185 18.7420334135 
Si 7.7046487905 6.7887924021 22.6227849643 
Si 0.0397951672 16.0221599665 26.8912724744 
H 11.4927742951 16.2644411387 13.9707172794 
Si 1.6581591152 4.4728919509 27.8933915587 
Si 7.2210801360 14.4067458118 15.3841990692 
Si 0.3496892882 1.3213910551 22.8119743803 
Si 3.9092416558 9.4421564964 1.3712548291 
Si 15.5157201519 11.3609067439 0.1631973635 
Si 2.4728546026 10.9366499800 2.6007082434 
Si 1.0307122924 12.3798462532 1.3533476269 
Si 1.0932414580 9.6197337880 4.0136812394 
Si 3.8054906448 12.2500475320 4.0826900527 
Si 3.8327763951 9.6355350881 6.8757048051 
Si 16.0740924870 10.9436709701 5.4969613501 
Si 1.1271002233 12.2768120023 6.9705626823 
Si 1.5473920012 9.1411824536 9.6902701911 
Si 2.4955139928 10.9279511199 8.3970859681 
Si 3.7715422845 12.3422326429 9.8492536308 
Si 7.2810599166 1.6198710988 14.8592057500 
Si 4.0337298369 15.3769782206 12.6021204592 
Si 11.8453387683 1.8019020765 12.3763212830 
Si 11.6746684368 8.6055835387 13.0043014836 
Si 11.7551573275 15.1821009489 18.5424926755 
Si 2.1227662094 8.7779154503 21.9183394897 
Si 0.0867041774 11.0967806815 13.5499097236 
Si 3.8407910751 9.5591186974 12.5633761043 
Si 16.1431132176 5.2959930784 24.7810355989 
Si 11.4748390049 4.6429758425 17.5819543252 
Si 5.4280072396 0.2652305244 10.9407917622 
Si 14.1507810394 11.4839451150 14.6321784508 
Si 15.4202118810 2.2330820904 17.4105434510 
Si 9.2571998347 10.9072953998 22.4263437747 
Si 10.8118522889 8.4256767771 20.5583687712 
Si 16.0607021069 13.7173367155 2.8004741373 
Si 2.5189715930 13.7688782759 0.1035345658 
Si 3.8915832956 14.9812941170 1.5329138224 
Si 1.1176471362 15.0041001172 4.2255032069 
Si 2.4988697329 13.6108652745 5.5555603593 
Si 3.8086346148 15.0122614073 6.9623751960 
Si 16.1037077073 13.6846589752 8.3890739280 
Si 1.0991449541 15.1065316382 9.8608038347 
Si 2.5620097734 13.8694364468 11.3602542309 
Si 10.0471182319 7.4525610382 22.6140126575 
Si 5.4056736494 8.5110526678 25.2590093537 
Si 3.3795234309 4.5462621116 19.4666844347 
Si 15.3145875201 2.8701677062 21.6406082573 
Si 10.1401667127 10.2729953740 10.6073563818 
Si 6.5344892098 11.7238153672 20.1723287913 
Si 8.8061134405 0.1413861241 20.3642376224 
Si 0.5150784017 12.2146167817 22.0604508593 
Si 1.8795402172 5.8834756438 18.2266896318 
Si 4.3987398702 7.4526261982 11.5928958064 
Si 0.0401527327 10.5189580862 27.3541578616 
Si 5.1520872171 16.2602057387 0.0339540906 
Si 5.2346612279 2.6909777046 2.7442085616 
Si 7.9337676426 16.2849176689 2.6669508559 
Si 7.8703343820 2.7774450254 29.1031803853 
Si 6.5908526103 1.3651834625 1.2755752792 
Si 6.5448659399 4.1359007178 4.0769003302 
Si 5.1848138274 0.0270324407 5.5180733684 
Si 7.9045433823 2.7407599451 5.4068405185 
Si 6.5581748700 1.4177284870 6.8633358525 
Si 5.1600367372 2.8108395257 8.2106744493 
Si 7.9282290425 0.0442281649 8.2661739101 
Si 6.5550960600 4.0021923966 9.6690412087 
Si 1.6463162851 9.2390853545 24.1446632248 
Si 0.2575905144 7.6406453799 13.1782855679 
Si 7.1146738551 2.1136438093 11.0310587988 
Si 4.5647838417 5.5481297007 21.4000131237 
H 15.7866228544 11.0582548311 10.1876892260 
Si 3.3288126604 14.4380226120 24.0758298576 
Si 14.1026115090 2.0293430586 25.2095043025 
Si 15.9322065857 8.3056357660 26.5509946948 
Si 6.1063228458 8.5542211682 22.8375602751 
H 5.9303093942 2.3377616314 22.8211853024 
Si 1.3780118376 9.5099717670 12.1383578413 
Si 9.6079886979 9.0741328130 26.2402795890 
Si 12.0314357300 6.2260543469 25.7140873879 
Si 13.3029679817 0.0812633173 19.9882857952 
Si 2.3834225018 1.1414468264 21.5349019608 
H 16.1149966774 8.1562075946 18.5340420200 
Si 4.8639985645 4.3935596502 17.5767494232 
Si 6.9535168836 12.0844433905 25.5450742775 
Si 9.4221360862 1.6255742279 27.7392328877 
Si 5.1526410771 5.3534479090 29.1733003574 
Si 5.2030586276 8.1327499944 2.8166181058 
Si 7.8727290120 5.5136111904 2.6521812154 
Si 7.3474253772 8.6018042587 29.1507847701 
Si 6.4553198090 6.8478599426 1.2656187110 
Si 5.2526779680 5.4773496501 5.5639232918 
Si 7.9365043626 8.1268204343 5.5670228401 
Si 6.6156297005 6.7808917520 7.0265592405 
Si 5.1509632071 8.2317117453 8.2469040762 
Si 8.0602432037 5.3851319593 8.4162973200 
Si 14.7447633149 15.7142300937 12.7005749822 
Si 1.2058916960 13.1478871802 13.2653068510 
Si 14.1412513893 6.1885873466 18.6184900931 
Si 9.4694911166 9.9403535709 17.7008483230 
Si 5.8695802737 7.4324103080 14.8906690903 
Si 6.1109980759 12.9835862387 22.0612988490 
Si 0.1281690696 1.5493337692 25.2390669763 
Si 11.5128109953 5.7911602130 23.4339601713 
Si 0.2030190139 15.0746521079 14.1739716272 
Si 10.9846729005 3.0943832683 26.6265534971 
Si 11.9113132689 8.0376815535 15.2479359040 
Si 2.7175955649 11.8139805180 19.1923159200 
Si 5.7372728925 15.0810377879 27.2856169047 
Si 13.3256436619 3.1921069792 27.0919243712 
Si 15.5080312718 5.1288250969 22.4565497510 
Si 4.9748194355 2.4058212520 26.5276895998 
Si 5.7402865425 10.3722829249 0.1941174055 
Si 7.9482494527 10.8560470593 2.8461661591 
Si 6.6437788208 12.1842033514 1.4162713834 
Si 6.5758658101 9.4963370369 4.1943907589 
Si 5.1754959473 10.9211907699 5.4569011492 
Si 6.4884210893 12.2778056923 6.8662307138 
Si 5.1878437674 10.8982544497 11.1127582159 
Si 6.5569205400 9.5074468170 9.6809130639 
Si 7.8182226715 10.8787553195 8.2156161821 
Si 8.0592006437 12.6712580659 23.4506860362 
H 9.0002902423 6.4818562193 18.6208878570 
Si 7.3671362774 3.0627480880 22.7922951721 
H 14.3078492209 12.8834516078 10.9849457062 
Si 4.5501880016 11.9959072397 25.3578440100 
Si 8.1413836945 2.7577504152 16.7296369995 
H 5.9187760741 0.8448368747 15.5500833902 
Si 3.5683571126 3.2878758901 24.7937846847 
Si 4.3279761096 12.8087619571 15.6462278724 
H 10.6497830774 2.6810408045 20.8914825002 
Si 1.3300540772 7.1912042758 25.2736006240 
H 5.8614678536 7.4078286977 11.1777610090 
Si 12.4204083536 0.2864058956 22.1968602296 
Si 6.4368795289 4.0269531968 27.7013072815 
Si 3.4106210412 6.1917638966 27.8229206943 
H 10.5079949161 4.4522036507 23.7206683976 
Si 5.2596989581 13.5664750241 2.7834470898 
Si 8.3609728965 13.1581661703 0.1071841379 
Si 6.5973523203 14.9682295369 4.1422247746 
Si 7.9383288426 13.6214374846 5.5549755388 
Si 5.1255996769 13.5990713144 8.3260595243 
Si 6.5486452199 14.9586021468 9.6133078197 
Si 2.9139715167 7.9754374629 17.9591635163 
Si 12.9927575088 11.8801016287 21.9122865980 
Si 2.7075935048 8.5610955483 15.7041835791 
Si 10.3688946048 2.5228323231 17.5645851578 
Si 2.6247751440 1.3750389126 15.8576697066 
Si 11.6681035667 0.5847474743 16.9473656535 
Si 0.5281560138 15.3141802701 18.3318695900 
Si 14.8735683460 6.7073749813 11.6597992660 
Si 9.7323465590 14.4301219620 19.5295233922 
Si 11.1083954516 10.8283866390 20.8511591301 
Si 10.4167546253 3.3042473402 13.5907009501 
Si 4.8350512342 10.8615042093 18.7363606551 
Si 8.4925798077 8.4273872271 10.6690256984 
Si 9.1879836240 4.0745037073 1.3203315883 
Si 10.6630268475 0.0648625452 29.0555760006 
Si 10.6330858272 2.7011263747 2.6097290989 
Si 12.0659379504 1.3488511083 1.2323453514 
Si 9.2935754050 1.3576835464 4.0526887635 
Si 11.9659825094 4.0953386175 3.9740888949 
Si 9.2273565544 4.1134530976 6.7848237069 
Si 10.6097422570 0.0406573969 5.5290095108 
Si 11.9203053490 1.4017040138 6.9359413116 
Si 9.1157211834 1.4407087902 9.7691917110 
Si 10.4722057858 2.7756368354 8.2439214919 
Si 11.6896389469 4.4504117507 9.3529749958 
Si 10.6123486571 0.1779421876 11.0787216656 
Si 12.6123860053 0.2221190390 25.4068519638 
Si 8.6248546089 8.7558587901 19.5333247251 
H 11.8515778384 4.2127895185 29.1554633337 
Si 10.6932122178 15.7518925741 15.1504463348 
Si 7.4658699683 7.9921510031 26.7649220159 
Si 14.9299480365 12.6833615360 20.6110318528 
Si 14.2654626405 2.3496696215 19.5205463983 
Si 14.4013212417 12.8353146574 16.6406858088 
Si 13.1747493905 13.5609690040 27.2082451590 
H 14.3705331414 9.7548267592 11.7548033483 
Si 12.9709289086 4.3947325302 19.5290262948 
Si 9.6162803079 2.3289161613 19.8274894121 
Si 4.3425556597 14.4452227921 17.3135802201 
Si 0.1218338885 7.2194022660 21.4885841810 
Si 11.5318377155 15.2678515096 27.1289435058 
Si 10.7234464581 5.2427899379 29.2291799516 
Si 10.5514403465 8.2237133552 2.5975268201 
Si 11.9158255990 6.8692161328 1.1996568123 
Si 9.2454547446 6.8474689826 4.0421035133 
Si 10.6331835672 5.4551626699 5.3845881004 
Si 12.0907313306 6.8168926523 6.6827140561 
Si 9.9613025111 6.3516339581 9.7038380256 
Si 10.7922228387 8.0191598233 8.2027793732 
Si 6.6439254308 12.1699984713 12.4607985972 
Si 13.3905593125 9.9286247708 18.1938227224 
Si 6.7726164319 7.3612230073 18.8704892256 
Si 13.9798011979 0.6775744112 16.1975381119 
Si 14.9909540871 14.2519582303 25.9000018094 
Si 15.5383143821 8.1326033844 15.3126462870 
Si 8.5173080279 16.0084926564 14.3401483585 
Si 14.6827635743 6.0484118953 16.2649094279 
Si 13.4254199128 8.6054043487 11.4712239115 
Si 4.5401370715 0.3717345454 16.6402471935 
H 3.3735938709 12.6171263954 28.7944829101 
H 5.7655523327 4.9343387851 10.5648399350 
Si 1.2642082676 1.2532076305 17.8334563603 
Si 16.2784342489 6.8271064824 19.2164105226 
Si 9.1402213436 9.5946634777 1.2218098110 
Si 10.0920460523 11.4658306349 0.0792615930 
Si 11.9364487392 12.2680968522 1.3860332419 
Si 11.8941436088 9.5213747671 4.1109368805 
Si 9.3078128651 12.2594468621 4.1712026280 
Si 9.2892096850 9.4688720966 6.9667905904 
Si 10.6203144671 10.8764747195 5.5806199156 
Si 11.9916555497 12.2679665322 6.9390993420 
Si 12.1073145507 9.3965933659 9.5928683449 
Si 9.1999893541 12.1993856316 9.5828386742 
Si 4.2802952791 6.1526027363 13.5016620364 
Si 12.1552397312 13.1569281303 17.3453067296 
Si 3.5694322526 3.5338548923 15.6957036826 
Si 1.2929096188 3.5953822229 25.6826240476 
H 14.9316421966 8.4373729972 25.4043079948 
Si 8.4757359475 0.6762744692 25.7581536089 
Si 14.0392108284 4.5729614218 12.3768476214 
Si 4.2463957888 7.8807925621 21.4593431585 
Si 8.4336425871 4.7388913633 13.6440073343 
Si 5.5765068810 11.0029339906 16.4882815992 
Si 4.6924974429 9.4198229062 14.8870432035 
Si 16.2754694689 12.2405341719 25.7390884622 
Si 13.0791922496 2.4815534627 23.0460195249 
Si 6.8560375227 5.7863546629 20.6512674999 
H 9.3235978753 12.2929879724 26.4247612003 
H 1.8133050766 5.2638203281 12.2489766297 
Si 13.6965832553 15.0365823775 23.8595340137 
Si 9.8905550405 14.1795817597 23.7500556252 
Si 9.3524474655 14.9615669268 1.2882775794 
Si 10.6765149676 13.6754062551 2.7948364681 
Si 12.0156181399 14.9876472171 4.2013208812 
Si 9.3199652052 14.9544644868 6.9525794534 
Si 10.6906546878 13.6144653645 8.4026417624 
Si 12.0183385699 14.9924038971 9.8809801403 
Si 7.8645840119 13.5688207841 10.9940689053 
Si 2.8244416758 2.1932204601 19.4693453678 
Si 4.4882697110 3.7897545047 13.4461625756 
Si 8.7798865403 12.6174847754 15.1605344876 
Si 15.7199315938 15.5058809918 22.4750885593 
Si 6.5041083595 2.9413875869 18.4369033430 
Si 4.0861510574 12.3391375428 23.0714299735 
H 5.3035027685 10.8473481992 28.0795691494 
Si 3.2167537494 2.6885016246 11.6511439233 
Si 4.7591887035 8.5667644683 19.2661787430 
Si 3.5667606926 1.1731504247 28.0535738803 
Si 11.9679373095 5.0403052361 13.4281501057 
H 1.4303434631 12.6964912761 25.8039158092 
Si 7.0579520745 5.0838158265 24.1148373817 
Si 6.7774545620 3.1485312288 13.1358860851 
Si 13.3138008318 16.2662981988 2.7068823963 
Si 13.9058445972 2.2715753608 29.2215480447 
Si 14.8016317054 4.0656582372 1.2931696025 
Si 14.6687378842 1.3520781574 4.0980708305 
Si 13.2392415011 2.7033743947 5.4075715441 
Si 14.6438467639 4.0835446573 6.6633564992 
Si 13.0500983094 3.1301398186 10.7970721362 
Si 13.2858797715 0.0612368799 8.3581369261 
Si 14.5402586530 1.6532395351 9.5864938020 
Si 1.7168682757 4.9940416357 16.0051029424 
Si 9.6581456083 6.1296338361 17.2953045810 
Si 6.4942203294 16.0625265869 19.7803528838 
Si 10.6533831674 10.7351263882 12.8104042630 
H 13.5641455541 7.2318641161 22.6492188487 
Si 6.1348955061 0.4776830774 25.6967182205 
Si 1.4500136383 14.2816223206 22.6570262017 
Si 8.4910159677 7.0122749141 12.6801647485 
Si 3.7749794745 14.0683373487 26.3537347565 
Si 6.2368871970 6.1869094766 16.8520399199 
Si 2.1091314793 6.6853509011 14.3958232655 
Si 1.0003477321 10.1548277129 15.7067567891 
Si 9.7482781792 8.2070323951 16.1375647746 
Si 2.0786528890 12.3299825628 15.2977626065 
Si 13.3199421618 5.4692698100 2.5569929147 
Si 13.1521714503 8.1563867846 28.8767086655 
Si 14.6995748544 6.8329871725 3.9332684274 
Si 13.4084294426 8.2054033950 5.3583881441 
Si 13.3959350125 5.4637312100 8.0837684114 
Si 15.2349294193 6.3344154279 9.3692330044 
Si 12.4613614140 5.7608608127 15.6296774536 
Si 13.6590510949 9.4638547766 15.8576697066 
H 1.3728251016 13.2677652913 16.2811089544 
Si 2.0777406490 0.2887891226 13.8031662201 
Si 10.2313092636 9.3895072159 23.9801239908 
Si 10.9726508804 2.9031712466 24.2538199620 
Si 4.6379096524 5.1816209874 23.8890382055 
Si 11.0133270107 13.4288408128 15.2790191110 
Si 9.0730250930 1.6448990550 23.6938836209 
Si 15.8617523351 4.0194272168 15.8461195027 
Si 3.4681573217 9.9149085907 25.5900762112 
Si 6.6230090706 14.6235168437 17.8297719915 
Si 8.3800810666 10.8595494093 13.6252345978 
Si 14.8355149057 6.8030787322 27.9621372028 
Si 14.4788290624 9.5323868072 1.2184529416 
Si 13.2327906610 10.8505410392 2.7471268157 
Si 14.6649097341 12.2661094722 4.0908190569 
Si 14.7310145547 9.5304482972 6.8599146529 
Si 13.3621984222 10.8822087995 8.2507346502 
Si 14.8681763560 12.0868543105 9.6009096262 
Si 10.7161322480 6.6560614809 12.0980344712 
Si 13.0579012194 8.0815179439 19.6616928142 
Si 15.3753818006 3.0633182380 13.6725465723 
H 2.9274596368 11.1893241723 28.2999294954 
H 10.2838933841 13.6928691352 20.7308615633 
Si 15.1108810682 11.5215098554 18.5241293133 
Si 13.7916516961 1.2747039147 13.8411503084 
Si 9.4663145666 14.8497360758 25.9848884979 
Si 12.1776547714 11.9754958695 25.7673937720 
Si 5.4684390200 13.7925150661 13.8465891386 
Si 13.2226908609 14.0564945186 11.8205956491 
Si 2.2272502704 15.4060884509 27.5886416215 
Si 11.9237262491 8.3732392666 26.6514376073 
Si 5.3198416387 15.1133408582 21.5748451976 
Si 13.8013442462 13.0770256796 0.1545066391 
Si 14.7141706946 14.9733934669 1.2923274610 
Si 13.3686981323 13.6133739345 5.5605898152 
Si 14.6892795743 14.9944401471 6.9899202392 
Si 14.2703985105 8.2385861253 21.7430103184 
H 7.3836543375 10.7130371480 26.0804481596 
Si 9.9907874114 16.1701546179 22.4196183395 
Si 7.6721665302 3.5838489028 20.4227196675 
Si 0.9878679630 10.7044034479 18.0349562468 
H 10.4950443660 2.6918084946 14.9931003924 
Si 8.0890113440 4.9788756455 15.9894589953 
Si 3.7970198447 6.7368273016 25.5193421776 
Si 10.2616249538 11.2332583027 26.9726502402 
Si 0.9072194303 1.9413118978 12.4398620250 
H 11.4084572543 0.8978657122 24.7262671636 
Si 2.5720281235 14.1744504096 18.8799340759 
Si 1.4221495930 4.0790649073 11.3961622066 
Si 7.9197745324 11.4699357149 16.9439152128 
Si 16.1730705279 10.8728746294 23.8659377977 

