&CONTROL
  dt          = 30.D0,
  prefix = 'aSiHcSi_merged-18',
  pseudo_dir = './',
  outdir='./',
 wf_collect=.true.,
 verbosity ="high",
/

&SYSTEM
    ibrav= 0, nat=  388, ntyp= 2,
  ecutwfc     = 42.D0,
  nbnd=1468,
  degauss     = 0.05D0,
  occupations = "smearing",
  smearing    = "methfessel-paxton",
/
&ELECTRONS
  electron_maxstep=200,
  conv_thr    = 1.D-8,
  mixing_beta = 0.3D0,
  scf_must_converge=.false.,
/
&IONS
/
ATOMIC_SPECIES
Si  28.08  Si.pbe-hgh.UPF
H  1.00784  H.pbe-hgh.UPF

K_POINTS {automatic}
2 2 2 0 0 0

CELL_PARAMETERS angstrom
16.29000014898320 0.00000000000000 0.00000000000000
0.00000000000000 16.29000014898320 0.00000000000000
0.00000000000000 0.00000000000000 29.13749961474497

ATOMIC_POSITIONS angstrom
Si 15.7985145545 0.2732924455 28.7838286444 
Si 16.0064075364 2.6222501940 2.7414861500 
Si 2.3441636014 0.0429204037 2.4804986522 
Si 1.7529669160 3.4626675917 0.1048635301 
Si 0.9583846918 1.4477558442 1.1228601677 
Si 3.7456574743 4.1531029580 1.2404416336 
Si 1.1549235436 4.0150777867 4.0159341594 
Si 3.7597809044 1.3655011175 3.8443142867 
Si 16.0792889971 16.2328711185 5.4408161656 
Si 2.5299999231 2.6737917545 5.4059094410 
Si 1.1811813948 1.3083297330 6.8013042976 
Si 3.9071076657 4.0165275967 6.8118812099 
Si 16.1195741674 2.6800471145 8.1974567291 
Si 2.6268276840 16.1540763877 7.9913380568 
Si 1.1123822082 4.1325612678 9.5733877359 
Si 4.3173713195 0.8010053713 9.3553226888 
Si 12.4360467537 6.7766237720 12.3362928619 
Si 15.9976598063 5.5855478311 10.8438701316 
Si 3.8875922456 4.6736662027 14.4989072208 
H 10.0921763723 13.8198659764 15.3846580716 
Si 14.2356845202 8.3299241562 24.6375333117 
Si 8.3241412061 9.6081515979 21.8588939360 
Si 10.8967883497 6.8327591125 22.8765793850 
Si 11.5346395955 4.1386700179 14.4215180218 
Si 0.9557652597 9.2581120747 27.4713591118 
Si 10.8158596289 5.6872463020 16.1229440368 
Si 7.6030317695 8.1832489948 18.5589264171 
Si 7.3773501075 3.1222065886 14.9991689517 
Si 1.8996909474 14.3216631410 24.7353187605 
H 15.2572792995 11.6017706861 27.9298668057 
Si 16.1726958579 5.1251761369 0.0872158207 
Si 16.0297836866 8.1584719046 2.5856471471 
Si 2.4959049528 5.4781478601 2.7121038954 
Si 2.4251737722 7.9730265429 28.8504952435 
Si 1.1012724281 6.7522539318 1.2693926532 
Si 3.9082479657 6.7920992721 4.0408467216 
Si 16.0623473969 5.3734194491 5.3479549543 
Si 2.5205517231 8.1601497746 5.3835027038 
Si 1.1477217345 6.7128972914 6.6747892742 
Si 16.1794562080 8.1470851945 8.0569848435 
Si 2.4958235028 5.4071723295 8.1200675301 
Si 3.4686786017 7.2375330362 9.2510978527 
Si 4.1701422981 15.0746358179 16.6962826167 
Si 7.8170497915 2.1740471299 21.8218601740 
Si 2.4741252226 3.1085392784 27.0850250044 
Si 3.2785743000 4.0108423867 18.3824114444 
Si 8.6278193889 3.8462319352 18.7837805016 
Si 2.0397523687 3.1513005288 11.5286887851 
Si 6.3373313380 4.1067416176 11.4156061491 
Si 4.0767354373 11.0429422310 21.1628282077 
Si 12.0961721906 9.8943994805 11.5271444976 
Si 0.1444129690 12.7887741270 13.5766762205 
Si 10.8213330690 5.2962537184 26.9567908686 
Si 1.3242206281 8.8802329412 11.6720161457 
Si 2.3434142614 11.1207921417 16.8524887522 
Si 2.0798257690 14.0580257786 13.2421485874 
Si 3.7487688643 9.3530664855 1.1446754136 
Si 16.0303212566 10.6952321778 28.8930359930 
Si 2.4317549322 10.7803311386 2.5209939492 
Si 1.0483576206 12.1324337310 1.1191305677 
Si 1.1145259722 9.4798678467 3.9836206723 
Si 3.7961564747 12.1712853813 3.8712664738 
Si 3.9287896559 9.5714665175 6.6909605865 
Si 16.0162304065 10.8743733095 5.3011309924 
Si 1.0821170169 12.1488866311 6.7440199733 
Si 1.7546447860 8.9427539618 9.3356257391 
Si 2.5602993234 10.8603964893 8.1428530548 
Si 3.5117982321 12.6727567459 9.3809636885 
Si 3.4087151112 2.2713798808 23.6659725246 
Si 2.7264573249 5.2044106976 12.5592238714 
Si 11.9239054391 12.1740872613 12.2356810757 
H 10.8178307189 8.4068781169 27.2203978276 
Si 4.2098736085 14.7896259753 24.5073761010 
Si 13.5186638736 5.2294972978 13.7106795812 
Si 5.6638701518 7.9369279026 14.6989652932 
Si 6.6117201005 16.0862448271 18.9134132374 
Si 9.2157743643 1.9486098178 19.9947349856 
Si 12.9625395586 13.3891746625 26.6948738845 
H 5.2686584582 4.2637120590 14.0402538394 
Si 9.6122240979 3.8689564854 25.5295195874 
Si 12.0893141006 9.4415211863 27.5460967983 
Si 14.9278954965 1.8579070970 20.1349446338 
Si 15.5565591823 9.4347445463 14.5777532948 
Si 2.9448084869 2.6097231839 15.0987900629 
Si 8.9356026517 0.0744534457 18.6624519532 
Si 15.9384456558 13.5915616243 2.3931619109 
Si 2.4380754523 13.4575112131 28.8878495180 
Si 3.6943113938 14.9526400068 1.1083875716 
Si 0.9990722251 14.9199296865 3.8528224366 
Si 2.3520968315 13.4946035434 5.2034329562 
Si 3.7906667447 14.8884574062 6.4135715902 
Si 16.1327690675 13.5586884040 8.2178821163 
Si 1.7832500263 14.4271408919 9.3648506512 
Si 6.2754944974 14.3364544611 11.3052041630 
Si 3.8941082456 6.6185619005 27.4922506990 
Si 9.9717118212 8.9438616818 23.4361359276 
Si 2.4539907824 3.1308077086 20.4001541553 
Si 2.2288955604 10.7556843684 26.1467101043 
Si 7.1723730356 4.3585198599 16.9964571378 
Si 15.5143680819 14.2515346903 20.2355855574 
Si 0.6919780293 8.5831847885 19.6727947524 
H 10.8633286894 13.3900380325 22.2141674688 
Si 14.9059854463 9.2225672943 18.8487571258 
Si 0.3779508095 6.2038999467 19.6822353023 
H 1.6079044647 14.8646088459 26.1362206044 
Si 4.3382225197 11.6150796162 15.5895238314 
Si 10.2897252041 14.6885465243 19.6160640406 
Si 13.5742127741 9.0683172829 20.7349440258 
Si 6.5616609300 13.6337853047 18.9425507370 
H 5.4072049095 3.0396325778 11.8892362053 
Si 13.3936544125 2.6244004740 10.8676463313 
Si 3.5112117921 1.9819880281 17.2762354091 
Si 1.0315512274 10.9187146899 14.8449441662 
Si 4.6206911223 0.8192241075 25.0985176931 
Si 5.0872367265 0.0133308239 28.8972026554 
Si 5.1575443672 2.6823440045 2.4751897998 
Si 7.9083389523 16.1950294481 2.5788202309 
Si 8.0535317237 2.4278616222 28.9128786302 
Si 6.5640066900 1.2301344743 1.1814906444 
Si 6.5374539898 4.0375905669 3.8693142613 
Si 5.1535696071 16.2589839887 5.1041906325 
Si 7.8979296422 2.6857323246 5.2446042432 
Si 6.4733202592 1.3139367510 6.5110073889 
Si 5.2955206684 2.5716371635 8.1086456303 
Si 7.7478824509 0.0068364895 7.9519150199 
Si 7.1537535654 3.4303156514 9.3250196892 
Si 3.7437515442 12.0635270303 27.4802460492 
H 6.9048586531 0.8238846765 10.9858863047 
Si 14.5579170131 14.0332323983 14.3146416732 
Si 1.5966708806 5.0763550064 21.4090692169 
Si 2.9031223766 14.8562194959 18.6314787912 
Si 7.9579257128 15.8901132253 26.5317912992 
Si 12.5764828450 15.7220981638 23.4251510903 
Si 15.8540308750 4.0377697569 16.7381823412 
Si 12.8430686975 12.4308013737 14.4571823213 
Si 14.3300362011 5.6397120816 19.9265532365 
Si 3.5901857128 9.3979617260 24.8079294095 
Si 12.0428713101 0.8584129609 16.7069178041 
Si 6.3697810183 14.7047387845 27.7002924462 
Si 5.1103522367 14.5830524834 22.2830193804 
Si 15.8960264954 11.7312110273 11.4943356730 
Si 5.2242356278 5.2749463982 28.9065557928 
Si 5.2191531477 8.0311166835 2.4835726584 
Si 7.9766103430 5.3342257088 2.4990738082 
Si 8.0024788632 8.0695285038 28.8782050057 
Si 6.6398203507 6.6575927409 1.0930350230 
Si 5.2475303280 5.3624399890 5.3814630788 
Si 7.8910226822 8.0469668536 5.2861251801 
Si 6.6200280005 6.6905962812 6.7846085103 
Si 5.2737409382 8.1879893849 8.0778181557 
Si 8.0521633636 5.2685118482 8.1017691804 
Si 12.3038045325 11.7563464975 19.1377137095 
Si 2.6503341542 10.0583909120 13.2482965998 
Si 10.5066754261 3.8703411354 17.4816256439 
Si 12.9913728588 10.1355403527 25.4054521141 
Si 5.1913786975 5.3285567887 17.8024295146 
Si 8.6489800991 8.5294766580 25.2987214530 
Si 11.1686358721 8.5356831481 13.2751030995 
Si 7.7771881611 10.5651728166 26.1977007286 
Si 6.0791022556 9.8365048200 18.1398708977 
Si 13.4053669226 15.5090086718 17.6490497166 
Si 6.0370740552 10.3247161244 11.5985313716 
Si 9.3020136251 14.0266349483 25.8048980963 
Si 2.0959202892 12.2651809422 20.9899262850 
Si 0.5014078336 15.6488420331 23.3893993782 
Si 5.0830827765 10.7782623086 28.9716781044 
Si 7.9234560725 10.7814062786 2.5584589462 
Si 6.4818236393 12.1016130507 1.2230115813 
Si 6.5424061498 9.4112706561 3.8922454735 
Si 5.2320385379 10.8651694594 5.2467312806 
Si 6.5476515299 12.1685160813 6.7549465357 
Si 6.7389775816 9.3919995859 9.5331779865 
Si 7.9719676929 10.8029090788 8.1138029677 
H 5.3421589389 5.5016706203 11.3089629005 
Si 7.2780299766 3.6025009529 25.7103469101 
Si 11.7965990879 3.2194741794 22.4982580900 
Si 8.2033834350 13.1410453802 23.6650401246 
H 14.6757751642 2.3334284913 21.5556891150 
H 12.2232667718 12.0565223303 26.7368318840 
Si 13.0610940595 5.1629526472 26.0646006304 
Si 2.8808376563 5.1825658074 25.9232837572 
Si 5.7129519222 12.6968007861 20.9516396105 
Si 10.4759850658 6.9360540034 20.5116342288 
Si 0.1039095127 2.4439887224 12.7795325060 
H 8.0161298833 15.1880142189 21.2214528569 
Si 1.7854165963 0.5415512810 18.0233500367 
Si 6.4264213488 9.3924231259 27.6676001717 
Si 5.1038525267 13.5613273840 2.4741758148 
Si 7.8458668018 13.4102865026 28.9818179543 
Si 6.5280546597 14.8189968455 3.8756662363 
Si 7.8598273319 13.5099650136 5.3373489044 
Si 5.0763061364 13.6304621447 7.8961167081 
Si 5.9797984147 15.3629851105 9.2229801656 
Si 9.8567695801 0.0013194020 10.6260090470 
Si 4.1065461376 6.7268904015 11.4478904986 
H 5.9130582841 2.8054638257 19.5526025665 
Si 0.7809507521 9.1584009838 22.0130895839 
Si 7.2987019868 13.4773035633 15.3433410971 
Si 14.8707175960 5.8354364334 15.5465460194 
Si 10.3457628046 1.5585816023 12.3468406368 
Si 14.3325448611 3.5938020929 18.6380055911 
Si 13.7535168058 2.8907093964 25.5583074371 
Si 13.0516621494 13.8583592467 10.9485611677 
Si 7.4510134881 15.1416202985 22.6420807881 
Si 9.0973623532 12.1750157913 27.3639582882 
Si 14.6627920341 6.2712102274 27.6338880846 
Si 9.3270187753 3.8785512955 1.1780057994 
Si 10.9015287397 15.9776719761 29.1085078026 
Si 10.6028190070 2.6116128239 2.6867746670 
Si 11.9889188296 1.3000902509 1.3327230086 
Si 9.2561898547 1.2365771693 4.0044539846 
Si 11.9844390796 4.0370855769 4.0078630720 
Si 9.3218711353 4.0454423470 6.5788394880 
Si 10.6208846171 16.2224943884 5.4233336658 
Si 12.0090695598 1.3061370989 6.7853369478 
Si 8.8612062210 1.6374219450 9.1927063035 
Si 10.6165026071 2.7209513049 8.0392692437 
Si 12.0486705502 3.9881992865 9.4818668496 
Si 6.3307990479 0.9687402449 14.8207891790 
Si 12.6357784456 1.1801339478 12.6734428699 
Si 12.2502267220 1.6633067552 24.2233146172 
Si 8.1026134941 15.6117497028 14.9196818527 
H 0.9874151010 11.6436359865 10.8624889939 
Si 12.7507206866 2.1117052993 14.8422052413 
Si 0.2708342845 7.3031002868 14.8492565162 
Si 14.7718372951 4.0394476269 12.1186940148 
Si 9.5081309970 7.3240329370 27.1282067788 
Si 6.1911448766 3.4111749012 27.7463005581 
Si 12.9085544981 11.2476097929 21.4251531167 
Si 15.7811494143 13.1584756803 18.1192706854 
Si 13.9346778974 15.9836992762 19.8881500120 
Si 1.6980207455 15.5807661225 11.4306410989 
Si 5.0884421865 8.1386958444 26.1656786165 
Si 2.2512617306 7.9635294728 23.4939155894 
Si 11.2445472728 4.7017338730 0.0334926817 
Si 10.6262766072 8.1290521643 2.4685755874 
Si 11.9992141097 6.6585049809 1.1921695380 
Si 9.2835570549 6.7610994018 3.8645357114 
Si 10.6577814675 5.4788646201 5.2984794799 
Si 12.0412260201 6.8075259023 6.7166015862 
Si 9.5202181771 6.5933938503 9.4302643378 
Si 10.6409376073 8.1527378246 8.0652598934 
Si 10.9704191503 5.4549671899 10.9438117553 
Si 9.5311650572 0.9556756647 27.5780314979 
Si 4.6126764422 8.7092693897 12.7376036441 
Si 12.2198295818 7.3878245776 16.9952625003 
H 9.5184425671 1.2297940132 13.5889722453 
Si 4.1053406775 4.6540530426 23.9235771587 
H 7.1589337855 0.8731928780 11.7301454574 
Si 2.3490506015 9.0456090227 18.0577031487 
Si 10.0740130221 3.9537459362 12.5373998842 
H 13.8086910363 6.9047772031 16.4608516199 
Si 6.8994177931 1.2816190197 25.2015770293 
Si 12.2095831717 2.5889860137 18.3585769698 
H 8.2184679752 7.5838095694 17.1028672864 
H 14.0653236986 11.2122116225 25.5483424122 
Si 0.4662035143 11.4767123550 22.5215389522 
Si 10.0724491821 4.6574576526 23.3475579288 
Si 9.3135469452 9.5425517673 1.0688071921 
Si 10.6498156574 10.9425306701 28.7637529072 
Si 11.8954630988 12.3268548827 1.1082710216 
Si 11.9910039497 9.4874589868 3.8943725110 
Si 9.2366744345 12.1306744109 4.0058817220 
Si 9.2287574944 9.4174771461 6.6536354495 
Si 10.6556474775 10.8087408989 5.3565796542 
Si 12.0493221502 12.2449324720 6.6867647866 
Si 11.4313121245 10.0396411218 9.2998448895 
Si 9.7542728992 11.7600769076 9.3469019514 
Si 8.0201209333 7.8022584714 10.6934332211 
Si 6.2970461676 8.6247894489 22.5942661513 
Si 12.9669541486 6.4203777587 24.0079593576 
Si 0.5563621491 2.3800016018 15.1417678748 
Si 5.2187458977 13.3421943020 26.1056553673 
Si 8.4464628172 0.8009613883 23.5812698132 
Si 14.0110128381 15.4712158715 12.4759780350 
Si 8.4940947777 6.1683551664 16.1453216365 
Si 6.4408054189 5.0533372362 24.0831049691 
Si 5.5463052207 13.2617379913 16.7808979156 
Si 6.6793724711 7.3795981275 24.5678364127 
Si 11.6320863764 10.6769710876 23.4892244519 
Si 0.8821719261 1.4092169619 19.9834879108 
Si 8.8586324010 8.4670207974 12.8102142931 
Si 5.0274850060 10.4820286559 23.3145160042 
Si 9.2423433545 14.8166999555 1.2121986552 
Si 10.5646841166 13.5048010835 2.6476196950 
Si 11.9621543594 14.8894022262 3.9902931597 
Si 9.1853609340 14.8617906759 6.7397076234 
Si 10.6281662472 13.5524493339 8.0646480059 
Si 11.6847519469 15.1022962381 9.5059635618 
Si 7.8481474018 4.5479888516 13.1495496136 
Si 14.2637684805 11.2201611426 17.8375984767 
Si 11.7045442970 9.2428320545 15.5588129068 
Si 6.4841042393 11.8597228385 24.7162919732 
Si 7.6787965602 6.8101160123 14.0686920390 
Si 2.6950990746 15.5621629423 14.9210804527 
Si 7.9625032028 4.4286646005 22.3600880669 
Si 15.8780749152 0.3922501716 11.6029019966 
Si 3.8848718155 1.5908732695 21.4428687165 
Si 15.9065987055 7.6792201002 26.2226132908 
Si 9.3599408656 8.9344949317 19.8633248624 
Si 14.6181411437 2.0260198985 27.6098496474 
Si 4.4478216407 1.7185624357 27.3049257140 
Si 13.3671994523 16.2784505389 2.6800031121 
Si 13.0772537396 3.0147577476 0.1289086689 
Si 14.6541257540 4.0599404471 1.5036785464 
Si 14.6805644243 1.2994842629 4.1334748328 
Si 13.3356294320 2.7171883149 5.4416611531 
Si 14.7429062548 4.0558190771 6.8055000975 
Si 13.3444586120 16.2713155188 8.2285755787 
Si 14.8259526756 1.2732817976 9.6020590355 
Si 3.3045405602 1.1130680172 11.5057867104 
Si 1.1232737023 6.4399094689 24.9183022580 
Si 1.3571818144 5.2777319883 17.7364913530 
Si 10.0522658719 10.8222941790 16.3326757590 
Si 4.9746076655 7.5213537088 20.9722980977 
H 15.9019397654 14.4702768123 26.5620651613 
Si 4.2298288587 9.2912296450 19.5298461793 
Si 10.0950271223 10.9110909698 18.7171430400 
Si 9.6960524387 0.3760041544 16.4406884701 
Si 8.0073658632 11.2455083828 15.1182247751 
H 2.5811505236 13.5605617540 21.6540864512 
Si 15.2864709798 14.8236394956 16.4165917579 
Si 4.9324817251 12.3737212132 11.3306412002 
Si 3.4127550312 15.6154475328 20.8750079865 
Si 8.5988394786 14.5025961726 11.7153144701 
Si 13.3373073020 5.5048797503 2.7505129474 
Si 13.3802314524 7.9130304724 28.8844987056 
Si 14.7351685048 6.8383791625 4.0613012463 
Si 13.3800196824 8.2302782253 5.3920691287 
Si 13.3678673423 5.4475878198 8.1445430298 
Si 14.7024907645 6.9502263036 9.4414240002 
Si 6.4082905786 6.4372379089 19.5126550545 
H 1.5419527701 14.2089363400 27.8868889938 
Si 2.0626886889 7.1888259357 16.5236720690 
Si 14.7962560053 12.7391710765 21.9536199472 
Si 1.1380992314 1.4892220396 24.1940314301 
Si 10.1548114229 1.5968516996 25.2936223906 
Si 10.5624035166 12.7437648566 23.5621264760 
Si 9.5359380272 2.5908430737 15.7295586545 
Si 0.1592095020 5.0104130858 23.2971791920 
Si 0.4000107277 2.3451572914 26.3385222643 
Si 8.0973192441 10.7150408180 12.8209368930 
Si 4.0681831872 0.9273831925 13.8128065174 
Si 11.5243117354 14.2908424607 25.0419035314 
Si 14.5561414031 5.9199326641 22.3046102676 
Si 3.6448223733 12.2270134718 13.2920902618 
Si 9.5528796274 12.2989338225 11.6755709206 
Si 14.9736215269 8.2293334053 22.4164399911 
Si 14.6197375637 9.4151476761 1.1363333475 
Si 13.2817909815 10.8863790396 2.4526432026 
Si 14.6737552042 12.2146330717 3.8515112491 
Si 14.7247754847 9.5932462477 6.8200105723 
Si 13.3460713221 10.9855525605 8.2252247662 
Si 14.5697109732 12.5108178544 9.6840519595 
Si 6.0121992250 1.5778787364 20.4704629418 
Si 0.7186838556 0.1566011471 15.9953509260 
Si 1.7660803662 12.7259761764 18.5998937416 
Si 0.8552054598 12.2011449516 24.7883490097 
Si 15.7097829237 3.0305427577 24.2521316043 
Si 1.0409929115 15.6294732229 21.1285333706 
Si 8.8096646606 12.7920484170 19.5915302660 
H 0.2829149486 15.7160871537 27.7492434456 
H 6.6970308312 11.1382713119 18.6295848537 
H 8.5574791683 15.0557719977 13.3165657614 
Si 8.4304660371 5.5476084207 20.3611681808 
Si 14.6726800642 14.5220627228 23.5910308756 
Si 11.8780490886 15.8899991953 21.0697338964 
Si 3.4031276411 6.2975185776 22.2892256678 
H 6.9501448536 6.7768681220 11.0235319542 
Si 12.6527852057 14.2150450900 28.9344986549 
Si 14.5480941431 15.0477898976 1.0405088525 
Si 13.4038193726 13.5726978041 5.3172148922 
Si 14.7215174846 14.8919108862 6.8307623097 
Si 6.0576971954 10.0132513216 15.8016156911 
Si 15.4639994014 9.5601612574 12.2289503133 
Si 12.6029866753 7.2717583265 19.4061574934 
Si 11.4606504148 1.9122179575 20.5586038782 
Si 13.8170478064 8.2964970759 11.1797089522 
Si 13.6931623552 10.5199517762 15.5915634563 
Si 7.8770132820 11.9230094890 21.5905375645 
Si 11.1363816718 12.8975913280 16.0158345882 
Si 15.1597184886 13.4425081229 25.6785287605 
Si 0.9416988446 6.7197228015 12.5796492587 
H 14.2138233400 2.3997776619 15.1503634372 
H 5.5722551910 15.2329094593 12.3301157120 
Si 4.2441314788 6.4874436893 15.9459045892 
Si 11.8382037483 13.8174550564 18.0787986985 
Si 5.4719576600 0.6898505553 17.0163580500 

