&CONTROL
  dt          = 30.D0,
  prefix = 'aSiHcSi_merged-11',
  pseudo_dir = './',
  outdir='./',
 wf_collect=.true.,
 verbosity ="high",
/

&SYSTEM
    ibrav= 0, nat=  388, ntyp= 2,
  ecutwfc     = 42.D0,
  nbnd=1468,
  degauss     = 0.05D0,
  occupations = "smearing",
  smearing    = "methfessel-paxton",
/
&ELECTRONS
  electron_maxstep=200,
  conv_thr    = 1.D-8,
  mixing_beta = 0.3D0,
  scf_must_converge=.false.,
/
&IONS
/
ATOMIC_SPECIES
Si  28.08  Si.pbe-hgh.UPF
H  1.00784  H.pbe-hgh.UPF

K_POINTS {automatic}
2 2 2 0 0 0

CELL_PARAMETERS angstrom
16.29000014898320 0.00000000000000 0.00000000000000
0.00000000000000 16.29000014898320 0.00000000000000
0.00000000000000 0.00000000000000 29.11971093458229

ATOMIC_POSITIONS angstrom
Si 0.0388109254 16.2619487687 28.9542818568 
Si 0.0659590251 2.6681554144 2.6150577849 
Si 2.7743825054 16.2368458785 2.5308435808 
Si 2.7929368155 2.6352984841 28.9018372574 
Si 1.4171909170 1.3400056383 1.1751929101 
Si 4.1405759479 4.0698121872 1.0976558558 
Si 1.4180819800 4.0323614769 4.0083573299 
Si 4.1272507277 1.3205993611 3.9125826006 
Si 0.0718530730 16.2397129185 5.2962639051 
Si 2.7762721454 2.6458055342 5.3725575477 
Si 1.3691761415 1.3017062189 6.7541131133 
Si 4.1402990179 3.9889486265 6.7734194816 
Si 0.0160056582 2.7177421749 8.1237878368 
Si 2.6652557944 16.2012685182 8.1812992659 
Si 1.4418832992 3.9415773060 9.6168718953 
Si 4.1855200583 1.1412008474 9.4779126347 
Si 7.5365359889 14.0689237887 14.7002998331 
Si 12.5565927548 1.2243091702 12.1166534805 
Si 11.1433537919 9.6293937581 22.0292069206 
Si 0.2718442645 7.5629420792 16.6387407506 
Si 1.6705720953 12.0769337005 12.3675489099 
Si 2.8434195260 2.4738645826 10.8973238245 
Si 12.5727524350 9.4584953665 25.4478901040 
H 3.5892408928 7.7615008910 10.8368421849 
Si 11.4230693845 4.3980719802 26.2749481340 
Si 5.1911995075 2.8181537358 26.1471708424 
Si 8.6635433592 9.4837122867 27.0865435974 
Si 14.6351967738 3.3726816308 27.2059344123 
Si 0.8184845415 15.1089751382 27.0683728978 
Si 13.8456856266 6.6918017412 13.7288953961 
H 2.8593674362 11.9812462396 13.3296932789 
Si 14.8062743554 1.1031685841 27.6272675098 
Si 7.0051398941 15.6409413830 21.8996824463 
H 5.8005921231 9.0742794230 13.6337030610 
Si 15.8169385447 5.9305048742 0.2910922784 
Si 0.0874976633 8.0824138939 2.8958242137 
Si 2.7726720554 5.3610064690 2.5639905478 
Si 2.2349554404 8.5936429686 0.0385204272 
Si 1.3715707715 6.8412787826 1.3743134935 
Si 4.0988409675 6.7100791214 3.9823243083 
Si 0.0824182784 5.3921366593 5.4487055918 
Si 2.7814034954 8.0153968333 5.5163215606 
Si 1.3599755494 6.7522050618 6.9411198969 
Si 16.1840825680 8.1205324943 8.3367402829 
Si 2.7795627254 5.3362619588 8.2354036888 
Si 4.2344226387 6.6084132304 9.6056025671 
Si 0.0646499607 3.9944220665 17.6534170781 
H 10.5812836268 5.8148784532 10.0775748420 
Si 2.4167844221 13.5458681739 19.0084445871 
Si 0.0471360928 1.3014325469 23.5194663671 
Si 15.8141203746 10.4959728960 27.0589672312 
Si 15.6443948631 15.6380417630 17.7803498981 
Si 15.5533011822 9.2000219341 12.9048949357 
H 15.5882595226 0.1095355900 14.7026876494 
Si 14.1271768292 3.0528600579 19.0491248232 
Si 1.1918643769 9.8803412104 11.6983779526 
Si 3.8749837854 13.0541870994 23.6659967525 
Si 2.8450648160 15.9763687761 26.2473717677 
Si 6.9497701836 2.0024645583 19.4614890498 
Si 14.8393593457 14.4172691519 12.5750850897 
H 0.9723419639 15.5049524618 17.3506885633 
Si 3.9574600562 9.5163411570 1.3408520336 
Si 0.5305245799 10.2810752140 0.0525150691 
Si 2.7008820247 10.7789790686 2.8484610039 
Si 1.4609816954 12.0508697002 1.3093852740 
Si 1.3961865908 9.4443882264 4.2691825807 
Si 4.1574360980 12.1496685511 4.0451355248 
Si 4.1029786275 9.3875198359 6.8991583935 
Si 16.2677805888 10.8132369389 5.5459945460 
Si 1.4276165171 12.2511063820 6.7334381185 
Si 0.7142089925 10.1002399224 9.4117526515 
Si 2.6458381142 10.8314002891 8.1518009987 
Si 4.0825998373 12.2058853416 9.4014442738 
Si 1.0948492810 10.4822730059 25.2837422935 
Si 14.7917599653 12.2330407719 19.4665849992 
Si 13.2900174315 1.8226392467 21.8571094289 
Si 11.1385645319 9.7730878494 16.1162457773 
H 8.0145660433 8.1648738747 17.3520280700 
Si 2.1818337500 7.3760469075 23.1658657172 
Si 6.6728401810 9.6640914584 25.8621179920 
Si 7.6095966396 11.6810704068 17.5973616346 
Si 6.3818356184 2.4095353720 15.5439852180 
H 9.1332818035 10.0379143818 13.1440260019 
Si 5.6322023915 13.0163291390 13.6436328824 
Si 6.0431665153 13.6405130748 22.7134327684 
Si 14.8297971156 1.4917535056 11.4523163952 
Si 1.4308028411 6.4505794190 12.8161671765 
Si 0.0574142684 13.4758537532 2.5444191901 
Si 3.2351451596 13.0252723491 0.1130648488 
Si 4.2072997885 14.8399132057 1.2445415017 
Si 1.4131330779 14.8729981960 3.8988963365 
Si 2.7641035153 13.5508692039 5.3089892187 
Si 4.0577738771 14.9081845963 6.7250225221 
Si 0.0676896747 13.5872936443 8.1239916748 
Si 1.2691115576 14.9507014967 9.6976790931 
Si 9.9749698212 8.8836049712 12.6456130296 
Si 0.6355527268 12.8770985078 15.8665733758 
Si 9.6799904985 3.1344892487 12.5268919681 
Si 8.8192268907 1.3929709447 18.1469088193 
Si 5.3425010289 11.0284441309 17.2620190435 
Si 0.9190671474 11.8302379382 19.5846363073 
Si 4.6041893521 12.7360759765 18.8115953411 
Si 16.0627709369 7.3162463169 14.2960891256 
Si 8.2438477954 8.9351791117 20.2517106454 
Si 9.9675741612 4.7265272532 18.6129989126 
Si 6.2490232472 7.4029091177 25.3929994489 
Si 11.1885911223 16.1287454375 10.6894090884 
Si 16.1011175973 12.8009916271 13.6672780877 
Si 8.1700215147 5.3984897594 21.6240352626 
Si 6.1656998964 10.0788348622 22.0432135015 
Si 5.5498238608 16.1024370873 28.8444714268 
Si 5.4914730802 2.6458706942 2.4649485870 
Si 8.1664377147 16.1485540777 2.5241343994 
Si 8.2609848756 2.4917835828 28.7611016944 
Si 6.8589371427 1.2298950112 1.0981916585 
Si 6.8747058629 3.9858535265 3.8502081798 
Si 5.4482231298 16.2270067184 5.3176960123 
Si 8.1988059450 2.6234556540 5.2821408453 
Si 6.8540664327 1.2606179515 6.6713548948 
Si 5.5148166504 2.5660171135 8.1112663611 
Si 8.2487836654 16.1499224377 7.9801694225 
Si 6.9178092033 3.8590684553 9.5197285396 
Si 5.3614300090 1.9465409878 13.4300980422 
Si 13.5516185439 3.9094371358 25.2458284298 
Si 3.7080927339 0.1834384337 13.6099704966 
Si 10.3431238246 4.2243065486 16.3179288953 
Si 13.8578216767 7.9979991131 11.7119477379 
H 11.7727179477 9.6438755682 28.3996096029 
H 4.6878059229 15.5338672121 17.0166563591 
Si 8.3686291965 15.8429373849 13.3210447247 
Si 15.4284709111 3.5802651027 12.4816690570 
H 1.2937306348 2.6307698641 26.1579160157 
H 8.1176817442 9.5458586373 15.3100956998 
Si 16.2735146688 0.0426760537 19.9124660130 
Si 15.9844323262 8.4801831176 20.3338282302 
Si 9.4404623363 12.6195047354 14.7145684915 
Si 9.3973589959 9.0926056732 23.5034505261 
Si 5.5382253807 5.4327964997 28.8268831214 
Si 5.4177771195 8.0662542138 2.5172883554 
Si 8.2475782054 5.3088133086 2.3858303324 
Si 8.5069312978 7.9874920631 28.9640951993 
Si 6.8586765027 6.7903399521 1.0955679725 
Si 5.4845498302 5.3024764985 5.2982440454 
Si 8.1482580745 7.9551401228 5.2071867093 
Si 6.8250865224 6.6536505609 6.6994262962 
Si 5.5505569108 7.9960768931 8.2007512328 
Si 8.1676105947 5.2895911084 8.1023848493 
Si 16.1651372978 13.5675012941 23.4756703218 
Si 2.8465146260 8.3035180659 12.3068634323 
Si 0.5731506232 3.0234403177 21.9472931737 
Si 3.5198617822 8.3992543968 19.8192829380 
Si 1.5467599491 9.5760114276 19.2594564953 
Si 14.6163655337 5.7142877023 24.1946359848 
Si 8.7966489505 2.3837808818 16.0073089387 
Si 4.1228361377 1.1893296529 27.5519056979 
Si 8.2282582653 15.8832225553 25.8306687042 
Si 2.6307861541 13.6511830248 27.0917269060 
Si 1.9878687182 9.0909115131 16.9240265586 
Si 5.7619522427 0.0627184554 20.0052414121 
Si 4.8185983341 11.2227512526 29.0730611577 
Si 8.0961952340 10.7258247981 2.5484988616 
Si 6.7303927516 12.0798496105 1.1264494260 
Si 6.7554141918 9.3733149557 3.9376837914 
Si 5.4279583696 10.6903125978 5.3964648304 
Si 6.8231805924 12.0734313504 6.6670742973 
Si 6.9989496940 9.3050272751 9.5633789863 
Si 8.1853992749 10.6753420876 7.9881773430 
Si 3.2008221293 8.3648336265 27.0194226637 
Si 5.5279952606 10.8179121689 10.6253748441 
Si 8.2898507558 2.3807672318 10.7906292036 
Si 4.3548871898 11.3120530335 15.0482803788 
Si 0.7844677632 6.6838685111 21.3458255444 
Si 11.9818163896 9.5248608271 11.4969569121 
Si 12.6734735059 3.7563600044 15.6094754479 
Si 10.8620254893 13.0251420291 26.3402636456 
Si 7.5837606994 10.5542259365 23.8758333895 
Si 11.3417497037 11.9126490489 21.6167844546 
Si 1.7982531164 1.1538744676 12.5849275520 
Si 13.2015301507 11.0152329407 15.8195450426 
H 1.3757898816 10.3159195243 14.3835938570 
Si 6.9727879538 12.0049318998 11.9809847472 
Si 11.3909292142 15.0479690876 23.4675459225 
Si 5.5351139906 13.4738663732 2.6348591883 
Si 8.1678549447 13.3152669318 28.8472960388 
Si 6.8531541927 14.8403367457 4.0002911699 
Si 8.2180118552 13.4306815828 5.3112023168 
Si 5.4586324399 13.4696798432 7.9723653400 
Si 6.9830506539 14.6616191541 9.2941381390 
Si 14.0264068883 1.9264717076 24.0433008471 
Si 14.9048451463 8.1410904745 18.2648436486 
Si 9.4669010066 1.0515309126 27.2723855926 
Si 11.1520526520 13.1802228305 13.1573045901 
Si 9.1379407436 12.6220459754 21.3780610644 
Si 5.8833616138 2.2659227307 23.9486617865 
Si 5.0602441963 5.6174599414 22.5409567205 
Si 6.9337408234 0.9157700514 12.0278383621 
H 7.1687403656 4.0694700972 14.1896274625 
Si 7.4911846285 14.0209008682 17.0686641629 
H 8.2808423857 6.4325789688 16.2583208470 
Si 1.0176623733 3.0397466078 13.8317462151 
Si 10.5587871366 2.5160393930 19.2829269823 
Si 12.6160186754 6.6583095009 23.4006870662 
H 10.2072652234 12.9077237080 16.0047172844 
Si 9.5271088471 11.6885963869 27.7380388902 
Si 9.2878739049 5.9975056449 15.2252408621 
Si 15.4036612409 14.2839355006 25.6887683528 
Si 9.6559790383 3.9013247157 0.9740222991 
Si 10.8292011390 16.1793421780 28.8516931151 
Si 10.8952407996 2.5999328938 2.5351445621 
Si 12.2493796420 1.2847434417 1.0965434828 
Si 9.5172371070 1.2504611364 3.8790075739 
Si 12.1990435416 3.9515956561 4.0287702472 
Si 9.5369968772 3.9505856761 6.7335837171 
Si 10.9025712997 16.1802218380 5.2009550912 
Si 12.2315258019 1.2021091580 6.6102326216 
Si 9.6759994485 1.1222164813 9.3672286134 
Si 10.9463588201 2.5693239835 8.0324101839 
Si 12.6347847556 3.5032134020 9.4174601148 
Si 13.1247879600 6.6875500512 17.8237673871 
Si 11.9623335494 13.9553499076 18.1295243519 
Si 3.0907017283 11.8731946686 25.6354501621 
Si 12.3277019627 0.5235687498 24.7978799165 
Si 7.0803671148 6.3731367583 12.2325208103 
H 7.9158160624 10.9973628106 12.5878977625 
Si 14.0816136988 4.6285591923 17.2809468556 
Si 8.9442200618 10.6626033075 15.9049531548 
Si 8.0222223434 7.6770209502 22.2391017970 
Si 3.9425221261 7.8681678120 16.1138579610 
H 14.2679875905 10.9080284498 21.1617307318 
H 4.5239611014 10.1085478224 11.5077894445 
Si 10.3369987845 8.4553734473 25.5663490881 
Si 15.1412456285 13.3946969725 17.3735766561 
Si 3.4177560613 16.0837035871 15.9189306160 
Si 1.8100307866 3.7477751743 27.0507554727 
H 5.8796963638 13.7732928660 26.6446519840 
Si 11.4993065852 4.7363338333 28.7671877140 
Si 11.0093196707 7.9052275623 2.5535831631 
Si 12.3470056129 6.5865846302 1.0281704016 
Si 9.5771191476 6.5855909402 3.8931015140 
Si 10.8931230996 5.3359035788 5.4234296827 
Si 12.2348489619 6.7086456014 6.8671558311 
Si 9.5433662673 6.7052247013 9.4218571911 
Si 10.7840778386 8.1709826247 8.0366616617 
Si 0.1077208840 16.0317059066 11.6178037124 
Si 9.7274106890 1.2823683597 14.1504905710 
Si 5.6184210514 14.7864982952 18.2097200358 
Si 12.5386574647 15.7508663041 19.5134386141 
Si 1.5234082339 8.1738007948 25.2828104627 
Si 11.3668363040 6.4451222689 19.4747967577 
Si 5.0890937865 8.7069562096 18.0335166650 
H 3.0312269377 3.5082633021 19.2290555171 
Si 4.2554041589 3.7519779943 12.3202584993 
Si 11.9743229895 0.4698068623 14.3016218707 
Si 12.7045874062 11.8879859887 25.3651027658 
Si 14.5115230927 13.7364937556 21.7960453951 
Si 13.0282045492 8.9263988016 23.1893362042 
Si 4.6242423423 6.5093211595 26.9033806156 
Si 4.3450806097 9.0963360832 14.0798170325 
Si 3.0912881683 5.2692123182 23.7271481455 
Si 10.7181847880 2.1597119298 25.5929645039 
Si 3.8259020150 1.5595899533 22.8586527668 
H 15.8669325551 0.1211392829 22.6564163744 
Si 9.6043397378 9.3387149954 1.3872018775 
Si 10.9956686506 10.6680930376 0.0877834070 
Si 12.3919008533 12.0857303005 1.2704696923 
Si 12.3021918225 9.3276377953 3.9399842486 
Si 9.5219612071 12.1030302807 3.8566727556 
Si 9.4712015666 9.3643065856 6.5229608479 
Si 10.8924552096 10.7363155582 5.2166214957 
Si 12.2892738524 12.1612181612 6.5187967292 
Si 11.5628375858 10.0604923220 9.2694737438 
Si 9.8265516299 11.8497533584 9.1703211281 
Si 3.6194588431 0.6843999213 20.6359452312 
Si 7.2099866459 7.7271615707 18.5530123080 
Si 7.8120813414 11.2731199331 19.9798781438 
Si 2.8219818858 3.5459909424 22.2056723688 
Si 3.8852627755 8.7995648605 22.1579742823 
Si 10.5980949069 8.6382612790 19.9608338529 
Si 2.4923537328 6.2605076973 19.7134910282 
Si 13.1314179901 13.3657496422 16.1860166047 
Si 12.0834497005 14.6031869236 27.6752567934 
Si 2.0656371789 14.4090427018 16.8356191163 
Si 4.7478671534 3.6677261135 16.7613638534 
Si 9.5020385369 14.7722119651 1.1101394759 
Si 10.9167435998 13.4651675131 2.5041408059 
Si 12.2825297923 14.8592983059 3.8381817392 
Si 9.6036555578 14.8179705755 6.6155032893 
Si 10.9977374806 13.4741595932 7.9520106620 
Si 12.4856823842 14.6271495138 9.4161497278 
Si 13.6421746548 15.7779728643 26.3710431800 
Si 6.7869842121 3.8720352954 27.5632332654 
Si 5.5693392809 15.8974111454 10.6989021142 
Si 14.2644363705 15.9805064362 21.0513087880 
Si 5.7227259223 12.1971213216 20.8178560654 
Si 12.7166257163 11.6455256265 12.2504876719 
Si 11.9200121290 3.4908167119 11.7592963879 
Si 6.8416534526 14.6942968944 27.3881073239 
Si 2.9836438473 1.9344700977 16.8192829584 
Si 3.4185379813 5.5055313504 15.9669490194 
Si 12.7016552062 7.5770492193 15.6079321032 
Si 8.4301076571 13.2570627612 10.5738911951 
Si 16.2347444685 5.1225208668 27.3205204748 
Si 9.5608780174 14.2155500800 24.7702161911 
Si 10.8943122696 15.7516970941 21.2631838047 
Si 13.6440480048 16.2264854384 2.4716461205 
Si 13.2893658315 3.1377635387 29.1106838242 
Si 14.8929860262 4.0935304274 1.4378148471 
Si 14.9716015669 1.2897933418 3.9310736170 
Si 13.6487395248 2.6488517642 5.3737223362 
Si 14.9566473468 4.1029134675 6.7902797943 
Si 13.6039257344 16.1972448881 8.0274889528 
Si 14.3900974316 1.8312566567 9.2072740413 
Si 12.4961731443 1.5103534278 18.3422147206 
Si 0.7650126160 2.4451616024 16.0607436083 
H 7.7056424805 4.8417790043 26.5045279350 
Si 8.3841698567 7.9241728325 11.0711684988 
Si 10.9271203299 1.7544004360 21.5285226108 
Si 10.0787697022 4.6695774127 22.7887654606 
Si 10.3790269849 6.0545206454 24.8635448647 
H 6.3299519679 6.9920264439 13.3721789371 
Si 6.8262431124 4.3933967502 23.3271015566 
Si 14.0223343882 10.3076279143 17.9746948489 
Si 4.5929166720 10.3810469449 26.8199235241 
Si 3.9416913360 11.2040829125 22.2269879972 
Si 12.8426451575 14.5552943231 14.1236421975 
Si 13.5209444737 5.4038654594 2.7528114894 
Si 14.1946500098 7.6865343103 29.1102470285 
Si 14.9481602567 6.6967213212 4.1216912448 
Si 13.5683972441 8.0297809034 5.4406685516 
Si 13.6065484244 5.3894650993 8.3333623964 
Si 14.9158571864 6.7401993316 9.8700677819 
Si 2.0371459686 14.4726714424 22.9458954208 
Si 5.7571304027 3.9852833764 18.9248710167 
Si 15.3415800503 0.8424715667 16.0135405569 
Si 8.3001460359 4.8205205541 13.4563057820 
Si 8.9313020917 15.3164445801 18.3508923944 
Si 2.2150327703 0.2687540515 24.0633060885 
Si 7.6742353602 5.4066999194 19.2170873159 
Si 2.5267093431 2.0835887591 19.0880869965 
Si 13.8719288169 13.1367448201 10.7900759291 
Si 11.6646989567 10.0341188118 18.4177803705 
Si 8.8599518910 14.8183778255 20.6567075851 
Si 12.2309556519 12.0772595005 19.4601786628 
Si 2.0232180185 10.9931437005 15.5813749269 
Si 10.5960097869 7.8435210417 14.7070556061 
Si 15.1245483783 9.3395783654 1.3892053136 
Si 13.7081817354 10.7217848781 2.6448938407 
Si 15.0463726676 12.1160785708 3.9873620183 
Si 14.8535805158 9.3743249357 6.8349203111 
Si 13.4810013933 10.8457191992 8.0501440879 
Si 15.2253997692 11.8805577487 9.2732884260 
Si 4.3712260600 14.6070313636 12.2943419566 
Si 5.8164585832 7.7374405608 23.0677614110 
Si 14.3634307014 8.5770760384 26.8686408005 
Si 15.7993942145 6.9453067235 25.8425204266 
Si 9.6434846082 2.3533185815 23.4472203642 
H 7.6112093496 2.3850515018 20.7714101265 
Si 2.6822136845 4.7459938034 13.8060043906 
H 6.0960438558 1.0734132698 16.2409072598 
Si 13.0817171996 1.5285363260 16.0503769912 
Si 0.1128862801 11.1962474224 23.2986515990 
Si 14.4489043321 11.0800019813 13.7986953432 
Si 7.8931729622 5.7288672524 25.0219560922 
Si 0.1344534258 5.2973940184 11.0925132469 
Si 3.6367262433 4.6368508024 25.9006724893 
Si 8.0957554040 12.7949806170 23.5063916169 
Si 11.9590918394 5.4090456795 21.5269792661 
H 9.4530382165 6.8503848927 28.5969247642 
Si 12.6800546660 13.0580315394 23.1844732125 
Si 2.7688439053 13.5284052937 10.8828222084 
Si 13.6489512948 13.3856234424 28.8953144421 
Si 14.9954175471 14.8058671054 1.1292653020 
Si 13.6699165250 13.5506085639 5.2396551870 
Si 15.0171809873 14.8933769862 6.6777612312 
Si 7.6952005904 0.7897929642 23.7627906716 
Si 14.9114100164 9.8072479797 22.0438541352 
Si 9.8134055998 14.6524478840 11.8755422739 
Si 5.5586693308 5.1680025473 10.9306367738 
Si 14.4989960826 12.4283578737 26.8603708026 
Si 15.6498031431 4.9925755357 22.1945486393 
Si 13.7916028261 4.0257151568 21.1181967640 
Si 1.6068814527 5.7734204028 17.5302115812 
H 10.4214135653 14.7312263247 17.8710869174 
Si 13.3926281425 4.3955959002 13.4162661795 
Si 4.1130295576 4.7386144333 20.5568560963 
Si 0.2271575361 2.3892869019 19.6681516383 
Si 2.0195853485 15.2233960992 20.6625024076 
Si 1.7049928656 10.9949356006 21.6135521667 

