&CONTROL
  dt          = 30.D0,
  prefix = 'aSiHcSi_merged-30',
  pseudo_dir = './',
  outdir='./',
 wf_collect=.true.,
 verbosity ="high",
/

&SYSTEM
    ibrav= 0, nat=  388, ntyp= 2,
  ecutwfc     = 42.D0,
  nbnd=1468,
  degauss     = 0.05D0,
  occupations = "smearing",
  smearing    = "methfessel-paxton",
/
&ELECTRONS
  electron_maxstep=200,
  conv_thr    = 1.D-8,
  mixing_beta = 0.3D0,
  scf_must_converge=.false.,
/
&IONS
/
ATOMIC_SPECIES
Si  28.08  Si.pbe-hgh.UPF
H  1.00784  H.pbe-hgh.UPF

K_POINTS {automatic}
2 2 2 0 0 0

CELL_PARAMETERS angstrom
16.29000014898320 0.00000000000000 0.00000000000000
0.00000000000000 16.29000014898320 0.00000000000000
0.00000000000000 0.00000000000000 29.17519467508972

ATOMIC_POSITIONS angstrom
Si 16.0231047865 16.2445184686 0.0766639508 
Si 15.9821680162 2.5102238630 2.9514210437 
Si 2.4787841627 16.2156851683 2.7804339803 
Si 1.9965024183 3.1120416285 0.3022491818 
Si 1.0711342988 1.2908635948 1.4755354707 
Si 3.8456780752 3.9789465664 1.5159606204 
Si 1.1407773074 3.8819233255 4.2349837335 
Si 3.8132772649 1.2505588764 4.2194917051 
Si 16.0703132070 16.0937219372 5.6697614572 
Si 2.4990000529 2.5663754935 5.6596960150 
Si 1.1604230476 1.1728572047 7.0270206887 
Si 3.9105122758 3.9519051661 6.9765476019 
Si 16.0241310566 2.5905987237 8.2576595753 
Si 2.5633292634 16.1018995173 8.4012598834 
Si 1.2840641487 3.7397442042 9.5944669953 
Si 4.3191632195 0.7985732743 9.6891988524 
Si 5.6785311519 4.7112309431 11.7507764585 
Si 2.1317745795 0.3007850788 19.9359064998 
Si 8.6250337989 8.5575443283 11.2519681551 
Si 8.9513225019 6.0828163756 14.3270628491 
Si 12.0546815602 12.8158969772 25.0783846636 
Si 1.0645352197 13.0302896692 14.3319059314 
Si 15.3295091602 9.6680010584 20.4333143938 
Si 8.1160853242 15.3530319204 19.0165085900 
Si 4.7842427238 8.3765787166 12.7294000135 
Si 10.8947520996 5.7725896128 20.2870883181 
Si 3.3941029810 12.0277541900 23.5195831873 
Si 4.5991231621 2.1370851195 26.6013298257 
Si 14.2857111107 7.3410885671 12.0830819259 
Si 10.6134726671 0.2968168347 16.5895700210 
Si 0.2158180670 4.7549695935 0.2726809972 
Si 16.0409097567 7.9986995832 2.7695691378 
Si 2.5490918033 5.2962862984 2.9619824642 
Si 2.6083385339 7.7072551905 0.1508970244 
Si 1.1578720336 6.5314918497 1.5501685362 
Si 3.9207586859 6.6926976912 4.2251225177 
Si 16.0336932866 5.2673063882 5.5187798247 
Si 2.4503092424 8.0032282032 5.4863661835 
Si 1.0991579861 6.5920743603 6.8627643426 
Si 16.1009058273 7.9256715125 8.3120421381 
Si 2.4889979928 5.2899983584 8.2510076309 
Si 3.3925065610 7.1609048755 9.3841721920 
Si 6.5283967497 9.5550461974 11.6663142699 
Si 6.8538220827 1.5702696774 16.5141813179 
Si 13.3626708322 13.8434050266 13.3463970305 
Si 8.2030902150 13.8286625765 17.1218714478 
Si 0.6882948603 14.4325491720 28.0815625027 
Si 11.6133365862 2.0863743491 15.4523792829 
Si 10.1369412927 8.8797116612 19.3109446547 
Si 1.8974592174 6.0589189454 12.5856830045 
Si 7.1737739756 11.3338653437 13.1302963635 
Si 0.7875482022 3.7131915040 15.5521000983 
Si 2.2031573601 5.1160700268 26.5694705131 
Si 3.9392967060 12.2776753723 27.7012346649 
Si 14.0120553981 2.0185590785 15.8112341774 
Si 11.6324284664 1.4281622321 25.9940773237 
Si 1.6085316297 7.8189883015 24.2668474485 
Si 3.8169262249 9.3671247557 1.3628258586 
Si 16.1898655181 10.5219880262 29.0086626639 
Si 2.4249131322 10.7178101180 2.7238632778 
Si 1.0834690869 12.0411119901 1.2930475455 
Si 1.0935737740 9.3770127858 4.1397558980 
Si 3.7954885847 12.1420448310 4.0407061121 
Si 3.8768734255 9.4562962165 6.6424916228 
Si 16.0356643767 10.7177449580 5.5750004249 
Si 1.0635236107 12.1329875910 6.9335433649 
Si 1.7148320257 8.9097504215 9.2331322092 
Si 2.5702525135 10.7516444483 8.0647823633 
Si 4.1477924179 11.8723638786 9.3833261114 
Si 9.1165193934 1.1712917357 12.0640596989 
Si 6.9582735636 5.7164216923 20.1809197847 
Si 11.5775311659 9.3292993753 25.5553407462 
Si 4.3447710997 3.2705596199 13.1406243824 
Si 9.0774233930 1.8500227369 23.2778958746 
Si 15.4446957513 7.6200385297 27.1981959583 
Si 3.2485844097 5.1307310269 19.7162756343 
Si 0.4208309768 16.0924350272 16.6820262129 
Si 2.9802392373 9.8102779197 13.3787231462 
Si 6.8026551922 12.5297631246 25.1642472615 
Si 4.8574662744 6.1233458960 21.1829710210 
Si 14.3561002013 5.7724267128 13.9458889307 
H 5.2395808079 2.8775796563 14.2962246683 
Si 1.3078426620 3.7940387747 23.0979432739 
Si 16.0297185266 13.4392175429 2.7352065935 
Si 2.4848277527 13.4287756528 0.0147927865 
Si 3.8175452449 14.9084778163 1.3351852792 
Si 1.0841614119 14.8244865756 4.1160948152 
Si 2.4225673722 13.4485680030 5.4761840405 
Si 3.7784166646 14.8326315757 6.8000960245 
Si 13.3929213625 7.6374851199 18.1342507030 
Si 16.0889815471 13.4120621127 8.5123006744 
Si 1.3750014456 14.6309776638 9.8639290933 
Si 16.1694867279 0.2935979307 13.2923062196 
Si 12.0533132002 7.8657894719 20.1754056729 
Si 1.1174060442 14.8715158060 18.6232561410 
Si 7.9889418731 2.5697312335 27.1711505529 
H 4.8487348343 1.0416445115 27.8735725399 
H 11.3105380634 11.5428171756 22.0654623095 
Si 3.7790845546 1.3017974429 12.0351179058 
Si 1.0825698789 1.3664752595 26.0096860528 
Si 11.9772063195 7.8659197919 16.2173528873 
Si 4.8175557741 5.7983766830 23.5127853670 
Si 4.9208832450 13.5982405244 18.1688524839 
Si 10.3850054150 3.9508788961 23.9182330474 
Si 10.3297660245 7.8405073917 22.5198951418 
Si 12.0596011403 14.5284646929 19.6665902778 
Si 12.3753665032 0.6621819901 23.7782212881 
Si 15.3109059800 0.8944562152 27.1484230762 
Si 5.2854860283 0.0136241905 0.0967291909 
Si 5.1743067773 2.6241887040 2.9016481616 
Si 8.0065350732 16.2823601389 2.7479065557 
Si 7.4057272877 3.2681649899 0.1851968420 
Si 6.5789609102 1.4199227500 1.4613008932 
Si 6.5983460103 4.0477881070 4.1817390032 
Si 5.2248057778 16.1877315280 5.5029960444 
Si 7.9299720725 2.6993670547 5.5951896596 
Si 6.5324529597 1.3172859750 6.8821366719 
Si 5.2389943679 2.5907453337 8.3936743328 
Si 7.8228164515 0.1098029089 8.4180647956 
Si 6.8195153424 3.7009577138 9.7832596800 
Si 5.5703003909 2.6281145940 18.2673771163 
Si 1.9339488177 16.0729196070 22.2608485883 
H 3.3203744404 10.9226242899 20.6431423939 
Si 3.7619474744 10.8927158496 15.3360869569 
Si 12.5929520352 10.0749741321 15.5432308391 
Si 15.5706663224 8.2472524054 24.8300162313 
Si 4.0102722367 6.5017300195 11.5186586097 
Si 7.0966408249 0.2375815072 13.0376359452 
Si 5.7223512523 15.3776298206 19.5583794807 
Si 0.4596549342 7.7453249208 20.5101910318 
Si 9.9172054807 15.0844261080 20.7272544802 
Si 8.9001719014 6.2015704767 21.4900399449 
Si 14.9190337364 10.5928169469 24.8731663443 
Si 0.5515940660 2.0309720586 19.6509231982 
Si 5.4877100902 5.0114719358 0.1667966302 
Si 5.2093465676 8.0463967036 2.7521369590 
Si 8.0131488133 5.4212794696 2.8342359568 
Si 7.8938734322 8.0182801633 29.0682092362 
Si 6.6106449605 6.6960371412 1.4118226806 
Si 5.2686747482 5.3631893291 5.6392150284 
Si 7.9138938424 8.0634523337 5.5147536479 
Si 6.5766314401 6.7728119119 7.0243949211 
Si 5.1147668268 8.2378856553 8.2037729907 
Si 7.8667831619 5.3796259392 8.4526374013 
Si 12.5235566345 9.8580727802 27.7127588668 
H 12.8527938275 15.6400454330 27.1439009210 
Si 12.1171374208 7.7662412810 11.4281571558 
Si 1.2652915526 4.0644201972 20.6827623083 
Si 9.2822864349 2.8307784859 19.1676069232 
Si 4.2572775089 0.9862128990 24.6165996823 
Si 10.8948498396 15.9358066757 11.7295077416 
H 10.7575088484 14.9295733665 12.8498060419 
Si 10.6717257076 5.2076198276 27.2851672136 
Si 9.2150413143 9.3532619655 25.2615173606 
Si 13.5298876837 2.4213293321 27.1273294105 
Si 13.0969320598 14.7985203153 24.4026579797 
Si 3.7188115540 15.9258860657 13.7890139089 
Si 6.5542815599 14.6454268939 11.7072470681 
Si 8.8852991313 9.6620714984 22.9857938255 
Si 15.2268821593 3.7099172139 23.6635919482 
Si 10.5908458569 2.5449867233 13.4142877085 
Si 5.1457992771 10.8116730989 29.1658294376 
Si 8.0174005033 10.7449818383 2.6637040264 
Si 6.5661243901 12.1315540710 1.3733931141 
Si 6.6292318506 9.4093484361 4.0475622829 
Si 5.2536879480 10.8323288191 5.3417447435 
Si 6.5553241200 12.2372435919 6.7442838771 
Si 5.8394763534 10.1092320025 9.5025943072 
Si 7.7133476505 10.8591910293 8.2358948800 
Si 15.5516721822 9.1374031736 12.7817111375 
Si 3.7301982641 15.0735606779 25.2242022866 
Si 5.1383221670 9.7514547292 19.2536153971 
Si 6.4160446187 9.4214193262 27.7988256911 
Si 6.8421584426 5.4155128095 13.6832246530 
Si 14.6905664844 9.6771723285 18.1922509900 
Si 4.2444735688 0.7104199385 18.7343261071 
Si 10.9870349505 11.2439608328 14.3015929041 
Si 9.8277082199 11.4420635246 21.7883854857 
H 12.2354842719 13.3863076224 16.1664129974 
Si 1.1086029281 8.8011775705 27.9026310338 
Si 0.2153375120 5.0574423163 11.1758792474 
Si 8.5472490482 5.4453072198 23.6826141752 
Si 8.8441994609 13.4907916834 22.1507705788 
Si 1.0150364253 2.0536640288 17.2925171615 
Si 5.1872084574 13.5280469137 2.7071896541 
Si 7.9837616530 13.5154384536 0.0675391169 
Si 6.5855420702 14.8897443162 4.0579194770 
Si 7.9563781628 13.5920340343 5.4813480500 
Si 5.1930402775 13.5588675940 8.1347736553 
Si 6.0415375153 15.3220809201 9.5221416877 
Si 3.9333834360 8.2198526252 20.6610851386 
H 12.9223032582 10.2182935535 12.1512643558 
H 6.1151357359 1.2103128021 12.3698449143 
Si 10.6670830576 0.6852551463 22.0399048390 
Si 14.7570622650 5.6351671715 18.1042877781 
H 6.4447150189 8.9675310520 19.2099984811 
Si 16.1087250273 16.0014227963 23.2747741288 
Si 2.5894910037 13.1351646901 18.0898168815 
Si 1.5585262163 15.3627733405 26.1032800774 
Si 13.9934033480 7.3550328073 23.2485748040 
Si 15.7521857941 13.5992993744 19.8178636621 
Si 14.6832359843 13.2607605913 16.5707228452 
Si 2.2793131108 10.9311602500 21.7344405507 
H 11.1123213416 8.2798324057 12.7512230591 
Si 15.6574920232 2.4582424725 14.1685248412 
Si 6.7039866613 15.0243160074 27.9414340427 
Si 9.3128138952 4.0022901366 1.4589522900 
Si 11.2252110427 15.6252704029 0.1535394218 
Si 10.5564087965 2.5146221630 2.8230822799 
Si 11.9926166597 1.2069586910 1.4532689621 
Si 9.2691404048 1.2501190464 4.2998693664 
Si 11.9815557496 3.9273724259 4.1256642790 
Si 9.2704761848 4.0727280972 7.0104783533 
Si 10.6159813271 16.2127855483 5.7213140262 
Si 11.8981183688 1.2742950357 7.1892347711 
Si 8.6134841888 1.9360339377 9.8506835549 
Si 10.5034500061 2.7241278549 8.5284053818 
Si 12.0339118101 4.0390892469 9.8106551878 
Si 0.8470800077 7.8214318015 15.8215621963 
Si 15.8602047851 5.7875438329 15.9416764728 
H 8.9069648315 8.4528322073 20.0922855433 
H 6.0821159056 8.9080725515 21.6790952064 
Si 13.0114747190 1.8444189769 19.1944772775 
Si 14.6660011641 14.2288915901 22.8671674840 
Si 13.7712240359 3.4911262219 17.6838732228 
Si 9.4546672165 8.2129456651 13.4001669143 
Si 9.6927944386 14.7199699346 15.4863100343 
Si 14.3103904609 15.8083862946 16.3461030214 
H 7.4129111778 2.4972570228 15.4456106377 
H 2.5303908831 2.0000047683 17.4804637656 
Si 8.7694283602 6.0082407549 16.7869402129 
H 4.1604660381 0.1460768296 17.3230052399 
Si 11.2865754732 4.7523957735 0.2878637686 
Si 10.7316240381 8.0285754434 2.6357279322 
Si 12.2273392718 6.7022273413 1.2583086412 
Si 9.3892465759 6.7574667318 4.1796092140 
Si 10.6800661877 5.3059462685 5.5486260489 
Si 12.0531665902 6.6302418306 6.9505816786 
Si 9.2395903445 6.7729585219 9.7751198007 
Si 10.5148855862 7.9421244126 8.1525996992 
Si 8.0814202039 11.6318420264 18.0637634327 
Si 10.9470267101 5.7279713024 11.0708485466 
H 0.8352779026 12.8531684976 23.8625959511 
Si 8.8457958809 10.2507758138 14.4296720088 
Si 11.5287426154 13.4325549328 14.8321729945 
Si 8.1663073947 7.1955374158 25.2604670536 
Si 0.2654927934 0.1896889067 10.9661095977 
Si 6.0590655554 13.9858447879 16.1082084840 
Si 4.6940938629 4.7665192036 17.7527850327 
Si 1.7941480364 11.7283765673 12.4451752670 
Si 11.8330398182 4.1624371281 16.5943255777 
Si 6.3033341076 8.1851386349 16.5404389931 
Si 1.4609311964 15.3924700108 14.5873055856 
Si 11.9045203389 12.2758997623 19.0194844599 
Si 8.1424751245 0.2667340914 26.8430171383 
Si 10.1995437633 4.7493984134 18.1681522792 
Si 9.3973427059 9.3979780160 1.1976038137 
Si 10.8140025689 10.8813617195 29.0769034442 
Si 12.0347751801 12.1695912213 1.4748440186 
Si 11.9938221197 9.3986784860 4.1333373552 
Si 9.2819443449 12.0964491206 4.1993024704 
Si 9.1692664139 9.4439646864 6.9244990546 
Si 10.6404651973 10.7505041483 5.5917469866 
Si 11.9731663995 12.0806152405 7.0643649378 
Si 11.8388716383 9.2127444243 9.5540301754 
Si 9.0533793528 12.1285078409 9.6709351805 
Si 15.0490605176 12.5937665352 14.3723135760 
Si 7.9713812529 0.0644377020 24.5137862963 
Si 10.0699731021 3.2001053693 26.2231026019 
H 0.8574893178 9.8040062697 10.3995273171 
Si 16.2092831982 10.8131229089 11.3144905973 
Si 1.7686216062 11.7879165178 16.2564768233 
Si 7.8468116218 10.8395941591 26.5039722010 
Si 6.6526731608 6.2173391969 17.8723741556 
Si 8.5072896778 14.0387709984 24.4215926811 
Si 6.0534129254 0.5132034227 23.1660673534 
Si 3.8647373753 5.8188206332 15.7948960684 
Si 13.4121598527 9.0895431531 21.7612817298 
Si 4.3764714400 9.3750091157 17.0405310050 
H 14.7065958445 12.9339180283 18.9428120483 
Si 9.3980757560 14.8094997754 1.4635269606 
Si 10.6696731676 13.4604108331 2.9139775989 
Si 11.9835431296 14.8423729957 4.3319329054 
Si 9.1883582940 14.9128924064 7.0684786403 
Si 10.5285691863 13.4785090233 8.4000053501 
Si 11.8615961885 14.7430202848 9.8875026506 
Si 13.9735947078 16.0039314564 13.9019219123 
Si 11.8530602284 4.2972205893 21.8695508773 
Si 11.7518667475 11.2030729325 12.0717619503 
Si 9.9216037807 11.1840299223 19.4788187248 
Si 5.7100685922 11.5847639260 23.3114473485 
H 8.8193735007 15.2105269991 14.3352319036 
Si 16.1174075974 5.3857021093 27.1792029066 
Si 14.1397689993 15.2569046295 26.4285543228 
Si 2.8284164359 7.5956686895 16.9535889249 
Si 3.9258737459 6.2959221576 27.8853009681 
Si 8.6205540488 6.4079484886 27.4206568177 
Si 11.9117042289 7.3420822571 24.3078969474 
Si 9.2991465850 12.2003793216 27.7833044875 
Si 2.1025828992 1.6392952950 23.8141943032 
Si 14.7745903051 13.4342653829 27.7572218635 
Si 13.3285432819 16.2870679490 3.0081959726 
Si 12.9503057684 2.9954215174 0.2106306097 
Si 14.7069053545 3.8989137957 1.5343468281 
Si 14.6669948541 1.2594320395 4.4504133709 
Si 13.2287507410 2.6368297441 5.7189508354 
Si 14.6676790341 4.0145565067 6.9743302871 
Si 13.3050368117 16.1253571175 8.5165019024 
Si 14.7836638352 1.2378445313 9.7416558524 
Si 14.9040469363 3.9333997260 12.5405781536 
Si 7.1207011551 3.3238442104 20.0348104097 
H 9.4073936360 13.4899608934 12.4321631301 
Si 0.1264578051 11.6757109968 21.1242413541 
H 0.4513258571 15.2914068499 24.8472879466 
Si 14.7494222549 1.1352908354 20.6196855374 
Si 4.5172007513 13.9526294776 12.7156293216 
Si 5.9196394441 7.6529932000 24.5834566612 
H 6.8014497322 4.2267989187 14.6081366746 
Si 8.1428660845 9.6972090287 16.5840267340 
Si 1.2735570986 8.1563867846 13.5517320506 
Si 2.3527810115 7.2437721062 19.1946815039 
Si 14.1653442996 15.0631350778 20.7630232688 
Si 0.0314053284 9.9323877608 16.4698933724 
Si 3.0030941075 13.1465188202 11.0510969398 
Si 10.4266752354 15.9204614956 27.0920566001 
Si 6.6125183105 12.8926717479 21.5714095629 
Si 2.7601450452 11.3855698041 25.7898801362 
Si 2.4699386926 2.8576244061 27.2002382219 
Si 13.4083642826 5.3741687892 2.8318202507 
Si 13.6027528544 8.0878384640 28.8827133485 
Si 14.7160929146 6.7077007813 4.2243347874 
Si 13.3387245320 8.0582721137 5.5761090823 
Si 13.4524613130 5.3778829092 8.4849635170 
Si 15.0566679477 6.5075292595 9.9457946895 
Si 13.4768148633 2.6601244443 11.1386516990 
Si 2.0456493487 8.6146244888 22.0857390698 
Si 5.4991782503 7.0991006149 14.6098288359 
Si 8.7583348701 0.9800748270 17.8236515805 
Si 14.1426686193 5.2043618276 22.1710765142 
Si 10.1319728427 10.3251722444 10.6567941838 
Si 6.5189159696 4.1758600882 23.8185414072 
Si 12.4325606937 1.1789382618 12.6579791369 
Si 10.1366317827 13.7120913354 26.1129662420 
H 16.0885742971 13.0335150892 17.1470788160 
Si 12.2183309017 5.8012763031 14.9164601319 
H 7.6158682897 5.2740830282 27.6423882972 
Si 12.9695768386 13.0588949094 11.1719114210 
Si 3.4333293014 14.3659719414 23.0038824462 
Si 12.1017107907 5.2794587283 25.4120321899 
Si 14.7602551050 9.3634106356 1.3324836562 
Si 13.4080547726 10.7366250682 2.7602272405 
Si 14.6967566844 12.1082267907 4.1988648424 
Si 14.7039242845 9.3606902056 7.0082026881 
Si 13.3622961622 10.6777204277 8.4490488523 
Si 14.7115805845 12.0202770799 9.8950882012 
Si 5.3864677393 12.4293678537 14.3821456166 
Si 10.6925443278 4.9258842751 13.2833494348 
Si 4.7718297436 8.1367410444 26.5776687428 
H 2.4347360023 12.3950774034 19.3937146820 
Si 5.3102305386 13.7868461461 26.5005587033 
Si 2.6213705340 4.5207519713 14.2627023696 
Si 6.5180200196 9.3937426159 23.0386301031 
Si 13.3121718317 11.4309211645 17.3953013723 
Si 12.7216593263 10.6898238978 23.9655843883 
Si 8.1877776149 12.9564633885 11.7293035152 
Si 9.8072805597 8.1089177242 17.1438111942 
Si 14.7790537652 10.2790226740 14.6706007664 
Si 11.1920120224 2.4122720921 20.5702044072 
Si 14.5507168331 1.5204304219 22.9829638317 
Si 5.4150241095 14.9146517264 21.8445477354 
Si 14.6187764537 11.1335797918 27.2508571847 
Si 13.0562070594 13.9284062474 0.2718638000 
Si 14.6594688741 14.9996040772 1.5872998065 
Si 13.3576046422 13.4365948529 5.6760341240 
Si 14.7063026245 14.7738083851 7.1143420463 
Si 15.7193125738 5.5872419911 20.3443008749 
Si 15.8317298648 12.2653275522 23.3371215198 
H 1.3647468905 11.9176663690 26.0338139388 
Si 6.2667793473 3.6445454433 26.0781018844 
Si 5.8063913631 16.1575298678 15.1195486621 
Si 7.0175202942 2.4685377526 22.2688425916 
Si 14.3197409210 4.2687782490 25.8500102124 
Si 6.1017127758 11.9335979891 19.3886381981 
Si 1.9728167580 1.7704135062 10.6785588790 
H 12.8053084771 12.5653404849 26.3785480391 
Si 2.6172491639 9.0621433729 26.0524568882 
Si 12.5011415943 16.1477558677 17.9464791501 
Si 2.5060210429 5.5623182909 24.2659138423 

