&CONTROL
  dt          = 30.D0,
  prefix = 'aSiHcSi_merged-22',
  pseudo_dir = './',
  outdir='./',
 wf_collect=.true.,
 verbosity ="high",
/

&SYSTEM
    ibrav= 0, nat=  388, ntyp= 2,
  ecutwfc     = 42.D0,
  nbnd=1468,
  degauss     = 0.05D0,
  occupations = "smearing",
  smearing    = "methfessel-paxton",
/
&ELECTRONS
  electron_maxstep=200,
  conv_thr    = 1.D-8,
  mixing_beta = 0.3D0,
  scf_must_converge=.false.,
/
&IONS
/
ATOMIC_SPECIES
Si  28.08  Si.pbe-hgh.UPF
H  1.00784  H.pbe-hgh.UPF

K_POINTS {automatic}
2 2 2 0 0 0

CELL_PARAMETERS angstrom
16.29000014898320 0.00000000000000 0.00000000000000
0.00000000000000 16.29000014898320 0.00000000000000
0.00000000000000 0.00000000000000 29.19322770525465

ATOMIC_POSITIONS angstrom
Si 0.5017857616 15.9619847060 29.1479490091 
Si 16.2540806987 2.9484248670 2.4839262146 
Si 2.6161740239 0.2754932245 2.9080220721 
Si 3.3007775702 2.2572075806 0.0595179849 
Si 1.4133024939 1.4584681483 1.2686676123 
Si 4.0128297667 4.1744265682 1.3222430238 
Si 1.2306036263 4.3463023597 3.9509822444 
Si 4.0285659068 1.6165023268 4.2279675889 
Si 16.1783159080 0.3100997008 5.4047757909 
Si 2.6035329838 3.0561832180 5.4077243069 
Si 1.2722653016 1.6742699253 6.7572104508 
Si 3.9216709259 4.4364838006 6.8002704617 
Si 16.2248890184 3.1221740086 8.0523971912 
Si 2.6357871841 0.3130009499 8.1465453505 
Si 1.1084563181 4.4974084011 9.5738022530 
Si 3.9145359058 1.7843903263 9.4886456078 
Si 14.4899877125 11.0030154406 25.7800722949 
Si 11.0112581807 8.1500499745 19.4644969928 
Si 0.0514615766 0.3195299819 10.6416905225 
Si 6.0930464957 15.7385673539 22.7450275697 
Si 2.5105659530 6.0882409457 13.7398801992 
Si 11.5230736954 3.2328482696 16.4281677656 
Si 2.5208449431 13.9940386580 10.9761573323 
H 0.1517191970 5.1452454171 27.9139804672 
Si 1.1073176471 12.7881062370 22.6020975269 
Si 1.6364771250 1.2690659456 12.1240934321 
Si 12.2181191317 5.3486912289 17.2861859211 
Si 11.1064080716 14.3195454410 16.2949590676 
Si 0.9225776424 12.8087456671 12.3496695026 
Si 9.6549038983 12.8593261176 11.8331537248 
Si 6.5410866598 3.7677792945 27.9355250693 
Si 2.2748007808 3.1646257489 27.3418515906 
Si 15.8872298953 5.9169190141 29.0681347245 
Si 16.1708387979 8.3831435867 2.7059669852 
Si 2.6017410838 5.6802090219 2.5542118296 
Si 1.8414541968 8.8867978113 28.9677392145 
Si 1.1955149659 7.0716193847 1.1936497751 
Si 3.9072216957 7.0942136149 3.9812264283 
Si 16.1952737981 5.7075110622 5.4280427934 
Si 2.6180473739 8.4447686572 5.4921219282 
Si 1.1888230339 7.1127027651 6.8435640183 
H 8.9264965416 0.1049730868 21.7139519604 
Si 16.0395088167 8.4424228972 8.2400220656 
Si 2.5566503634 5.7775906428 8.2127847842 
Si 3.8445377752 7.1737088156 9.6023532297 
Si 10.8134649989 3.1499647488 26.5825649313 
Si 2.7657488053 11.3287828636 26.5536344426 
Si 0.1106853382 10.6214547671 22.4376812684 
Si 16.0703132070 5.8912785539 11.0339015367 
Si 8.8271764107 9.9632736011 24.6682482177 
Si 7.2580910164 12.9980680489 18.7019406919 
Si 15.9018094454 3.2263485595 24.2034044530 
Si 14.7321222747 15.4394340812 11.7816568711 
Si 1.0075283642 7.3692702674 12.4603702221 
Si 10.8030068188 4.4416803106 20.5880567475 
H 5.4585672799 2.6969724247 27.9352039438 
Si 5.0219464059 10.4717985358 20.8153552184 
Si 10.5009250560 5.9001728940 18.7779306636 
Si 9.9987858014 1.4067653169 13.3961591362 
Si 8.7007660096 6.6158251805 23.2366999107 
H 8.9242811016 15.3334024702 19.5235256992 
Si 5.8086556731 7.4696003783 19.9230934068 
Si 7.5955546595 8.6755490893 22.9921190490 
Si 3.9142915558 9.9173032207 1.2179502178 
Si 0.3153239039 10.7874661587 0.0572365342 
Si 2.6491938542 11.1776605322 2.7655153310 
Si 1.2905263918 12.5053607044 1.3848011915 
Si 1.2571530685 9.7676144093 4.0698862608 
Si 4.0179448267 12.4749309841 4.1928773292 
Si 3.9876942965 9.7875533695 6.9568045486 
Si 16.1711808879 11.1101384816 5.4387859012 
Si 1.2708220076 12.4354114437 6.8660428037 
Si 1.0127493093 9.9208055707 9.6220294652 
Si 2.6185849439 11.1620547121 8.3883528556 
Si 3.9871241465 12.4371381837 9.9701003191 
Si 4.1332128678 6.4439330989 22.6833422796 
Si 16.1662775979 0.2506770383 26.8907578361 
H 4.0995577275 1.7051394756 13.0179024848 
Si 14.3536404113 11.6744729568 15.6128884955 
Si 1.7414173059 0.5606203551 18.2145889486 
Si 3.8222041850 10.9340435800 14.1206182749 
Si 3.5870091628 4.5594244317 12.2908743420 
Si 0.9403435166 15.7073882937 15.0655738625 
H 3.3383911805 12.8464733075 23.9037943570 
Si 8.1616321646 0.9317635735 17.2567883408 
Si 14.4991264026 6.8975933131 14.9029383909 
Si 1.8437510869 9.0858453231 22.8584724526 
Si 9.9908362814 15.1142042282 24.1628550597 
Si 11.6387815664 4.1961411384 13.1749328566 
Si 16.1618792978 13.7953332362 2.7450771523 
Si 2.2799484209 14.2530659504 0.1461106450 
Si 3.9259226159 15.2440192394 1.5231216236 
Si 1.2516633384 15.1428583385 4.1648226373 
Si 2.6593099443 13.8346735865 5.5664770792 
Si 4.0700891172 15.1284091084 6.9961862128 
Si 16.1014271073 13.8146531763 8.0909030585 
Si 1.2705890606 15.1354952584 9.3582686529 
Si 15.8916607753 11.3093651834 11.0149551319 
Si 10.5902594169 2.6554329243 24.2989246940 
Si 13.9627618577 6.5877738002 21.6797083043 
Si 12.4146254035 14.6883347543 14.4215712593 
Si 2.4682771126 3.0763013681 10.8649895212 
Si 5.5891153411 12.7723863868 20.5082424629 
Si 4.2836510192 14.8740244660 13.9569902336 
Si 0.9831731850 1.7466463960 14.3785988281 
Si 2.5468112033 7.5169554087 21.2477361139 
Si 12.9467708384 8.8267365807 18.0706955292 
Si 7.2330369962 2.8340201959 18.5210594530 
Si 5.0557807362 0.5158130807 0.1862665136 
Si 5.3786159592 2.9704000772 2.8343033335 
Si 8.0738127738 0.1784048236 2.7795164030 
Si 8.1452444245 2.8331731159 0.1228486054 
Si 6.7059903313 1.5704097714 1.4930292445 
Si 6.7121316614 4.3441520797 4.1667493904 
Si 5.3869238593 0.2510956913 5.6280164032 
Si 8.0447839936 2.9638026271 5.5565513817 
Si 6.7379187316 1.6370309850 6.9926246390 
Si 5.3033398685 3.1128398385 8.1881748932 
Si 8.1463195645 0.1626866025 8.2678724049 
Si 6.5142081596 4.3198962695 9.8295933142 
Si 3.3714273008 4.7095367831 25.9871690522 
Si 9.4356567863 11.9344776491 18.8302741209 
Si 0.9577819618 11.6880588169 18.7083340088 
Si 3.6871600837 1.3681694195 17.1582611973 
Si 0.3479299682 10.9620460903 26.8751394593 
H 9.4141214061 10.5592106766 21.7703824696 
Si 2.2525812206 4.4770784809 19.2571083032 
Si 1.7227652558 5.0565300762 15.7259830596 
Si 11.0292586309 6.6749253010 23.5002271772 
Si 11.9470046593 8.1785737648 25.0458334249 
Si 0.6249984357 15.9650309360 22.0266406223 
Si 10.7038984579 5.4485489298 27.3006015599 
Si 1.0354803755 5.7486921826 20.7889937338 
Si 7.3786533075 3.4182773413 22.1430340212 
Si 6.0673082955 12.8086153471 24.7903342960 
Si 5.4058039694 5.4509761399 29.1130339087 
Si 5.2630872781 8.4230540870 2.5455064091 
Si 8.0290152734 5.6834181520 2.7309972586 
Si 7.8707090520 8.1954990750 28.9236574406 
Si 6.6438114008 6.9328774534 1.2724131034 
Si 5.2751418782 5.7538235326 5.3906462687 
Si 7.9523382427 8.3951493168 5.4047757909 
Si 6.6480630908 6.9820080939 6.8509499050 
Si 5.3912569993 8.3931456468 8.2864684909 
Si 7.9672273029 5.6221514614 8.3560943390 
Si 2.3778024517 5.8451289835 24.2226427900 
Si 1.8044433165 15.2651799496 19.9131969026 
Si 15.9411823758 14.4406127221 13.4908327736 
Si 9.3750254057 2.2568654906 11.2884664823 
Si 0.0734281531 10.4230588553 15.2590081893 
Si 5.7742023228 16.1905985681 20.2429927960 
Si 12.9759299387 11.4212774845 13.6749836540 
Si 13.8580497367 2.2727482408 21.0927784613 
H 0.5006927026 13.4387125529 26.2365959897 
Si 8.4739766275 15.9575212459 13.7167883560 
Si 12.1547836112 15.0661487278 19.9769257187 
Si 6.3443360380 15.5265041320 27.7804506437 
Si 0.7793347841 2.6738894945 18.4692706671 
Si 9.0030595423 9.5526189874 19.1165137185 
Si 5.0110809758 16.0832800471 15.8856992084 
Si 4.9328563951 11.8210177981 0.0679235910 
Si 7.9838268130 11.0722805213 2.5132332959 
Si 6.7014942913 12.7088716762 1.3433146956 
Si 6.6155645405 9.7679076293 3.9894589185 
Si 5.3806684992 11.1081836816 5.5651925771 
Si 6.7403133616 12.4134036535 7.0613454970 
Si 7.2215688360 9.2105778542 9.6442163183 
Si 8.1901722449 11.0163895308 8.3855503057 
Si 0.5059364536 8.5923397686 26.8398156538 
Si 10.0628217920 3.4061575812 14.6404036942 
Si 14.3791668415 14.0226113182 20.0356916861 
Si 7.0216579542 0.8658916999 15.1464391032 
Si 11.9224882090 0.8529623268 21.1524494187 
Si 13.3827401124 2.0755577890 15.4997939314 
Si 9.0573052428 11.6754177768 13.8097687863 
Si 12.2494285120 15.3698594906 27.6426294157 
Si 0.7068475415 9.6666489884 17.4002730550 
Si 12.2697095622 9.9663361211 22.8020711367 
Si 14.5090470127 14.3902277516 24.2350791050 
Si 1.8754677172 14.8509089558 23.7264454987 
H 1.4471759202 1.6106981997 21.5485431322 
Si 1.1151661692 1.9803427381 25.7049289268 
H 11.9470861093 6.2060828068 26.8669069691 
Si 5.3303649787 13.8845698570 2.8255570425 
Si 7.8917394422 14.0435439684 28.9529674412 
Si 6.6939846012 15.1906369089 4.2058099290 
Si 8.0041730232 13.6910283652 5.4643591686 
Si 5.3969422094 13.7794179060 8.5302319422 
Si 6.7784319620 15.2821704198 9.8249223977 
Si 5.4312326597 0.6338569378 10.8812793423 
Si 6.7927020021 13.4875662634 22.5629786017 
Si 14.4579941522 4.8618971545 18.0848834379 
Si 5.1610304272 4.2984260493 22.3761419444 
Si 15.7618294742 15.3971941108 16.8827063210 
Si 6.6615349209 2.8455698060 13.8356923725 
Si 6.1705868964 9.0934364632 27.4543330970 
Si 2.8969484665 6.0513115153 17.4933994514 
Si 11.9609651894 15.9750004161 17.8098248465 
H 3.2460268797 9.4850480667 11.7356775375 
Si 12.6295067955 7.4493844881 16.1872068641 
Si 0.9690627869 7.7128263705 24.5963161046 
Si 8.8577527410 8.1405854845 14.9459984018 
Si 7.0023543040 2.5025512729 11.4576412368 
Si 13.0501960494 11.1353391118 17.5679005685 
Si 10.9957663906 10.8506061992 14.8679649041 
Si 9.4196437161 4.2615780690 1.4683025807 
Si 10.8145401389 0.2560136423 29.1106984505 
Si 10.7223876081 2.8789643063 2.8354623046 
Si 12.0783020605 1.6526530951 1.3329219065 
Si 9.3705456557 1.5492083362 4.1954755264 
Si 12.0776830405 4.3642376499 4.0812716197 
Si 9.3985807460 4.3079068294 6.9365152554 
Si 10.7782460186 0.1029888018 5.3916972249 
Si 12.2110004017 1.5682855553 6.5781391921 
Si 10.0472322619 1.0236603514 9.3849220698 
Si 10.8711804694 2.7849384255 8.0321370911 
Si 12.1208189609 4.0935630074 9.5142480685 
Si 13.6319771147 1.0917330040 12.3029311451 
Si 3.9006894057 3.3486864606 20.5943624847 
Si 4.0953060375 15.6916358635 24.2368890851 
Si 6.4326929988 9.5308066772 11.9022832880 
Si 5.1122744568 5.8151065132 11.0252311481 
Si 8.0424382336 4.5351360415 14.6642837544 
Si 4.1445018379 14.4759783124 19.5367210381 
Si 2.4533554724 2.5257156531 22.2534428084 
Si 11.9634412694 7.9102611723 21.6514492599 
Si 3.6254209832 13.2009762907 27.7145323355 
Si 13.8021424562 0.6654676831 26.5976286368 
H 12.4045907634 9.4188617961 28.5787686485 
Si 6.0670150755 13.4467598130 13.1080511719 
Si 13.8758547069 11.8025612279 19.6512460704 
Si 10.5489153965 13.2712024814 20.5565280616 
Si 11.2609187230 5.1319039069 0.3023659366 
Si 10.6455639674 8.4105270769 2.5293479575 
Si 12.1653069513 7.0240525842 1.3557568492 
Si 9.3755141057 7.0796503547 4.0524870971 
Si 10.6944176778 5.6956356521 5.4848236213 
Si 12.0290736800 7.0562253345 6.8649918475 
Si 8.9201597316 7.4552488882 9.5421567942 
Si 10.6073313370 8.4480103673 8.1447937569 
H 5.9852066947 11.0928222115 28.4399840440 
Si 13.1317275001 2.9078627666 27.0164638746 
Si 9.7109252088 6.5687145001 11.6126280827 
Si 3.2031353093 1.6070345787 24.3512097648 
Si 14.3602867313 9.9886371314 12.3114555675 
Si 9.2831498049 12.7496292566 27.4032741417 
Si 14.8443440858 7.4699424683 27.6269526524 
H 0.7231228806 2.9425767569 16.9604770796 
Si 15.4775201016 14.0540998885 22.1061045882 
Si 2.8126640057 8.5188392879 17.5238771811 
Si 13.0350789292 8.7316518499 10.8512103177 
Si 6.7334715616 6.7204884315 17.9214305560 
Si 9.2706553748 9.7017702287 0.9856801402 
Si 10.4910533159 10.9735957004 28.5111571331 
Si 11.9581958894 12.3078607426 0.9835636312 
Si 12.0531340102 9.7408825191 3.9189572736 
Si 9.3352940954 12.4245948836 3.9291749033 
Si 9.3358153754 9.7886447995 6.7080782486 
Si 10.7151548480 11.1105783116 5.3087884582 
Si 12.0865448005 12.5197447745 6.6441742731 
Si 11.7500911375 10.1178494125 9.3642532646 
Si 10.0366926318 11.9400976992 9.6314004913 
Si 7.1676163556 9.2474095446 20.7300526070 
Si 4.7773031837 3.4377113114 24.6013957263 
Si 3.8269119950 8.7243050598 19.6628065886 
Si 11.9564039893 13.2907504816 12.5455268673 
Si 4.4048486203 14.0360994384 17.0883434170 
Si 11.1395745119 8.4860312276 14.6374843714 
Si 8.6515864991 5.1575443672 21.3356369226 
Si 5.3810920392 8.2025363550 23.6388366224 
H 2.1098319493 12.6522476357 21.4911784398 
Si 8.8746780512 14.8467387158 15.7245817847 
Si 11.7047234870 7.5797207793 12.4533346542 
Si 4.5257530014 7.1166612351 14.5049471176 
Si 6.0146753050 7.2753095465 12.6594096486 
Si 9.4506598764 1.6310199749 27.7979957735 
Si 8.0262622634 1.9100513875 20.5099940566 
H 12.4482153838 12.1023461007 24.0406230153 
H 1.3107308790 3.8897099456 28.2208304836 
H 9.1983440641 15.6537941932 21.7668500890 
Si 9.3627916156 15.2038643890 1.2204754320 
Si 10.7072379079 13.7181675055 2.4729612382 
Si 12.0904055306 15.1432818785 3.8318738754 
Si 9.3659192957 15.0462586376 6.7952492265 
Si 10.7669733385 13.7367869756 8.1616090560 
Si 11.8169290081 15.5151174219 9.3197627855 
Si 0.1098540595 14.0084064381 18.7208287102 
Si 4.0329967869 9.9955929614 22.9692899449 
Si 4.0271160968 11.6709543167 24.5628898589 
Si 15.3257787502 6.4711373992 19.7379499567 
Si 13.6638403550 0.2848176206 24.2713370938 
Si 14.5179902228 13.9968079580 15.3101547242 
Si 14.5166381528 9.8901152105 23.6858085257 
Si 1.1338003004 4.4251133805 22.8262723224 
Si 1.7406679659 11.9239217291 14.3677389474 
Si 2.3773789117 8.5308450180 10.9266164249 
Si 5.8699712337 7.5139580487 25.7933844067 
Si 13.0056754789 12.8330014774 25.2368739070 
Si 10.4521853756 1.5312974810 17.7770992382 
Si 15.7106788737 8.6443211591 13.7578340342 
Si 13.1744724605 5.8972569839 13.2367641129 
Si 13.5443857839 0.2625394164 2.5554992509 
Si 12.9769236287 3.4674242717 0.1136594531 
Si 14.7756491551 4.3992285702 1.2891116297 
Si 14.8961788662 1.6415596050 3.9245039869 
Si 13.5393195938 3.0088933475 5.3089928108 
Si 14.7563455050 4.4140850504 6.7815284095 
Si 13.5008263235 0.2982324357 8.0583818028 
Si 14.9685064669 1.6765179453 9.3281120487 
Si 7.8364023117 14.4995499426 11.8740826301 
Si 14.7398600248 2.5874221737 18.8864710842 
H 12.9699026386 13.0127290490 22.1406401765 
Si 7.5246279988 13.0755758696 14.9758922670 
Si 6.3400843480 10.0519563619 16.0974960754 
H 13.7196498955 10.0794375922 26.7295236395 
Si 10.0858721422 11.1004622215 23.0283186514 
Si 10.9898694105 12.0517819402 16.9783433350 
Si 15.7660485842 10.5546494765 20.1755856332 
Si 13.1818192506 14.1071727090 10.7003397169 
Si 9.2860494249 13.3838967024 22.6241968002 
Si 4.2230847986 9.1338356635 15.6204203483 
Si 10.3267849544 2.1878121800 20.0493833099 
H 14.2591747004 12.9773145887 28.1685746060 
H 4.6010453821 11.9203705090 14.9888248668 
Si 13.9263211274 4.3347201696 25.2533096942 
H 7.7227306906 4.9003741348 16.0904897008 
Si 15.2603092396 3.2200931994 14.4459767977 
Si 13.5114636936 5.7353506725 2.7829378493 
Si 13.4167536327 8.4784563775 29.1833020078 
Si 14.8244214156 7.0979114449 4.1458178461 
Si 13.3620029422 8.4278759271 5.4341149847 
Si 13.3693823123 5.7011416721 8.2670549945 
Si 14.5754939233 7.1990886358 9.6711032810 
Si 2.6145938939 13.9657917977 15.3903485207 
Si 5.0290162660 5.8658172836 16.4782925376 
Si 13.6850662252 2.9005811365 10.8318552078 
Si 12.2975165925 11.8933128188 21.3517515843 
Si 4.9834042656 14.4614802123 26.1676999723 
Si 7.9458874027 0.1698639766 24.2480117049 
Si 9.0299217526 7.0808883948 27.0987011971 
H 14.8451097158 1.5729705594 13.1146488414 
Si 15.2317854493 1.3818644226 22.8297463165 
Si 7.6968784604 6.1066160658 25.3518952241 
Si 2.7516742452 2.8716500963 15.5259218702 
Si 13.8461580366 6.7406554516 25.6039203589 
Si 0.2381516572 14.7042500845 25.4461893496 
H 2.3665623516 11.6984029670 19.2430663607 
H 5.3417516889 4.4614726608 15.9804020391 
Si 4.3996684002 6.3650894982 27.2103069066 
Si 6.1484650762 12.3638657631 16.7426664077 
Si 14.8575552759 9.7742607294 1.3068231609 
Si 13.3958372725 11.1486480420 2.5460639997 
Si 14.7706155451 12.4291886637 4.0305337899 
Si 14.7584794950 9.7731367194 6.7814992162 
Si 13.3864542324 11.1847466823 8.0577687451 
Si 14.6095726036 12.6084926953 9.4932873310 
Si 12.0122949799 4.4639976108 23.7751689958 
H 6.9345390334 10.4250136553 26.7448500841 
H 3.3638524508 7.3718440874 27.6754717969 
Si 8.1679201047 5.1219344268 18.9163065629 
Si 5.0727223364 1.9560706379 19.0889845048 
Si 8.1217705343 6.5146479896 13.4142297441 
Si 6.9287560834 3.8667736254 25.6067229088 
Si 12.1579275812 0.6909892263 14.0021229636 
Si 10.2140418634 9.0576310428 26.4377373286 
Si 7.7695318611 0.5587991331 26.5371110757 
Si 3.4868908219 15.9356926457 12.0380026036 
Si 5.0162449059 11.4749530349 12.0643348950 
Si 3.8497342852 9.6699721484 27.9269714535 
Si 12.9167320781 4.4071292203 21.6583388616 
Si 13.4122901727 13.8530487067 29.0694776130 
Si 14.9237904165 15.1188957483 1.2311280408 
Si 13.4329947629 13.8722709069 5.2910681690 
Si 14.7988786953 15.1932595990 6.6986488360 
Si 10.4848142459 4.3884608801 11.1687742487 
Si 7.5642126992 15.4098677309 18.8284641408 
Si 14.7499924049 4.4018349703 12.3267820121 
Si 7.9372374126 8.5986765786 17.1328338960 
Si 15.6367222730 5.0614822363 15.9441732435 
Si 15.2625735496 8.6558056092 18.8260702961 
Si 4.3627226799 2.9824383873 13.8175925713 
Si 7.5881915794 9.8845766104 13.9612524449 
Si 8.2430658754 2.5349683732 24.1249622501 
Si 11.0064037607 14.0023628481 26.1183926107 
Si 15.0223937874 7.5501707191 23.7190596121 
Si 11.4820554750 0.5714027062 23.4607871266 
Si 14.0820372388 0.7861912452 17.3564832134 
Si 7.7841114112 11.6520904966 25.8879996577 

