&CONTROL
  dt          = 30.D0,
  prefix = 'aSiHcSi_merged-20',
  pseudo_dir = './',
  outdir='./',
 wf_collect=.true.,
 verbosity ="high",
/

&SYSTEM
    ibrav= 0, nat=  388, ntyp= 2,
  ecutwfc     = 42.D0,
  nbnd=1468,
  degauss     = 0.05D0,
  occupations = "smearing",
  smearing    = "methfessel-paxton",
/
&ELECTRONS
  electron_maxstep=200,
  conv_thr    = 1.D-8,
  mixing_beta = 0.3D0,
  scf_must_converge=.false.,
/
&IONS
/
ATOMIC_SPECIES
Si  28.08  Si.pbe-hgh.UPF
H  1.00784  H.pbe-hgh.UPF

K_POINTS {automatic}
2 2 2 0 0 0

CELL_PARAMETERS angstrom
16.29000014898320 0.00000000000000 0.00000000000000
0.00000000000000 16.29000014898320 0.00000000000000
0.00000000000000 0.00000000000000 29.29585470619324

ATOMIC_POSITIONS angstrom
Si 15.7872744544 0.6420491789 29.2294995953 
Si 16.2807474289 2.7928553655 2.7447637824 
Si 2.7013218547 0.0256204235 2.6514711331 
Si 2.6283426540 2.6955389047 29.2293238202 
Si 1.2557146615 1.4217211660 1.3455263812 
Si 4.0053200766 4.0886271374 1.2986618024 
Si 1.3361155862 4.1213374577 4.1213115442 
Si 4.0241513168 1.3711586345 4.1090951728 
Si 0.0313219236 0.0598848098 5.3723324277 
Si 2.6772289445 2.7423726551 5.4995057330 
Si 1.3054561769 1.3733968806 6.8717821592 
Si 4.0718973072 4.1169554477 6.8148896093 
Si 16.1485214977 2.6942682846 8.2075266545 
Si 2.6637082444 0.0784972753 8.3292509308 
Si 0.8986899862 4.5101634712 9.2939341304 
Si 4.0178633767 1.5087407178 9.6920647959 
Si 4.0311234369 6.8823295829 27.7353524136 
Si 12.0493058602 6.6572995209 10.5686553604 
H 10.2424190437 6.5731616701 14.0615708212 
Si 1.9019226774 5.5659998309 16.4118014691 
H 9.0240736425 7.9176405424 15.7071775717 
Si 12.3091476526 11.8024634879 16.7411454677 
H 14.8145985455 13.7970599762 16.0057609229 
Si 5.9651537046 6.0799330456 10.7989500742 
H 4.2639401190 8.2259125052 19.5794157592 
Si 1.7746000362 14.7630569850 15.2706400407 
Si 8.9471196818 5.0057052758 21.6224793706 
Si 10.1921969732 13.2770505914 24.3199537843 
Si 2.9039857466 8.4280876971 22.6340066419 
Si 15.1600442886 15.3965913808 26.0375990416 
Si 10.8422982992 13.1028616198 15.3041544985 
Si 1.4477525862 3.9889974965 27.6046929016 
Si 4.0381932969 1.2955502278 27.9643874057 
Si 16.2703218288 5.3567384890 28.9809535640 
Si 16.2784179589 8.1158083942 2.5820458167 
Si 2.6328061141 5.4586975999 2.6324405459 
Si 2.5303583031 8.2866090458 29.0232567782 
Si 1.3045911779 6.7786600220 1.1269148542 
Si 4.0800748873 6.8270576124 3.9341696243 
Si 16.2311117984 5.4355006397 5.4952285382 
Si 2.7050522647 8.1767655748 5.2787028761 
Si 1.4237476420 6.8184727824 6.7055574796 
Si 2.3470469315 8.8666633711 12.9212003809 
Si 0.0300288234 7.9903265231 8.1624696299 
Si 2.7344068450 5.5131876504 8.1763851609 
Si 4.1129806876 6.9222726633 9.5370897245 
Si 8.8127434706 0.3982400046 20.7083901120 
Si 12.2186404117 9.3865098558 16.9417341849 
Si 9.0036459823 3.7658733644 12.6847535375 
Si 3.9247986059 14.9510924567 18.6327495102 
Si 3.0663155980 8.7641829802 10.6612888530 
Si 4.6004589421 10.0561428920 22.8540478066 
Si 0.3779719865 2.6740686845 25.8477033114 
Si 8.0323710135 2.7505665252 10.8199844979 
Si 8.9720270921 9.5477808573 26.1059169748 
Si 9.7738860594 12.3971462334 11.7500399973 
Si 7.5030111686 2.7222219249 18.2599890550 
Si 4.8728114546 10.3151213143 10.3972160186 
Si 16.0065704364 11.2093120025 17.6816595872 
Si 4.1108792776 9.6607194284 0.9550448634 
Si 15.9669694460 11.1715517822 0.0361449326 
Si 2.7912426555 10.8956969196 2.5370034400 
Si 1.3687884395 12.2648551422 1.2426744945 
Si 1.3694156045 9.5334945272 3.8938878241 
Si 4.0724348772 12.2396708019 4.0432966831 
Si 3.9832471264 9.5299433072 6.7173051173 
Si 16.2722929188 10.8363850291 5.3423920642 
Si 1.2375773753 12.2770237723 6.7225490753 
Si 1.1293352113 9.4908798868 9.5321680209 
Si 2.4728708926 10.8409462291 8.0542800385 
Si 3.9001844157 12.1546858712 9.3736481511 
Si 0.2855327516 14.6500206740 19.1456906303 
H 15.7986774545 6.5069102395 24.0414087978 
Si 10.2875423441 15.3858074007 25.3726710274 
Si 5.6136155013 13.2044949308 15.1299906423 
Si 6.1952988267 15.2239825392 18.3206900659 
Si 12.6543001757 7.2530899863 23.0194522022 
Si 1.3176655321 5.2179802677 20.9499637299 
H 12.9564308085 0.8459462237 26.7905903951 
Si 7.7717798811 8.7249566598 24.3150320808 
H 1.7075503956 3.7877345446 10.6766691767 
Si 13.8039017762 0.6064327225 15.2556698590 
Si 6.7485723917 0.8585660869 19.5876478944 
H 8.2054196850 2.2331146704 23.0663548656 
Si 5.3279540587 5.6245298014 0.0492806079 
Si 8.0104446733 16.1783321980 26.2527185027 
Si 15.5936515126 14.2075353999 22.5387951141 
Si 7.7841602812 7.7307616607 10.7657578709 
Si 0.0826808732 13.6492282248 2.6446481286 
Si 2.5169842130 13.8003994262 29.1938172443 
Si 4.0561285871 14.9323263766 1.2761391493 
Si 1.4088325179 14.9644176769 4.0670849172 
Si 2.7430079651 13.6172998245 5.4750143985 
Si 4.0645016472 14.9786714270 6.9411840390 
Si 16.2543087587 13.6585623949 8.1991773359 
Si 1.3153230300 14.9468407667 9.6890473228 
Si 9.2403722645 1.2053036270 27.9239884220 
H 6.6485355008 3.0914347783 21.0508586535 
Si 6.7216938915 13.5468618639 23.4261958490 
Si 10.7413980382 7.9496341027 26.4391280262 
Si 2.4273729222 3.5815031428 15.1841879735 
Si 1.6425695850 1.2100537911 12.8359494437 
H 15.1541147286 14.0463458485 13.8870261188 
Si 10.9323657100 2.5319384332 13.1840720851 
Si 10.6676369176 1.9173493075 20.3596229617 
Si 15.2588431396 2.3270916813 20.9296031109 
H 3.8044480848 11.4592494748 12.9040330100 
Si 6.9165548733 5.7052956222 14.6886778870 
Si 6.7716553219 14.8274024856 27.8847026809 
H 2.5102401530 15.7472825040 23.4476990063 
Si 14.4402054721 0.4947435945 11.6083945398 
Si 15.4721606915 8.4081324469 15.0556963548 
H 6.2934460776 5.9747810946 24.0942878155 
Si 13.1978323207 8.2510316855 18.7809865350 
Si 15.7965271745 8.7450911000 20.9972472394 
Si 1.2955111318 12.5265214146 18.8996933383 
Si 5.4766328901 16.2645877488 29.2588540417 
Si 5.3758792392 2.7303017650 2.7218778608 
Si 8.1228619643 0.0012842759 2.7773554208 
Si 8.0581255037 2.6898048246 0.0305230581 
Si 6.7409649617 1.3342748162 1.4040243439 
Si 6.8018732722 4.0148008567 4.1179132251 
Si 5.4161806995 0.0278692581 5.5193683225 
Si 8.1791602048 2.6897233746 5.5560760284 
Si 6.8100345623 1.3403216643 6.9596404274 
Si 5.4159200595 2.8094385857 8.2510602946 
Si 8.2094270251 16.2332620785 8.3443968877 
Si 6.8121522623 4.2510547289 9.5268068795 
Si 1.9034539374 10.4661296157 25.8948110458 
Si 12.9636961486 8.8564658310 11.0190791265 
Si 11.3202469035 14.6029262836 27.4220918392 
Si 1.8495014569 2.6450236142 23.9154366226 
Si 4.1357866878 14.7562314750 12.1748591864 
Si 6.9066342632 6.7607573118 25.2295900730 
Si 11.7703558976 7.5310462589 20.7716105665 
Si 3.0806996682 11.9715862695 22.9434001634 
Si 10.3476361546 5.3391452888 18.1822671524 
Si 15.1511988186 11.7926243279 11.5378501216 
Si 13.3443445820 11.8196983081 13.0953935329 
Si 4.7894066538 0.8629187749 21.1112374101 
Si 13.7394096657 10.0196695816 25.9614591152 
Si 6.4024098886 9.7183534489 21.1791744972 
Si 6.7029278113 4.1986172184 28.1213545952 
Si 5.3564778490 8.2848497258 2.5382953872 
Si 8.1607687946 5.3776874292 2.7478105513 
Si 8.2574336555 8.0434970836 0.0694367419 
Si 6.7990551022 6.8128038623 1.4305400220 
Si 5.4265574296 5.4468710598 5.3829082313 
Si 8.0936539940 8.1394614744 5.3241700426 
Si 6.8645571928 6.7357032916 6.7535733854 
Si 5.4119452995 8.1225361643 7.9709626277 
Si 8.3499934364 5.4673475900 8.1952223955 
Si 6.1118451559 9.5268156271 13.8706204402 
H 13.8839508370 15.4990229017 14.6915195849 
Si 11.8974504788 0.6820688222 16.6381119467 
Si 15.6665329733 1.3555072024 16.5405274547 
Si 13.0279113291 5.7119256522 12.5241536620 
Si 14.3922314216 12.8358685174 17.0769052585 
Si 9.8738903703 10.8777453395 21.7757259865 
Si 13.6289145946 0.8374314407 25.4183725607 
Si 9.6499680283 10.8323288191 19.4385612898 
Si 1.9560217679 11.0326632409 14.1203676015 
Si 3.8824283155 2.2718360008 16.6246944453 
Si 9.0215812725 3.7105851039 25.4335478134 
Si 12.2083288417 9.3518284455 27.6772587337 
H 9.1799852340 5.2697173082 12.5726675974 
H 1.0264736344 0.3739955974 21.5927147822 
H 16.0676579369 4.9852776156 12.3932597832 
Si 11.5943750260 6.1319958861 24.8036283455 
Si 8.5627245483 0.7637452540 22.9581652742 
Si 0.2823790076 14.3394029511 13.4872841813 
Si 5.6863829320 11.0328587209 28.8749904575 
Si 8.1728233947 10.8602010093 2.6468189514 
Si 6.8436245426 12.2184612217 1.2682292686 
Si 6.7359313516 9.5390168372 3.9905055529 
Si 5.4364291697 10.8955828896 5.4367540122 
Si 6.8304133525 12.2048590716 6.8618801603 
Si 6.7831234820 9.3824699358 9.3933935571 
Si 8.2308157953 10.8402131791 8.2303481253 
Si 9.1265214535 14.3957989317 20.5279276470 
H 5.1754796573 12.5332328946 20.9283140933 
Si 13.0160033390 8.4296352471 14.9522233959 
Si 0.3167395049 15.8894127553 11.6928544889 
Si 4.8953731048 0.7197899466 15.1908674284 
H 1.2387844643 6.3660506082 25.6172035266 
H 0.4083121117 7.8304890416 18.4067612870 
Si 10.5017884260 0.5767898093 11.8388064370 
Si 7.5566378491 3.4804888518 14.5126683919 
Si 8.1246375743 8.7555329901 12.8571303466 
Si 6.7790346920 7.7109204405 17.9923714222 
Si 11.9749257195 0.2591706444 23.8351659807 
Si 8.8696607311 12.9964879189 22.4102156078 
Si 5.8214921932 9.9553240810 24.8435878914 
Si 5.3420286189 16.2269089784 10.8074165762 
Si 14.3345648211 13.8474123666 19.1948490745 
Si 5.4401758698 13.5725837741 2.6586837726 
Si 8.2337154153 13.6361799347 0.0051287667 
Si 6.7577762418 14.9197016265 4.1263211354 
Si 8.1771076648 13.5598775740 5.4656397250 
Si 5.4659955200 13.5469433139 8.2560112940 
Si 6.8770516229 14.8316215956 9.7104625926 
Si 0.0370564923 8.1676757547 12.8822954858 
Si 11.7763017477 4.6326968524 16.3955422697 
Si 1.1795018958 15.1987981990 21.2820615389 
H 3.3371368505 9.9948273314 26.0018580989 
Si 6.8135043323 11.1452760119 15.5372909103 
Si 8.5768642684 2.1469405696 16.1346333877 
Si 12.1387542510 5.2874734084 19.9784838920 
Si 9.6096991479 6.6507672308 28.0143954296 
Si 3.0258675277 0.6027316345 24.3126298207 
Si 0.7385788328 10.0098141315 15.9151781401 
Si 0.3750446734 2.3984255919 14.5229512369 
Si 5.3869727293 12.9411833684 27.2355065406 
Si 9.5009633969 3.9960999365 1.3577603301 
Si 10.7716974385 16.1975218181 29.1519534679 
Si 10.8768982595 2.6231135640 2.6832717834 
Si 12.2130040717 1.2399654893 1.2434361867 
Si 9.4996764869 1.3368909902 4.1272000110 
Si 12.2338878519 4.0328827569 4.0325158086 
Si 9.6473942082 4.0143773167 6.8938126419 
Si 10.8328175191 16.1927488481 5.4299573739 
Si 12.1673594913 1.2609339775 6.7791779624 
Si 9.5616599374 1.3515405874 9.7294170106 
Si 10.9778473904 2.5968540838 8.3232745764 
Si 12.7947199770 3.3330643505 9.7207747335 
Si 5.6820009220 6.0777990556 16.6696342864 
Si 5.2505439780 11.1759012122 12.4758155018 
Si 9.1807997340 11.3256551836 15.1858871331 
Si 14.5091773327 2.4093073120 18.5893916453 
Si 12.4372522137 12.9653903086 23.6161208750 
Si 7.2938149867 13.5190711236 19.4502796317 
Si 3.0943018183 6.0478906153 22.4092488446 
Si 8.1320983944 5.4157082895 26.7017067720 
Si 5.7224978623 2.3038784311 13.7248442672 
Si 7.9387523826 13.9944133280 11.7793944437 
Si 3.3901608010 4.8754830146 26.5116645625 
Si 5.6099828313 3.3257012704 23.8273146916 
Si 15.9359207057 6.4333120188 16.3115803502 
Si 7.0053353741 2.3860614818 25.5386027484 
Si 7.2831939066 11.1833783223 19.4058085242 
Si 2.7479601251 16.1710179879 26.5553739777 
Si 14.4434960521 3.1212454785 25.0044221337 
Si 10.9769514404 5.2023581576 29.2678771649 
Si 10.8756439295 8.1188709143 2.6858498186 
Si 12.1888948715 6.7051269613 1.3357269178 
Si 9.5378276672 6.7571572218 4.0835491875 
Si 10.9346788900 5.4001676294 5.4752194695 
Si 12.2646596622 6.7296108315 6.9518770259 
Si 9.7258468489 6.8640847828 9.6268229274 
Si 10.7967188787 8.2564725455 8.0488017137 
Si 12.4982745543 1.1477624595 18.9170950760 
Si 6.6477047108 12.1431199711 25.3789110444 
Si 2.8251584358 2.7202508349 11.4469743803 
Si 0.4543395072 0.5225115288 27.0109831101 
Si 8.4580124274 9.0244483125 22.1329303430 
Si 6.9292610734 15.8569956550 24.0902449876 
Si 13.3203819918 5.0127588458 26.2039409046 
Si 0.8504259738 9.6764555685 27.8479363832 
Si 11.6090360262 2.3984907519 22.6148764487 
H 11.5287914854 4.1854548983 20.8170777330 
Si 11.4974006552 12.1485445411 18.9008651725 
Si 9.0540472428 7.2966005767 18.5123142515 
Si 6.3742933483 10.0715695221 17.5691635051 
Si 9.5992246778 9.5475690873 1.2790101431 
Si 10.9677801703 10.8753018395 29.0746417073 
Si 12.3547107830 12.1476974611 1.2131179067 
Si 12.2313954819 9.4215496462 4.1071909422 
Si 9.5234761771 12.2389703319 3.9995872679 
Si 9.4120851561 9.5233621471 6.6739765482 
Si 10.8450838892 10.8496287992 5.3559560450 
Si 12.2577201221 12.2231853218 6.6318198133 
Si 11.8348805882 9.9907059614 9.2787002860 
Si 10.1079939624 11.7006184070 9.4956946818 
Si 12.8532499476 3.4253472013 12.1807769490 
Si 10.6213570271 2.6059601938 26.6991873285 
Si 15.4134841110 9.5131483170 11.0993790642 
Si 12.3091965226 3.7466837443 27.9114205003 
Si 5.6374314816 7.7688476811 20.0318902351 
Si 13.8476567166 3.3372997505 22.6185677264 
Si 3.0937968283 2.2327237104 20.1754985149 
Si 9.3903542959 7.2497505363 20.8663240647 
H 9.4575342565 10.1302949726 16.3741269999 
Si 1.9496523778 12.6686516659 25.1199942805 
Si 11.6299360964 13.4294435428 12.9274696938 
Si 5.1826472574 1.0388915015 23.4326995287 
H 15.1760736488 5.4127435095 15.4783183547 
Si 7.1511634554 9.3846365058 27.8050472519 
Si 14.7139752146 9.9550960210 19.2991130214 
Si 9.5188498171 14.9710639969 1.4079997914 
Si 10.9491769901 13.5294804337 2.6045069485 
Si 12.2333665719 14.8935073062 4.0287659392 
Si 9.5362638272 14.8736660860 6.9134701604 
Si 10.9898368305 13.4649231631 8.1775569951 
Si 12.7247544264 14.4658785123 9.4595143012 
Si 3.4633029017 4.4183693204 24.1635139202 
Si 5.9339420643 13.3625405122 12.8320237991 
Si 1.8799148872 7.9179337624 18.8228503114 
Si 14.7163535546 6.4328884788 18.3581887599 
Si 15.3264303502 6.2253375869 11.9541149212 
Si 5.2045247276 5.8483055335 13.0129549978 
H 3.8918765156 10.4176017053 19.5313412616 
Si 13.1610332104 14.9348024566 22.3909096395 
Si 1.2081120230 2.9114302766 21.5429411250 
Si 2.8378972160 0.8215877865 18.2002548072 
H 13.9693104378 12.0783998005 14.4465476478 
Si 9.8957352605 12.6746463859 27.9206193987 
Si 4.7237253732 13.3826912424 22.0989764474 
Si 13.5766074042 16.2049663482 2.6276916879 
Si 13.8552315667 2.3988654219 0.0163276052 
Si 14.9781175670 4.0685904372 1.2537512572 
Si 14.8967164362 1.3592017744 4.0122723730 
Si 13.5376580138 2.6810733845 5.4510796852 
Si 14.8006380154 4.1067741976 6.8716942716 
Si 13.5686578841 16.2045102282 8.0805584202 
Si 14.4249580319 1.6027991787 9.4720822229 
Si 10.0525428019 9.2522965446 17.7649477021 
Si 13.4363179229 4.4898987111 18.1330794124 
Si 6.8581226427 1.1475979305 12.0796476586 
H 14.9961505972 0.8622378529 21.1885784665 
Si 12.3805304332 15.3811810407 11.6500532452 
Si 5.0938993366 3.0973969183 26.8651190495 
H 11.2898334733 1.8744577371 25.5498523566 
Si 9.8134381798 10.4061172552 13.1003738282 
Si 4.2792201391 7.8667831619 13.8545077201 
Si 14.4083585218 2.0560260788 13.4112028467 
Si 13.5667845341 11.7518993275 20.3245851195 
Si 6.6922578612 4.3043393194 21.9663834090 
Si 10.8655767094 2.5413377632 15.6175029605 
Si 3.5944862729 15.1004717581 20.9651682785 
Si 5.5640613209 8.2076351251 26.5083248350 
Si 13.6136997345 5.4026274194 2.6735865739 
Si 13.4786719233 8.0202675434 29.1811028433 
Si 14.9459285267 6.7922458821 4.0509429012 
Si 13.5936304543 8.0842546639 5.5113119625 
Si 15.4764286715 8.4496719473 26.6619815930 
Si 13.4425732829 5.4094855095 8.6627256449 
Si 15.5014664018 6.2000229267 9.5688757268 
Si 3.1818442791 16.0659311969 13.9140368969 
Si 8.5333210980 16.1191994974 15.4155666340 
Si 15.4810387416 9.9504045010 22.9627940192 
Si 8.7754882403 7.1510494254 14.4295267563 
Si 4.1337178578 4.2896457392 19.4628475533 
Si 12.1093182207 6.2714219974 14.6343926682 
Si 1.7594014661 9.2262651244 20.7581344733 
Si 15.6057386927 11.9711627295 21.7756966907 
Si 8.5702993984 15.9959330663 12.9522246910 
Si 14.6007434235 6.5350430698 27.7138199603 
Si 13.3149737118 9.4150336461 23.6928174227 
Si 14.8602919959 9.4515884064 1.2460816024 
Si 13.5478229739 10.7679018685 2.6933759237 
Si 14.9561912268 12.2120429617 3.9345504705 
Si 14.9704938469 9.4690838666 6.8394981273 
Si 13.5891018343 10.9730418404 8.0766913674 
Si 14.4687618423 12.7223597964 9.4371029724 
Si 5.0440193561 5.7287532224 21.0902908740 
Si 2.7017779747 9.0739373330 16.9958436285 
Si 1.0090808012 12.4124751235 12.4089623613 
Si 12.7049132062 15.3300793102 19.9782202293 
Si 3.1480751088 13.8065407563 26.9007428088 
Si 10.8298853190 14.3519299613 18.9355807603 
Si 10.3128570043 4.3164102095 23.5417679958 
Si 12.2404690119 11.0413783910 22.2688924047 
Si 5.4764699901 3.8552891753 17.6177360322 
Si 0.9462861087 16.0041758064 17.2532077121 
Si 13.9683493278 12.3834789233 25.4043398463 
Si 2.6214031140 13.4184803727 10.9090438962 
Si 6.3881724284 15.3162491001 15.9987885095 
Si 4.1481996679 10.6230837672 18.0518127114 
Si 0.2964910347 7.3406487371 24.9807510831 
Si 1.5565600132 11.5747781559 21.0634265752 
Si 14.2378185102 13.0358934292 29.2673791354 
Si 15.0241042374 14.9651181469 1.1842732082 
Si 13.6503685248 13.5802726542 5.3406636088 
Si 14.9991479572 14.9711454469 6.7088679111 
Si 3.6489926134 7.1523037554 15.9812988842 
Si 3.2871102601 12.7858745069 17.7207402574 
Si 13.7953658162 5.5746824010 21.8266714779 
Si 10.3987704651 15.0866904180 16.6008769154 
Si 12.1870052315 9.7449550191 13.1132347085 
Si 9.3105658752 3.7274126741 19.5517604724 
Si 15.9860613262 13.5695701241 24.7466186123 
Si 1.1792005308 9.2194884843 24.0443969750 
Si 3.9471484861 3.8168447749 13.2517748054 
Si 3.1980854092 12.8461475075 15.3864758502 
Si 2.3033571511 5.5780381410 18.7980953142 
Si 9.0233568825 11.8935245888 25.8675073092 
Si 15.5951339026 6.4127866186 20.6052979993 
Si 13.6044795944 13.9247409974 27.1713486188 

