&CONTROL
  dt          = 30.D0,
  prefix = 'aSiHcSi_merged-13',
  pseudo_dir = './',
  outdir='./',
 wf_collect=.true.,
 verbosity ="high",
/

&SYSTEM
    ibrav= 0, nat=  388, ntyp= 2,
  ecutwfc     = 42.D0,
  nbnd=1468,
  degauss     = 0.05D0,
  occupations = "smearing",
  smearing    = "methfessel-paxton",
/
&ELECTRONS
  electron_maxstep=200,
  conv_thr    = 1.D-8,
  mixing_beta = 0.3D0,
  scf_must_converge=.false.,
/
&IONS
/
ATOMIC_SPECIES
Si  28.08  Si.pbe-hgh.UPF
H  1.00784  H.pbe-hgh.UPF

K_POINTS {automatic}
2 2 2 0 0 0

CELL_PARAMETERS angstrom
16.29000014898320 0.00000000000000 0.00000000000000
0.00000000000000 16.29000014898320 0.00000000000000
0.00000000000000 0.00000000000000 29.32587717646782

ATOMIC_POSITIONS angstrom
Si 16.1427059676 0.0266266568 29.2120634471 
Si 16.1618792978 2.7331362250 2.6827371093 
Si 2.6191713840 0.0053922670 2.6537572775 
Si 2.5604948034 2.7652926853 29.2378995449 
Si 1.2319426643 1.3697723555 1.2883884249 
Si 3.9300928559 4.0603314071 1.3444037829 
Si 1.1875735909 4.0938399374 4.1115759578 
Si 3.9822045664 1.3320789242 4.0819274959 
Si 16.2095601282 0.0249002426 5.4139968149 
Si 2.5788862136 2.6965163047 5.4094513040 
Si 1.2628317625 1.3404291783 6.8438679343 
Si 3.9023346957 4.1385885679 6.7053324905 
Si 16.2740359488 2.6499757742 8.3527429668 
Si 2.6665427044 0.0867667310 8.3020091993 
Si 1.6892404354 3.6750403236 9.7091234380 
Si 3.4886990119 1.9810432081 9.5598547231 
Si 8.4931336677 2.2165640303 23.6287390174 
Si 2.8697115862 4.5239936814 17.9550029083 
H 12.4141204135 14.8029837754 23.2294378738 
Si 3.6256490432 14.1983152599 14.6762525365 
Si 3.9229741259 5.4458447898 14.5373651822 
Si 10.0895536823 8.5071756478 21.5033753949 
Si 1.2577443955 14.4206900519 14.9245840644 
Si 9.3528058455 5.1460273371 16.7796217511 
H 5.7603558227 5.8912622639 17.4127381134 
Si 3.5067320421 6.7568640018 21.1996766109 
Si 0.6549932130 1.4889043846 16.6456318183 
Si 2.6699310244 0.0453011872 26.6760202407 
Si 4.0177819267 1.4249970850 27.9730451364 
Si 5.4308905697 2.7093854048 26.5622651631 
Si 16.1645997278 5.4260198596 29.2005383774 
Si 16.1627589578 8.1122897542 2.6977666213 
Si 2.5773386636 5.4311837897 2.7161070249 
Si 2.5310750631 8.1659815947 29.2665509269 
Si 1.2143983341 6.7674525019 1.3063681202 
Si 3.9725283063 6.8043004822 4.0461792517 
Si 16.1457521977 5.4117498195 5.6077822113 
Si 2.5870637937 8.1054153741 5.4530002316 
Si 1.2568728805 6.8131622423 6.9456287281 
Si 16.1265299975 8.2741797757 8.1707172472 
Si 2.6312422741 5.3832586092 8.2903668260 
Si 4.4466161807 6.3848003984 9.4491495368 
Si 11.3106195134 7.2252829561 14.9532061205 
Si 13.2820842015 8.2242997952 23.5351014916 
Si 16.2837773689 0.1418233477 14.7750807426 
H 13.8274245365 7.9360971126 10.2246430328 
Si 13.7013236453 13.0378970992 10.8884635886 
Si 2.7459238751 0.5811750773 17.3417988165 
Si 14.9535685368 10.0053669615 12.9398086971 
Si 12.8332132474 10.9613130402 20.2716885535 
Si 12.0276727400 1.4406696942 24.8956462373 
Si 0.6619018021 9.9833754613 11.5551580803 
Si 14.0575370786 1.7803666963 21.4698559173 
Si 11.4749530349 4.2350416587 19.9574324537 
Si 6.4834037693 12.2632261422 17.9448854807 
Si 15.4887927817 3.0088607675 12.7311257551 
Si 10.6240611672 5.9488962844 18.5597318216 
Si 1.1772017478 4.0497591970 27.7834533405 
Si 3.9636502563 9.5112423870 1.2560067914 
Si 16.2192200983 10.8145075589 29.1653473248 
Si 2.6191550940 10.8544343493 2.6801769602 
Si 1.2518066904 12.1809616414 1.2705465613 
Si 1.2509042244 9.4791999567 4.0584374683 
Si 3.9950085065 12.2207255318 4.0570884780 
Si 3.9127928758 9.4641805766 6.8343076983 
Si 16.1834961280 10.8665215294 5.4182783930 
Si 1.3252648171 12.2841750823 6.6916373059 
Si 0.5324956699 10.2395520036 9.2665666255 
Si 2.5428201533 10.9062854197 8.1400423796 
Si 4.0599404471 12.0912689006 9.4827276662 
Si 9.0208482225 14.3227545710 15.9672363015 
Si 5.9222784242 6.3970016085 21.1725208486 
Si 13.8914768170 6.4649309091 22.0561975056 
Si 13.6368478247 4.0090179067 14.0178865939 
Si 2.7510389352 10.7603921784 26.3254293790 
Si 13.4879246434 0.0190882964 26.2418213032 
Si 7.1277058552 12.9052150480 15.7963250894 
Si 5.0939319166 14.0828191588 18.8471547438 
Si 6.4413104089 15.1322046784 22.3411277282 
Si 1.3926500317 1.3879128997 25.2625129608 
Si 4.3046162494 4.3306965396 25.3212233669 
Si 9.3851414958 15.0801907079 24.9696647513 
Si 1.2834663057 9.4771474167 27.7181152861 
Si 16.1969842481 13.5779757642 2.6266601669 
Si 2.6113196039 13.5312886238 29.2270196445 
Si 3.9677716263 14.8977264162 1.3013357997 
Si 1.2599924155 14.9491702367 4.0209589973 
Si 2.6919225246 13.6660069250 5.3988646623 
Si 4.0245911468 14.9946356271 6.8978862001 
Si 0.0581067563 13.6325798447 8.1384001305 
Si 1.5177946999 14.8236394956 9.6818210463 
Si 3.9178916458 0.2022859639 15.3259086936 
Si 1.6450456650 11.3120530335 17.2098323693 
Si 9.0961568932 15.2054445191 20.1486078470 
Si 9.7053377388 8.7381841399 15.7888469907 
Si 15.0208788174 14.3746870915 12.2804750005 
Si 6.4738904092 7.2406444262 17.3411829731 
Si 5.1138545868 0.1355474622 23.7600896213 
Si 6.0674874855 6.1269785660 25.1969402994 
Si 15.4606110814 14.6110549936 18.0658547240 
Si 4.2779006491 1.6821054154 18.7687960000 
Si 5.1438444770 7.8877646821 26.4969271088 
Si 12.1409696910 14.9789809370 27.7431009335 
Si 1.6925147255 7.9304933525 12.1481566427 
Si 4.0086595267 9.2284642744 24.9030363583 
Si 9.7004670287 9.2997330251 12.1546083357 
Si 1.2308496053 14.9116869464 27.8937186387 
Si 5.3238652687 0.0591142928 0.0289221772 
Si 5.3157528486 2.7155918948 2.7137228311 
Si 8.0842220839 0.0055106627 2.7374474657 
Si 8.1053176341 2.6806987145 29.3079883914 
Si 6.7248704415 1.3718265245 1.3821080632 
Si 6.6958090812 4.0639152072 4.0667953433 
Si 5.3790720792 0.0314356278 5.5044964719 
Si 8.0149895833 2.7117311648 5.5077516443 
Si 6.6781344311 1.3985763338 6.9741041548 
Si 5.1986603275 2.8662255262 8.1550279029 
Si 8.0875778240 0.0685996341 8.4140633760 
Si 6.1324194261 4.5782719619 9.4917013846 
Si 15.2369656694 11.2437816428 14.9134695570 
Si 0.0564805256 15.9692989161 11.0942725946 
Si 10.7133792380 14.0561687186 14.3438730446 
Si 1.7335492359 14.6210407637 20.5011928683 
Si 7.9543093327 5.3080150985 26.4090374549 
Si 10.0890975623 9.6356165381 17.9677010131 
Si 6.6216244206 12.3961851234 12.1805030852 
Si 8.0078545632 0.0185192867 26.4631730241 
Si 1.6868620954 11.8956422888 12.3821184908 
Si 12.0022114698 14.5991632935 18.7596756522 
Si 6.0958972458 3.9795167164 21.3265990073 
Si 6.7563427218 7.2662034365 23.2152441492 
Si 6.6576579009 15.0553810377 27.9401415022 
Si 6.7451189117 4.0341370869 27.9698192900 
Si 2.7801980354 14.7228532647 18.3703159809 
Si 5.3097744186 5.3912895793 29.2927389353 
Si 5.3131627386 8.1555722846 2.6407776442 
Si 8.0591354837 5.4107235495 2.6617485790 
Si 8.0018761332 8.1284983043 29.1378103261 
Si 6.6891627612 6.7913825121 1.2814587202 
Si 5.3577973390 5.4624280100 5.4120026553 
Si 8.0538249437 8.1152056642 5.3207405255 
Si 6.7835958920 6.7866584121 6.7802601067 
Si 5.3703406391 8.0949897740 8.1096900967 
Si 8.0462989636 5.4511064599 8.3280212523 
Si 7.2377448062 7.0636047046 13.5646551621 
Si 2.9874557073 13.2296141110 21.8516201864 
H 7.8429508917 10.9608080502 22.4636512431 
Si 9.0782867630 7.0431770444 12.0488592226 
Si 9.9823166113 1.5088580058 17.6269049945 
Si 8.3883400967 13.3337235019 10.8774957105 
Si 0.7078656665 15.8036296145 23.9233174536 
Si 13.9454781675 2.3335751013 11.1533935630 
Si 8.1726116247 6.9131665532 15.7677030332 
Si 6.6975846913 1.3855394467 25.0284924609 
Si 10.7293108581 10.9950170506 23.6801472801 
Si 6.5777391602 12.4782215641 25.0689035197 
Si 3.9653769963 7.2308215561 11.6291472685 
Si 0.3557100723 4.0688836572 20.8492030527 
Si 6.5828542202 9.3742760657 27.6693170265 
Si 5.3385099788 10.8118848689 29.1429423546 
Si 8.0486121436 10.8491238092 2.6478745065 
Si 6.6844712411 12.1780457314 1.2440975526 
Si 6.6579348309 9.5151845670 4.0297567604 
Si 5.3079988085 10.8443997092 5.4685429465 
Si 6.7000607713 12.2333828619 6.8008175466 
Si 6.7801098320 9.4642457366 9.3871546324 
Si 8.1169975642 10.8348211891 8.0600707126 
Si 6.0736125255 0.4873251285 16.2770641939 
Si 13.5131578536 5.4123362595 26.3000624953 
Si 12.4319416737 5.3965838294 12.3611798145 
Si 12.7576928067 0.2008345248 20.1404552531 
Si 16.1278331975 5.6271524915 16.9313245137 
H 9.4162228161 12.5045462044 17.5597194098 
Si 14.9044867663 7.7375383008 13.6868854182 
Si 2.6117920139 4.6266858423 20.3467334732 
Si 3.2984643902 7.4520071782 15.5908093421 
Si 3.0610702180 1.7030706456 13.4916923797 
Si 4.7749411337 10.7478488783 17.4126794617 
Si 12.4906671242 15.2885235198 15.3782553843 
Si 10.5306054363 5.6497955917 23.7602069248 
Si 2.6912546346 8.0055413832 23.3116676334 
Si 9.3649256056 4.0022738466 24.9928615201 
Si 3.1892399392 10.7258573781 13.7409036839 
Si 5.3611204990 13.5554466940 2.6699363639 
Si 7.9693450029 13.6835512551 29.2986041107 
Si 6.7032047413 14.9338413466 4.0870888503 
Si 8.0803287739 13.6018569044 5.4698626110 
Si 5.4634542800 5.6664928418 12.8152616967 
Si 5.4013567994 13.5889226443 8.2379321576 
Si 6.8525840427 14.8154130455 9.6988593809 
Si 14.8606829559 6.7537689018 27.7312532791 
Si 3.5176626322 11.9521360093 15.7405765968 
Si 9.7021937687 3.2810666700 13.8938088075 
Si 10.8102558689 13.6937650852 26.2775108957 
Si 0.4628705802 9.7480989892 15.8789360854 
Si 7.9138938424 13.8171129664 23.6804698647 
H 1.7933172464 3.9249289259 23.4506429653 
Si 5.8013903331 15.8880932653 11.5927538549 
Si 6.2361867270 9.1615123738 14.0934300535 
Si 8.7424684100 11.5772379459 18.5691161023 
Si 1.4420641182 0.2802971456 21.8090683386 
Si 3.9679019463 15.0008421172 25.2523662073 
Si 10.6457594474 0.4054010887 21.1714944429 
Si 7.2346497062 0.2461907723 20.6048305182 
Si 9.9732919512 2.3692827817 19.9448809782 
Si 9.4616230465 4.0645179372 1.3152010744 
Si 10.7793048686 0.0127608042 29.1884561160 
Si 10.7855276486 2.7144353048 2.7457144305 
Si 12.1053108807 1.3768177806 1.2854441069 
Si 9.4203116062 1.3623783245 4.1440690297 
Si 12.1370438010 4.0557539171 4.1704329933 
Si 9.3519913455 4.0382095869 6.9246020742 
Si 10.7868634287 0.0027820062 5.5319454929 
Si 12.1548650612 1.3015905599 6.9790309022 
Si 9.4996276169 1.3290652742 9.9576309211 
Si 10.6271562672 2.5789676636 8.2942378418 
Si 11.7574542175 5.2329181979 10.0391568597 
Si 11.9241497891 9.4169395761 11.6015222922 
Si 9.5183448271 7.8441237717 19.4023815764 
Si 8.7585303501 2.9942812174 16.1485288742 
Si 0.5236469418 8.0002634232 20.6809604954 
Si 0.0223832747 12.9483835484 13.6505799822 
Si 6.1270925960 9.4238139562 23.9346665681 
H 0.8728882550 6.7372671316 21.4664541155 
Si 5.5471034307 10.8283703490 10.7945034781 
Si 16.2056016582 8.1101068942 26.3082150891 
Si 12.9801327587 11.3127209235 12.4263712395 
Si 5.3188968186 13.6616900749 26.6251398438 
Si 13.4206795227 13.7356140956 23.6440471253 
Si 10.2559397438 0.5505075230 23.5780932275 
Si 14.7773270251 9.4550418865 24.9563214772 
Si 9.4094135961 1.3725107046 27.8187616966 
Si 10.7554074384 5.4159037695 29.1720629507 
Si 10.7623795584 8.0739105138 2.6297599122 
Si 12.1384936110 6.7474809617 1.2386839957 
Si 9.4518164664 6.7166602814 4.0574697144 
Si 10.7681625085 5.4150078195 5.5676057596 
Si 12.1555818212 6.8520301827 6.8903201238 
Si 14.0920555889 15.8849004253 13.8161832106 
Si 9.7063477188 6.5560083000 9.7036101730 
Si 10.6889768178 8.1926157449 8.2076678524 
Si 7.8185810515 0.0954126486 12.7168733788 
H 8.7099861497 12.9415091684 28.2223444183 
Si 12.1380700710 4.7840146638 22.2101583607 
Si 5.1682306073 8.7685161202 16.1792623935 
H 9.7807767295 11.5213306654 28.5078611585 
Si 16.0929074372 2.7015824947 26.3749021338 
Si 15.6890131735 5.0995356766 22.8668527284 
Si 9.4000305560 12.8596682076 20.4558843880 
Si 10.7540390784 8.1644992047 26.5255784908 
Si 4.0851736574 2.8131364157 20.7973255760 
Si 12.1460358811 4.1039560275 27.7687024243 
H 6.1132786759 3.2443815897 14.7292443965 
Si 12.6359413456 0.9708709769 12.4898910895 
Si 9.3384706454 6.7364037616 27.7756526572 
H 5.4355983797 12.1800005314 24.1025865408 
H 14.9292149865 13.7313298256 21.1768024267 
Si 9.3702687257 9.4209794962 1.2840188692 
Si 10.7932816887 10.7766658886 29.3226806559 
Si 12.1200044608 12.2398825719 1.2807724946 
Si 12.1128042808 9.4880780068 3.9521604894 
Si 9.3955670959 12.2298479319 4.0352993512 
Si 9.3983852660 9.4493078064 6.6853908940 
Si 10.7780179586 10.8411905792 5.3525591022 
Si 12.1285892909 12.2655393222 6.6696135721 
Si 11.5712432258 10.0496431819 9.3803803548 
Si 9.7252115389 11.8719892086 9.4178001741 
Si 7.9060583523 16.1318731175 15.0156409130 
Si 15.3206148201 5.0665321363 19.1304720432 
H 6.0536246954 13.8251113564 15.2057605748 
Si 1.2506647614 12.1499943511 25.1366462959 
Si 16.2598310687 1.6965709355 20.6067367002 
Si 11.6974092770 12.9766629887 20.4143882718 
H 14.3421070912 11.1806904723 20.4326876192 
Si 2.5823559836 5.4315747497 26.4717948320 
Si 10.7752323685 2.7448161551 26.4265156777 
Si 3.9602130662 12.1735822713 27.8169434922 
H 10.0205818216 12.6111316753 26.9673141787 
Si 16.1743411479 13.5088898735 26.5085988079 
Si 1.1097204221 13.6282792846 17.1205937250 
Si 12.3362705028 6.5563829700 16.9735244510 
Si 9.4312747763 14.9659000669 1.3015792045 
Si 10.7744993185 13.5913661443 2.6815670068 
Si 12.1180822408 14.9656394269 4.0693760205 
Si 9.3894746359 14.9809031570 6.9283557864 
Si 2.5005476029 8.0348470935 19.3763401974 
Si 10.8129600089 13.5295455937 8.1580484682 
Si 12.3009212025 14.6327695638 9.6463660608 
Si 2.9050771766 13.3745788223 11.0172335153 
Si 0.7724180501 1.1549137696 12.8500715129 
Si 1.4015883548 6.8393565626 24.9348842610 
Si 0.8785229660 4.4343009406 11.9852220691 
Si 15.0049634872 14.9009029663 24.9679345245 
Si 13.1966105707 2.8923872665 23.4177979829 
H 13.7273387755 12.9776240987 22.3975507159 
H 10.6173985571 4.8776170046 15.9860341888 
H 11.3405442437 3.7110900939 9.3122270162 
Si 15.3937243408 7.8135148615 16.1292324471 
Si 3.8340633051 6.7096555814 27.9992038189 
Si 2.2818380609 13.9327882574 24.0065149672 
Si 12.0650420003 6.8588556927 25.0868509565 
Si 15.9511681459 13.5684624041 20.1047070089 
Si 13.4662915232 0.0362043624 2.6841711447 
Si 13.4466132030 2.7164226848 29.1859047647 
Si 14.8100047654 4.0558190771 1.2602150547 
Si 14.8083920554 1.4016111608 4.1028368464 
Si 13.4937890434 2.7191268249 5.6092191793 
Si 14.8018597654 4.0790160373 7.0936071043 
Si 13.5492239139 16.1300649275 8.2716862423 
Si 15.0577919577 1.0467058146 9.6200900748 
Si 11.9649399494 9.6948306887 22.1431194055 
H 8.8827904712 0.9906698431 15.1946167414 
H 16.0685701770 12.0453799702 20.0074917260 
Si 2.1572195597 6.6897166212 17.4747916695 
Si 11.6052241661 11.8492809484 14.3582133985 
Si 7.4087246478 11.2493691129 14.1256885184 
H 4.5102937912 4.6502900525 15.6733323605 
Si 13.3780160124 1.4641810514 18.2014282542 
Si 12.6845832860 7.6444898199 13.0645316527 
Si 13.3867311624 3.7887771047 18.4931327545 
H 0.5565201621 6.0955225757 23.5547205034 
Si 9.6007070678 14.8285427856 12.3008564852 
Si 4.6563662226 9.4134860961 12.4073094193 
Si 16.1097675873 6.5647071600 11.8667748512 
Si 1.9548651779 8.8297502308 14.3163946976 
Si 5.0842882365 3.6710981436 17.8505441338 
H 5.9492872444 3.9903332765 22.8569405819 
Si 9.6256307680 10.4402610955 14.1787390302 
Si 14.7591962550 1.3435031013 27.7689370313 
Si 9.8607443402 15.4059581309 17.9527448158 
Si 13.4576904031 5.3807988192 2.6849688085 
Si 13.5066581435 8.0988179241 29.1638810309 
Si 14.8336904257 6.7143308114 4.0835990709 
Si 13.4178450627 8.1044216841 5.3400956044 
Si 13.4949130534 5.6117910213 8.4346208159 
Si 14.9264782665 7.0034294441 9.7361912226 
Si 2.9077324466 10.9581202002 21.2399410402 
Si 7.1285366452 7.6833903403 19.5474566907 
Si 14.7092022445 7.1976714058 19.9291916340 
Si 2.9685104371 10.3373245845 18.9415840683 
Si 3.4671636317 1.3847005117 22.5237692913 
Si 1.2626232505 3.7844439646 16.2436326939 
H 6.6951574812 9.0735626630 19.9656436993 
Si 11.0836509414 16.1269046675 11.0471165841 
Si 16.2054876282 10.8363361591 23.7062766366 
Si 11.9100426489 2.3742675217 14.2521710266 
Si 9.1056865433 7.5366500189 23.3364479996 
Si 10.3455021646 5.5696162109 13.4276446639 
Si 13.4641249531 10.8450838892 26.4036708193 
Si 11.9712767595 1.1301936943 16.3086188377 
Si 14.8615626159 9.4520282364 1.2340974285 
Si 13.5042798035 10.8394475491 2.5963372099 
Si 14.8567896459 12.1958018315 3.9863837881 
Si 14.7359992948 9.4618185265 6.6963587721 
Si 13.3955114725 10.8649088194 8.0440001319 
Si 15.0937439880 11.9766035895 9.2341322053 
Si 12.1773778414 12.2927599124 25.0146799728 
Si 5.2026676676 13.5350516138 21.1525499262 
Si 9.5184751471 9.3527895555 24.9077871504 
Si 12.4716892741 10.1602034129 18.0567050504 
Si 6.2359423770 3.5791899627 11.6672709088 
Si 4.6176123122 1.7099776056 11.6286194027 
Si 8.9070462815 12.0252781100 22.5652360816 
Si 13.4313820528 13.9189254673 17.0398302593 
Si 8.3834856767 2.3367842314 12.0298560542 
Si 14.7713323051 3.9825303664 24.8137977141 
Si 7.4852713585 10.3448994346 25.6561542101 
Si 1.2705401906 9.5890108477 22.2514198699 
H 4.2414110488 10.4314807854 21.7269558825 
Si 6.4300214388 2.7775916354 16.1328102041 
Si 13.4530640430 13.5997229144 29.1865499340 
Si 14.8053132454 14.9514508367 1.2799015161 
Si 13.5405250538 13.5906493843 5.3566353992 
Si 14.8998929863 14.9186916464 6.7801134773 
H 13.7855918161 3.0165985176 20.5946837647 
Si 2.2154888903 3.9271117859 14.0058043325 
Si 13.7731951260 8.1554093846 17.9001048662 
Si 7.9646371928 2.4641883225 21.2719062464 
Si 4.7031511030 13.9947879980 12.5124133631 
Si 13.1956331707 11.6738050668 16.2197321040 
Si 15.6061785227 0.7564114959 18.4109029949 
Si 5.9130908641 0.0140113061 18.6425774246 
H 7.6456789899 8.5743881884 10.2581038587 
Si 2.7669216853 2.9442546269 24.0957536114 
Si 14.7914667453 12.1738266213 27.8572958992 
Si 12.1274815709 9.5160642270 27.8560935383 
H 5.9296089242 12.2024155716 21.3039007784 
Si 13.8190351864 4.8471058343 16.3211409873 

