&CONTROL
  dt          = 30.D0,
  prefix = 'aSiHcSi_merged-23',
  pseudo_dir = './',
  outdir='./',
 wf_collect=.true.,
 verbosity ="high",
/

&SYSTEM
    ibrav= 0, nat=  388, ntyp= 2,
  ecutwfc     = 42.D0,
  nbnd=1468,
  degauss     = 0.05D0,
  occupations = "smearing",
  smearing    = "methfessel-paxton",
/
&ELECTRONS
  electron_maxstep=200,
  conv_thr    = 1.D-8,
  mixing_beta = 0.3D0,
  scf_must_converge=.false.,
/
&IONS
/
ATOMIC_SPECIES
Si  28.08  Si.pbe-hgh.UPF
H  1.00784  H.pbe-hgh.UPF

K_POINTS {automatic}
2 2 2 0 0 0

CELL_PARAMETERS angstrom
16.29000014898320 0.00000000000000 0.00000000000000
0.00000000000000 16.29000014898320 0.00000000000000
0.00000000000000 0.00000000000000 29.21725545547440

ATOMIC_POSITIONS angstrom
Si 0.4803318314 15.7340876039 29.2079643682 
Si 0.0804507721 2.7855900255 2.3628608049 
Si 2.6883550146 0.0540103100 2.7906598593 
Si 3.4223172613 2.1171624494 0.0163365070 
Si 1.4865325606 1.2883907728 1.1400164037 
Si 4.2756363391 4.0085129167 1.1832374897 
Si 1.4414076312 4.0989387075 3.8309957526 
Si 4.1126223076 1.4064460329 4.0742878388 
Si 16.2579577187 0.0780711289 5.3820229757 
Si 2.8015053556 2.8442177360 5.3489198253 
Si 1.4499435913 1.4480686122 6.6224707733 
Si 4.1923781483 4.0483908370 6.8832639955 
Si 16.2800306689 2.6938936146 7.9245669799 
Si 2.7307741750 0.1036198764 8.0717927302 
Si 0.8677617919 4.3997335602 9.2600877268 
Si 4.0894416374 1.3222951501 9.5569642595 
Si 13.1367936901 5.7386086725 19.2726366506 
Si 9.6723341985 7.7156934106 27.6770093996 
Si 8.4356625471 13.2635624713 15.0503926302 
Si 7.0082675741 4.7553279735 16.8795096908 
Si 9.9809482513 15.7929922444 18.8977792631 
Si 10.3359725145 13.9176548473 13.7054639271 
Si 8.1751202848 15.1539518286 24.5449488321 
Si 2.3750168617 8.6293995189 18.8187758044 
Si 1.7547425260 12.3631164231 25.8796514958 
Si 5.2815927183 10.4198497253 25.2094076556 
Si 11.9864753296 4.9526324553 15.6738012099 
Si 16.2094298082 5.8215410632 26.6381022301 
Si 15.8921168953 6.0929324657 29.0339171775 
Si 0.1302898647 8.2673705556 2.6759967403 
Si 2.7790251554 5.4417071298 2.4096171788 
Si 2.8890641064 8.0616604337 29.0244800040 
Si 1.3582162294 6.9308412034 1.1772099699 
Si 4.1175907577 6.7047848713 3.9445340073 
Si 0.0801217141 5.4320471597 5.2611219726 
Si 2.8148794457 8.1383048844 5.2849048186 
Si 1.4969467577 6.7647320719 6.6465457918 
Si 2.4701993326 3.8741529954 17.8454613734 
Si 0.1289966016 8.0766635239 8.0402088770 
Si 2.7303506350 5.3951177293 8.1698166222 
Si 3.9821068264 6.8477133326 9.5390832991 
Si 9.9509909410 4.9283929351 14.4678882082 
Si 13.4813597733 7.0323767743 21.2078415657 
Si 7.2512817963 6.1623604464 20.5333904408 
Si 6.6293784606 13.0415297693 20.2783822351 
Si 14.3152774609 15.3683608106 22.4335638666 
Si 15.6107885928 12.0401671701 22.7586058335 
Si 15.4734964715 5.9543697245 18.3407815051 
Si 8.5893261186 5.4341974397 18.7174795797 
Si 14.2823390806 7.9145617324 15.0633943089 
Si 3.0110436275 10.4384691955 25.3812635522 
Si 0.1414147945 3.8324831751 18.1846444920 
Si 12.5697224950 1.0383555605 14.2728922453 
Si 4.2462817588 9.4338648863 1.1945036634 
Si 15.8914815853 11.4433993047 0.1009520454 
Si 2.8255819758 10.8707080594 2.5176684330 
Si 1.3873965067 12.3481622029 1.3233985076 
Si 1.4757094845 9.5998111178 4.0277447508 
Si 4.0833328873 12.2163435217 4.0080523206 
Si 4.0915756274 9.4922971168 6.7235916944 
Si 0.0620111436 10.8702356494 5.4678340550 
Si 1.3686988445 12.2288542418 6.8996256586 
Si 1.3083590550 9.4128182061 9.5944499982 
Si 2.7185566749 10.7744993185 8.1928398195 
Si 4.2346344087 12.1926089915 9.3359357220 
Si 8.8787994212 12.9655532086 20.9212202897 
Si 4.8724367846 6.4204592087 13.4716382317 
H 15.9322880357 14.1378956493 15.8494261324 
H 4.9862550156 8.4946160577 27.0234486123 
Si 3.2459942997 10.8617811393 15.9693337488 
Si 10.2781918840 10.7820578786 17.3006179936 
Si 13.5904701943 13.1548104303 23.2864739878 
Si 11.7298426673 0.9676341538 25.3199657503 
Si 3.0906202783 11.6503800466 21.7205459644 
Si 9.7680216593 4.6166023322 23.0686301311 
Si 14.6204706137 14.3847543116 13.0247018750 
H 3.4768724718 13.1075857199 10.2460532294 
Si 1.7299817258 7.1110900550 15.3721038300 
Si 12.6905128461 11.1805438623 14.0930016035 
Si 4.1689205481 3.7864313446 19.5442986918 
Si 0.0817192744 13.5686090141 2.8509993353 
Si 2.2867250609 14.1329434893 0.0583074158 
Si 4.0206163868 15.0260916174 1.4039037333 
Si 1.3929465097 14.9553115668 4.1806386486 
Si 2.7481393151 13.5409323038 5.4771251422 
Si 4.1075724076 14.9634728569 6.7628304685 
Si 16.2244328984 13.6305273047 8.1992968330 
Si 0.8864496801 15.5234904820 9.2498909046 
Si 6.0167115550 14.0914528589 24.4447044286 
Si 1.2354336113 6.4393881889 21.7580317032 
Si 2.5355873932 9.7771603494 23.1410012729 
Si 15.5458892322 0.7812048761 23.7117895755 
Si 5.0566115262 0.3209113739 21.4736017213 
H 5.6187794314 12.3540428930 27.0979526138 
Si 14.0626032686 12.9403851583 14.8896977252 
Si 12.1211121809 15.2941924399 19.6532790547 
H 4.1167762577 13.2200844609 12.5491326079 
Si 16.1272630475 15.2279247193 16.8866094838 
Si 7.6837324303 7.0206316842 16.3659579916 
Si 16.2437691286 0.7451925728 15.3256776111 
Si 0.7334197897 12.0033191898 18.7861109128 
H 1.0306764544 4.0419237070 14.3161045661 
Si 5.1682957673 0.3616494063 0.1700251434 
Si 5.4966207203 2.7915521655 2.7947707271 
Si 8.2287632553 0.0315144714 2.6264209012 
Si 7.8315641816 3.1076596184 0.0459412125 
Si 6.8206882224 1.4735999295 1.4152984629 
Si 6.8976584731 4.1377740678 4.0925194062 
Si 5.4710291300 0.0030959797 5.3628564561 
Si 8.2569449555 2.7274835949 5.3996701980 
Si 6.8155405823 1.3589346184 6.7283248898 
Si 5.5893759811 2.6622095643 8.2961812521 
Si 8.2172950952 0.0118053468 8.0319403937 
Si 7.5645222092 3.3878476210 9.5479945621 
Si 16.2596518787 10.4668626657 13.1784138559 
Si 13.6952148953 14.2488142603 27.2044202926 
Si 14.9618112768 8.6828958794 20.3546684891 
Si 15.1854241089 9.8228375098 23.6861076079 
Si 7.2665781065 2.5260414531 13.7615026231 
Si 12.6717956359 0.3573472173 21.4415796093 
Si 8.9267408916 7.0569420945 25.5101408660 
Si 10.0822557622 2.3332981713 16.8033695230 
Si 4.2195987386 7.2721004165 18.1587287864 
Si 5.4879381502 10.8387470791 10.7570630273 
H 1.2185245911 15.2838157098 10.7019592835 
Si 3.0640838680 14.4325491720 15.2084287650 
Si 13.8349993865 1.8781066972 24.9351744959 
Si 13.5525633639 12.4457067238 25.5953091657 
Si 12.8174445272 8.5391040481 16.7481196930 
Si 3.7244967641 1.3536843514 13.5251642437 
Si 6.1167484459 4.9156867350 29.1958684245 
Si 5.5009375703 8.0513814436 2.6344381161 
Si 8.2759879657 5.4986895503 2.7161324841 
Si 7.9722446229 8.5266096180 0.0296233753 
Si 6.9415111535 6.7629075919 1.2620218190 
Si 5.4684390200 5.4260850196 5.4377110646 
Si 8.2155194851 8.1369365244 5.4681846620 
Si 6.8566565427 6.7065930613 6.8328350126 
Si 5.3842522992 8.0738127738 8.0774608777 
Si 8.2606916555 5.2918879984 8.1894798351 
Si 6.9981351940 9.6253049680 18.8812130793 
Si 9.7814446195 0.0304430781 16.6349320453 
H 14.3454465412 7.6833903403 24.5871969834 
H 10.7189015480 14.4593788022 26.5083776159 
Si 7.0986933649 6.2559139172 12.3972905313 
Si 14.0681418687 15.3998819608 18.1808754660 
Si 4.1735306182 11.8995844688 17.8871543969 
Si 11.0325003409 1.0582049257 23.0118317865 
Si 2.9580033871 14.0518681585 27.0121123172 
Si 13.2973316416 8.4363141472 11.4144220578 
Si 6.3900783584 11.8808672587 23.7783172662 
Si 9.8399908800 13.4931537334 18.8668966241 
Si 10.5657266766 2.6854879746 26.4768229800 
Si 13.1965454107 3.8921697356 23.8514772738 
Si 7.5695558192 0.2179113320 13.4583443805 
Si 11.6796205968 12.3877794833 12.3745887238 
Si 6.1725742765 10.2948728442 0.0991881997 
Si 8.2432450654 10.9389468700 2.7847988779 
Si 6.8807494529 12.2082962617 1.3204446431 
Si 6.8545062627 9.4518653364 4.0241802456 
Si 5.4616135100 10.8328012291 5.3362103191 
Si 6.8717736628 12.1730935713 6.6573853936 
Si 6.7386680716 9.3722561057 9.4377286400 
Si 8.1474598645 10.8522514893 8.1543606941 
Si 2.3850352118 6.6433389908 13.0253446546 
H 5.1117694668 8.6394830290 27.7683425402 
H 6.1392449361 1.0863247239 22.2314681106 
H 15.4362738212 5.1407982470 15.4658327855 
Si 14.5403238130 5.3507274789 22.5887659275 
Si 8.1635218047 13.5828301842 10.8966046394 
Si 10.6915017678 10.9206857799 10.8142119790 
Si 5.3545882090 15.9657476960 12.9086801536 
Si 2.6379700441 8.0741548638 11.0501997513 
Si 7.8423155817 4.2644939790 21.7228541276 
Si 1.6006814786 7.2112898460 25.5998670575 
Si 15.3324413602 2.5360598032 16.5465790648 
Si 14.9239696065 1.9971703083 27.0010681947 
Si 3.5784406227 6.2868812075 21.8523742210 
Si 0.8255983846 13.4654118632 23.9999885833 
Si 0.3055091788 3.4983101120 26.0938139783 
H 16.2555630887 7.3616302573 11.8395623419 
Si 5.4268180696 13.5635428240 2.6240893642 
Si 8.0415911535 13.7310854756 29.1400926838 
Si 6.8301852925 14.9460425567 3.9645478273 
Si 8.2212046952 13.6155567945 5.3532439791 
Si 5.5414345107 13.5645528041 7.9752297009 
Si 6.8959154431 14.8502410658 9.3780377871 
Si 5.3556796390 16.0109198664 10.6122330920 
H 15.2336913793 6.1296175461 23.6774593003 
Si 2.2806814709 0.4695918343 15.2152948200 
Si 3.2394457196 5.7409870125 16.6251442648 
Si 14.8738452760 10.4400819055 25.9760100043 
Si 9.2166214443 15.3102380900 12.1657145646 
Si 2.0616135489 11.5522816657 12.4500861119 
H 5.7745607028 2.6759746145 26.2871737749 
Si 10.6363112473 0.4003739947 10.8561095233 
Si 4.9249068750 5.9481795244 20.0028342989 
Si 1.9876569482 9.0368450026 27.0379403711 
Si 3.4834862119 2.0603103488 21.0616384194 
H 5.8606533536 10.5349874463 26.5748176548 
Si 9.5550461974 4.2786662791 1.1739610111 
Si 10.6799358677 0.1943282988 28.9317152179 
Si 10.9421885801 2.7871375755 2.4224347888 
Si 12.2962459725 1.4642950814 0.9379206477 
Si 9.6091452879 1.4457749802 3.9186475189 
Si 12.2582251121 4.0917873974 3.8999192582 
Si 9.6614687684 4.1191220177 6.7099764534 
Si 10.9531843302 0.0719169298 5.3124859077 
Si 12.3345926328 1.3851680347 6.7337592993 
Si 9.3292993753 1.6547870851 9.2892173305 
Si 11.0222865108 2.8009840756 8.1118495874 
Si 12.3919985933 4.1671123581 9.5483743864 
Si 6.5248129497 11.8315411382 18.2800388310 
Si 11.7996778979 12.4297588137 18.1441201586 
Si 13.3426015520 13.6450579848 11.1550020466 
Si 15.5030954018 15.9040737555 27.1591919812 
Si 8.5764895984 6.8174953824 14.2134643477 
Si 8.4905272677 10.8381443491 23.9844157861 
Si 15.3474933204 12.4501701839 20.3955142123 
Si 13.2594899713 11.4712552049 19.7525885060 
Si 13.6431846348 8.7349912999 27.2116661720 
Si 11.6906000569 15.5080801418 26.9864887842 
Si 0.1832494697 4.2606169590 21.9461031765 
Si 4.3170292295 8.4255627471 22.3645527092 
Si 14.7751441651 0.4261594359 13.4474463442 
Si 13.6741845051 1.4477851662 17.7874359040 
Si 14.9727581569 6.8184727824 11.2281620543 
Si 7.7219813506 8.5069801678 24.1438835664 
Si 5.5474781007 5.3108984286 26.9139131216 
Si 10.7470180883 5.8290507533 28.9360685890 
Si 10.9673403403 8.2140859651 2.6373364678 
Si 12.3129920926 6.8742497429 1.1919150146 
Si 9.6143092179 6.8701935328 4.0434928515 
Si 10.9854548205 5.4805099101 5.3405052557 
Si 12.3056453025 6.8186193924 6.7862042729 
Si 9.5276952871 6.7735449619 9.5205303419 
Si 10.9431008201 8.1637661547 8.2164765792 
Si 9.0215161125 3.5157241222 24.9907164985 
Si 4.8132389240 13.8510124567 13.7348272688 
Si 1.7277337058 9.1618544638 16.6284165974 
Si 10.7452750583 6.4920700494 24.1122412788 
Si 9.9006711305 9.0533793528 21.1608017844 
H 3.7132729540 3.7223464840 11.4848940780 
Si 5.4221917096 15.6766979334 17.7599132494 
Si 16.1147360374 2.6708595544 20.1850623212 
Si 4.2959336793 15.1826873889 23.1574213705 
Si 11.4927742951 3.3046871702 22.3584463028 
Si 5.1013764467 1.5977020376 17.0538198368 
Si 11.8183951081 6.5319805497 17.4730290181 
Si 7.9079805723 15.4810713216 15.5230986062 
Si 0.7732081151 8.1791764948 23.4717698219 
Si 3.8867614555 0.7316034547 24.5912873992 
Si 9.5542316974 9.6158078979 1.3824290505 
Si 10.7866353687 10.9352164600 29.0820379972 
Si 12.3073720426 12.1956552215 1.1972530072 
Si 12.2533706921 9.5360194772 4.1063683852 
Si 9.6548713183 12.2967998325 4.0505342101 
Si 9.5736005076 9.5200389871 6.8311111945 
Si 10.9322516800 10.9195128999 5.4930193292 
Si 12.3145396426 12.2838981523 6.8600654947 
Si 12.2566124021 9.5870886277 9.6246314231 
Si 9.5021851469 12.3409620229 9.4180654271 
Si 8.9758878221 9.8400397500 12.0100158103 
Si 11.5861159960 2.0477833387 12.3272275528 
H 16.0288877366 13.9422364575 12.7632658732 
Si 1.7463531760 1.1387280254 19.7349120664 
Si 0.3808878965 15.5800982325 25.1100982043 
Si 15.8408848449 6.4765293892 16.0432241879 
Si 5.4173698695 10.1800446331 15.3720746128 
Si 9.9020557806 3.4286052014 18.9136734501 
Si 0.7417016258 4.7806589237 13.0190921619 
Si 3.0100662275 2.6237488740 23.3610364237 
Si 6.3172457678 15.3958909108 19.9186886032 
Si 16.1082526173 10.5198214562 17.1694617339 
Si 9.3768173058 9.2514005946 18.8716590367 
Si 2.3767598917 16.1717673279 26.1587055026 
Si 9.5663351675 14.9940491871 1.1975510232 
Si 10.9527607902 13.6120381545 2.5385500054 
Si 12.2915381624 15.0107138573 3.8912125161 
Si 9.6091615779 14.9852362971 6.6873622977 
Si 10.9406084501 13.7153819154 8.1723877407 
Si 12.1428756211 15.1445687885 9.6898151200 
Si 7.2742995665 11.6512597066 12.0898665694 
Si 10.0612416620 3.9319173360 12.3353207325 
H 6.5689588501 15.3164282901 16.4999191079 
Si 9.6017496278 7.2519822663 17.7379710906 
Si 3.0507912279 2.3318157813 11.4481972051 
Si 11.4053132843 9.4629262465 27.3166729881 
Si 12.2614179521 11.5954827460 21.9877085483 
Si 10.0727424021 8.5632295383 13.6872323597 
Si 12.4290094737 5.4314607197 25.4536054767 
H 9.1217321934 14.1767147197 21.8065615645 
Si 0.4750929673 10.8577086393 27.2288459182 
Si 13.4882504434 3.2157437694 11.4410389775 
Si 11.4872845651 15.3690775706 15.2517287376 
H 1.6126578867 3.2285639995 26.7954663680 
Si 7.7113602705 3.9605062862 11.8804080651 
Si 14.1570201095 9.5170253370 13.3058303070 
Si 13.7225820955 2.0480602687 20.0571491768 
H 6.5046785095 8.9727601421 12.8212913425 
H 3.6102875730 6.8006026522 28.6029334423 
Si 6.5021535595 15.1887961389 28.0464908121 
Si 13.6125920145 0.0617519697 2.4170529703 
Si 13.5522375639 2.9866086273 28.7289182478 
Si 14.9567776668 4.2262124787 1.0091260210 
Si 15.0212371974 1.3830812856 3.7810634630 
Si 13.6076887245 2.6544392343 5.1754277624 
Si 14.9383862566 3.9984619866 6.5151557940 
Si 13.5945101143 16.2606781487 8.1649665578 
Si 15.4583304814 0.9068431313 9.2555006177 
Si 6.1714665564 3.1250899186 18.4732525413 
Si 5.3717089991 8.2200969752 24.4497590138 
H 4.8035626639 3.9895350665 26.9308883471 
Si 5.1728732573 8.7837309803 13.5306863050 
Si 1.4863321936 14.2074539499 18.2626253468 
Si 14.1819275197 6.8957688331 25.8693085873 
Si 9.0466027127 1.5850838035 27.8339352787 
Si 8.5613887683 12.3856292033 17.1863493076 
H 3.1194698685 2.5504275833 27.8252285366 
H 9.2184622143 13.8605909768 24.8014471177 
Si 3.7518150943 9.8835666304 12.0263482561 
Si 5.4569871499 11.6022268061 21.6993926715 
Si 2.6937470046 10.9293846400 19.5066084323 
Si 11.9123395389 4.3305825096 27.5036634230 
Si 8.3043814359 0.2651669934 20.4372948876 
Si 11.6970997670 10.9164177998 25.4270177743 
Si 14.1463827394 9.7093613688 18.3804585380 
Si 13.6230501946 5.4519046699 2.5550314592 
Si 14.2078286199 7.8313035416 0.0723991903 
Si 14.9922735771 6.8438200226 3.9419336715 
Si 13.6568356549 8.1699074847 5.4073543362 
Si 13.6886826052 5.3386565888 7.9834689669 
Si 15.5436900822 6.1752295465 9.1085086055 
Si 12.3579362030 2.5848320636 16.1109205687 
Si 12.0435066201 3.7183717240 20.0786822941 
Si 6.3928802385 4.3164753695 23.5288311218 
Si 5.9904357848 8.5170636779 17.0858127315 
Si 5.1701039573 2.6289942540 14.8443233275 
Si 9.2547563346 12.2313791919 27.8214595106 
Si 12.8630891076 13.9795079779 16.6418273176 
H 4.9426303952 6.0376116252 10.3713076035 
Si 7.8563901419 8.1090806242 21.8155896964 
Si 5.9843596147 1.4219101300 25.4718370441 
Si 0.6793695692 2.8209067458 23.7808883846 
Si 7.4829093084 2.1541896197 23.8417187105 
Si 0.8975838952 3.2097816294 11.3122200982 
Si 11.6729742768 7.1832873357 12.5061540252 
Si 5.2639669381 13.7615314859 26.6999843772 
Si 7.4606082982 5.1834291774 25.4948602414 
Si 14.6106477436 4.9787779055 12.6579961018 
Si 4.0865908874 4.7866536438 23.6031890370 
Si 15.0273622374 9.6158241879 1.3607849077 
Si 13.5596006440 10.8568289793 2.6976584135 
Si 14.9554581768 12.1821671014 4.0853903958 
Si 14.9851874270 9.5082450270 6.8361073452 
Si 13.6883079352 10.9262406699 8.2760213458 
Si 14.8928394162 12.3770443732 9.7481035447 
Si 6.0406415652 9.4122317661 21.0433776347 
Si 10.9711033303 5.5493025808 10.8954067319 
Si 6.4831268393 12.1914035315 14.2480283609 
H 5.7889121929 10.7010477079 27.9082055420 
Si 5.0463162462 4.9448784152 15.3665525515 
Si 3.6757407936 14.1376024293 17.4261061058 
Si 12.7421521465 9.8072642697 23.4702213074 
Si 16.0466438368 11.7379550874 15.1617395908 
Si 15.3140173701 1.7506374460 11.4374744724 
Si 9.6720246885 12.1608434912 25.5182632630 
Si 7.6746751902 0.1561267823 26.4982684455 
Si 9.8895939304 11.2099636025 22.0573917026 
Si 11.2779580631 9.7890031795 15.4162218858 
Si 7.9659566829 2.5737874435 20.0064572386 
Si 0.5163636827 7.3996348277 19.7292147016 
Si 14.1334484793 13.1498094003 0.0436704474 
Si 15.0904208280 14.8390335457 1.3748413293 
Si 13.5692443241 13.6070371244 5.3319445998 
Si 14.8990784863 14.9311372066 6.7230950011 
Si 0.2657143374 11.0955100615 10.9138136028 
Si 7.9988787732 7.9733849229 10.8715362342 
Si 15.2759150597 14.8057856554 20.3415207242 
Si 11.6542244866 7.9709414229 22.4347909913 
Si 8.7617394801 0.3949249896 22.7873556129 
Si 2.4168007121 13.9317456974 22.2713788815 
Si 8.4970758477 3.4855061719 15.5353406363 
Si 13.1432119502 6.1512995363 14.0461663430 
Si 3.9733265163 6.3859895684 25.3974206945 
Si 1.9607295779 12.4162544036 14.6670330214 
Si 1.3192424041 15.1765297688 20.3877716396 
Si 2.7607640652 1.5455105061 17.4103580051 

