&CONTROL
  dt          = 30.D0,
  prefix = 'aSiHcSi_merged-29',
  pseudo_dir = './',
  outdir='./',
 wf_collect=.true.,
 verbosity ="high",
/

&SYSTEM
    ibrav= 0, nat=  388, ntyp= 2,
  ecutwfc     = 42.D0,
  nbnd=1468,
  degauss     = 0.05D0,
  occupations = "smearing",
  smearing    = "methfessel-paxton",
/
&ELECTRONS
  electron_maxstep=200,
  conv_thr    = 1.D-8,
  mixing_beta = 0.3D0,
  scf_must_converge=.false.,
/
&IONS
/
ATOMIC_SPECIES
Si  28.08  Si.pbe-hgh.UPF
H  1.00784  H.pbe-hgh.UPF

K_POINTS {automatic}
2 2 2 0 0 0

CELL_PARAMETERS angstrom
16.29000014898320 0.00000000000000 0.00000000000000
0.00000000000000 16.29000014898320 0.00000000000000
0.00000000000000 0.00000000000000 29.18935068521919

ATOMIC_POSITIONS angstrom
Si 16.1898492281 0.3612665913 29.1587602457 
Si 16.0803315571 3.0360161978 2.6215627205 
Si 2.4872549627 0.2832228296 2.7946438944 
Si 3.0010904374 2.6008288438 0.0602328089 
Si 1.2395989643 1.6782121053 1.3486034614 
Si 4.0313840769 4.2294053187 1.4261624851 
Si 1.1535551836 4.3578845499 4.0210665717 
Si 3.8662849254 1.5783055344 4.1930794153 
Si 16.0699711170 0.2604640704 5.4406322636 
Si 2.4564505725 2.9707095872 5.4327511389 
Si 1.1368856264 1.6072430907 6.8380432383 
Si 3.8364905151 4.2731113891 6.8000678930 
Si 16.0857235471 2.9893453473 8.2094465015 
Si 2.5105333730 0.2312691321 8.1935674947 
Si 1.1574322036 4.2994686093 9.6319311285 
Si 3.8268957050 1.5285232940 9.6488609519 
Si 2.4574279725 2.9002879165 11.0427983938 
H 3.4202484313 9.2086719242 12.8145044124 
Si 16.0149923665 0.4174149638 10.9474659745 
Si 0.9109759043 2.4561736425 21.4852302228 
Si 0.2464644443 2.6793792245 14.7607919374 
Si 14.2091644000 7.8730873920 13.0475813776 
Si 14.5505539331 6.0071493249 21.8973838544 
Si 0.0900463967 7.7717473011 14.0426171531 
Si 2.0520024488 2.2569958106 16.3397314840 
Si 10.6769385076 13.7915539561 13.5706253525 
Si 7.4297550380 4.4791961810 15.7605563877 
Si 8.5614376383 8.4782934775 20.6215173360 
Si 14.0880808288 5.0537119062 25.9560171205 
Si 15.5000328818 6.2538776672 0.2532879635 
Si 16.1232068375 8.5109386378 2.7619868488 
Si 2.5461107333 5.6794433919 2.6261016646 
Si 2.3869900118 8.4175969370 29.0535034471 
Si 1.1128546182 7.1084836550 1.3552557144 
Si 3.9356151660 7.0208271642 4.0036989080 
Si 16.1242656875 5.6938437521 5.4647134779 
Si 2.6123132939 8.4082301869 5.4009931253 
Si 1.2848786488 7.0305034243 6.7605455122 
Si 16.2612971687 8.5424760781 7.9442320612 
Si 2.5308632931 5.6317951415 8.2260260527 
Si 4.3997335602 6.4958167494 9.3685556172 
Si 11.0127242807 5.6579568817 22.2637977736 
Si 4.1218750277 11.3892839242 21.5727982748 
H 8.7762050003 4.8611966845 25.0016712998 
H 4.1377414878 7.0647287146 10.7251015010 
H 7.7838181912 9.1384131536 17.0167200944 
Si 3.7040202339 10.3916680250 25.1162395013 
Si 4.0145565067 3.7998868848 12.5520629604 
H 11.9309427191 7.0223584242 13.2527533236 
H 0.6685839601 0.2065506859 23.2943569889 
Si 5.6868390520 5.0798899365 25.2855085459 
Si 6.4015139385 0.9007229782 25.3409391228 
Si 8.4997799877 14.8267997556 22.8258970997 
Si 14.8786182461 15.1704047287 18.6992526466 
Si 14.8607318259 15.0185493474 12.0498309925 
Si 7.7359093008 11.1942111724 26.2050314712 
Si 7.2913063267 0.3680350864 17.2689452737 
Si 10.6380542773 3.5156589622 26.4676480593 
H 7.1798990157 15.8743282152 15.9821327487 
Si 3.8334279951 9.6768465285 1.2531513657 
Si 15.8592273850 11.2934335633 29.0071799476 
Si 2.4854793527 11.1086886716 2.6114340159 
Si 1.0607119567 12.4961731443 1.2677080949 
Si 1.2064732490 9.8185043698 4.1230541630 
Si 3.8748860454 12.4581522839 3.9940372330 
Si 3.9125973958 9.7465677291 6.8536303515 
Si 16.0906431272 11.1966220924 5.4238483869 
Si 1.2046308500 12.4866760742 6.8521416947 
Si 1.1810103498 9.8159468398 9.4828027358 
Si 2.6078498339 11.1920608924 8.2718241439 
Si 3.7772763645 12.5317179246 9.8632567326 
Si 1.0215377643 6.1437572662 24.2374065308 
Si 0.5542982061 7.7375708808 19.4079700813 
Si 12.8956528179 3.8690216454 19.1704563347 
Si 11.9899776797 5.5769141310 17.9196926579 
Si 4.6318823524 13.9448917275 14.6457275170 
Si 13.9059423372 12.8236021473 23.7211052959 
Si 8.3331332862 2.4269330922 16.6402942280 
Si 15.6851361535 10.6792842677 10.8433767499 
Si 11.2630852930 0.2619122514 20.4638656529 
Si 2.4757542226 1.9224643676 25.3157487132 
Si 13.7896806061 2.3679958717 22.0254083465 
Si 9.1595249938 2.9959753774 18.7859742075 
Si 8.4426672472 6.3233382278 16.8705982049 
Si 5.4038328794 4.4651053308 16.8926069753 
Si 0.9929960551 9.8954909105 27.7729374432 
Si 16.0706390070 13.8833318170 2.6718501339 
Si 2.4704111026 13.9460808975 0.0644862811 
Si 3.8508257152 15.3207451401 1.3687411945 
Si 1.1444116065 15.1794456788 4.1062410970 
Si 2.5414029232 13.8098150463 5.4280516534 
Si 3.8801965855 15.1241737083 6.8698888199 
Si 16.1301626675 13.8272942165 8.2345785325 
Si 1.1290713133 15.2840111898 9.6382652176 
Si 14.0571461186 8.9137088915 10.8725077219 
Si 13.5294478537 8.1279607343 22.0632085557 
Si 13.4835100533 13.0538938794 15.8996728330 
Si 4.4384711806 2.3718403117 16.2758651847 
Si 9.4342232663 1.2165111471 14.9524784033 
Si 12.9705379486 7.7018794904 18.0619323638 
Si 15.9987349463 11.5061483852 19.5626736399 
Si 15.6207906529 13.7538914758 16.8542521685 
Si 16.2827185189 5.9008896540 10.9048203331 
Si 15.1541961786 4.4216599004 15.9490320251 
Si 6.2873536175 3.8577163853 11.8132804945 
Si 0.3680839564 3.6822893737 19.5573027994 
Si 15.6635844833 14.9732794369 21.0574310991 
Si 6.6656725810 12.1382981310 16.8117232846 
Si 3.9021229257 12.6509933057 27.9537070920 
Si 7.8631830719 6.0162880150 25.2955496825 
Si 4.7172419531 0.8462378147 0.0641497279 
Si 5.2815601383 2.9487995370 2.9250064535 
Si 7.8744231720 0.2043466489 2.6572525396 
Si 7.7089982205 3.2273585395 0.1214533855 
Si 6.5128072196 1.6564649551 1.3987128197 
Si 6.6966887412 4.3516291898 4.1715668638 
Si 5.2427247779 0.2147543300 5.5246392148 
Si 8.0182150033 2.9732182472 5.6008526095 
Si 6.5760938701 1.6166130988 6.9002165552 
Si 5.1563063272 2.9527580070 8.2627754452 
Si 7.9085181423 0.1505714036 8.1839058197 
Si 6.1095971359 4.7239697232 9.5406852182 
Si 6.3201616778 15.5718717824 23.5661682225 
Si 10.4270661954 5.3315215688 10.7778758470 
Si 16.0014065063 14.2740963405 26.4094153047 
Si 2.2239108203 13.9139081473 11.2537790206 
Si 9.0072949424 7.3508462772 26.8934623071 
Si 2.2469611705 5.9031865440 17.1402494265 
Si 12.6009178452 0.4004977987 22.3949455262 
Si 2.2728622708 3.7332607841 18.2177451177 
Si 0.2668888464 5.7966988130 20.6580624030 
Si 9.8576655302 7.6713194502 15.5202112741 
Si 11.6765254968 8.8793858612 16.4655667748 
Si 5.8998959640 4.9401706052 0.1125042225 
Si 5.2798496883 8.3038438659 2.5458338691 
Si 8.0146637833 5.7479428426 2.7338629094 
Si 7.8794730721 8.3426140663 28.7842900658 
Si 6.6953040912 6.9419835635 1.1527254047 
Si 5.2378377779 5.6732369019 5.4666399750 
Si 7.9766755030 8.4135733069 5.3972276991 
Si 6.6736709710 7.0248019242 6.7811823831 
Si 5.2922952484 8.3296635162 8.1728430558 
Si 7.9313078525 5.6752079919 8.2968394175 
Si 7.9079968623 8.3877210767 11.0851229523 
H 9.9941594414 4.1517345980 9.9456874590 
Si 5.0674932463 16.2533150686 27.0863163471 
H 13.0552296594 10.3016169042 19.7848921666 
Si 4.5181781513 10.2035511033 13.1103092922 
Si 9.3823559058 15.1050329581 12.1401428435 
Si 12.1212750809 1.4824958986 12.1110118715 
Si 3.6481292434 7.4271160579 22.0905881666 
Si 9.7480501192 2.5555100634 24.4129804752 
Si 0.0991345878 1.6863571054 25.0969161511 
Si 1.1730103307 12.9900696588 25.0762209015 
Si 7.1418292853 6.9290493034 23.2690498218 
Si 4.0822251673 3.3968559911 19.8475617026 
Si 12.3884799533 14.8738126960 14.7312815038 
Si 3.0754217081 13.1471541302 18.3406614734 
Si 5.1643861672 11.0239643808 29.0686819095 
Si 7.9825561930 11.0543452311 2.5040405568 
Si 6.5714512201 12.4236826436 1.1830093561 
Si 6.6179754605 9.7179461989 3.9363006973 
Si 5.2461782580 11.0637445612 5.3748686565 
Si 6.5441491799 12.3955172334 6.8590595708 
Si 6.5366394898 9.6870277786 9.6480728394 
Si 7.9300046525 11.0289165409 8.2343450177 
Si 1.7048299656 5.6418786516 26.4289429803 
H 7.0729225847 15.4819672716 14.0113553585 
Si 5.3143356186 11.1599207221 11.1165890724 
Si 15.2502420195 0.7049285794 15.1209301461 
H 13.6473874548 2.6602384743 14.4422485533 
Si 9.7119677688 5.3315704388 18.5791092792 
Si 10.2368804436 9.1701297839 25.8974340936 
Si 6.3332425479 1.5547925482 12.4440039841 
Si 15.3209406201 9.5311487672 22.6767978964 
H 2.0729188090 8.7927230604 10.1604627013 
H 8.9998341223 10.1162855725 26.2466262959 
Si 9.3119342352 6.2378483070 20.7038313049 
Si 8.6080270387 12.4508217839 22.3325095051 
Si 6.3617337582 9.6820104585 27.4821823210 
H 2.3078694811 12.3336478128 13.3451959972 
Si 5.2416496379 13.8319531565 2.6108181206 
Si 7.6639075001 13.8084955563 28.7836187107 
Si 6.5505185699 15.1475987285 4.0743663260 
Si 7.8938571422 13.7375851856 5.4140699544 
Si 5.1589778872 13.7321606156 8.2998459206 
Si 6.5753282401 15.0777797879 9.6018660973 
Si 5.1811485774 0.0872987624 11.0174620374 
H 11.6394983265 9.3595010356 13.4029325328 
Si 15.7996548545 11.5556862757 13.0583814373 
Si 9.2579817547 2.0705078889 27.8147074040 
H 10.3412178946 4.7381257333 23.2580746260 
Si 2.3322881913 11.5221451654 26.5725837750 
Si 5.7279875924 10.7799238886 19.9693688630 
Si 15.6977283236 2.8966878265 23.2361534236 
Si 16.1942312381 11.8167498181 23.3378491214 
H 15.4829772516 9.2900078950 17.0729971625 
H 15.3823702107 1.3074354120 28.2975284537 
Si 2.8479807260 13.2348594910 20.7568683551 
Si 4.9772140655 7.0731343547 24.0842500078 
Si 3.3629890808 7.1298561352 27.3054116133 
Si 3.8873967656 14.9111982464 16.8400953334 
Si 1.2778837227 15.3345916402 27.7797093726 
H 11.7395352174 15.3881205807 19.6568968639 
H 5.3274816487 6.7819668920 12.0585294190 
Si 9.2278452544 12.5762547850 27.5426042770 
Si 14.9764885670 16.0437116367 25.1479391361 
Si 9.3408164054 4.3213786595 1.4229283051 
Si 10.4734926958 0.4632973782 29.1076788820 
Si 10.6062724870 2.9396934269 2.8401209027 
Si 11.9167704190 1.6840439254 1.3482415135 
Si 9.2139661743 1.5587835983 4.1135968134 
Si 11.9793240196 4.3050072094 4.2193790202 
Si 9.4282448362 4.2564141389 7.0650780079 
Si 10.6219108871 0.1706524126 5.3793638165 
Si 12.0533294902 1.4698027304 6.7291669602 
Si 9.3959091859 1.4164643830 9.4738999838 
Si 10.9299873700 2.7556490052 8.3218255017 
Si 12.6737504359 2.7909168555 10.1702411338 
Si 8.0363294835 13.7104623354 10.8605692775 
Si 5.0447035361 8.1147984142 16.0323092426 
Si 6.9189006333 13.5029603135 18.7282376718 
Si 12.3951262734 2.9231590767 15.2346518564 
Si 10.2857993141 9.9476352010 19.9731050999 
Si 5.0423740661 0.5718897772 17.7787956621 
Si 10.7367879682 2.6272838040 13.6296170303 
Si 1.0165171863 1.7307636458 12.5374682850 
Si 0.2417680372 8.3824919867 24.3433054951 
Si 15.7532935141 8.4815677676 26.5548074604 
Si 15.8524507450 6.1509900263 27.1665578721 
Si 15.3242963602 7.8623359919 17.6052941616 
Si 2.0774637190 5.7218299723 22.2141174987 
Si 1.0444007796 0.1358346549 21.8175509803 
Si 11.1634230721 5.2088904476 0.1613181574 
Si 10.6134726671 8.3999385768 2.5589165361 
Si 12.0748160004 6.9591532236 1.4233019288 
Si 9.3810689958 7.0612752346 4.1008410671 
Si 10.6575045375 5.6820660820 5.5965325856 
Si 12.0503647102 7.0679215546 6.9106663428 
Si 9.2707042448 7.0607213746 9.6793346340 
Si 10.6888139178 8.3823779567 8.3037572936 
Si 8.0040589932 0.2148162320 13.3903519227 
Si 8.5411728781 9.4676829266 14.5535475475 
Si 13.3768920023 13.6887966352 10.8324891221 
H 8.6379517690 2.3351715214 10.3951158915 
Si 8.8182332006 10.2062878233 12.3123016338 
Si 10.6318152072 11.1352576618 22.0503652414 
Si 12.8043636571 9.3261391153 14.3662394841 
Si 5.4082311795 1.4037630698 20.0330308368 
Si 10.6331346972 10.6609905975 17.6695691118 
Si 8.9721411221 16.1279798075 20.8226903409 
Si 10.9501381001 16.0566784768 16.0749840733 
Si 5.9964630848 2.9636723071 24.2172366895 
Si 3.9503087461 2.1972603801 23.4180906464 
Si 2.8954986565 16.1058742773 26.1991644117 
H 1.6177159318 4.7957923339 14.2648940586 
H 14.4813214324 4.5619168017 13.1573625255 
Si 9.3102074951 9.7075857588 1.0034890115 
Si 10.6687283476 11.1850561923 28.8578180401 
Si 11.9613235694 12.5493111248 1.1571242399 
Si 11.9712115995 9.7467794991 3.9632424680 
Si 9.2616470047 12.4385391238 3.9530553846 
Si 9.3227996653 9.7209272689 6.8460994991 
Si 10.6085205070 11.0747566013 5.3591355965 
Si 12.0014947098 12.4235523236 6.6866380763 
Si 12.0941685206 9.7129451688 9.6938709306 
Si 9.4055854460 12.3640449531 9.5206029449 
Si 10.6756027276 11.0310016609 11.0529854772 
Si 0.3680839564 13.7805093360 12.9884437531 
Si 11.1934944124 6.1907376266 14.2763362840 
Si 12.9577502985 3.0487386879 26.8968482718 
Si 0.4133196578 9.5936697877 20.7658586751 
Si 5.2199676477 13.7949096962 24.7103615800 
Si 4.6317357424 5.0979718366 27.3551794562 
Si 8.7775244903 11.1326349718 16.2350000937 
Si 2.8870115664 5.4752482401 13.7098001766 
H 2.3439192514 7.9076547723 11.5896900683 
Si 3.3778944309 11.9137241890 14.3470912701 
Si 0.9543773517 12.2116031317 17.6256391391 
Si 9.0889567131 15.1930152490 1.0879221273 
Si 10.5305728563 13.8647775068 2.5116794099 
Si 11.9626919294 15.1730599988 3.9261428033 
Si 9.2646117847 15.1074601682 6.7658871634 
Si 10.6601923875 13.7412667257 8.0816847136 
Si 12.0764938704 15.0480505376 9.4279267565 
Si 9.2085741842 13.2522246312 15.3459508505 
Si 10.3794668149 9.2656380547 23.5774936905 
Si 2.9869995873 15.1621945687 22.1188434581 
Si 4.5380682415 1.9441463578 13.9492112309 
Si 12.0213685099 12.5918931852 17.7825027096 
Si 2.7263432949 0.4681094443 13.6320105570 
Si 5.7043670922 5.0503724562 19.4804764284 
Si 8.1837051148 8.9705935720 22.8813568660 
Si 4.7601498135 8.5114273378 25.9920075899 
Si 11.8587780185 7.4473971081 23.5705174357 
Si 7.7347527107 11.9414823492 20.2019204199 
Si 7.1913997558 12.0629731703 12.3317709307 
Si 13.3603902322 0.3395292151 2.6630787340 
Si 12.8244818073 3.4612503617 0.0645417409 
Si 14.5973062335 4.3798271801 1.3437784618 
Si 14.7511815749 1.6666299152 4.0477748276 
Si 13.4120784027 2.9659203271 5.5080304743 
Si 14.7432483448 4.3830526001 6.8933570578 
Si 13.4308933528 0.1409389636 8.0942069450 
Si 14.6220833237 1.6499652451 9.4648220958 
Si 11.9454896892 10.3865203850 26.9703178674 
Si 12.0886136306 12.3879098033 12.3509483341 
Si 12.3769629232 8.7677342002 20.0741878213 
Si 2.7570010752 7.6994034104 18.5628800002 
Si 0.5229660198 12.9026412280 21.2628073705 
Si 9.8660060102 4.7447883434 12.9777896401 
Si 0.1295045238 6.4215506387 16.0696424221 
Si 12.8832561278 4.4655940308 21.4131325266 
Si 1.7682306462 10.0815227122 23.8537417054 
Si 12.7630359267 5.1331419469 15.7559152809 
Si 14.2658210205 15.1188957483 23.0390669278 
Si 1.5418371111 6.9241785933 12.4007453664 
Si 15.2735367197 5.0740744064 23.9207604546 
Si 12.4666067940 6.7870656621 25.8469948957 
Si 4.0628400672 6.0057320949 15.6982955027 
Si 13.3599504022 5.6591786318 2.8893604184 
Si 13.7998292762 7.9555310828 0.1910101487 
Si 14.7704200651 7.0834947948 4.1189092752 
Si 13.3239820819 8.4143063570 5.4119683212 
Si 3.8601761753 15.0443527076 12.5351915157 
Si 13.5423006639 5.8853489938 8.3204536022 
Si 15.0460142876 7.3066026368 9.4393981713 
Si 0.6198214737 9.9998283615 14.3549432054 
H 13.5428382339 14.4418344721 18.8896255918 
H 12.0107148498 13.7658157559 21.4359294095 
Si 2.9487180870 14.4839441225 24.4299394879 
Si 6.4051628986 8.5601181483 19.6716666753 
Si 12.2846800724 1.3724716086 17.0039059695 
Si 9.8233750798 15.3864101307 24.7866041640 
Si 7.3653280874 5.2271515378 21.5600133392 
Si 10.1948196632 14.2332410202 17.3106860452 
Si 0.2909149677 15.0185493474 15.1274101820 
Si 4.7629842736 0.3495491942 22.0970973918 
Si 2.7738286454 3.5810470228 27.0641616299 
Si 6.8879333430 7.9871988430 17.4733582965 
Si 2.5967726337 9.5779499376 21.7643096047 
Si 4.6158692822 7.0930244449 19.9721126619 
H 15.9010275254 2.4700853026 26.3020568728 
Si 7.8593875019 3.1227115786 22.6775276302 
Si 14.7279357447 9.8125096497 1.3162062011 
Si 13.2916953016 11.1645470821 2.5978668057 
Si 14.7096583645 12.4807302241 3.9789463387 
Si 14.7016111045 9.8061728397 6.7209647527 
Si 13.2999054616 11.0835857814 8.1309563375 
Si 14.7336698247 12.3596629430 9.4710102381 
Si 6.6441372008 7.1512937754 12.6975718735 
Si 12.6125977754 12.3976512234 21.7757518301 
Si 10.7636338884 0.0807948169 10.8174566065 
Si 2.1682804698 16.1964303881 15.8637115530 
Si 8.6514887591 0.9198360354 25.8375083567 
Si 6.8563959027 13.0458629093 14.5876115197 
Si 14.9040306463 3.2117038494 18.0821897731 
Si 11.3882576542 0.7948607833 24.3313670507 
Si 10.7286755481 5.7897266930 27.1263933255 
Si 14.5455529030 0.9224847894 17.4248747850 
H 14.4339338220 2.0838493991 20.6815598303 
Si 5.1307147369 11.6561792866 23.7238199055 
Si 5.6993497721 13.9813976179 27.0934969273 
Si 7.3854462375 11.0326306609 23.8075349633 
Si 12.7402299265 5.1003501766 10.4362728759 
Si 14.5298167629 12.8383934674 27.5731655271 
Si 12.7923253470 12.4058288035 25.9136049939 
Si 13.5602522440 11.9157930190 19.6169658322 
Si 11.3365857737 2.1199317494 18.9940650885 
Si 13.2888282615 14.1053482290 29.0990972129 
Si 14.7520775249 15.3041130500 1.3037335916 
Si 13.3394412920 13.8191003464 5.3333030211 
Si 14.7635619750 15.0856315680 6.7487822039 
Si 13.5989409944 11.5318865855 14.0117056307 
Si 2.9315484268 3.5660602226 21.8693620778 
Si 7.5568821991 5.0684869364 13.4163888235 
Si 3.4926249019 9.4745247267 17.1541435574 
Si 14.2797001006 5.6628927518 12.1260443871 
Si 12.9750339887 0.7250125206 26.1372537989 
Si 2.0008844283 10.8464522492 15.9783673225 
Si 6.2210533169 8.9164293215 14.1956569187 
Si 13.4457824130 8.5621218183 27.1199132897 
Si 4.6801984928 11.3639855539 17.9428690023 
Si 7.7811792112 1.9085852875 20.5641894512 
Si 10.8495636392 13.8785588469 26.3404116796 
Si 13.6312766447 0.1013803272 13.4644053054 
Si 8.5016696278 15.1778981288 18.6982893980 
Si 11.9246221991 15.5014175318 27.7217101328 

