&CONTROL
  dt          = 30.D0,
  prefix = 'aSiHcSi_merged-19',
  pseudo_dir = './',
  outdir='./',
 wf_collect=.true.,
 verbosity ="high",
/

&SYSTEM
    ibrav= 0, nat=  388, ntyp= 2,
  ecutwfc     = 42.D0,
  nbnd=1468,
  degauss     = 0.05D0,
  occupations = "smearing",
  smearing    = "methfessel-paxton",
/
&ELECTRONS
  electron_maxstep=200,
  conv_thr    = 1.D-8,
  mixing_beta = 0.3D0,
  scf_must_converge=.false.,
/
&IONS
/
ATOMIC_SPECIES
Si  28.08  Si.pbe-hgh.UPF
H  1.00784  H.pbe-hgh.UPF

K_POINTS {automatic}
2 2 2 0 0 0

CELL_PARAMETERS angstrom
16.29000014898320 0.00000000000000 0.00000000000000
0.00000000000000 16.29000014898320 0.00000000000000
0.00000000000000 0.00000000000000 29.27633928601476

ATOMIC_POSITIONS angstrom
Si 16.1786742880 15.9159165856 28.8802889682 
Si 16.1833332280 2.4797941427 2.5251486714 
Si 2.5477886033 16.0504231168 2.4470247600 
Si 2.4969475128 2.4799896227 28.8453622954 
Si 1.1698028297 1.1239171573 1.0086694280 
Si 3.9299788259 3.7367794242 1.0821325461 
Si 1.2474409704 3.8527805152 3.8933139800 
Si 3.8896773656 1.0566981007 3.9198090670 
Si 16.1906637281 16.1090345373 5.3412631684 
Si 2.5185643430 2.4277150122 5.2895904295 
Si 1.1750302907 1.1365125854 6.7962679545 
Si 3.8627662853 3.7654009544 6.6479832961 
Si 7.6306433198 7.3629171673 11.0485098541 
Si 16.0314615566 2.5128954230 8.1482200264 
Si 2.5529688233 16.0290017666 8.1469025912 
Si 1.1824536438 3.7597971944 9.5248520523 
Si 4.0071934266 1.0398900785 9.4373450742 
Si 10.7391825982 2.2464398905 26.6784740431 
Si 0.6577266750 7.8774205320 13.0792338524 
Si 6.5282501397 6.3999175185 25.9155619177 
Si 8.5398859681 0.2059626169 13.0778578644 
Si 7.5833045794 6.9556345836 14.8724974627 
Si 13.8849933970 3.8657473554 24.9916884788 
Si 9.8117114397 6.5511538799 27.9707316592 
Si 4.6713367327 11.8509262384 22.7300327163 
Si 0.7729148951 4.9747705655 19.8528126440 
Si 14.0148735682 7.6453694799 24.1466854980 
Si 3.7648633844 1.0350030785 27.3949831708 
Si 16.1689491579 5.2278031378 29.0206397387 
Si 16.1282404475 7.9293693425 2.6193452930 
Si 2.6206049040 5.1976014775 2.4755633355 
Si 2.4168658721 8.2459329154 29.2019188315 
Si 1.1957804929 6.6101399705 1.1750878510 
Si 3.9386776860 6.5291135097 3.9309340759 
Si 16.1856626980 5.2086298076 5.3338855309 
Si 2.5688678635 7.8401490117 5.3916770246 
Si 1.1938142899 6.5274030597 6.8262176496 
Si 16.0592197169 7.8781861621 8.2253339041 
Si 2.5660008235 5.0822519865 8.1097216403 
Si 4.4562109908 5.9712950346 9.2325863572 
Si 7.0696971647 12.9395543683 19.8115037292 
Si 9.0049491824 3.8168447749 12.4364718233 
Si 3.6958589438 9.1066150733 12.1296850640 
Si 13.6827693351 6.0515069953 25.8712375400 
Si 11.9750886195 2.3788287218 12.9133833903 
Si 15.9146622556 2.6418796442 25.9049053302 
Si 10.0933492523 6.1092061759 24.8217686056 
Si 2.7534498552 0.2965610817 16.8564964234 
Si 16.1942963981 15.2066662691 11.3793032117 
Si 5.6953424321 12.3742262032 12.8104185050 
Si 2.2869857009 11.4581580448 26.3437869324 
Si 10.6376796073 1.4082721419 15.8880643961 
H 8.3357233962 10.7219966481 25.2678521873 
H 6.0380025852 7.1219880651 17.4178702292 
Si 14.3121497809 13.4393641529 20.7135370190 
Si 10.1282098526 4.4938897611 15.9571858332 
H 8.1858228149 9.4848037167 13.3730511934 
Si 3.9781483564 9.3408489854 1.2909636019 
Si 16.0359575967 10.8966580297 0.1145714900 
Si 2.6081430539 10.6127233271 2.7301591648 
Si 1.3642533035 12.0514398502 1.3242859313 
Si 1.2185995251 9.2400953345 4.0432088371 
Si 3.9967515366 12.0147547699 4.0351285675 
Si 3.9439556461 9.1760267639 6.7701534599 
Si 16.1389103976 10.6347636973 5.3579506818 
Si 1.2154050561 11.9926655297 6.7266195434 
Si 0.9429776096 9.5472432873 9.3913226688 
Si 2.5915272537 10.5938920869 8.0768443112 
Si 3.9458127061 11.8401911283 9.5483024001 
Si 6.7244794815 16.0109035764 16.6835903636 
Si 10.7847457286 10.6732243876 26.9077956088 
Si 12.7742597368 0.4398006820 18.6469495051 
Si 12.8375789674 10.1802075331 21.3789003819 
Si 4.5813181919 4.8953405248 15.7893445801 
Si 15.5579275423 0.2259308991 26.5190643757 
Si 10.9687575703 7.7494625809 13.1381378470 
Si 14.2594516304 6.0715925655 11.6381353274 
Si 11.8820564287 3.6328655132 19.9419005444 
Si 13.7485972257 10.2309834636 13.0725295707 
Si 9.8474517001 8.1787040848 23.7916513315 
Si 6.4560691490 6.4900500894 23.5441491592 
H 15.5553048523 4.1644245081 14.1506893176 
Si 8.5337446380 3.0380524478 27.0219147793 
Si 13.3542651921 15.6457143531 25.9870840146 
Si 2.3938318119 3.9732939363 15.9345844993 
Si 11.7346156373 2.8125662657 24.5907490123 
Si 5.3454169389 6.6108241505 14.3560921140 
Si 16.1733800379 13.4198813127 2.5756591395 
Si 3.2736710099 12.8312910274 0.0493959179 
Si 4.0804332673 14.7196767146 1.2024026755 
Si 1.2444973674 14.7559545450 3.9508419866 
Si 2.5753024136 13.3689261923 5.3556964036 
Si 3.9354196860 14.6554289540 6.7925205831 
Si 16.1442372277 13.3827726924 8.1042469648 
Si 1.2608639305 14.6133681736 9.5421543688 
Si 13.1654478004 13.5078636035 26.9619275601 
Si 5.3324663888 1.8868381373 13.9934460993 
Si 13.6604031649 6.6314635806 19.6781792801 
Si 4.2663999090 8.0634849137 20.2624179069 
H 15.5064511418 2.0136557884 15.3126086711 
Si 10.2304296036 10.3043536242 15.6860576551 
Si 2.1758064499 7.6298125298 25.7209913668 
Si 6.1993224567 14.8363619857 24.8566660020 
Si 3.4208348713 1.8906988673 21.7704714199 
Si 6.3086283577 4.2779332291 22.7653107051 
Si 6.6340048207 4.5642625617 20.4607651056 
Si 15.5847083025 12.0020159898 19.3010122011 
Si 4.2507615089 3.3238767904 23.4916274065 
Si 4.3872717101 16.0757866470 22.0216624109 
Si 3.6658527635 9.6209229580 25.7399624346 
Si 4.6263763323 9.7004181587 23.6202090886 
Si 16.0349801967 2.8658671462 12.7924721091 
Si 5.2297416478 16.0510910068 28.8258642534 
Si 5.2580373781 2.3732738317 2.5149107355 
Si 8.0091414732 16.0374399867 2.4732768534 
Si 7.5757948893 3.0064824275 29.2021823186 
Si 6.6316101907 1.0876491009 1.0019797844 
Si 6.5932961103 3.7939247447 3.9362038170 
Si 5.2515539580 16.0067984964 5.3382477054 
Si 7.9864332130 2.4454385324 5.3077710362 
Si 6.6298020006 1.0915994260 6.6646122568 
Si 5.2543721281 2.4435977623 8.0043560952 
Si 7.9559546228 16.0926956672 8.1170992778 
Si 6.3006462576 4.1132413276 9.2616870385 
Si 3.5476362324 13.4139843327 27.0653901431 
Si 10.7115221780 4.6933608129 10.9698443305 
Si 14.5542191831 9.4655326466 25.5076839587 
Si 1.0004242951 5.9224739042 16.2183015033 
Si 12.6137217854 5.1408308270 18.1897116381 
Si 15.2443450394 5.3190434286 15.1964401569 
Si 10.3582083647 0.5362863529 21.3649648444 
Si 4.7163297131 0.1573618901 15.5096677109 
Si 3.8464762852 2.7477809351 19.6256575274 
Si 6.4741184692 0.3864069485 20.7973551783 
Si 15.7957941245 15.3691101506 15.7203402484 
Si 9.2189834943 7.2405466862 18.5509816649 
Si 4.2625554690 14.2615041704 12.1441475756 
Si 5.7360837225 4.6491334625 29.1059802677 
Si 5.3405462288 7.8616192319 2.5402406243 
Si 7.9775877430 5.2535250480 2.6861773203 
Si 8.1681318747 7.8264165416 29.0951772985 
Si 6.6932026812 6.4765456792 1.1122725374 
Si 5.2738712582 5.1745511273 5.3523003483 
Si 8.0753440339 7.9566550928 5.4273356059 
Si 6.7070003113 6.5606020800 6.7021445237 
Si 5.3905565293 7.8843763621 8.1632387885 
Si 8.0252848634 5.1630666772 8.0665975925 
Si 1.8682186671 7.0127799041 23.4498500703 
Si 15.2852492298 5.7277595324 21.2445512609 
Si 12.3474780229 12.9344718883 17.3628892640 
Si 12.6473280557 9.1914045241 26.9923164003 
Si 2.6933397546 5.2969053184 26.2597052860 
Si 2.5569435834 10.1248541126 17.5508433622 
Si 1.8015599865 7.8952580822 15.0633499185 
Si 8.1124363642 2.9265636868 23.4170898467 
Si 2.8539102861 15.4746856415 26.0447291266 
Si 7.9336373226 13.1363701501 13.3124198948 
Si 8.2659533256 0.7458018188 22.3811465810 
H 15.1407732185 11.8888982287 28.6747397900 
Si 15.2751005597 13.0011794389 11.6385159198 
Si 13.5679899941 4.0104025567 16.3064525609 
Si 4.5139590413 6.3852728084 17.5797683854 
Si 4.9698346955 11.0434146410 29.2588613115 
Si 7.9798357630 10.5614586966 2.7165017526 
Si 6.7086293114 11.9525269693 1.3140743441 
Si 6.6321151807 9.2025468842 4.0449946938 
Si 5.3058811085 10.5926214669 5.4322247545 
Si 6.6739479010 11.9088208989 6.8728548581 
Si 6.6675133510 9.1900361640 9.7621367822 
Si 8.0265066134 10.6294531572 8.3837774523 
Si 14.8973680362 9.9432043209 20.2534593471 
Si 8.1384840744 15.0627766978 14.8890385943 
Si 2.5642415035 14.5084442827 21.6461348069 
Si 12.0426595401 4.1623393881 14.4780280671 
Si 2.4147318821 12.4893476342 22.8764436891 
Si 14.7686281651 15.3472326804 21.9742932940 
Si 2.5826654936 2.2951469910 10.7935129390 
Si 12.0374141601 1.1715735527 22.9257450444 
Si 14.7590496450 3.9844037164 22.7672429435 
Si 8.5454408582 5.9627102045 20.4720657725 
Si 14.8342442857 7.1125235750 13.6844050617 
Si 11.6615224067 7.2195651660 20.9421559524 
Si 11.7185048272 13.3829518824 13.5046190622 
Si 5.4057876794 13.3941268225 2.6663952979 
Si 8.5510446182 12.7803847769 0.0835303730 
Si 6.7475298317 14.7154087346 4.0411009407 
Si 8.0263762934 13.3241286919 5.5129396219 
Si 5.2900798084 13.2713002214 8.2128036309 
Si 6.7010218813 14.6664247041 9.5216902077 
Si 14.9478670367 9.6014075378 16.7060160395 
Si 10.2694441539 12.7086110362 21.6505555342 
Si 1.0815484959 11.9237914091 14.6808252693 
Si 11.8620197285 15.0025851472 11.7242663175 
H 4.6480746125 14.3420256412 17.3644701863 
Si 15.1412782085 8.2138090351 18.6609143189 
H 5.8507164535 4.6502086025 11.8659052470 
Si 6.4086978286 3.3901282210 15.4912821698 
Si 10.9072791098 6.4425647389 17.0727900180 
H 8.7863373804 9.8798525104 15.8627110863 
Si 5.7921864830 9.7906158895 19.7661546797 
Si 7.1948695258 2.0288054886 17.2964319738 
Si 3.1582726489 14.3411948512 17.5541515886 
Si 15.9280363457 7.4224896979 22.7520192471 
H 15.9468675858 2.3693479417 15.8591393729 
Si 10.0360573218 15.4471229613 16.2642360796 
Si 9.2834593149 3.8362135851 1.3655275104 
Si 11.2708067531 15.5528776422 0.0554171826 
Si 10.6925931978 2.4190161521 2.6362758000 
Si 12.1232950409 1.0004959712 1.3998862222 
Si 9.3309283753 1.0507017516 3.9583952822 
Si 12.0818207005 3.8352361851 3.9580732425 
Si 9.3613580956 3.7599763844 6.7259169112 
Si 10.6897261578 16.0005105563 5.3714470742 
Si 12.0173285899 1.0572438157 6.7505090362 
Si 9.1160632734 1.2367856813 9.6097241599 
Si 10.6678975576 2.3736159217 8.1649368162 
Si 12.3033158325 3.4957037120 9.4412388273 
Si 13.5993808244 12.0603830603 22.5510371779 
Si 2.3641351416 4.7066045830 23.9496850110 
Si 9.3882691759 15.4391571512 18.5641267413 
Si 12.0560662103 5.6851448920 12.6022051800 
Si 7.6004253695 2.7558933552 10.8250728327 
Si 11.8066011480 13.2323345410 23.4927106310 
Si 8.0083758432 12.0879620306 21.8777106507 
H 3.7786773046 4.3530138398 13.0690456863 
Si 9.4961741368 2.6637571144 17.4853521913 
Si 7.5304435289 7.8820631821 17.0507156582 
Si 13.6883893852 8.7650952202 14.9093563738 
H 5.1161026068 7.0185302742 23.1016372909 
Si 0.2395574842 1.2627437965 19.9588515448 
H 9.1465418637 9.7078301088 11.2697511501 
Si 0.7112995985 15.0666211378 25.0986349462 
H 14.3291891211 12.5685333249 26.6717404851 
Si 10.8207303390 5.0777070764 0.1234067964 
Si 10.7482561283 7.9576487828 2.5811338150 
Si 12.1743316113 6.6389732707 1.2189906494 
Si 9.3846039258 6.6057416704 4.0014900536 
Si 10.6901171178 5.1589615972 5.3338562545 
Si 11.9682956895 6.5156416796 6.7577695684 
Si 9.6972904787 15.7574800441 11.1830053568 
Si 9.3675808757 6.2878097375 9.6828564555 
Si 10.6864192877 7.7930872013 8.3050533760 
Si 15.0235015074 0.9945745561 11.5911175265 
H 3.1455990288 7.4436341181 28.1422324548 
Si 4.6011105421 10.1314026927 16.2012919502 
H 15.9222533956 15.7803674943 17.2238266524 
Si 2.8934624065 7.9611674228 18.3637594752 
Si 3.3606759007 15.0479039276 14.1631903144 
Si 3.7005341738 6.8746569929 11.2588603519 
Si 6.1990943967 2.4209057921 19.4633495024 
Si 2.8853662764 13.1931896707 15.4747703144 
Si 10.6386732973 14.6724357142 20.3883939949 
Si 11.1784750322 16.2276908984 27.0487611824 
Si 14.3285538110 0.7828957782 20.3848515578 
Si 9.3395783654 9.3230765953 1.2286225650 
Si 10.2562492538 11.0990938615 29.2161471324 
Si 11.9793240196 12.0373652901 1.2785914209 
Si 12.0528245002 9.2865218349 4.0435308768 
Si 9.3362877854 11.9332884791 4.1209082416 
Si 9.3683953757 9.2607347647 6.9627917724 
Si 10.7028558979 10.5744906967 5.4896649322 
Si 12.0962373506 11.9151088390 6.8293502179 
Si 12.5265702846 8.7891229704 9.4814059648 
Si 9.4385726963 12.1008474207 9.6838811273 
Si 9.6282534581 14.6902081044 26.0432653096 
Si 2.5798147436 13.1732995805 10.9011034858 
Si 4.7576248635 5.8211663932 19.8310603239 
Si 8.3712355966 13.7908534861 10.9767535465 
Si 12.6373585756 14.3717223114 19.2134466703 
Si 6.5941594803 9.9612047711 17.5522486265 
Si 7.7839159312 9.7073251188 21.1146814199 
H 1.6079060937 1.2119010771 11.2961584082 
Si 1.6065344757 2.4473444624 14.2056995591 
Si 1.0385624435 11.9091955689 12.2702700452 
Si 5.6143159713 10.2294684936 27.0442233498 
H 0.8967058642 16.2968419490 19.4151606480 
Si 1.1179924842 3.9037682157 27.4811727137 
Si 1.6352227950 11.4218802145 19.3926764194 
H 14.3462121712 1.5311557580 28.4249247869 
Si 4.9680427954 11.9912320097 20.3348475703 
Si 12.0376748001 3.5697254726 28.1077742034 
Si 9.4726513766 14.5956935235 1.2774994135 
Si 10.7223876081 13.3103636417 2.8040848492 
Si 12.1400574510 14.6483428040 4.1107200755 
Si 9.4254429562 14.6896542443 6.8778903885 
Si 10.8526913193 13.3307261419 8.2463835920 
Si 12.6213780854 14.2993621308 9.5290385688 
Si 3.0199868376 13.2772297814 19.6488443881 
Si 10.7610763584 1.6358092350 19.2768299448 
Si 3.4910121919 2.8870278564 12.9060643055 
Si 5.3059462685 15.9571465759 10.8633955608 
Si 4.9786638755 2.1497750297 25.5189846257 
Si 11.2016719924 12.8110914272 25.7785779262 
Si 8.2295614653 4.6991274730 14.5775090680 
Si 8.1607687946 16.0322597666 24.5940572386 
Si 13.3752630023 2.5559498934 21.5072185770 
H 2.1066553993 5.1985300075 13.3931054859 
Si 15.3108896900 11.1694666622 23.9603123221 
Si 0.0862083098 8.3903111867 26.6109335284 
Si 6.5606998200 12.7566665367 23.7472976775 
Si 13.5225734737 16.0403070267 2.7711548228 
Si 13.4985945935 2.3490180215 0.1042861265 
Si 14.8383004957 3.9047130357 1.2249571673 
Si 14.8354986157 1.2148397931 4.0362410683 
Si 13.4053180526 2.5118039930 5.4281553434 
Si 14.7925744653 3.9316892760 6.7413455420 
Si 13.4410583129 16.1161369774 8.1915782849 
Si 14.1984455799 1.7143759057 9.4752286572 
Si 1.4993984027 0.1170003197 14.8196829466 
Si 5.2335697979 10.6016135470 11.1265312983 
Si 12.9561050085 1.5847824385 16.5238293801 
Si 0.8921316322 9.8816932804 15.9276167305 
Si 9.8532020701 1.9776385981 13.7111636359 
Si 10.9987474606 10.9370572300 20.1011638301 
Si 7.3631615173 1.8627289370 25.4084664449 
Si 5.7965196230 14.3879960216 27.1631145637 
Si 16.1071611873 9.7150465789 22.2279142212 
Si 4.9917121657 4.7826463037 26.7986241396 
Si 4.4387155306 16.2429546286 24.3957100400 
Si 8.1239208143 7.6218304297 22.2240497444 
Si 3.1521801888 8.6078152687 22.2152375663 
Si 11.6033019461 7.0755778547 26.4184123213 
Si 8.6077501087 8.0664496938 13.0862308975 
Si 12.0169702099 14.4320604720 15.5753345399 
Si 12.1304952209 8.4238848770 22.8741015819 
Si 13.4784764433 5.2507557480 2.6269981281 
Si 13.4628054631 8.0631754037 28.9986824842 
Si 14.7849670352 6.6043896004 4.0509963433 
Si 13.3984436725 7.9381333626 5.4603007639 
Si 13.3484333721 5.2078478876 8.1370950175 
Si 14.1714856296 7.0305522943 9.4632546345 
Si 0.7117654925 15.6188684328 22.7519606944 
H 0.8636746309 15.2473261094 12.5521133635 
Si 9.9056558706 8.8691720311 20.1290641815 
Si 13.0016681389 15.3951252808 23.6229610645 
H 7.8847347421 12.7739990968 16.8349197613 
Si 15.4146569910 13.0408130093 15.3449590261 
Si 9.9363299409 11.7891545578 13.6600471475 
Si 13.6428751248 16.1300975075 15.1198825296 
H 5.9717185746 9.0351997126 23.8195224065 
Si 0.8293125046 6.8328079825 18.4062979962 
Si 7.1949346858 8.4479452073 27.0251937293 
Si 10.4974064160 11.4509904447 17.7900603305 
Si 0.8745400610 12.5779489450 24.7385652494 
Si 6.5967007203 1.1108802702 12.1841097787 
Si 1.6919282855 6.0162880150 12.1957617617 
Si 1.8823909672 10.5334724763 21.5908610783 
Si 14.7365694448 9.3273608653 1.2797976061 
Si 13.3750675223 10.6761565876 2.6445288001 
Si 14.8081639954 12.0336674601 3.9739117420 
Si 14.8137514655 9.3191018352 6.8004837474 
Si 13.4746645832 10.6421104873 8.2731421662 
Si 14.3589183713 12.5775416950 9.4655967416 
H 0.9056539613 14.8059648454 28.6512016132 
Si 1.4219769190 9.6344762381 11.7098916349 
Si 8.0961137840 11.8159190281 17.9667137618 
Si 1.1557706236 1.5392339691 22.1311559199 
Si 13.1780888405 0.3752597014 12.8589293992 
Si 2.9539308870 4.6411024924 20.7382169730 
H 15.0020312872 9.9157882507 12.2611943800 
Si 8.5570556283 5.3449771089 26.4122935663 
H 13.0745007296 4.3495114898 27.3173130427 
Si 10.1880593132 10.7974356387 11.5106954224 
Si 12.0096071298 9.3779413158 11.7140195988 
H 5.8322924633 12.9363941083 15.8466676524 
Si 5.7511356826 6.1469012362 12.0922113497 
Si 7.9394528526 13.4341350629 27.2218136239 
Si 0.3509876012 3.0583334980 18.5285559890 
Si 12.9239648382 13.8128286963 0.0329142172 
Si 14.7648000150 14.7804709952 1.1943516822 
Si 13.4957112634 13.3170588318 5.4983307286 
Si 14.8517886158 14.8130021255 6.7627172697 
Si 1.2253663912 9.9222228007 27.9328773525 
Si 4.0118360767 8.5352758981 14.4698306921 
Si 11.4499641747 8.2465519354 15.4014916372 
Si 10.1895417032 4.2047096785 23.4483569770 
Si 2.4435488923 2.4440864624 17.7656731399 
Si 7.0828757748 11.7313087673 25.8276450708 
Si 9.1095472733 9.3269861953 25.7995690614 
Si 7.0989865849 15.1939926490 19.0000221569 
Si 10.5898032969 5.0887028265 21.2682065431 
Si 13.9258975874 12.5358067146 13.5037993247 
H 16.1683790079 10.6432019173 9.3233137327 
Si 14.4898899725 11.8904457787 17.2019572270 
Si 0.5121282827 3.1748558690 23.7020364569 
Si 4.8848334747 12.1153618108 15.0295942993 
Si 16.2564101687 4.6859814429 11.3260788269 
Si 15.0053707372 6.7938911721 27.7136268476 

