&CONTROL
  dt          = 30.D0,
  prefix = 'aSiHcSi_merged-16',
  pseudo_dir = './',
  outdir='./',
 wf_collect=.true.,
 verbosity ="high",
/

&SYSTEM
    ibrav= 0, nat=  388, ntyp= 2,
  ecutwfc     = 42.D0,
  nbnd=1468,
  degauss     = 0.05D0,
  occupations = "smearing",
  smearing    = "methfessel-paxton",
/
&ELECTRONS
  electron_maxstep=200,
  conv_thr    = 1.D-8,
  mixing_beta = 0.3D0,
  scf_must_converge=.false.,
/
&IONS
/
ATOMIC_SPECIES
Si  28.08  Si.pbe-hgh.UPF
H  1.00784  H.pbe-hgh.UPF

K_POINTS {automatic}
2 2 2 0 0 0

CELL_PARAMETERS angstrom
16.29000014898320 0.00000000000000 0.00000000000000
0.00000000000000 16.29000014898320 0.00000000000000
0.00000000000000 0.00000000000000 29.22087183550747

ATOMIC_POSITIONS angstrom
Si 15.3493178004 0.6355022278 29.2141802559 
Si 16.2068885682 2.6503667342 2.8048150586 
Si 2.4845996927 16.2620465087 2.4945595298 
Si 2.4333676423 2.7071373848 29.0160627448 
Si 1.0464321426 1.3649163065 1.1580669821 
Si 3.8051159748 3.9962791265 1.2439442024 
Si 1.2715517996 3.9601967762 4.1959418703 
Si 3.8750815254 1.2913783588 3.9196585271 
Si 16.2267134984 16.1617001078 5.5202610028 
Si 2.6582999643 2.5970006938 5.5274201164 
Si 1.3071063540 1.2255341782 6.9177491983 
Si 4.0120967167 3.9698730363 6.9386129008 
Si 16.1989553382 2.4698083726 8.3863025542 
Si 2.8062457457 16.1539949377 8.1411102186 
Si 1.3151096310 3.8476165852 9.6989041170 
Si 4.2089124985 1.0685995748 9.6860177125 
Si 7.0459300544 16.0540720768 16.2798827675 
H 4.7323102033 9.9241287308 13.5795527803 
Si 5.2022278376 11.5296874354 19.5059254598 
Si 1.5578306332 12.0104867898 23.2511646030 
Si 12.6824492960 14.5115719627 26.4408565308 
Si 16.0693032270 0.6622846171 18.1739796798 
Si 6.6815879111 14.4684523323 14.4231593502 
Si 15.4602201214 1.0013984372 22.3914573327 
Si 3.0239778877 0.7326215797 25.8216954775 
H 11.5101394353 14.5904318534 18.7150917845 
Si 12.7016552062 13.4384030429 11.3244027755 
Si 5.5414182207 11.1720241922 13.3496721815 
Si 8.5830870485 6.6787534511 18.0411708173 
Si 13.9819026079 10.5058935061 12.8291607915 
Si 15.9689242460 5.4551137999 29.1253195846 
Si 16.0937382272 7.9891536431 2.7171612094 
Si 2.5449215633 5.3146288386 2.7422064186 
Si 2.4847463027 8.0528149636 0.0376876194 
Si 1.1451511725 6.6376374907 1.3468951780 
Si 3.9274864559 6.6679043110 4.1123701769 
Si 16.1359293276 5.2778297283 5.5278876504 
Si 2.5129605830 8.0262296834 5.4686861640 
Si 1.1939038849 6.6376863607 6.9004796631 
Si 15.9827870362 8.0659609938 8.0355936504 
Si 2.5770617336 5.3254616887 8.3270718470 
Si 3.5364124223 7.0570561245 9.7017093207 
Si 1.0731672908 6.8279046924 15.5636791988 
Si 1.7479007260 8.3729460466 10.7275664683 
Si 0.2026150219 14.6297233338 18.1693043403 
Si 0.0538065221 1.0584769687 14.0747004535 
Si 14.5333028229 4.2899552492 18.7868290248 
Si 16.2854389489 2.6428733342 23.8831828399 
Si 9.3526266555 0.2923989867 25.4064961096 
H 5.3290291987 4.2482528489 14.8641899688 
Si 9.7843279495 2.9966921374 17.6417799411 
Si 4.5885020820 12.5951023152 17.2946652046 
Si 14.7813180752 1.0438306295 26.9023417597 
Si 1.8355246368 12.2311348419 12.8447647371 
Si 8.9793901721 5.7823310329 27.7103865286 
Si 3.9423266461 9.3694542257 1.3242782232 
Si 15.9843997462 10.8731026894 0.0943033508 
Si 2.5626450834 10.7548861584 2.6469113114 
Si 1.1609426986 12.1818575914 1.3662043301 
Si 1.2162081531 9.3553796656 4.0024704779 
Si 3.9914898665 12.1334600010 3.8988824873 
Si 3.8880320756 9.4567034665 6.7513071124 
Si 16.1639807078 10.7549024484 5.3093739708 
Si 1.3181249101 12.1084222707 6.5812124174 
Si 0.7985537263 9.8132915697 9.1489088673 
Si 2.6191062240 10.9240740999 8.1425128205 
Si 3.5231849422 12.6886232060 9.5824005010 
Si 3.5294891723 6.3026825076 22.9735078788 
Si 9.9601947911 4.7085268031 13.2130353848 
Si 8.3099037460 6.1476505762 15.7909591399 
Si 15.8480850249 10.5194793662 15.3416005728 
Si 6.0924926357 4.3284810996 17.4013506076 
Si 7.6571960200 15.0148189373 25.3649148090 
Si 14.5590736032 13.2868408815 22.6511432207 
H 2.4498368324 9.4882897768 13.8043781682 
Si 6.5204146496 0.4000221307 20.1148884289 
Si 11.8123026480 6.0972818958 18.8333194319 
Si 13.4462222430 13.3323877219 20.6134549442 
Si 11.7025243370 5.0447361161 20.9271410033 
Si 13.8395605866 3.9794026864 21.0743265347 
H 13.7331543056 15.3810670107 15.1978631043 
Si 14.7522730049 12.5500115948 28.1307287699 
Si 16.0589590769 13.5912195343 2.6358161464 
Si 2.4753306826 13.5208304437 29.1663164678 
Si 3.9256945559 14.9243279865 1.1364669137 
Si 1.2078302060 14.9044053163 3.9656521794 
Si 2.6310305041 13.5148520136 5.2400328419 
Si 4.0151592367 14.8606829559 6.6090014665 
Si 5.8529156035 16.0501950568 11.0391194038 
Si 0.0211263383 13.3453871421 8.0596132071 
Si 1.7447078860 14.4119911918 9.2873573581 
Si 14.4631906623 6.8717247928 27.7837309169 
Si 4.4684773609 6.1662211764 11.6986344811 
Si 4.1370735978 9.8337355199 20.9888847055 
Si 0.6515087820 14.2536198104 15.8875049005 
H 1.3348710302 14.0413285284 27.7619029256 
Si 4.0082522767 10.1012336124 25.2013948102 
Si 4.9392094952 14.7019694845 12.7507319715 
Si 8.8151543906 0.0942567102 19.7017637429 
Si 4.5242054514 2.6636105044 17.9924304031 
Si 15.2250413892 5.9859397447 24.2622944311 
Si 9.5601123874 10.5611491866 15.6234651025 
Si 13.6202971846 5.8865218738 13.6224490201 
Si 6.3345783279 12.8654674477 21.1189175852 
Si 0.9428619506 4.0548253871 27.6587240272 
Si 12.0629731703 7.3962790876 14.5820624512 
Si 5.3370764588 16.1979616481 28.8847733677 
Si 5.2815438483 2.6072308138 2.5345395267 
Si 8.0761585339 16.1227995875 2.5305567218 
Si 8.3558089664 2.3402214214 29.2021412567 
Si 6.6639295509 1.1866580929 1.1690832508 
Si 6.6581466009 3.8952485456 4.0083146523 
Si 5.3094160386 16.1644856978 5.1581559590 
Si 8.0518375636 2.6038262038 5.4458938840 
Si 6.5970428103 1.1862492138 6.6230274850 
Si 5.3991739394 2.4712093126 8.1828376236 
Si 8.0075613432 16.1914945181 7.9768889189 
Si 7.2194674260 3.2981548802 9.4524845048 
Si 3.4061901612 16.1722234479 13.7207772538 
Si 13.3670691323 1.8263859467 21.8489718471 
Si 14.8686813460 15.2782282397 25.7915979795 
Si 11.1056750216 12.0066423498 14.5338480127 
Si 1.6776256653 0.7748973881 12.3478345907 
Si 2.7422097551 2.4599529225 11.0133465948 
Si 3.2524777197 4.4927657511 24.4934899691 
Si 7.6089939096 4.7283191532 13.0448692674 
Si 0.5054151736 4.3769601400 18.9850049776 
Si 10.6632386175 16.0578513569 23.4804315634 
H 8.8840122213 8.9715383921 23.4683341225 
Si 2.1797160499 5.5345438406 26.3131028792 
Si 15.6999111836 4.4894588811 22.5333831072 
Si 13.4424918329 3.2464015497 16.9291705396 
Si 12.0098677698 1.7356017759 23.8456340196 
Si 5.0373078761 5.2950645484 28.9273773988 
Si 5.2959930784 7.9387849626 2.6484980047 
Si 7.9983249132 5.2398251579 2.6076530701 
Si 7.9833706930 7.6738118202 28.9826340674 
Si 6.5467229999 6.4999218294 1.1891638340 
Si 5.3247449287 5.2662801182 5.4454555709 
Si 7.9670155329 8.0013059832 5.5669851769 
Si 6.6014574004 6.5919440403 6.9501259243 
Si 5.0991121366 8.0267672534 8.1607174236 
Si 8.0585001737 5.2752233282 8.3717505600 
Si 6.6315287406 6.8027855122 12.4479160767 
H 13.0150910990 14.5061148127 12.3293377788 
Si 14.3988125817 8.4374218672 17.5632634585 
H 5.5088870904 9.7221001489 17.2191584717 
H 11.1835575123 15.7423629240 10.2325064576 
Si 8.7691514302 6.5362485298 25.4964379531 
Si 14.2138885000 7.6530420700 22.9797611454 
Si 1.8346449768 7.9870033630 23.2014891209 
Si 13.4552143231 11.2732502531 15.1363531690 
Si 6.2428656271 2.3889122318 21.4041132943 
Si 5.3154270486 6.5567413500 17.7573484892 
Si 0.8137457804 7.6652269901 21.1148851049 
Si 12.8059274971 5.7168289423 11.3263313530 
Si 3.8784861355 14.8996812163 17.5529484907 
Si 16.2724069488 13.8103363263 12.3595521603 
H 1.0045114562 2.9507869170 19.3646717654 
Si 11.2252762027 2.8395425060 13.8829238717 
Si 3.2864586601 6.4143667487 18.8294914977 
H 3.5156263822 6.8093666723 12.9543137856 
Si 5.2838896083 10.6370605873 29.0720791561 
Si 8.0670198438 10.6258367772 2.5198297398 
Si 6.7330480216 12.0232581500 1.1031814186 
Si 6.7004680213 9.3025674851 3.9923016145 
Si 5.2779274683 10.7136235880 5.2828121983 
Si 6.5410377898 12.0938915906 6.6978913586 
Si 6.3856800584 9.5230526371 9.3798998592 
Si 7.8861519721 10.8688998694 8.1614771663 
Si 10.7757862286 10.5114321061 21.8389198672 
H 12.4782378541 7.5347603789 23.0695276637 
H 2.9547290970 0.6502951769 19.0564792301 
Si 8.6588355492 14.5100244127 12.9358461946 
Si 5.5935462212 15.0675985378 21.5990165094 
Si 7.6958359004 10.4356673154 26.2030862967 
Si 10.1986803933 3.2444630397 23.6388963514 
Si 9.8572745702 15.1231800183 21.3659508357 
Si 10.0548885620 3.3586559407 21.2835187562 
Si 2.7700167853 11.2018837624 16.7044328144 
Si 6.6589285209 14.6679722541 27.5178502041 
Si 11.3084366534 14.1057228990 24.5619252509 
Si 15.8906019253 8.3925266268 26.6455779589 
H 1.7250458558 0.2401504402 26.4121908556 
Si 10.3923359150 1.8120670366 19.5650685044 
Si 10.4118839152 7.9514097127 18.7546568450 
Si 11.2584752230 9.2972732350 25.4331163238 
Si 5.3283287287 13.4482422030 2.4302385467 
Si 8.1191315543 13.3121718317 28.8379615310 
Si 6.6837870611 14.7609881550 3.8523920802 
Si 7.9560197828 13.4309422228 5.3378058791 
Si 9.3640622356 0.4262425149 11.5671697787 
Si 5.2435066980 13.5109912836 8.1000548937 
Si 6.9186725733 14.6318084538 9.3403055779 
Si 12.0305072000 9.7806626995 11.7102059463 
Si 16.0273727666 11.1871576023 19.6299680608 
Si 1.7978132864 5.2876200184 17.2915970130 
Si 7.6264404997 10.4577728456 12.3278182935 
Si 11.1020423515 11.8907227087 12.1502430553 
Si 15.5015152718 15.2484664095 23.5284414558 
Si 0.8006062663 7.0727596847 25.1411121516 
Si 11.1227143617 6.8643942928 22.2644049820 
Si 10.9619157703 9.7010534687 17.2471228461 
Si 3.2765706300 6.6616163709 14.6763289837 
Si 12.9273857382 12.5260978746 24.1653687992 
Si 3.2269024195 15.1116466982 21.2367069195 
Si 1.2787894467 12.1332808110 15.1684084655 
Si 9.5068766669 3.8793006355 1.3275977143 
Si 11.2827636132 15.6734236433 0.0742289041 
Si 10.7471158283 2.5476908633 2.7816282968 
Si 12.1059950607 1.1344633034 1.4948024650 
Si 9.3565851256 1.1789170848 4.0606200129 
Si 12.1064348907 3.8930331056 4.1624255304 
Si 9.4392894563 3.9523612861 6.9199699846 
Si 10.7872055187 16.1842617580 5.4403419183 
Si 12.1252661309 1.1853125388 6.9803695267 
Si 2.4268190622 14.2613249804 23.2958725369 
Si 8.9509641219 1.5400354371 9.4256013027 
Si 10.8201764790 2.6215985940 8.3946012818 
Si 12.4823103542 3.7862684446 9.8577195555 
Si 7.8702203520 3.9821556964 20.8526277801 
Si 14.8777711661 13.0577708994 18.7547737284 
H 0.6153873356 5.1956140975 10.6745305859 
Si 13.7422441257 0.9847256220 17.7896375526 
Si 8.4414129172 2.4288878922 25.0350696077 
Si 0.4456471631 1.3160446770 20.3903535877 
Si 13.3808830524 3.6857754337 14.5508545601 
Si 7.9539835327 3.5474081724 27.2194758817 
Si 12.5379569947 1.7204194957 26.2931158028 
Si 5.4129064095 0.3915806526 17.9560504177 
Si 8.9993291323 8.8347512608 24.9893973850 
Si 3.3471714906 5.1722379473 20.8670336699 
Si 6.8699491828 7.8727290120 18.9738426046 
Si 14.0727193587 6.5687307901 18.9068391455 
Si 12.5513799548 3.5889802528 27.8148803663 
Si 10.8944425896 5.0135733459 28.9743061190 
Si 10.6030470670 7.8873411421 2.6797906364 
Si 11.9746976595 6.5295044697 1.3076515472 
Si 9.2609628247 6.6087390304 4.1189448731 
Si 10.6992558079 5.2754513882 5.4519133836 
Si 12.0245124800 6.5927422503 6.8974699133 
Si 9.2309892244 6.8912076330 9.7555049458 
Si 10.7566454784 8.0264088734 8.3236530050 
Si 9.1590362938 12.9022665580 18.4084771763 
H 15.8292212048 3.6980743838 12.5988418797 
H 9.3424291154 1.2385303403 28.8208088792 
H 3.2843409600 10.0726120821 15.8542223274 
Si 15.7999480745 9.1680283738 13.4062437894 
Si 2.7616925953 1.0357426445 20.5324254666 
Si 1.6063406247 9.8367817500 12.6171633664 
Si 9.8765293503 5.5618784609 23.6980393960 
Si 10.5451686964 5.7582707027 15.2859348120 
Si 5.9521868644 15.8621107151 23.8814588085 
Si 9.9168959707 1.7509469560 15.5620428299 
Si 1.1683986317 1.3815760896 16.2353209379 
Si 5.3488052589 7.4633613083 23.9998033394 
Si 15.5225619520 15.1159472582 14.2478925609 
Si 9.3885461059 9.1478124837 1.1120119660 
Si 11.3957999242 9.9953323214 0.0553536819 
Si 12.0790025305 11.9807249596 1.3045862777 
Si 11.9811159196 9.3151270752 4.0124932370 
Si 9.3195905352 11.9867196796 4.0351101918 
Si 9.3692098757 9.4078986260 6.9344050953 
Si 10.6913062878 10.6788933077 5.4569685944 
Si 12.0044757798 12.0064305798 6.9299635228 
Si 12.6221437154 8.9225869416 9.5581179565 
Si 8.5915741386 12.8035654471 9.4083317675 
Si 8.0963907140 4.4118859003 18.5710036655 
H 0.9835885800 15.0358330375 23.7847961645 
Si 2.3024937811 2.3395861114 24.1407356043 
Si 6.5347824298 9.1020050032 27.7118767931 
Si 0.2655726144 8.7774593303 16.7658550870 
H 5.4116520795 10.4171618753 10.1275450860 
Si 6.3687710382 1.9879827482 23.7938838556 
Si 10.4261213754 14.2624978604 14.4639516872 
Si 5.9046200640 11.5409275355 25.0935113514 
Si 15.8406730749 6.7902096321 13.5780332949 
Si 11.3381333237 11.8476682384 18.1774861845 
Si 8.8993574014 15.1780284488 17.6657702769 
Si 10.5863498168 15.8233730947 16.1871064994 
Si 5.4353051597 3.8678976354 24.9788194294 
Si 14.8452400358 2.6155550039 13.0630446497 
Si 9.4249868362 14.6687867542 1.1481932496 
Si 10.6742506576 13.3323225619 2.6683068337 
Si 12.0554797703 14.7057487645 4.1090389975 
Si 9.3742597757 14.8085549554 6.6686997077 
Si 10.5456573964 13.4499689430 8.1774025414 
Si 12.0130606099 14.7163209746 9.4927800871 
Si 7.8874714621 5.7719543028 22.3235188057 
Si 2.3440332814 14.2120803100 19.1967686358 
Si 11.4420798146 4.5264860514 17.1297133831 
Si 3.6501654934 6.7705964719 27.6652402816 
Si 6.5724449101 10.0870124423 18.2423565199 
H 11.7125752671 14.7977221053 13.8893816843 
H 4.3250764896 1.0572438157 13.9914209688 
Si 6.7087270514 11.3073778034 22.8906959280 
Si 2.5631663634 8.5039013578 19.7284131780 
Si 8.7342419599 9.2343286745 13.9417747075 
Si 0.4937515335 15.6099415128 10.8875799624 
Si 7.6430725899 7.8474795118 21.2041840892 
Si 8.6732847793 13.1407847402 20.8311504393 
Si 13.4534712930 16.1641110278 2.9214004931 
Si 13.6959968153 2.3948417919 0.3178997089 
Si 14.8559588559 4.0413698470 1.4734390856 
Si 14.8444255358 1.2731270426 4.2073672312 
Si 13.4593519831 2.5876665237 5.6066671208 
Si 14.8716624160 3.8914529756 6.9748175610 
Si 13.5417305138 16.0220459365 8.2553930484 
Si 15.0670772578 0.7848896742 9.7283879767 
Si 8.8750364312 12.4081256935 11.6954201852 
H 2.6694749044 1.7568602261 22.7698384021 
H 2.5067378029 12.7096373062 19.1790900084 
Si 11.5634077358 1.2171041031 12.2502076579 
Si 4.0640618172 12.5977575852 12.0217004401 
Si 5.6044605213 3.5761600227 27.3133333221 
Si 6.8034859822 5.7157700923 24.3952493980 
Si 10.5734318467 6.3128637577 11.6111471908 
Si 14.6039525536 9.8951814005 23.3238661321 
Si 1.0128959193 5.3369298488 21.0315763992 
Si 4.2403196188 3.8620983953 12.2182692449 
Si 3.9901540865 15.0201294774 24.9433745119 
Si 6.5033427295 3.2383705796 11.6946312216 
Si 1.4764685985 10.0619910020 18.3360094142 
Si 2.9461931369 10.1062183524 23.0858036893 
Si 12.3334523328 11.2807273632 20.2154958906 
Si 3.8194511749 12.1279702709 27.8936013950 
Si 2.4766664627 15.7198664338 15.8358131782 
Si 9.9232816508 8.4758988475 21.0220796159 
Si 7.0371986144 7.7174038606 14.5898352031 
Si 13.3830007524 5.2942989184 2.7578951047 
Si 13.1168384400 8.1965742150 0.1201346015 
Si 14.7576649950 6.6300789306 4.1244383970 
Si 13.3133772918 7.9604017928 5.4130788449 
Si 13.4942940334 5.2866426183 8.2811074156 
Si 14.3254261310 7.0665206146 9.7152385844 
Si 2.7375671050 3.2383217096 16.4631852965 
Si 9.2017975442 12.0619794803 26.9990336246 
Si 10.6896447078 8.2731860857 12.9180799045 
Si 7.1016255649 4.0138723267 15.2726100944 
Si 13.5497451939 2.0045659683 11.1024994748 
Si 11.1379943819 16.2653696688 27.0043810442 
Si 4.8962038948 8.1824182048 26.2309630084 
Si 1.1008814681 9.4806008967 28.0401732881 
Si 6.1586300363 12.3706424031 15.4365391854 
Si 5.0567744262 13.3961142025 26.3504471534 
Si 13.9186159573 4.9863038856 26.2579630940 
Si 2.3358882814 10.8693234094 26.6383019618 
Si 9.1807508640 13.1798970305 24.8838223751 
Si 9.0157005825 11.8416409383 22.8128807463 
Si 14.7118900946 9.3727285157 1.4118005786 
Si 13.4219501428 10.7552445384 2.7813156335 
Si 14.7693286351 12.1732238913 4.0601816998 
Si 14.7259483647 9.3855650358 6.5914981643 
Si 13.5196086936 10.6233932772 8.1699219982 
Si 15.3878110707 11.5450000356 9.3142113393 
Si 0.0171207902 13.6918102852 26.7793803310 
Si 15.1062872882 10.3310692245 25.5477790249 
Si 7.6562186200 8.3626181865 10.9321417920 
Si 4.1732211082 2.9668162771 20.3816457679 
Si 13.3793680824 11.7708283077 26.4087720135 
Si 12.8212400973 9.1140433134 16.0046805965 
Si 15.9279386057 11.4568874248 22.0367159486 
H 12.6107244253 4.9268779651 25.4658437003 
Si 12.8856181778 15.3488616804 16.5622732729 
Si 4.1607918381 1.6497371851 27.7212859138 
Si 0.0207071966 6.7264831515 11.2073731838 
H 12.0153900799 8.1025809141 25.9497121170 
Si 12.2943074624 10.3636492248 23.5790227850 
Si 7.6445386899 1.6414455750 14.8708523276 
Si 5.0052002858 7.8042295614 15.7930046009 
Si 13.0413179993 13.8155165464 0.0554170912 
Si 14.6598109641 15.0086124473 1.2930206566 
Si 13.3864216524 13.3745951123 5.5401019748 
Si 14.8407602857 14.7244822647 6.8202975908 
Si 14.7751441651 7.8535231018 20.7486306973 
H 12.0743273004 0.0803864266 13.0642719263 
Si 7.8741625320 11.5241651254 16.8950990031 
Si 13.2000640507 12.9017452780 17.0417293380 
Si 3.7388482542 4.3123051294 14.5247311007 
Si 14.1541041994 9.7880420695 19.5389742659 
Si 11.8700832786 14.9656557169 20.1485800941 
Si 14.7228206847 12.2789948623 11.4494096652 
Si 6.0045917949 9.0907649031 22.3234019222 
Si 11.2879438332 10.9041025597 27.1387678337 
Si 15.5982778727 3.1271098786 26.1326055538 
Si 12.5388855247 0.8797300550 19.8431635417 
Si 7.3142100669 1.1938077739 12.4743901866 
Si 0.6213739107 11.8846954087 25.4200253732 

