&CONTROL
  dt          = 30.D0,
  prefix = 'aSiHcSi_merged-2',
  pseudo_dir = './',
  outdir='./',
 wf_collect=.true.,
 verbosity ="high",
/

&SYSTEM
    ibrav= 0, nat=  388, ntyp= 2,
  ecutwfc     = 42.D0,
  nbnd=1468,
  degauss     = 0.05D0,
  occupations = "smearing",
  smearing    = "methfessel-paxton",
/
&ELECTRONS
  electron_maxstep=200,
  conv_thr    = 1.D-8,
  mixing_beta = 0.3D0,
  scf_must_converge=.false.,
/
&IONS
/
ATOMIC_SPECIES
Si  28.08  Si.pbe-hgh.UPF
H  1.00784  H.pbe-hgh.UPF

K_POINTS {automatic}
2 2 2 0 0 0

CELL_PARAMETERS angstrom
16.29000014898320 0.00000000000000 0.00000000000000
0.00000000000000 16.29000014898320 0.00000000000000
0.00000000000000 0.00000000000000 29.31082521633016

ATOMIC_POSITIONS angstrom
Si 16.2639198587 16.2740359488 29.0045270928 
Si 2.6416027142 16.2814967689 2.5821781826 
Si 1.3301371562 1.3373112722 1.1324237322 
Si 4.0386168369 1.3449561693 3.9274454032 
Si 16.2434270386 0.0012640030 5.4111007540 
Si 1.3399600263 1.3490026053 6.8225049207 
Si 2.7300248350 0.0797209801 8.2870789242 
Si 4.2215372486 1.4024810468 9.6889277619 
Si 10.5189906662 4.9897410756 13.0529311719 
Si 2.7115356848 5.8871083138 15.7875432321 
Si 15.9473074158 4.9238968950 26.9805853008 
Si 13.8398538066 6.3004344876 17.6892295722 
Si 7.8835455721 5.8959537839 21.2609881114 
Si 13.8851074270 13.5054852635 23.4047818677 
Si 8.4540376673 5.8819606738 13.8811964709 
Si 3.8008154148 4.7301110533 17.5505307473 
Si 1.5246984019 15.2548032195 27.5367582093 
Si 16.2881267990 2.6918736546 2.5580231315 
Si 2.8249466658 2.7388214350 29.1912077386 
Si 4.0506225670 4.1470267879 1.2766593720 
Si 1.3220051881 4.0086595267 4.0219728145 
Si 2.7144678848 2.6603687943 5.3972953553 
Si 4.0891972874 3.9672829263 6.8228566506 
Si 16.1783484880 2.7143212748 8.1218538025 
Si 0.8416586957 4.5510350816 9.2250546420 
Si 3.7387016442 5.9941824848 13.6980624349 
Si 14.4626693823 1.9049851974 15.2783848873 
Si 12.5316038946 1.8695707371 24.2392903724 
Si 9.3039358451 0.3166629419 16.5825114337 
H 14.7680091451 14.9589605268 16.7501400431 
Si 15.7141486437 5.7858170929 29.2220427267 
Si 2.6035166938 5.3935050193 2.6268947775 
Si 16.2406577385 5.3998581194 5.3384392183 
Si 2.6525333043 5.4375205997 7.9823635853 
Si 10.4228307953 15.7660974542 18.5358141369 
Si 2.4761614726 10.4554433756 13.5332769756 
Si 9.4258502062 15.7405873140 20.7204964944 
Si 0.5852101104 11.2345777927 23.4341513146 
Si 0.7817473331 6.4699970992 25.6107731951 
Si 2.6739872345 7.4858415085 26.6044101700 
Si 0.0273737163 8.1602312246 2.5348441309 
Si 3.1230699586 7.4929602385 29.0414001109 
Si 1.3066795560 6.7137606614 1.1089809342 
Si 4.0567638971 6.7473669317 3.9283833496 
Si 2.6931605646 8.1659653047 5.2139854544 
Si 1.3621535225 6.8126898323 6.5913304422 
Si 0.0105098194 8.0443441636 8.0924257340 
Si 4.0835283673 6.7494683417 9.3086198047 
Si 7.9805036530 6.5952509103 26.9727299996 
Si 7.3679181974 14.5953351435 20.6694370369 
Si 9.2891119450 1.6467072451 21.6729517598 
Si 6.1521954863 7.4695026383 21.1919024964 
Si 6.0881106257 8.6327878390 15.6327527642 
Si 3.7696689345 2.3806043318 17.3748123501 
Si 8.1343464144 12.2249120618 23.7919485580 
Si 4.0428359470 9.3214801753 1.0462088709 
Si 1.3235413351 9.5578969474 3.9053157302 
Si 4.0338275769 9.4972818569 6.6084479641 
Si 1.3500549393 9.3927000559 9.4631464752 
Si 5.7204779023 1.4819925376 16.3417230045 
Si 12.5266517346 4.9619992054 14.3366866948 
Si 9.6934949087 4.2326796087 24.2540923392 
Si 8.0134420333 10.2785828440 22.3481852403 
Si 5.4435967698 13.2361789811 26.4462782679 
Si 3.9388731660 3.4083893112 11.0571277721 
Si 7.4290545679 11.8739440086 26.0727704222 
Si 7.4234508079 11.7864341278 13.9816739797 
Si 15.7259263138 11.2037082425 29.1713056883 
Si 2.6512301042 10.8077960788 2.3846408071 
Si 1.2216408682 12.2512529920 1.1081191960 
Si 3.9889649165 12.1937167115 3.8395422384 
Si 16.2315353384 10.8570570393 5.3699776662 
Si 1.2985720229 12.2442482920 6.7474105864 
Si 2.6479721042 10.7824325486 8.0278246752 
Si 3.9815366764 12.1282472009 9.3999816469 
Si 16.2308348684 10.7923531587 10.7863250580 
Si 1.6687801953 12.7124717663 24.9209429237 
Si 12.5205429845 0.4353958660 18.8003736453 
Si 15.9330210857 15.8516851150 20.2530181430 
Si 10.8761814995 13.7647569059 26.3839048319 
H 10.7766821786 14.3071487508 18.3148398256 
H 12.8449583375 10.5869525468 17.4407617068 
Si 10.9772283704 7.0951258549 22.0597960310 
H 1.9509067078 3.5586971425 28.2689133124 
H 10.4744538058 9.3402136754 26.3433093390 
Si 16.2400875885 13.5708081641 2.5964554856 
Si 2.5908267837 13.7017308953 29.0633832299 
Si 2.6852599146 13.5562123240 5.3377357585 
Si 0.0287573889 13.6655996750 8.2084966018 
Si 13.3805083824 4.0666845072 23.6821795176 
Si 15.4225902211 10.0997838024 15.7211542130 
Si 15.1926242889 7.1882557857 22.1504544134 
H 9.9441165609 10.3874163350 11.9924362048 
Si 4.4924888211 13.0671050695 22.4830443471 
Si 7.0850097648 2.1455070496 20.8794784104 
Si 0.4462726991 5.3032584185 15.2024991608 
Si 3.9365925660 12.1940425115 27.9047849307 
Si 4.4548426307 6.4529088890 25.4297788494 
Si 4.0112007667 14.9931369471 1.1488084835 
Si 1.2940792408 14.9268529365 4.0032725080 
Si 3.9894210365 14.9586510168 6.7814990762 
Si 1.3626943505 15.0559023177 9.7130798818 
Si 12.5547031148 3.2003497193 16.0002812016 
Si 2.6805032345 13.4249475028 10.8841059709 
Si 15.0095083973 15.1248578883 12.4594455830 
Si 8.8873679613 15.4335371012 12.4016739465 
Si 15.8165475847 3.3840031809 13.9350111460 
Si 3.1018766684 14.2535709404 20.9115444532 
Si 5.8373749434 9.3278658553 22.6528712684 
Si 9.4691490266 4.8363707242 26.5054568240 
Si 13.2285715510 0.4064436487 26.1122521038 
Si 5.4337576097 0.1019405403 29.1325274665 
Si 8.1095041642 16.2081266082 2.7112454703 
Si 6.8639218828 1.2872488438 1.2712016964 
Si 5.3534804890 16.2404948385 5.3263924691 
Si 6.7728444919 1.2699635246 6.6758921729 
Si 6.3073903177 15.9180668656 24.0358732454 
Si 8.1646132347 16.2582346487 8.0348299624 
Si 6.0196600451 3.6863944537 24.2154899824 
Si 6.2873861975 0.1882081457 19.7592479814 
Si 4.0987269375 14.7119715446 14.3960704267 
Si 9.6900414286 15.1191889683 14.7083479585 
H 15.4163511510 9.9666782112 17.4035662696 
Si 12.3663907131 12.1962742415 12.2054086608 
Si 4.4473655207 1.7537162560 27.7698378914 
Si 5.4512693599 2.7164063948 2.5683229555 
Si 8.7084060196 2.1635726598 0.0588189123 
Si 6.7017875113 4.0038376866 4.0883325228 
Si 8.1396732444 2.6717717944 5.3835778891 
Si 5.5801069710 2.6083059539 8.1830841164 
Si 7.0921936549 3.7551382543 9.6663584264 
H 15.2962775599 9.8412615000 11.5244595694 
Si 7.0599720346 13.7372593856 17.0968871054 
Si 6.6837219011 13.9139570173 22.7828647783 
Si 10.7957740587 11.7635629676 15.7963071689 
Si 5.3858161393 5.1553777971 10.4553179088 
Si 16.0537136968 3.5070415521 18.4560007598 
Si 8.7680111302 13.0719106196 15.4716897796 
Si 12.4881421742 3.7097706039 27.3620363802 
Si 4.9641983554 5.9098165740 29.2827747566 
Si 8.0230042634 5.3138469186 2.7051312322 
Si 5.3601756790 5.3954109493 5.4193957175 
Si 8.1636032547 5.3107843986 8.2053603435 
Si 7.7129892705 5.2572554581 23.5680431642 
Si 12.6350942656 4.3813258601 18.1443094445 
Si 0.3530759792 14.5798433533 25.5562843711 
H 5.8528993135 12.0317452400 14.8524106644 
H 2.1434056396 7.0163474142 21.9946087557 
Si 10.3079862943 2.3872180718 15.6869191692 
Si 1.4090100789 11.2463391729 19.5231199735 
Si 8.3595719565 2.8218026958 27.1554829949 
Si 5.4387097697 8.1390705144 2.5778225940 
Si 8.6000123587 7.4244282079 29.2097028693 
Si 6.7823904320 6.7234369215 1.2616874025 
Si 8.1148147042 8.0952015440 5.3696552472 
Si 6.7940866521 6.7049314813 6.7813818329 
Si 5.3987341094 8.1627235947 7.9899843998 
Si 7.9978525031 8.0897281040 10.6170257315 
Si 1.8052903965 10.1851108231 21.6014333463 
Si 7.9180803724 2.7031463347 12.1030552592 
Si 1.8598293170 6.3217255178 12.2885634719 
Si 6.3754010683 9.9105591606 26.8822474822 
Si 16.0876131871 5.6506100917 17.5022558181 
Si 16.2666239988 1.7688822462 16.8647160588 
Si 13.0654923595 8.1317074344 21.4915763734 
Si 6.7879616121 9.4784831967 3.9568734717 
Si 6.6926814012 9.5366384972 9.3979005783 
Si 1.5746337684 3.3253103104 19.9101107988 
Si 6.0610203554 1.7276522558 22.9392380308 
Si 12.7551026967 2.0372111286 20.4946565861 
Si 3.0399257978 0.4857580304 26.4266693259 
Si 6.3524321681 12.5584823949 12.0234177470 
Si 5.3627332090 10.7206282880 28.9831301904 
Si 8.1206465243 10.7514978383 2.4475740799 
Si 6.7174096214 12.1314400410 1.0987924914 
Si 5.3851971193 10.8744058895 5.2452601049 
Si 6.7429849217 12.1964371415 6.6613246928 
Si 8.0935725440 10.9052754397 8.1066707950 
Si 4.0437970570 9.3268395853 12.1824289738 
Si 14.3852755916 11.4739756349 20.4436850611 
Si 4.5552867717 14.2107771100 12.1118191959 
Si 8.3689061265 10.6297952472 19.9956397868 
Si 12.9118613681 14.9840959970 21.9312387516 
H 2.1746172799 12.0127185199 16.1575044680 
Si 7.1048672750 8.5626430983 19.2568018156 
Si 5.3721814091 13.5475134639 2.4796987444 
Si 8.0450283436 13.6462471548 29.1450431889 
Si 8.1450978145 13.5094926036 5.2909849923 
Si 5.3749181292 13.5249029437 8.0557872025 
Si 2.6199533040 1.3668417845 19.1215323572 
Si 2.8369361059 12.9726719386 18.8706903150 
Si 13.4831028033 7.0640608246 25.3930816963 
Si 7.1026844150 12.6564993258 19.3042267308 
Si 11.2991839333 5.6284882715 27.6792088198 
Si 11.3339142137 4.8445483043 22.7363191878 
Si 12.4667208240 10.4867853359 21.5268959178 
Si 6.7029115213 14.8379746957 3.9836342552 
Si 6.8040235522 14.8786019561 9.3524981100 
Si 5.5618458809 8.6063328787 24.9428967318 
Si 4.9202968050 11.7149047371 19.7069574692 
Si 5.4825624501 16.0549843168 10.8612728380 
Si 5.3289477487 10.8041634088 10.8232566977 
Si 1.3256085361 7.0475427645 18.7737594160 
Si 10.4180741153 0.4097097937 29.2838885680 
Si 12.1758954514 1.3492176333 1.2474247550 
Si 9.5046938069 1.3011637619 4.0312643461 
Si 10.8964951297 16.2477601786 5.3872417423 
Si 12.2081007817 1.3228897351 6.8414397137 
Si 8.0158855333 9.5500125873 14.3422264407 
Si 9.3787721058 1.4035252358 9.4792967399 
Si 1.9846432982 2.5771594736 15.8931208246 
Si 13.7395562757 12.9331361083 18.7367691546 
Si 9.0159775125 6.2952542676 16.1479491390 
H 2.5560639234 9.3625961356 24.0483596570 
Si 13.7686665059 15.0149981273 19.7763361925 
Si 6.8898718530 0.6048639955 12.5354485527 
Si 16.0741413570 2.6622095643 26.2614735149 
Si 5.2646999881 7.8216272815 13.5639360988 
Si 9.4567034665 3.9503250361 1.4234479847 
Si 10.9107814598 2.6832073745 2.7362563975 
Si 12.1788439414 4.0194109268 4.1646872225 
Si 9.4860417568 4.0549231271 6.7467364375 
Si 10.8184823189 2.7441645551 8.1652045130 
Si 12.1527473611 4.1731233682 9.5416701760 
Si 10.7192436380 14.2752529306 21.9961622295 
Si 7.0444965344 16.1686233579 17.4571171473 
Si 12.6226487054 7.7439402708 11.3393617081 
Si 3.9835077664 0.1308723951 20.5383004049 
Si 1.7178293857 4.1159617576 11.3193717253 
Si 9.3660170357 8.4996985377 23.3219787865 
Si 10.8016221688 11.0024778706 10.9040666429 
H 7.5031414886 9.0264031126 27.3469413052 
Si 10.3335290145 5.8594804736 0.4039852418 
Si 10.8266761890 5.4659792300 5.4216526511 
Si 1.2870272998 14.2747642306 17.3419256042 
Si 4.5642951417 3.8238657650 13.3150285710 
Si 0.5330430139 3.1731128390 21.9985364063 
Si 4.6077731521 5.5756109310 21.2067630847 
Si 1.5983096546 1.7347546959 25.1167978578 
H 2.0600497088 6.8795928629 21.2360445991 
H 10.6316685972 13.0684245595 21.0755092094 
Si 10.8339578191 8.2361426253 2.6475677026 
Si 12.2205463418 6.7492239917 1.4968891884 
Si 9.4676340566 6.7684461919 3.9538544567 
Si 12.2237554718 6.8098716623 6.7964182862 
Si 9.4990737569 6.7673873419 9.4765415223 
Si 10.8021108688 8.1826625548 8.1118881219 
Si 4.1964017784 10.8430476392 21.8146109781 
Si 3.8330696151 13.6013030444 24.6344589180 
Si 11.1274221718 5.8640253836 10.9179599740 
Si 4.0875357074 4.8947377948 23.5254545351 
Si 13.2407727611 8.0260342034 19.1426068405 
H 3.9399157260 8.7227412198 19.6457564662 
H 12.3199967927 7.1304914452 24.4250037610 
Si 10.8117219689 3.2827934100 20.9402104402 
Si 14.1759165096 3.7390274442 19.8421096843 
Si 14.1786532297 4.4876995610 12.6144412267 
Si 15.8060568246 1.0066405592 22.1754272365 
Si 9.4900002268 9.3895072159 1.0149312894 
Si 12.1631892512 9.5104441770 4.0922601734 
Si 9.4370088563 9.5182796671 6.7346603775 
Si 12.0913014806 9.4237813762 9.6485374447 
Si 3.2450494797 9.4161576561 25.3917627091 
H 12.9924317088 0.9785875499 17.4582016478 
H 5.9236956542 5.7340800524 11.7523219246 
Si 1.7605254761 14.6416150339 15.0208013553 
Si 3.4912891219 11.8135243980 16.8479502668 
Si 9.3191995752 1.0300558054 25.9537098502 
Si 2.8086892457 5.3276771287 19.5912383313 
Si 4.9930805257 9.5174162970 18.9015546140 
Si 0.3049976728 10.1936956532 27.1933818919 
Si 1.0989380711 2.1672379098 12.5337778357 
H 0.6460092779 8.7434621000 27.5341202350 
Si 4.1486557879 9.5304971672 16.7481175961 
Si 10.6884392478 10.9041351397 28.9214309033 
Si 12.1843662514 12.0860561005 1.0958819264 
Si 9.4806008967 12.1618697612 3.8392491301 
Si 10.7883295287 10.9004698897 5.3792985087 
Si 12.1848060814 12.1804403614 6.8085822787 
Si 9.4237650862 12.2926621724 9.5371269981 
H 15.1896432189 2.7550136952 25.0193979856 
H 3.4013194511 11.1305172718 14.5356485763 
Si 0.3309932550 8.3968271868 20.5557110350 
Si 10.7870914887 7.8428694417 16.3789184417 
Si 10.4198823053 9.5971069778 14.8396897663 
Si 2.3228074112 11.1977949724 26.5528524284 
Si 10.9408202201 8.3824431167 18.6975219596 
Si 6.5934590103 14.8860627761 27.7450409333 
Si 10.8919990896 13.5365665838 2.4942105339 
Si 10.8536198493 13.5809405442 8.1750529503 
Si 15.0428214476 9.5712384575 19.2224495284 
Si 12.6274379655 7.6032109595 27.4673501752 
Si 14.1817646197 8.4572467973 14.6071376790 
H 1.2708040886 16.0709159370 14.7971304481 
Si 10.0997675124 1.9318474077 23.9473252425 
Si 14.2706754405 14.5608166332 25.4975161665 
Si 13.1376407702 13.0096013690 26.8257069004 
H 12.9660256186 10.6164374471 12.5527126288 
Si 7.6921869404 15.6977934836 25.8713757421 
Si 9.4414397363 14.9397871966 1.2372070013 
Si 12.2233319318 14.8771847261 3.9545579165 
Si 9.5208209071 14.8616603559 6.6984321975 
Si 12.1120549408 14.9518580867 9.6548685830 
Si 12.8602546476 6.9028875631 15.6788000706 
Si 10.6382334673 0.0474008053 10.9679642418 
Si 0.8589228379 16.0900729772 23.7557496889 
Si 6.9128407532 4.0046196066 13.8821051065 
Si 7.7733437211 7.3675923974 24.7420882682 
Si 9.3022579751 12.4328864937 27.6019747954 
Si 13.5719321741 16.1602502978 2.4748800447 
Si 14.9128272464 1.2736466936 3.8920965480 
Si 13.5396128138 0.0311746620 8.3146897216 
Si 14.8901352762 1.4737172175 9.7044331884 
Si 13.4715369032 0.2022175458 13.8071866372 
Si 6.9976464940 3.5002974920 16.2453783220 
Si 13.3951368025 2.8528514361 11.0264100273 
Si 15.4505601513 10.1010055524 25.0824162598 
Si 9.8837295304 6.6358130107 20.0136073227 
Si 11.7021333770 9.7154212489 27.1224790057 
Si 11.9812136596 1.4404774722 12.3205415823 
Si 0.8942542192 14.5205314628 21.7595066267 
Si 3.7945274747 1.1780227638 22.6559489051 
Si 14.7906359553 1.3282312261 27.7208888133 
Si 13.5464871939 2.6968095247 29.1836455457 
Si 14.8487912558 4.0751390173 1.2812289297 
Si 13.5570268240 2.5770128636 5.3582826470 
Si 14.8568548059 4.0054992666 6.6719352115 
Si 10.3591857647 13.1128636799 24.0494148467 
Si 2.4680164726 3.0679934681 23.3842056684 
Si 0.0727951237 13.5270858037 13.6902657554 
Si 11.0453694410 16.1106635373 27.0235549706 
Si 5.0519037162 0.6092883596 14.2453248526 
Si 13.5215797837 5.3166487986 2.7798562500 
Si 13.5984034244 5.3836495692 8.1204761937 
Si 11.8800038887 11.6829926268 17.9101159510 
Si 1.2786395787 12.0711181704 12.2601026607 
Si 10.4226516053 4.5602226417 18.9856766823 
Si 10.1100302125 2.6711527744 13.2499585390 
Si 7.5143164287 7.7757057711 12.8531485873 
Si 13.9655474477 7.5146096487 0.0652857597 
Si 14.9364966166 6.7967419222 3.9487543731 
Si 13.5763141842 8.1291987743 5.3813502664 
Si 15.4339769312 6.2500006472 9.4007144175 
Si 12.5365886347 12.6965564361 14.4954634350 
Si 0.0945481383 0.2932509537 11.1585725382 
Si 14.9424424667 4.7040633430 21.9504080313 
Si 13.8583592467 4.8332593342 25.8589479523 
Si 12.2938187624 11.7459534774 23.6045644524 
Si 14.7479072849 6.6309585906 11.6759672249 
Si 3.9542672162 15.9004085054 24.4456972036 
Si 14.8570339959 12.3352442328 15.1392464000 
Si 14.8449956858 9.4417655364 1.2035200699 
Si 14.8974494862 9.4709246366 6.8070581158 
Si 12.3314649528 9.1182950034 13.2996696986 
Si 1.0806867549 9.0430189127 14.8789955829 
Si 15.4858117116 7.8069499914 24.4490972593 
Si 5.1182203068 13.1335845601 15.8415337722 
Si 2.2906020809 8.0324198835 16.7117428620 
Si 13.4595311731 10.7702313385 2.6084846482 
Si 14.8564801359 12.1864350815 3.9556131062 
Si 13.5123433536 10.7944056987 8.2315349105 
Si 14.8998929863 12.2720553222 9.4992867227 
Si 15.2864058198 13.5705475241 17.0722367014 
H 10.2662838939 9.3062653151 24.2181572675 
Si 13.1860383606 10.9247256999 25.6482324298 
Si 15.6626233732 12.6816999560 22.1115296375 
H 12.4034993334 14.9158897664 16.3706234782 
Si 7.0889845248 7.1595853855 17.2494499506 
H 1.3543457254 5.5403919507 24.5466143748 
Si 5.8354853034 5.4967347503 27.1320929563 
Si 10.7614673184 10.5361929064 19.6873192164 
Si 16.2299226284 7.1923119958 13.6599876730 
Si 6.0780271156 3.2183990394 26.5936530971 
Si 13.9740345378 12.9310346983 29.0831387260 
Si 13.5527751339 13.5499080939 5.4147646072 
Si 13.6697862050 13.7061129054 10.9669676738 
Si 2.7224988549 7.9651747628 10.7867940312 
H 1.6729015653 10.2843657941 18.3505110999 
Si 6.4490481590 4.3835738801 20.1391748979 
Si 0.8283725716 0.0869045444 18.2961981408 
Si 9.2241800044 4.0628726472 16.9376413920 
Si 14.9358938866 14.7902938653 1.0327288224 
Si 14.8760770061 14.9648412169 6.8374534415 
Si 6.0958157958 5.0358743561 17.8079384143 
Si 8.0828537239 13.6824924051 10.9190737854 
Si 12.0600735503 14.9395265566 14.9013011209 
Si 13.4720418932 0.8867494161 22.3910376668 
Si 3.0968756383 2.0342137686 13.9079279435 

