&CONTROL
  dt          = 30.D0,
  prefix = 'aSiHcSi_merged-12',
  pseudo_dir = './',
  outdir='./',
 wf_collect=.true.,
 verbosity ="high",
/

&SYSTEM
    ibrav= 0, nat=  388, ntyp= 2,
  ecutwfc     = 42.D0,
  nbnd=1468,
  degauss     = 0.05D0,
  occupations = "smearing",
  smearing    = "methfessel-paxton",
/
&ELECTRONS
  electron_maxstep=200,
  conv_thr    = 1.D-8,
  mixing_beta = 0.3D0,
  scf_must_converge=.false.,
/
&IONS
/
ATOMIC_SPECIES
Si  28.08  Si.pbe-hgh.UPF
H  1.00784  H.pbe-hgh.UPF

K_POINTS {automatic}
2 2 2 0 0 0

CELL_PARAMETERS angstrom
16.29000014898320 0.00000000000000 0.00000000000000
0.00000000000000 16.29000014898320 0.00000000000000
0.00000000000000 0.00000000000000 29.15939337494521

ATOMIC_POSITIONS angstrom
Si 15.7013609936 0.4875906555 0.1650033845 
Si 16.2526634686 2.7014847547 2.8154852273 
Si 2.6791185845 16.2795908389 2.3974124248 
Si 2.0080683184 3.3141190803 29.0106221499 
Si 1.2307143983 1.5037673808 1.2406505418 
Si 3.8840084455 4.1277882978 1.1095294976 
Si 1.3480333503 4.1187310577 4.0641487704 
Si 4.0373625069 1.3143635490 3.8451617262 
Si 0.0638830275 16.2254102984 5.4368272135 
Si 2.7199739049 2.6622910143 5.2992823550 
Si 1.4659648064 1.3050847649 6.7743102689 
Si 4.0428685270 4.0934001074 6.6230896548 
Si 0.0552183764 2.6113521839 8.1316800305 
Si 2.9027477065 0.0011787998 8.1751566860 
Si 1.4863273066 4.0249169468 9.3420281307 
Si 4.2858990392 1.3994299298 9.5655348809 
Si 10.7197323380 5.3958833593 17.9206925022 
Si 10.1459822428 4.0402621270 25.1617571808 
H 7.0008230440 4.2707982091 12.8977245588 
H 10.3647569448 10.5737250667 10.8135277580 
Si 0.8206201605 7.4233367779 14.6288302653 
Si 13.3315732219 6.0359500452 23.6166592447 
Si 15.7284675538 8.5775484484 13.0769090311 
H 14.9150589764 7.5369758189 16.3427902485 
Si 13.5451677039 7.3627379773 16.9509385567 
Si 9.2279755744 15.3697291706 12.3118248677 
H 0.7120000685 4.9806023856 10.5030968561 
Si 16.2448768486 15.3868662507 18.4632613347 
Si 0.9229669734 14.4476500021 14.2191699478 
Si 8.5205986079 10.1471551228 14.8135258629 
Si 9.9425527209 11.6355561464 15.8383035837 
Si 0.2322563061 5.1033801167 0.0800979377 
Si 16.1823558280 8.0488727836 2.8083586716 
Si 2.6978357947 5.4878567002 2.6544116543 
Si 1.9623422879 8.7587747001 0.1776200708 
Si 1.2388056413 6.8145794723 1.3705235640 
Si 4.0284518768 6.8400407426 4.0230923445 
Si 16.2880942190 5.4311349197 5.4938046682 
Si 2.6951805246 8.1918501149 5.4773296109 
Si 1.2728533706 6.8980657231 6.8533613843 
Si 16.1669780679 8.3093335960 8.2060364836 
Si 2.7277442349 5.4941446402 8.0489256721 
Si 4.0487003470 6.8053919122 9.5047667051 
Si 2.8600190362 2.8367732059 10.7706051309 
H 4.3023193593 7.7902690312 20.5348904370 
Si 4.9215837150 13.7316230456 14.5245271152 
Si 2.2905043409 11.0984748415 13.0520360686 
Si 12.9506641484 5.0635673563 17.0567871547 
Si 8.4840438476 8.6475954491 18.0113490562 
Si 14.7929002653 12.6424084756 11.8003982673 
Si 8.3066457460 7.5708264392 23.2272938649 
Si 11.5399012655 2.0232017285 16.7490389170 
Si 13.7742051060 10.7512371983 26.4964409344 
Si 10.8993947497 7.8392530617 26.1390634092 
Si 15.2221906392 12.0476279902 27.9710022979 
Si 10.4447897155 15.5240932120 20.9835660229 
Si 3.2665034099 1.1260462603 22.4303676440 
Si 6.1641686364 2.2876861709 15.3047450037 
Si 9.4385401163 13.3408748120 13.4633001527 
Si 4.0088550067 9.5440830273 1.1481831895 
Si 0.2052035029 10.5306217263 0.1898014074 
Si 2.7664655653 10.8707732194 2.6678074796 
Si 1.4041621748 12.1812874414 1.2949599120 
Si 1.3761466326 9.4645226666 3.9938454730 
Si 4.0672872372 12.2238532118 4.0384593449 
Si 4.0330456569 9.5770051176 6.8757266390 
Si 16.2892345190 10.8373787191 5.3083217669 
Si 1.3448991543 12.2283329618 6.6374652358 
Si 0.7357036477 10.1533453229 9.4617857593 
Si 2.5930910937 11.0073322907 8.1978135346 
Si 3.4970394920 12.7982060370 9.4817307843 
Si 13.5765422442 13.0037695489 21.2651291253 
Si 1.0233166324 6.4373356489 18.7410045566 
H 3.4001628611 8.5250620680 23.5239906925 
Si 5.5714895610 5.5321166306 10.7704593339 
Si 9.7934829296 11.9451964692 20.3208604897 
Si 5.8949438039 4.0334854869 19.3187396176 
Si 8.0930186840 3.6324256832 15.7901031065 
Si 14.2031370999 3.6511754734 18.5924082880 
Si 12.3060199725 9.0088750724 15.7612061476 
Si 10.1441740528 9.8591805002 19.1644572672 
Si 6.0402506052 13.0101063590 12.5958081998 
Si 6.4675047291 14.6963494344 15.9600148917 
Si 0.8907811911 14.6669622741 23.2947978606 
Si 5.5597933408 8.6279822889 20.5732933581 
Si 8.4607491474 15.8243993647 24.1668969976 
Si 0.0370504650 13.5697493141 2.6378141275 
Si 2.5681348135 13.2999380416 28.6947676009 
Si 3.9303697859 14.7797705252 0.9810590423 
Si 1.4000668688 14.9712920569 3.9339520790 
Si 2.7343905550 13.6331662847 5.3548018400 
Si 4.1655648081 14.9679851869 6.7033071460 
Si 0.0640965894 13.5233879737 8.1150591762 
Si 1.7603299961 14.6105825836 9.3746283325 
Si 4.5154251413 1.6845163354 16.9619608074 
Si 0.3041326738 5.3077381685 12.1022563076 
Si 3.0638720980 8.0556494237 11.2800488926 
Si 4.0471527970 5.5380136106 13.8997579528 
Si 14.6487663440 10.5387341464 18.6150942960 
Si 9.9105428706 9.0111393824 24.2887541026 
Si 5.0426509961 12.7824047369 25.4225879546 
Si 9.7898828395 11.3977547242 27.5228224218 
Si 13.1569932903 15.3600040405 15.7714994135 
Si 10.7890951587 6.1172860159 20.2754884736 
Si 3.0438516878 0.9862862040 13.6922888689 
Si 11.3787605841 10.5930287169 17.3207088241 
Si 14.4921705725 4.8687878245 20.5521819573 
Si 5.8480774735 15.7400171640 29.1020660076 
Si 5.3284264687 2.6861558646 2.4322520680 
Si 8.1473784145 0.0036056286 2.6913974288 
Si 8.1274883243 2.6248077240 28.9835913923 
Si 6.7843615220 1.2494088024 1.2131969729 
Si 6.7724535319 3.9872055965 3.8455991171 
Si 5.4432220998 16.2804053389 5.2407886119 
Si 8.1444462145 2.7206417949 5.3733763736 
Si 6.7809080420 1.3162906560 6.6927514456 
Si 14.0750325387 2.3386412914 10.9339852120 
Si 5.3943358093 2.7422423351 7.9804302570 
Si 8.2040513250 16.2566382287 8.0703578262 
Si 6.7645040119 4.1137463176 9.2819889397 
Si 11.4367041146 15.0754828979 23.0616393512 
Si 13.1008090798 12.0711018804 17.7203966291 
Si 11.8432536483 9.3661636457 22.5493088096 
Si 0.7438861148 6.1298293161 24.6898998772 
Si 12.5131961944 1.2155630691 12.3524147433 
Si 8.1899441849 2.4446566124 21.6931307013 
H 0.4420715080 7.3192925469 23.1739613344 
Si 4.3370985097 14.2035769299 21.2977293271 
Si 1.5948626906 12.0332439201 18.3052465820 
Si 8.5483078982 6.2980887276 21.1585807019 
H 12.9125129681 13.8961194671 10.3742998155 
Si 6.6126160505 3.8546864453 27.6020776530 
Si 10.9323005500 0.0041440294 10.9534636868 
H 5.2504136580 6.5536951199 22.2472466536 
H 10.5349711563 5.2225903378 11.2316734589 
Si 7.9662173229 16.2344675385 26.3895717577 
Si 5.1971942275 5.4052338194 28.7630589002 
Si 5.3302672387 8.0978079441 2.4989396007 
Si 8.0995183941 5.3630101390 2.4425395020 
Si 8.0761422439 7.9955556131 28.9328832072 
Si 6.6213637806 6.6836730311 1.0786934391 
Si 5.4247981096 5.3800657692 5.2118916531 
Si 8.0973029541 8.1441529945 5.2934504763 
Si 6.6968842212 6.7617510018 6.6067895539 
Si 5.4457144698 8.1150590542 8.1118516430 
Si 8.1222592343 5.4839308102 7.9722947863 
Si 7.0082512841 9.4373020763 11.4775163045 
Si 15.8122307346 3.0596692780 12.4966954217 
H 7.0810187148 10.3782450649 22.5137051903 
Si 4.1741822182 12.2298316419 16.1604274023 
Si 2.0941446792 13.5205860937 21.6807379591 
Si 10.5421713364 0.6129503516 24.2687507587 
Si 0.1866263867 2.9447433269 18.3967487584 
Si 4.7390542633 9.7088726688 11.7635991129 
Si 12.4772604541 12.4327073037 25.3908333752 
Si 0.6484544069 1.0169700483 19.6837277444 
Si 6.4836155393 8.9854337622 22.7038244351 
Si 4.0103862667 15.1822964289 19.1793285578 
Si 7.0415480444 4.4239405005 21.3750891977 
H 2.0714852889 6.2912795075 21.6660999436 
Si 5.4383676797 10.7106750980 28.7488874350 
Si 8.0957065340 10.8309115891 2.4876345038 
Si 6.6730845310 12.1556469812 1.0816735291 
Si 6.7222314615 9.4620628765 3.8641444913 
Si 5.3725886591 10.7749391485 5.3243885927 
Si 6.6679531810 12.1105073908 6.7145626718 
Si 7.3777247775 8.9715383921 9.2382206903 
Si 8.1564682346 10.8290871090 8.0245192598 
Si 10.7851692686 13.4012781326 26.7600418505 
Si 15.4120017210 6.9776912438 20.0746385720 
Si 13.2808950315 13.0292308192 15.5686666732 
Si 10.8737705794 12.8672593477 23.7218080172 
H 16.1370370476 4.0270183568 26.8877599935 
H 3.7539165043 4.0500849970 16.5807892172 
Si 4.8451347443 10.7135095580 19.7963121623 
Si 13.9778138178 9.8648820002 14.1782593189 
Si 7.3163603469 0.3164967839 15.0753772155 
Si 1.9687279680 4.7698260736 21.6555150838 
Si 2.4095516620 8.2386675753 18.1873551546 
Si 8.5647933783 13.4403415529 23.7023587018 
Si 2.7698864653 10.1168231425 26.0412044850 
Si 14.0689400787 0.1924630938 13.8729021515 
Si 5.6872788820 0.1561662041 26.8560054141 
Si 5.2972474084 13.4892767134 2.4932097799 
Si 7.6166502097 14.0696894187 0.0227244110 
Si 6.7232414415 14.8407439957 3.8832438939 
Si 8.0505180736 13.5108120936 5.3473661947 
Si 5.3752765092 13.5283727137 8.1334295941 
Si 7.2676369565 14.4222213119 9.2686047782 
Si 9.4025066360 0.5407693609 14.1679660530 
Si 12.9275812182 1.5685070993 18.5904546086 
Si 16.0655891069 1.5748325064 21.8411729415 
Si 8.4118302769 10.3535820047 25.9086458827 
Si 4.2104111785 7.1595365155 17.1756408421 
Si 4.5068891812 9.2297023144 24.2828347457 
Si 7.9439000227 16.2578762687 18.7298656683 
Si 3.1260021586 14.9518255067 13.5142416129 
Si 0.5619154101 2.7778522754 16.0842339074 
Si 12.9652599886 3.3480511506 15.3705577546 
Si 11.0945652415 2.0828231290 26.1692725407 
H 3.3585419107 14.6310916938 12.0555429594 
H 6.8463123926 3.0655499680 18.6338729454 
H 0.3588230913 5.9358642843 17.2246577823 
Si 15.3867196407 3.1605858289 25.8781451572 
Si 5.5518438208 7.7853494512 25.8962531405 
Si 9.5674428875 4.0323940569 1.0939758772 
Si 10.8679713394 16.1869658980 29.1467673576 
Si 10.8405715591 2.6903912646 2.5827291175 
Si 12.2202205418 1.2383706983 1.3619565342 
Si 9.5139465270 1.3649309675 4.0221009252 
Si 12.2024155716 3.9766659664 4.0063548528 
Si 9.5541828274 4.0377045969 6.7926806867 
Si 10.8929927796 0.0030564764 5.3616251380 
Si 12.2331873819 1.3075331520 6.8423682930 
Si 9.5519348074 1.3269703801 9.5217374720 
Si 10.9521743502 2.7233622249 8.2505045585 
Si 12.6516449057 3.7890051647 9.6273236355 
Si 14.8771195661 6.9082795532 11.6982529123 
Si 1.3663579715 15.3043899800 16.4681173212 
Si 10.2173650234 8.3834042267 14.8071982746 
Si 9.6631629284 3.2699568899 17.5749787343 
Si 8.3753569666 4.0749435373 12.2775334211 
Si 9.0083700824 6.4150835087 11.6404298353 
Si 1.4763578265 9.0957659332 16.2184545951 
Si 9.5909167777 15.0137437973 17.4775863605 
Si 6.0202464851 0.9590118568 11.2443869545 
Si 3.1930192192 5.3453191989 16.0441397415 
Si 0.5588545191 13.4432411729 19.8322656943 
Si 15.4702221815 14.9826787670 12.6082884202 
Si 6.8375483725 7.1627945155 12.1240383744 
Si 8.6615559792 13.6654367750 15.7744736716 
Si 13.7278763456 14.8953969462 22.7332462630 
H 8.6647162392 11.9040153489 28.4090638646 
Si 15.2907552498 4.7162156831 24.0854839713 
Si 0.0504338405 10.8021108688 16.9863963791 
Si 10.9836792105 5.4466267098 28.9173120911 
Si 10.7911639887 8.0499153436 2.6691692232 
Si 12.1857509014 6.7361431216 1.3119160992 
Si 9.3961698259 6.6805453511 3.9562881743 
Si 10.8101744189 5.3407417088 5.3111210687 
Si 12.1254127409 6.6246380706 6.7631713806 
Si 9.0108950324 7.1694571256 9.3432236658 
Si 10.8230923890 8.0590540337 8.0889615192 
Si 10.7634709884 7.8052395414 12.5919300005 
Si 11.6283885463 11.6651713667 21.8629841677 
Si 11.8162285381 5.7879347929 25.3913874036 
Si 11.8982161088 4.6931979129 11.6204848102 
Si 0.5915045664 13.7771535960 27.3515401451 
Si 7.1460483954 0.4155693068 22.4462011946 
Si 15.4279170511 11.7121191471 20.5294376305 
Si 12.4475800738 4.9608263254 21.6370571878 
Si 15.1640027587 11.6472197865 15.1560904163 
Si 9.5148913470 1.1970120169 27.6959125809 
Si 11.5378161455 9.7458835491 11.3014518873 
Si 7.8692103720 12.9457608584 21.4626840154 
Si 4.0686067272 11.9633761094 11.6410421825 
Si 5.7999405230 11.4704569949 17.7104241166 
Si 9.4200509662 6.6264136806 27.5720434778 
Si 4.4190046304 11.4928394551 23.5035791172 
Si 9.4419447264 9.3222295153 1.2189763647 
Si 11.1034921615 10.4061661252 29.1188034994 
Si 12.1815480814 12.0417310101 1.3162841763 
Si 12.1702754013 9.4016595560 4.0351351740 
Si 9.4181939061 12.1359360810 3.9760874024 
Si 9.5393100572 9.4791185067 6.6719899575 
Si 10.8647459194 10.8410602591 5.3422633008 
Si 12.1827861214 12.1427778811 6.8385775719 
Si 12.6049414753 8.9970648223 9.3371585120 
Si 8.9537171319 12.6981854361 9.2343424909 
Si 16.2525005686 7.5976723595 26.3165566366 
H 3.1750350590 15.3246873202 25.3573292322 
Si 3.2530967398 10.2466707337 15.1464386571 
Si 9.0373174127 1.9689397380 19.4666943795 
Si 12.0625170503 2.5963816737 21.9970590584 
Si 9.4490145864 2.9085632366 13.9811126603 
Si 1.2070955270 0.6982773724 23.5092943583 
Si 3.8876899856 6.4522247090 26.9403926985 
Si 2.9164150167 13.7793527460 17.4708213812 
Si 13.9158303673 15.5767262025 26.4952453992 
Si 12.8876055579 11.2258137727 12.6028939324 
Si 2.1538963997 8.1217053743 27.1437211485 
Si 10.6827703277 13.9344824174 19.2800159432 
H 5.3058973985 2.5469903933 25.0211214266 
H 14.0872663288 1.2509612394 24.0245116798 
Si 9.4352006663 14.8958856462 1.3211246356 
Si 10.7975170888 13.4708527232 2.6322592631 
Si 12.1667404713 14.7987972453 4.0732465012 
Si 9.4874752768 14.9307625366 6.6245476245 
Si 10.7746133485 13.5913172743 8.0689581753 
Si 12.1385099010 14.8743665560 9.4975643349 
Si 6.0921179657 6.0143169250 18.0281740262 
Si 7.4038865177 12.4760549941 25.4812858134 
Si 7.2412308662 7.4185963878 19.5137867998 
Si 0.4432704521 16.0076292864 10.8636527552 
Si 3.9068958957 11.8105759080 27.3221474766 
Si 0.8368450007 10.1647483230 21.3411185045 
Si 6.9807537638 6.3130918177 24.7179220543 
Si 2.2255398204 6.5865846302 12.9294208194 
Si 0.8174810775 1.4917828276 25.7642777261 
Si 15.0141510473 2.3158027112 14.6205489976 
Si 13.9037106072 1.0183318923 22.5421355988 
Si 12.2828555923 14.7249383847 27.9722269925 
Si 13.5257011537 16.1991508182 2.8078338025 
Si 13.9629573377 2.1515832197 0.0635502735 
Si 14.9154173564 3.9390197760 1.3498408062 
Si 14.9191966364 1.2964168559 4.1511020815 
Si 13.5620441440 2.6973145147 5.4756966849 
Si 14.9537314368 4.0479347170 6.8488125189 
Si 13.6157196945 16.1713600779 8.1643677104 
Si 15.2449151894 0.9844324020 9.4685798979 
Si 3.5774958027 4.2550783589 23.3964183465 
Si 3.8626033853 2.8784267363 18.9292867596 
Si 12.8643597277 5.0571490963 27.3811077700 
Si 7.8180109015 2.4902686128 10.6244290919 
Si 2.6573551443 4.9056032249 25.5147316376 
Si 10.9255239099 16.2199368583 15.9330424528 
Si 1.9539855179 4.3113928894 19.3124703480 
Si 11.6240716963 8.3654852265 20.3456751334 
Si 14.9306647966 6.3079441777 27.8763800664 
Si 5.9723050146 6.8529750027 14.2960049493 
Si 10.0460919619 2.6605479843 23.1946936631 
Si 13.9271682074 15.7450344840 18.0158104434 
Si 13.5372018938 5.3494242789 2.6531403047 
Si 13.7160009354 7.9098376323 29.1207280193 
Si 14.8434970058 6.6777760511 4.1245670335 
Si 13.4900260534 8.0642831238 5.4617001761 
Si 13.5974911844 5.4363965897 8.2133554913 
Si 14.3828972515 7.3390360271 9.4308768023 
Si 9.4081592660 6.9860154339 16.5840842287 
H 9.3773222958 12.4060731535 10.6560378743 
Si 5.7315551024 16.0415450667 17.8097701698 
Si 5.1248829169 2.0368527486 13.1733099856 
Si 15.2304496693 9.4566871765 25.1388670570 
Si 5.5592231908 12.2289845618 21.5014660086 
Si 13.2996122416 2.7889620555 27.0181024818 
Si 12.3952240134 9.1461671936 27.6012903493 
Si 16.0783604670 3.9140472058 22.0226026870 
Si 7.8964635422 11.4276468745 12.8569597269 
Si 16.1288268875 16.0260206966 27.1822990259 
Si 14.2296572201 13.9355249774 24.8514429165 
Si 13.7472451557 8.3541473864 19.0902174517 
Si 15.9266028257 8.2002720450 22.0322544462 
Si 6.9617759137 9.7604793893 16.5651014636 
Si 1.2223299352 9.4933070968 11.6689185626 
Si 14.8824301061 9.3759376457 1.3929442215 
Si 13.5435875739 10.7677389685 2.7108788195 
Si 14.9238881565 12.1958832815 3.9808987023 
Si 14.8830491261 9.5368502672 6.6820207888 
Si 13.6109141445 10.8322636591 8.2065905121 
Si 15.3305843002 11.8969943588 9.5280942198 
Si 2.1273274095 11.4223363345 22.8287724357 
Si 11.4968467951 12.3575941130 14.1435304814 
H 6.7480511117 12.5884559951 18.1230586922 
Si 2.6157504839 2.8441851560 26.7230094209 
H 15.8765599452 14.6833011443 22.4698494626 
H 3.7925726747 2.5767522236 23.1792391846 
Si 2.3801645018 1.1627085346 15.9454060356 
Si 3.0122816675 0.9594744928 20.0479868865 
Si 6.9721852238 15.0561140877 11.5072297263 
Si 12.9676220386 13.8805625169 19.1541056826 
Si 6.8150355923 9.2373749045 27.3655366539 
Si 8.0976613341 15.2542167795 20.8701943015 
Si 2.5007105029 10.2037791633 19.5558929639 
Si 1.3896168337 1.5663991733 12.0629494453 
Si 0.2950949817 12.3210556427 13.4662452515 
Si 5.0162286159 2.3902805919 26.5037016233 
Si 13.6833883551 13.3533855321 0.0973238493 
Si 14.8795141961 14.9242465365 1.3885003300 
Si 13.5650252141 13.4731496132 5.4384892990 
Si 14.9504897267 14.8469016158 6.7652125381 
Si 5.0944531966 8.6593894092 15.5770645785 
Si 13.9517172376 8.3981140968 23.3460017554 
Si 11.6819011968 3.1903965292 13.3977789958 
Si 12.7806128369 6.5428622698 12.6650617591 
H 13.0658344495 6.2523301172 14.1227981527 
Si 8.4273872271 14.0140753582 26.9660821241 
Si 0.2471779463 13.2596365813 25.0851262950 
Si 0.8599751719 5.2490290080 15.7767189449 
Si 7.3933631776 5.8663385637 16.0033457502 
Si 4.9565257653 15.8870181253 22.9040328300 
Si 4.3723012000 4.0175701567 12.1762045291 
H 4.8624998845 9.6659810984 13.2892185743 
Si 5.6550898417 5.3272210087 23.0289808306 
Si 0.8806276341 10.9762183904 24.8019302666 
Si 11.1974691724 1.3460769213 20.1949793885 
Si 4.6684859827 15.1108810682 25.1564793306 
Si 8.2076351251 5.0145507459 26.2306822232 
H 13.3662057622 0.5612491491 25.9175978165 

