&CONTROL
  dt          = 30.D0,
  prefix = 'aSiHcSi_merged-25',
  pseudo_dir = './',
  outdir='./',
 wf_collect=.true.,
 verbosity ="high",
/

&SYSTEM
    ibrav= 0, nat=  388, ntyp= 2,
  ecutwfc     = 42.D0,
  nbnd=1468,
  degauss     = 0.05D0,
  occupations = "smearing",
  smearing    = "methfessel-paxton",
/
&ELECTRONS
  electron_maxstep=200,
  conv_thr    = 1.D-8,
  mixing_beta = 0.3D0,
  scf_must_converge=.false.,
/
&IONS
/
ATOMIC_SPECIES
Si  28.08  Si.pbe-hgh.UPF
H  1.00784  H.pbe-hgh.UPF

K_POINTS {automatic}
2 2 2 0 0 0

CELL_PARAMETERS angstrom
16.29000014898320 0.00000000000000 0.00000000000000
0.00000000000000 16.29000014898320 0.00000000000000
0.00000000000000 0.00000000000000 29.18601123518865

ATOMIC_POSITIONS angstrom
Si 16.2544227887 16.0469370568 28.9853282219 
Si 16.0897634672 2.5677601435 2.6051900605 
Si 2.5242332631 16.2598473587 2.4205039000 
Si 1.8174916066 3.2697125399 28.8482123412 
Si 1.1227768573 1.3728202146 1.0349709816 
Si 3.7257348041 4.0188407768 1.0093952800 
Si 1.1903738419 4.0259757968 3.8753185718 
Si 3.9353708160 1.2647767886 3.8194857323 
Si 16.1282730275 16.1450354377 5.2785528060 
Si 2.5599246534 2.6227551840 5.1904986101 
Si 1.1982109610 1.2374356523 6.5620368361 
Si 3.9090624658 3.9804289564 6.5634377646 
Si 16.1799123280 2.5721747335 7.9843587216 
Si 2.5598594934 16.2796234189 8.0073572984 
Si 1.6419831450 3.4112563512 9.3442517291 
Si 3.4107676512 1.7678559762 9.3335988350 
Si 9.1794639540 9.3518773155 25.2556186602 
Si 0.5336685499 12.8675199877 25.8315170339 
Si 2.1110211193 5.0692036964 19.2582435835 
Si 6.9923196639 0.0057566906 17.0255137240 
Si 6.9361680334 12.0787256005 25.6080397458 
Si 15.1913862489 3.3098511003 19.6429443976 
Si 1.9833400981 9.2548866546 21.0338329490 
Si 16.1045873673 4.0868678174 25.1091340698 
Si 11.6776006368 6.9773002838 25.6714025762 
Si 7.8362557017 14.2456702903 22.9237731065 
Si 0.3202109039 6.6499201508 18.7566527944 
Si 0.0951088401 6.9445573835 14.7728498188 
Si 6.4698179092 11.9857748596 12.3156503469 
Si 14.3124592909 9.4754206767 23.4316097020 
Si 7.1907155758 5.1501324171 17.5348096200 
Si 0.1840346477 5.0532069162 0.0929997655 
Si 16.1367601176 8.1127947442 2.5603253240 
Si 2.5816392236 5.4137371995 2.5437068092 
Si 2.5942313937 8.2859900258 28.9353909567 
Si 1.2808745667 6.8298269125 1.1808368286 
Si 3.8783069455 6.7273953915 3.9946017997 
Si 16.2059763282 5.3921203693 5.3446591214 
Si 2.5203562431 8.0187525733 5.4406810984 
Si 1.2155141991 6.6713577910 6.8927727154 
Si 16.2369599085 8.0618884937 8.3675126771 
Si 2.6341093141 5.2019834876 8.1201612319 
Si 4.3535025398 6.1495565062 9.4532906671 
Si 8.2116424651 6.2859363875 27.4300348692 
Si 3.3993157811 0.9799428780 15.3001242978 
Si 13.2434931911 8.2227522452 10.7769930206 
Si 11.3548305738 9.6840629986 15.5823530264 
Si 7.3135095969 10.8967883497 14.3337754658 
H 0.2986217667 15.6950404735 10.1482679666 
H 11.2960888333 14.7811063052 22.7389672834 
Si 11.4555842248 6.0267136151 21.3383597902 
Si 3.1830497391 5.0267356660 17.1072637415 
Si 15.5778665025 4.9094476649 15.8019485750 
Si 5.7776720928 7.0664228746 24.2417258159 
H 5.8477842535 15.0859247880 20.9350091150 
Si 5.0144530059 11.9429321592 22.4029195500 
Si 3.8890094756 9.5663677475 1.2462747844 
Si 15.5801471025 11.2696501631 29.1640925408 
Si 2.4719097826 10.7782623086 2.6642975704 
Si 1.1970217909 12.1284426809 1.1668684036 
Si 1.1706124427 9.3941987359 4.0490628967 
Si 3.8960956256 12.1537247612 3.9866632047 
Si 3.8951508056 9.3713112857 6.7945909736 
Si 16.0774319370 10.7521005683 5.3758589674 
Si 1.1276540833 12.1492124311 6.7221804797 
Si 11.5338088055 1.5231899479 12.3461497287 
Si 1.3239567301 9.5901674377 9.6774976054 
Si 2.5405721332 10.8333062191 8.0762362850 
Si 3.9541206062 12.1767751114 9.3876221418 
Si 13.9709231478 2.1744380899 27.0480775402 
Si 3.9795167164 12.8214518673 20.4399851784 
Si 3.9280077359 7.8416476917 20.8733390732 
Si 5.2626148681 4.1590650980 16.3107483088 
H 11.1250275417 14.6819816543 23.5031738016 
Si 1.0913713660 7.8665062319 16.8203944370 
Si 16.0150249465 15.4968889117 22.2841908563 
H 11.3819534241 5.1139686168 17.9923587182 
Si 10.5796872068 8.0886855440 23.9149592341 
Si 5.4837516202 12.9911447988 18.5061784460 
Si 14.9788831970 2.4975828228 23.5742417389 
Si 0.3653358333 10.2874608941 14.3427647573 
Si 2.5384055632 1.4264126860 13.1885455709 
Si 8.8295710408 15.7510780741 24.3469997584 
Si 0.4345406410 6.1428776062 23.9339301414 
Si 2.7532543752 13.2629108713 26.6688345102 
Si 16.1658703478 13.5059576735 2.5659582242 
Si 3.0278874877 13.0491209093 29.0707264908 
Si 3.9438741961 14.8192574855 1.1699737952 
Si 1.2324069293 14.8802961161 3.8838408871 
Si 2.5280288331 13.5299528437 5.3517221362 
Si 3.9453728761 14.8708479160 6.7032971304 
Si 16.0654262069 13.4548396531 8.1814518555 
Si 1.2602351365 14.8586955759 9.3456818436 
Si 16.1460454177 12.2037350616 20.2880719899 
Si 8.3456114263 8.8009332205 13.8523813965 
Si 9.0291887026 8.1414814345 19.4920235335 
Si 4.1456095579 1.1664601217 11.4995511008 
H 9.7640468993 0.4793316254 23.7385297962 
Si 3.8410680051 10.5872620568 23.9247073618 
Si 7.5186658588 15.4480840713 13.5641403495 
Si 7.9359830826 13.2295815310 10.8532560680 
Si 16.1828608180 8.1917360849 20.5003126636 
Si 2.1034788492 1.4098571589 18.5677901157 
Si 7.6025430695 1.3021118399 20.5055077736 
Si 12.7851414569 1.1307426673 17.5703581817 
Si 14.3864647616 16.2513439786 16.2602565094 
Si 16.1726469879 10.8264969990 26.9306914030 
Si 6.1921711466 8.6875059495 27.5743596948 
Si 5.1894564775 16.2780758689 28.9561130247 
Si 5.2156996677 2.6553026043 2.3915338652 
Si 7.9985203932 16.1844409480 2.4867970059 
Si 7.9359667926 2.7572128452 28.8435133933 
Si 6.6680997910 1.3056679469 1.0687479524 
Si 6.6217221606 3.9082479657 3.8917794821 
Si 5.2756957382 16.2593097887 5.3277604209 
Si 7.9422058626 2.5624333134 5.3742537368 
Si 6.5751490501 1.2759321807 6.8259659357 
Si 5.1777276774 2.7214237149 8.0784544218 
Si 7.9032727623 16.2004865982 8.2543585115 
Si 6.1999414767 4.4542236107 9.3568308999 
Si 5.8667946837 13.4432411729 24.0099597007 
Si 11.4919272151 7.2821350566 12.0209591915 
Si 14.2535383604 4.4594527008 26.4186812079 
Si 14.6464531640 9.3663917057 25.7706933865 
H 11.9750723295 7.2850509666 18.4873826547 
H 13.4783135433 7.5739052493 16.7908581937 
Si 15.9078530355 7.3831656375 25.9092977538 
Si 1.9974146583 2.4484358924 22.0950363175 
Si 15.0467147576 14.5256953928 25.8119915924 
Si 7.3560753673 15.2370796994 20.8530839814 
Si 1.6925310155 3.2246218195 26.3799221850 
Si 8.6620935492 2.9375594369 14.5903788766 
Si 10.7690421685 10.4638327257 26.8232576956 
Si 15.2149741692 7.4260572079 22.5282442823 
Si 8.9003185114 12.4496000339 15.3931693016 
Si 10.3429120546 5.4941772202 26.9671155450 
Si 9.5714013575 3.7416827142 25.5447352875 
Si 5.1867197574 5.4407297298 29.0486326803 
Si 5.2035799076 8.1154988842 2.6281244281 
Si 8.0573924537 5.2553006581 2.5812575313 
Si 7.7834109412 7.9207193524 29.1433121008 
Si 6.5356295098 6.6144242405 1.4048540578 
Si 5.3038122785 5.3392756088 5.2487538885 
Si 8.0068282932 8.0219291234 5.2686003762 
Si 6.6469553708 6.7023902413 6.6371616290 
Si 14.5448687230 12.0085808598 11.7657275232 
Si 5.2715906582 7.9434113226 8.1320107524 
Si 7.9400067126 5.2965469384 7.9970546365 
Si 9.7780562994 8.9370524617 11.9957424778 
Si 5.5133179704 3.7848675046 25.5224371749 
Si 3.7392229242 6.8141233523 25.5327398369 
Si 5.3162252586 1.9379235777 20.8180899539 
Si 6.7037586013 4.4104523803 27.6000141987 
Si 14.8762399061 10.3287071745 17.6239436984 
Si 10.4965430460 5.8787515438 14.8511850730 
Si 3.0680912081 9.2719585748 11.4157580625 
Si 5.4385957397 1.7443820860 16.2895884507 
Si 6.6826141811 10.2703401039 22.0062232853 
H 9.3233372353 10.4356347354 17.7063358081 
Si 14.8678179760 4.0537502471 21.8208337420 
Si 0.7228019676 10.2200854535 16.6548221953 
Si 12.6141290354 13.5361430438 20.0438142619 
H 11.3376446237 4.5709903318 20.7798854652 
Si 9.3359294054 14.5322928429 12.2272459189 
Si 6.5096632495 9.1846604640 17.8808097832 
H 3.0384922778 10.8046358188 14.3765913443 
Si 1.7671392162 8.1040307241 25.0941032740 
Si 4.8329986942 11.4360036446 0.0931722548 
Si 7.9385894826 10.6925769078 2.6306052391 
Si 6.6735406510 12.1933420415 1.3399093456 
Si 6.5836850102 9.4017410060 4.0175420046 
Si 5.2285036078 10.7532571583 5.3845272128 
Si 6.6749090110 12.0815437705 6.6869529642 
Si 6.5693172301 9.3455242155 9.5278609258 
Si 7.9599945428 10.6728171376 8.1059476444 
Si 13.7343760556 15.4217431410 14.1099187596 
Si 1.5566039962 1.8991533774 16.3841803131 
Si 3.2752185600 15.0901601880 16.0668699990 
Si 11.3346961337 12.6011621952 25.7729698953 
Si 15.6371458130 5.4918477502 11.6204103733 
Si 1.5110946228 1.0412665835 25.4615843415 
Si 10.6510048274 0.2246407311 18.0688844396 
Si 8.1105141442 7.4668147883 17.3838887559 
Si 3.3979474211 6.9381065435 11.5481166235 
Si 12.0068378298 3.7136313340 11.4819227500 
H 4.1280163578 1.0076896352 28.5201032028 
Si 13.7262636355 1.2526896085 13.0514005042 
H 4.6178566622 16.1656911578 18.8146162127 
Si 12.3841305233 0.9382355906 21.3367545596 
Si 9.6477851682 7.9556125328 15.6012947477 
H 13.4877128734 5.5638332609 18.2360035400 
Si 5.3104911786 13.5775359342 2.6760887190 
Si 8.4938341377 12.9399127483 0.0078625655 
Si 6.6895048512 14.9075655763 4.0069766685 
Si 8.0345212935 13.4798448033 5.3516345781 
Si 5.3402692988 13.4669431232 8.0201699574 
Si 6.5718910501 14.7178359446 9.5796952817 
Si 4.8420885143 15.2255789592 11.1731347511 
Si 5.6413247916 10.0368881118 15.8141191417 
Si 8.5357483081 1.3968854318 18.2733032623 
Si 1.2018810980 3.0140084076 19.9458660082 
Si 4.6325991124 4.3526880398 13.9234785199 
Si 0.7674984700 12.0201630499 23.6200054045 
Si 2.9252767768 13.8848793670 10.6941047487 
Si 0.5983919785 3.5255632822 11.4794711250 
Si 11.4791395650 11.9899450997 23.4504054933 
Si 10.4701043758 12.8816434178 13.6393527005 
Si 9.4221523762 3.9135910858 1.1241284087 
Si 10.9977537706 16.0523942068 29.1607361495 
Si 10.6447331774 2.5847994836 2.6593709717 
Si 12.0770803105 1.3069418250 1.3088116506 
Si 9.2963772850 1.1993398580 3.9891440156 
Si 12.0628917203 3.9523287061 3.9931424992 
Si 9.3647952856 3.8905081556 6.7486813779 
Si 10.6674088576 16.1341862976 5.3557498057 
Si 12.0470578402 1.1745415907 6.7100390990 
Si 9.4056180260 1.1658785687 9.5729824991 
Si 10.7532897383 2.5137099230 8.1510984038 
Si 12.7103214862 3.3410138706 9.2953943463 
Si 3.6775815636 0.3548320412 24.4803506437 
H 8.5406841781 14.2075516899 18.0114463695 
Si 10.8487491392 4.4415825706 16.7208117667 
Si 2.3451735814 4.6530919326 23.0908338348 
Si 2.4488757224 12.8736124477 12.7667785226 
Si 13.3957884025 13.1837577606 26.8363038427 
Si 15.8751915852 1.4416047402 15.2060577836 
Si 14.7652072650 10.0479327319 19.9756941117 
Si 15.0729905279 11.5067348252 22.4185340660 
Si 7.2829006866 6.9254492133 12.8154607893 
Si 7.7694992811 10.1203092026 19.8353093976 
Si 11.4598522048 10.6683862576 13.1995195112 
Si 14.2560470204 3.1837176291 14.6443729974 
Si 1.5039856668 4.1063343676 15.7285749427 
Si 9.8472236401 14.5055772427 26.0441954977 
Si 7.3048596068 0.5679524842 25.7310295972 
Si 11.2754168231 4.7514672435 29.0477862860 
Si 10.7211658581 7.9867101430 2.4823432206 
Si 12.1334437110 6.5896960203 1.1294081582 
Si 9.3990531560 6.6464178008 3.9343035005 
Si 10.7239188681 5.2969704784 5.3899558109 
Si 12.1234742309 6.5955278403 6.8022377085 
Si 9.3443024655 6.5002476294 9.4268481409 
Si 10.6773620477 7.9525500127 8.0723545455 
Si 1.4401093182 15.5641503223 19.2173539817 
Si 10.6398950473 0.2731018525 26.9227819940 
Si 10.3290003945 5.3648671991 11.2996269238 
Si 13.3091907617 0.7012633294 23.5607869878 
Si 13.9837922479 1.3294725242 19.5930363184 
Si 9.2907083650 12.3741773332 22.5830847974 
Si 15.7433566140 0.3609375333 26.7810255374 
H 8.4031639969 2.4436303423 10.6254300643 
Si 11.3712183140 7.8175384915 19.7707499408 
H 14.0610231386 11.8685683085 26.4462036165 
Si 3.4198574713 5.5633608509 21.1638274430 
Si 13.5488166639 8.9597444319 16.1919612431 
H 5.5148329404 6.4316830188 18.8131277261 
Si 5.6360305415 14.0823304588 13.0869198798 
H 3.1172707185 11.5917360460 12.3157087189 
Si 9.2499670746 9.3587354056 1.1620731419 
Si 10.1641455930 11.1372776219 29.0582640640 
Si 11.9839992496 12.0245939300 1.1986928302 
Si 12.0392712201 9.2945202250 4.0079398069 
Si 9.3501342855 12.0925558106 3.9351790809 
Si 9.3235001353 9.3345773354 6.7086089845 
Si 10.6732569676 10.7067492079 5.3228863571 
Si 12.0215151199 12.1192062508 6.6481939412 
Si 12.0030422598 9.4681390466 9.2984005054 
Si 9.3433250655 12.0297741500 9.4563260122 
Si 10.7352567082 10.7106425180 10.8021513623 
Si 10.3184444744 15.8541449050 15.8200147159 
Si 12.5825590151 6.5457781799 13.9353864124 
Si 15.4971169717 1.5168759439 11.5315389691 
Si 6.8924130930 1.4183491360 14.1725811258 
Si 15.4990229017 15.8066432646 20.0074193059 
Si 9.1387552436 11.9993281397 20.2122175467 
Si 14.2375904502 14.8477649858 23.6087687902 
Si 5.5612757309 10.8708057994 27.1366278983 
Si 10.3552272947 11.3040057734 16.9998300341 
Si 11.5145214453 3.2863772101 24.3404329059 
Si 3.4749991218 11.0728018013 26.1790056836 
Si 1.7450988460 9.8371727100 23.3395570226 
Si 3.3181427103 4.5172984913 25.2556770322 
Si 12.2819596423 1.4130141609 25.5765480397 
Si 9.4362920963 14.7831914252 1.1780816691 
Si 10.7566943484 13.4691259832 2.6127434002 
Si 12.0825374605 14.8294550256 3.9770318210 
Si 9.3099142751 14.8455169658 6.8278630264 
Si 10.7273886381 13.4546115931 8.1336743551 
Si 12.3296893428 14.5691734032 9.5062049054 
Si 5.0465605962 10.6540021874 10.8429242200 
H 0.2766107185 10.5351829264 10.2805681555 
Si 8.0558123237 10.8601847193 23.8957840247 
Si 3.3601220407 7.3416424271 16.8405619708 
Si 2.2384577905 11.7991891979 17.5323871811 
H 13.5327058538 12.9806051687 12.4106799995 
Si 1.8648140571 9.5523094774 27.0235904768 
Si 13.7127429354 4.7399827934 12.8860033785 
Si 7.9838105230 7.8795382321 10.7431372476 
Si 0.4246200309 0.3069687628 13.2575121155 
Si 8.7052131796 4.9312436851 13.0175447311 
Si 7.7476706809 13.6242882346 19.1723199664 
Si 11.1854471523 2.8359749959 21.9956579493 
Si 4.7840961138 7.7826453112 18.6695033648 
Si 12.2872050224 2.7353027950 15.9172916914 
Si 7.1346128153 5.0210178759 19.9402914800 
Si 13.4402926829 16.1733474579 2.5771364665 
Si 13.0639448095 2.9668325671 29.1377959446 
Si 14.7493733849 3.9857069165 1.3178184537 
Si 14.7545536049 1.2348129623 3.9927922670 
Si 13.4303232028 2.6122807139 5.4026225397 
Si 14.8611553659 4.0399851969 6.6965551618 
Si 13.4396085029 16.1495966377 8.1223793687 
Si 14.4711564723 1.6330725149 9.3314098841 
Si 15.5898070726 14.2713922005 16.6921802897 
Si 0.1663420785 12.3732325132 13.1608772323 
Si 0.5316127519 1.1552737786 23.3147780991 
Si 5.6871159820 2.6361781441 12.5670294617 
Si 7.8929286122 13.6751293251 27.0691790263 
Si 8.8719739111 2.9085958166 21.7298317589 
Si 7.8169846315 6.9577522836 21.0901911367 
Si 10.6480563374 1.6150362268 14.5519992718 
Si 5.0515779162 15.1119236282 17.6210834693 
Si 1.0601010817 13.6359355847 21.9460125441 
Si 8.8705729711 1.8666711171 26.8718232183 
H 9.9008340305 15.1571120886 20.8435693418 
H 6.1568870063 1.8341074068 23.1602673556 
H 16.2256546484 4.7249797032 21.9785841327 
Si 4.3417411597 7.2264721261 27.7810550263 
Si 2.1060200893 11.3849833641 19.8594170429 
Si 14.7938450853 13.7801020860 19.0439307030 
Si 13.4435995530 5.3817436392 2.6822849091 
Si 13.5861370543 7.8039363414 28.8837900888 
Si 14.8172701055 6.7620768018 4.0143023573 
Si 13.4588632831 8.0475044236 5.4755291958 
Si 13.5512601639 5.2992999485 8.2214658769 
Si 14.7930305853 6.7285356915 9.7406853197 
Si 6.2406827671 4.8613432945 23.5773354561 
Si 7.4418747981 7.8114297414 25.8040238113 
Si 11.2206172626 15.4767056015 20.1462863473 
Si 3.9345563160 13.4501970030 14.5929180596 
Si 8.7163718297 3.4496844615 16.9389188287 
Si 12.8663471077 5.2125231177 24.6938755019 
H 4.7544483135 9.3741946157 23.9677567284 
Si 5.9391222843 8.0750508139 22.1225587261 
Si 4.9733696255 6.6206307306 13.2835460375 
Si 5.6489973817 1.6701811353 24.5961315503 
Si 13.2753564314 13.0568260794 22.3408992762 
Si 3.6232869931 0.6581143770 22.0701114639 
Si 13.6595886649 9.8881441204 12.4258275393 
Si 14.8302532356 8.7369786799 14.1911434289 
Si 12.0265161500 9.7437169791 22.8553902822 
Si 1.3669248635 6.1548181763 12.7880843108 
Si 14.7120041246 9.3788209758 1.1449759766 
Si 13.3262626819 10.6464273374 2.5899316138 
Si 14.7595872150 12.0768359605 3.8932095967 
Si 14.8395548257 9.4156200861 6.8972673611 
Si 13.4057253026 10.8950453196 8.0976296312 
Si 14.1918318398 12.6900241461 9.5022647939 
Si 8.2466333854 14.7835986752 15.6459201589 
Si 4.2403033288 8.2684619856 14.8884556093 
Si 11.8354996082 14.2987105308 14.9102867457 
Si 6.1314908961 15.2828545998 27.0183369947 
Si 2.2315671204 3.9053646357 13.4595960573 
Si 10.7498036783 16.0103660064 10.9294315573 
Si 15.9049534155 14.4513804122 14.1594474207 
Si 1.5443425131 14.1350123193 17.3392925308 
Si 4.4030567203 14.6183854937 25.4976582514 
Si 8.5117694278 4.4250808005 23.5251508680 
H 8.3843490467 4.0311071469 20.4392847141 
Si 2.8445598260 14.8568548059 21.0026039170 
Si 2.5465016933 9.5009308169 13.7441304808 
Si 13.8059380263 12.9473735684 29.1624289381 
Si 14.7815624252 14.7932423553 1.1464440329 
Si 13.4489752530 13.4619909631 5.3229739151 
Si 14.8189479755 14.8237372356 6.7246029186 
Si 4.4120325104 11.9368396992 16.4969550605 
H 12.2248469018 13.4992624835 16.1220315602 
Si 15.0747824279 6.2024175567 27.7747216619 
H 14.3962550517 11.7457905774 17.4086676795 
Si 4.4541258707 1.5685918073 18.6232143510 
Si 7.3708178174 3.6131057430 11.2675514975 
Si 11.2737715331 11.6966436470 19.2828473910 
Si 13.5061694435 5.8144712032 22.4991750151 
Si 14.9281235565 5.1050091167 18.0962025462 
Si 9.5200064071 6.3842628284 22.6355904316 
Si 12.6226161254 8.8046473405 26.9111951475 
Si 5.4034093394 4.2658949190 21.3550833747 
Si 12.3599398730 9.8476471801 20.4434291277 

