&CONTROL
  dt          = 30.D0,
  prefix = 'aSiHcSi_merged-27',
  pseudo_dir = './',
  outdir='./',
 wf_collect=.true.,
 verbosity ="high",
/

&SYSTEM
    ibrav= 0, nat=  388, ntyp= 2,
  ecutwfc     = 42.D0,
  nbnd=1468,
  degauss     = 0.05D0,
  occupations = "smearing",
  smearing    = "methfessel-paxton",
/
&ELECTRONS
  electron_maxstep=200,
  conv_thr    = 1.D-8,
  mixing_beta = 0.3D0,
  scf_must_converge=.false.,
/
&IONS
/
ATOMIC_SPECIES
Si  28.08  Si.pbe-hgh.UPF
H  1.00784  H.pbe-hgh.UPF

K_POINTS {automatic}
2 2 2 0 0 0

CELL_PARAMETERS angstrom
16.29000014898320 0.00000000000000 0.00000000000000
0.00000000000000 16.29000014898320 0.00000000000000
0.00000000000000 0.00000000000000 29.33048724650998

ATOMIC_POSITIONS angstrom
Si 0.0146996074 16.2760396189 29.1696975154 
Si 0.0176339252 2.7402060851 2.5964843165 
Si 2.7696909853 0.0213698738 2.5414339250 
Si 2.7300899950 2.8635702562 29.2358964251 
Si 1.3826740356 1.3908434707 1.1971385022 
Si 4.1114005576 4.1188939577 1.3222066329 
Si 1.3544597554 4.1163852976 3.9833148120 
Si 4.1164993276 1.3472612043 3.9702040842 
Si 0.0444738181 0.0809935549 5.3649860747 
Si 2.7593794152 2.7517068252 5.3005763247 
Si 1.4275057451 1.4707475505 6.7454841179 
Si 4.1060737276 4.0576761371 6.7328133474 
Si 0.1008186480 2.8384184960 8.1843791613 
Si 2.6949524646 0.0749123350 8.2077555596 
Si 1.4417334312 4.2825432992 9.5902480760 
Si 4.0301786169 1.3593190624 9.7039623750 
Si 13.7150398254 1.4556711553 15.9278917687 
Si 6.9810469838 6.9476361935 25.0430152818 
Si 16.0590242369 1.0488365466 16.1366661770 
Si 6.7236486915 12.2280723218 24.8785592398 
Si 11.4597055948 14.7012527245 14.5046005446 
Si 2.1113632093 8.8771541312 16.1201824431 
Si 1.0389827255 6.1638917064 11.0856922987 
Si 8.2971975459 4.0335180669 20.4429389840 
Si 10.9932740205 2.7410042951 26.3532668081 
Si 11.5250773654 8.7886179804 13.0555864832 
H 5.2315172578 0.0924439589 25.7960755418 
Si 14.8103631455 12.2780989123 14.0822415283 
Si 15.2764200497 11.2448567828 16.1570508656 
Si 2.7755390954 15.0069671572 15.0057705802 
Si 14.6352619338 8.9084960915 15.7150110923 
Si 13.1785612505 5.3453843589 24.2395945751 
Si 1.9511836378 8.0675248338 13.8907134465 
Si 4.0371833169 1.5901597675 27.7961801282 
Si 0.0122650018 5.4213446296 29.0787143440 
Si 0.0306260148 8.1751854448 2.5795312949 
Si 2.7128877548 5.4919292002 2.6177195893 
Si 2.7411346151 8.1877613249 29.1457638378 
Si 1.3632791615 6.8049683722 1.1611998562 
Si 4.1024736375 6.8195479224 3.9844587010 
Si 16.2839076889 5.4506829199 5.4019131581 
Si 2.7239160849 8.1712432647 5.3429002178 
Si 1.3659311735 6.8117450123 6.7556617970 
Si 16.2143493883 8.1889342049 8.0589619978 
Si 2.8083960257 5.4777243201 8.0917241521 
Si 4.1480367679 6.8948891731 9.4441235885 
Si 13.7227612855 0.1203335795 26.3634444871 
Si 3.5790433527 8.8383513508 25.1156668987 
H 2.7851827755 0.7124170925 21.4335468603 
Si 2.6752415645 2.8522487061 10.9926559932 
Si 9.7904529895 12.1961602115 11.6723313741 
Si 15.0508198377 9.1820866440 24.7933835048 
H 14.7423198148 6.4559225390 15.3120101975 
Si 12.1177890208 12.1316681010 11.9631431552 
Si 8.4459578272 8.8206441207 24.5140692748 
Si 11.5263805654 7.2580258564 20.6486630215 
H 11.0815984013 3.5672331026 18.9295738335 
Si 14.7990415953 5.0534675562 14.7393324340 
Si 1.4125205739 4.1021641275 27.6897104595 
Si 15.1591809186 6.8339645725 11.6839169166 
Si 4.1228524277 9.5392774772 1.1929999705 
Si 16.2872960090 10.9562142702 29.1113885068 
Si 2.7385607950 10.9310299300 2.5212809472 
Si 1.3815386226 12.3144093226 1.1312622279 
Si 1.4124749619 9.5510877274 3.9230406607 
Si 4.0926996374 12.2962296825 3.9056183513 
Si 4.1278534578 9.5289821971 6.6574339952 
Si 0.0329098728 10.9375459300 5.2473708208 
Si 1.3579751374 12.2981681925 6.6708086974 
Si 2.5620586434 8.0734055238 10.7143976607 
Si 1.3080593190 9.5405318073 9.3695361594 
Si 2.6830770545 10.8345279691 7.9611448228 
Si 3.9194717758 12.0599921003 9.4977397192 
Si 0.2572907784 11.1380269619 10.7318786311 
Si 4.8676475245 11.6446296765 16.3098627041 
Si 5.0933128966 4.2708959491 18.8333698354 
Si 10.9811542604 3.8062236948 15.6682289651 
Si 12.2812265923 11.9429484492 24.6451765528 
Si 3.3565056607 12.8591143476 23.1126585941 
Si 12.9760602587 16.0876783471 19.5340458452 
H 12.9716945386 9.2126955543 19.6540368685 
Si 4.4173593404 6.4251181488 19.6096891718 
Si 14.6712302542 13.8691595168 21.5256445902 
Si 9.6076466079 4.2107858485 25.1347317154 
Si 6.0539993654 12.5649495249 18.1573607653 
Si 8.2327380153 13.4023206926 21.4864297288 
Si 9.3037240751 9.8380686600 12.6373923960 
Si 0.0295932288 13.6329056447 2.5691483024 
Si 2.7572454252 13.6462960248 29.0286178718 
Si 4.1223474377 14.9904002271 1.0980571832 
Si 1.3949566958 15.0022430572 3.9612289551 
Si 2.7644781853 13.6482019548 5.3472117994 
Si 4.0742919373 14.9534056368 6.8492260513 
Si 16.2753717288 13.7028386153 8.0340897446 
Si 0.8660692609 15.4182082110 9.4114787562 
Si 6.3245436878 14.5371309730 11.6706008754 
Si 5.3903447593 13.5555607240 26.2627529244 
H 12.4910092142 2.6808779045 20.6543238056 
Si 6.8843984130 6.9514154736 12.3155489594 
Si 14.4347157420 15.5357731421 12.4824101014 
H 7.3795818375 14.3462447512 20.6697809724 
Si 1.9851971582 11.1388414619 20.2316714844 
Si 11.0049376606 13.3693008623 26.1660209775 
Si 12.2476203220 9.0706793330 15.3022431453 
Si 5.0535978762 3.2336138996 13.9694364743 
Si 10.0904822123 2.4792728627 13.8072682103 
H 6.3616685982 2.0856412991 25.3716047304 
H 9.4243026562 16.2525005686 15.8882956109 
Si 14.5337915229 7.1507724954 23.4372884270 
H 12.9155754881 9.9930680114 19.7670472359 
Si 15.0298871875 1.4197956880 27.8015182768 
Si 1.3685424605 15.0175393673 27.6714082354 
Si 5.4594143599 0.0762477892 29.0321668607 
Si 5.4964415303 2.7094179848 2.6190863900 
Si 8.1845196149 0.0030897406 2.5442877814 
Si 8.2013308950 2.7412323551 29.1357328112 
Si 6.8246304024 1.3731150636 1.1623232138 
Si 6.8378578825 4.0682320572 4.0329126659 
Si 5.4393450797 16.2874589090 5.4105656519 
Si 8.1782968348 2.7037327747 5.4594302436 
Si 6.7754834720 1.3308522872 6.8429493270 
Si 5.3862885493 2.6979498247 8.2176985948 
Si 8.1093575542 16.1799123280 8.1962580086 
Si 6.7070003113 4.1790692182 9.5020513008 
Si 11.2088721725 16.0742553870 21.2187597022 
Si 12.4754522641 12.6187553954 14.2518890665 
Si 11.5578365557 6.6169166105 18.3094393417 
Si 8.4836365976 2.7586626552 23.7034919292 
Si 12.4386368638 1.4919212926 24.8840147104 
Si 16.0616957969 14.2696003005 13.5863509804 
Si 13.6864997452 10.6851812477 26.1111143054 
Si 1.2601976695 1.5659870363 12.4709712114 
Si 2.0129227384 6.4519477790 19.6515437771 
Si 5.3246308987 11.3333277737 23.1146823978 
Si 7.2346659962 8.7282146598 18.5918039424 
Si 16.1032027173 2.5458826733 24.0561910384 
Si 2.1926666001 0.6865485723 26.5713976417 
Si 6.3252441578 1.8019835265 12.5641541694 
Si 12.9192570282 0.1773508606 14.0164825758 
Si 0.5312120179 6.5037662695 23.2121476069 
Si 6.8223823824 4.1426936479 27.7948309257 
H 9.5475039273 2.4173057021 22.7129427140 
Si 5.4786365601 5.4314932997 29.2530840907 
Si 5.4756880701 8.1702007047 2.5921522036 
Si 8.1660141747 5.4596749999 2.6409522683 
Si 8.1704613447 8.2038395550 29.0963712973 
Si 6.8546854527 6.8319283225 1.2143584313 
Si 5.4654579500 5.4497706798 5.3759556769 
Si 8.2146072451 8.2103881351 5.4036729874 
Si 6.8396334926 6.8273671224 6.7429030350 
Si 5.5173253105 8.2372014753 8.0944812179 
Si 8.1792253648 5.5170972505 8.1943808574 
Si 9.6509291383 1.4075651559 27.7867063808 
Si 5.4435804798 5.6003065712 10.9459911880 
Si 15.0226381374 12.2006236716 27.5012327484 
Si 5.3252173387 2.9921635174 26.3575490592 
Si 13.8619593368 7.1765106956 21.1598934142 
Si 0.4445622491 2.3559901415 26.4143328825 
Si 0.5442342440 15.1394211485 15.7454561381 
H 4.7852038338 16.1638015178 26.4250971713 
Si 6.2419696771 15.7137902637 23.5048072086 
Si 16.2376440885 1.8919369073 18.3388578204 
Si 3.8675229654 9.9765173712 19.4206541815 
Si 1.1888849359 7.2028190459 17.5453508184 
Si 0.1574094569 10.6341283873 23.4931043442 
Si 0.8634921829 4.2180348986 22.6685070258 
Si 6.7381630816 9.5251703371 27.6972483947 
Si 5.4499172898 10.9028482297 29.1075755434 
Si 8.1952221450 10.8910868496 2.5392165402 
Si 6.8402850926 12.2477669320 1.1406069211 
Si 6.8612666128 9.5272880371 3.9464757200 
Si 5.4435478998 10.8913311996 5.2443497807 
Si 6.7335693016 12.2178910717 6.6858845678 
Si 6.8822318429 9.5564634274 9.5183297212 
Si 8.1460752145 10.9609383702 8.1107889688 
Si 8.5845857285 9.5070395669 22.2249713976 
H 10.6194185171 5.4412510098 18.2206266263 
Si 5.2068053276 6.6700220110 15.5999769213 
Si 5.2748160782 10.6598828775 10.8059967723 
Si 15.1305919684 7.4745851184 17.6353367533 
Si 12.0580210103 0.8058190664 17.5622451791 
Si 15.3867848007 8.4643166574 19.8602008634 
Si 6.6592869009 3.5116842021 17.2360314999 
Si 13.5243165037 13.7024313653 19.4591064503 
Si 12.9672636586 9.9821862913 11.6190085483 
Si 15.2434490894 1.3432278003 11.5743675467 
Si 10.9924595205 9.1442775536 22.1436966175 
Si 8.2408667254 13.0394120693 17.2736331846 
Si 0.5398880719 4.7077285931 20.3584671807 
Si 8.4914232177 16.1499224377 26.4727885436 
Si 5.6813819020 8.2894435058 13.8404996524 
Si 5.4708662300 13.6319119547 2.5064719842 
Si 8.1930392849 13.5138909036 28.9914561444 
Si 6.7998858922 14.9668937569 3.9541603077 
Si 8.1492354745 13.5981753644 5.3431055312 
Si 5.3822323392 13.4804312433 8.1931196465 
Si 7.2172845660 14.3288307410 9.4651535479 
Si 2.1291030195 5.4088013295 16.4377436285 
Si 8.0534339837 10.6769873776 26.1080932652 
H 3.5446225824 6.2195709269 15.6754442650 
Si 10.5804365468 15.5190921819 16.5834868197 
Si 3.4386724214 11.6867230369 13.0476379211 
Si 10.6264883772 7.7533721809 16.4360131298 
Si 4.2256097486 4.4248038705 24.7975191035 
Si 4.0721416572 12.1946941115 27.6582681771 
Si 9.5038467269 12.0846388705 27.5120850287 
Si 7.6444735299 9.7360932590 14.5012275386 
Si 13.5635591140 14.5704766033 23.4699919203 
Si 4.1880287183 9.2336933644 22.8732044963 
Si 10.2534962438 5.3355777788 21.3874979953 
H 15.6489397731 3.2526894897 17.9905582843 
Si 2.8181374458 13.2844625415 20.7765732764 
Si 6.8136020723 14.9179260164 27.6561563820 
Si 9.5069418269 4.0722882672 1.2784895416 
Si 10.9741006904 16.2535268386 29.0925290035 
Si 10.9071976598 2.7042866347 2.5986547726 
Si 12.2830510723 1.3680619055 1.1704272275 
Si 9.5134252470 1.3762948716 3.9809390425 
Si 12.2518231421 4.0952245875 3.9862771912 
Si 9.5404177773 4.0809871273 6.8582305109 
Si 10.8982381597 0.0441457375 5.3489422982 
Si 12.2074817616 1.4186309530 6.8171384983 
Si 9.3381611354 1.2765365397 9.6636036246 
Si 10.8187918289 2.6756813945 8.3193287331 
Si 12.2289356918 4.0441717270 9.7083326176 
Si 1.9433644378 9.7420879791 22.1019006731 
H 5.9303256842 2.2733346808 16.7056189686 
Si 10.0632290420 14.4987354426 12.5352636394 
Si 0.8234839425 4.5689215018 14.7069809066 
Si 11.6349371264 6.3860873084 12.9507006608 
Si 5.3223665887 7.6629463901 17.7330659368 
Si 10.2391447536 5.9522031544 14.8782416216 
Si 11.5785411459 15.9490993159 23.5651693514 
Si 0.1800908386 13.6018894844 26.1368371427 
Si 13.6766117151 5.5472826207 17.9877425576 
H 2.2625181207 2.8033787056 20.3980926690 
Si 0.0653836623 8.1875006849 26.4680076742 
Si 6.4885839893 11.8357602482 14.5863152821 
Si 10.8241349490 5.6456090616 23.6790009724 
Si 16.2421075485 15.7151097537 21.3063405371 
Si 10.8592724793 5.4194712796 29.2589501881 
Si 10.8814431695 8.1737519248 2.5834586472 
Si 12.2654252922 6.8255426424 1.2200749432 
Si 9.5389516772 6.8234412324 4.0048433896 
Si 10.8692582494 5.4230713696 5.3867199657 
Si 12.2102184817 6.7937119821 6.7654581797 
Si 9.5375507372 6.8922013230 9.6304308435 
Si 10.9605637002 8.1852037949 8.2272603336 
Si 14.8753928260 11.5223406454 21.9106952268 
Si 7.9794936730 15.0509664477 13.3244883902 
Si 8.2621740456 8.3522088764 11.0102249550 
Si 3.7074248439 9.2607184747 12.6141039891 
Si 13.8814421770 2.9684941471 21.2072034902 
Si 2.7016476547 10.7768939486 26.2813777838 
Si 13.7381064656 5.2033355576 12.6871369024 
Si 15.2361674593 15.2596902196 24.9589247749 
Si 0.9779669009 7.7846326912 21.2370032652 
Si 9.7729086594 11.2256834527 17.2768302077 
Si 9.6134295579 6.8131622423 27.8209643899 
Si 6.4587407091 4.6967165530 15.1862997292 
Si 9.5548507174 9.5318818172 1.1490804989 
Si 10.8833979695 10.8345605491 28.9953570992 
Si 12.2456981020 12.2324706219 1.0487145045 
Si 12.2251889918 9.5426495073 3.9662151379 
Si 9.5348628872 12.2474737120 3.9496727431 
Si 9.5825600076 9.5656835675 6.8344434857 
Si 10.8797327195 10.8959412697 5.3699135966 
Si 12.2092899517 12.2483207920 6.7824991928 
Si 12.8417492074 9.1535465637 9.3901261615 
Si 9.0592926229 12.6992279961 9.4380521776 
Si 12.4259632436 11.1417410819 22.2584668141 
Si 2.0800701190 5.7877230229 13.1392077023 
Si 0.6895166103 13.9462600875 17.8192682388 
Si 10.5751097167 2.7063065948 17.7764750579 
Si 11.7632534576 11.2577421730 16.0109263781 
Si 5.8300118633 5.5933507412 23.4208633541 
Si 9.2336607844 14.7847715552 18.3951723559 
H 7.2419476262 0.8752209830 15.3482626798 
Si 9.2078900042 4.0230110168 12.2660977580 
Si 8.3176414961 2.4584379525 18.5474269152 
Si 8.0937354440 1.0285098844 13.9146471241 
Si 5.7216996523 1.1406437294 21.9289387899 
Si 2.1670750098 2.2685617107 18.9680261023 
Si 3.8791703155 4.4360276806 12.3322086762 
Si 11.4185570544 7.6604214401 26.4934958676 
H 8.5593688083 6.6847970411 20.9454875525 
Si 9.5229060271 14.9120616164 1.0992743985 
Si 10.8876333696 13.5732516641 2.4978341557 
Si 12.2095505917 14.9531449968 3.9183477827 
Si 9.5193710971 14.9884617171 6.7023683017 
Si 10.8384049891 13.6656974150 8.1371570768 
Si 12.2199273218 15.0465844376 9.4954519412 
Si 5.4022038794 8.0471949136 26.4242465872 
Si 3.5503403725 2.2400542105 15.5799441985 
Si 10.8081055888 16.2434759086 10.9939465346 
Si 10.6345682173 7.9555473728 24.2558436651 
Si 15.1580731986 10.4461743655 12.5160815008 
Si 15.8764622052 10.8317912491 19.8616380573 
Si 5.3573249290 7.2709601165 21.7228041255 
Si 13.8166079764 3.0685799081 23.6369997147 
Si 13.3558941921 3.8705529054 16.1678738154 
Si 14.4995662326 5.0666461663 20.2007864813 
Si 1.5457695171 12.1491635611 24.7048347638 
Si 2.2121168602 12.4328213337 11.1996412417 
Si 2.6850318546 0.0548117780 24.3751600872 
Si 8.1598076846 5.5138555404 13.7543560113 
Si 2.7730955954 15.9853934362 12.7796159287 
Si 13.6159314645 0.0195522356 2.5798891269 
Si 13.6468335948 2.7893367255 29.1506033682 
Si 14.9813104070 4.1238949877 1.2191891625 
Si 14.9380604566 1.4097903699 3.9977160812 
Si 13.5858275443 2.7693326053 5.4298064515 
Si 14.9234971965 4.1432637979 6.8564413512 
Si 13.6450905648 0.0299364591 8.0945985398 
Si 15.5206071519 0.9136995924 9.3049797570 
Si 1.7527062760 7.2162582960 25.1596332991 
Si 5.4879381502 16.1766217479 19.8711118046 
Si 2.7913078155 5.4951383303 26.3543227056 
Si 8.7057507496 9.2002988641 16.7116317184 
Si 7.5628443392 7.8835944421 20.8547976859 
Si 8.1991480350 5.5164782305 26.4691515632 
H 11.0904927414 11.4927091351 18.9743908181 
Si 4.8537032844 0.1512102974 11.6459339356 
Si 7.8393019317 2.7064694948 10.9149888629 
Si 3.3693096008 0.2389482382 18.7776125791 
Si 1.2401609693 11.0102807807 15.5626685415 
Si 7.4496614181 0.1469216290 18.4863315103 
H 3.8179524949 4.2955590093 21.7183458914 
Si 13.6193523646 5.4739287501 2.6111964889 
Si 13.6470127848 8.1995389950 29.1725719032 
Si 14.9608338768 6.8366035525 4.0015877055 
Si 13.5748643742 8.1868816649 5.3711748075 
Si 13.5223128337 5.4881010502 8.2662698817 
Si 14.4595091222 7.3635687673 9.4435369788 
Si 13.4155644627 3.0567207880 11.5872729611 
Si 1.2882685978 2.2928663910 14.7242565636 
Si 4.1125082776 6.7369739116 27.8622323854 
Si 3.1010295884 3.6204688231 22.8683942964 
Si 1.6490367151 15.0521881977 19.7123752077 
Si 7.4544832582 0.9574398718 24.7461320899 
Si 13.0833950697 5.8919790239 26.5372276241 
Si 6.4018397385 15.9461019558 16.3904628831 
Si 3.2766195000 3.6765227136 17.4694435174 
Si 15.8364213848 8.4204151070 13.5077452746 
Si 12.2147308117 4.1221519577 27.8294702312 
Si 6.8009284522 3.5086216821 22.2772969869 
Si 14.9267226165 6.8075910623 27.7473741974 
Si 14.9814407270 9.5712710375 1.2075508252 
Si 13.5536547940 10.9012192297 2.5311741206 
Si 14.9194735664 12.2627048622 3.8988136782 
Si 14.9867349771 9.6105136479 6.6373132810 
Si 13.7005580153 10.9478737901 8.1019604921 
Si 14.9793067370 12.4237640936 9.5072134666 
Si 5.0086537658 13.8086584563 19.9543223970 
Si 5.6451855216 12.3217235327 12.4263008793 
Si 6.1471618762 10.6482029474 19.4904020802 
H 5.1718958573 3.2809526400 19.9656146345 
Si 4.0587024071 0.0735980578 16.4486839003 
H 12.8625189576 11.4609599248 17.0473484755 
Si 2.9971971274 12.5831454551 15.2102627373 
H 5.6549106517 13.2020351407 21.1770517493 
Si 4.0724511672 9.5635007075 17.1420566188 
H 10.2023456433 0.8738754290 20.9550786218 
Si 7.1433605453 11.2979296033 21.5176080367 
Si 4.3027754794 14.6011669635 24.3647184337 
H 7.4024529977 4.9679124754 19.6546234783 
Si 3.5039627420 1.3476880023 22.6090247976 
Si 10.2058642833 14.0702432787 20.4534686289 
Si 12.3424607029 9.4831421367 27.6742239622 
Si 13.6612013749 13.5572385940 28.9752657155 
Si 14.9288240265 14.9194246964 1.1666113311 
Si 13.5385539638 13.5755974242 5.3018668661 
Si 14.8947942162 14.9609153268 6.6176325240 
Si 13.5496311639 13.7798740260 10.9476336952 
Si 0.4245564999 0.2234385290 23.5422915713 
H 0.9969610411 10.7040939379 14.0946483244 
Si 1.3429166613 14.5356322929 11.6429422259 
Si 10.7072216179 5.3664799091 11.0139792574 
Si 11.7994009679 1.5375560991 12.4994511145 
Si 12.2904304424 14.9000721763 27.5835927566 
Si 14.9356006666 1.0477467456 20.1533884139 
Si 9.7846863295 14.9028903463 24.8855105653 
Si 1.3632954515 9.5862252577 27.8156555717 
Si 11.7483155274 12.3215280527 20.2073565104 
Si 7.9114177624 13.9951137980 23.7032866158 
Si 7.2992884268 13.9614260777 15.3096050976 
Si 15.2147949791 12.4568165039 18.2304230090 
H 13.3915367125 13.1286486901 24.2454606726 

