&CONTROL
  dt          = 30.D0,
  prefix = 'aSiHcSi_merged-28',
  pseudo_dir = './',
  outdir='./',
 wf_collect=.true.,
 verbosity ="high",
/

&SYSTEM
    ibrav= 0, nat=  388, ntyp= 2,
  ecutwfc     = 42.D0,
  nbnd=1468,
  degauss     = 0.05D0,
  occupations = "smearing",
  smearing    = "methfessel-paxton",
/
&ELECTRONS
  electron_maxstep=200,
  conv_thr    = 1.D-8,
  mixing_beta = 0.3D0,
  scf_must_converge=.false.,
/
&IONS
/
ATOMIC_SPECIES
Si  28.08  Si.pbe-hgh.UPF
H  1.00784  H.pbe-hgh.UPF

K_POINTS {automatic}
2 2 2 0 0 0

CELL_PARAMETERS angstrom
16.29000014898320 0.00000000000000 0.00000000000000
0.00000000000000 16.29000014898320 0.00000000000000
0.00000000000000 0.00000000000000 29.27137083596932

ATOMIC_POSITIONS angstrom
Si 0.2534023553 16.0527688768 0.1806751948 
Si 16.2029300982 2.8146513857 2.7838976304 
Si 2.6749483445 0.0410926657 2.8410265649 
Si 2.6225434140 2.7939630856 0.1152481194 
Si 1.3291174022 1.3980192158 1.4945815592 
Si 3.8645581853 4.1734328782 1.5681697855 
Si 1.2254999692 4.1809914382 4.1955826674 
Si 4.0086269467 1.4061658449 4.2276055471 
Si 0.0010679577 0.1708120546 5.5850068269 
Si 2.6259317340 2.8141626857 5.5218977514 
Si 1.3210880611 1.5630418043 7.0252168147 
Si 3.9792886564 4.1672100981 6.8838946363 
Si 16.2200508883 2.8428005060 8.5097436581 
Si 2.6390288941 0.2607524034 8.5158906459 
Si 1.2891254518 4.3924519302 9.7874389951 
Si 3.9430434061 1.7087069856 9.9537589241 
Si 9.9306773108 13.2017582107 11.7995237549 
Si 7.3731147074 8.5023375178 18.6254318057 
Si 9.8803412104 2.1264640394 22.0738041897 
Si 4.7366270533 12.3894899333 17.0688681187 
H 12.1115499508 16.1653816478 25.3659552677 
Si 14.3215491110 11.7093661371 11.2668433485 
Si 11.0021520706 10.8679713394 20.9799330616 
Si 15.3449032103 1.0380981785 23.2321016051 
Si 10.1289754826 16.0246849166 22.0956406324 
Si 2.1623020398 5.5872094111 24.3543659629 
Si 9.1504514637 6.3369240880 27.8328585876 
Si 3.8559407753 3.0339799477 22.5222708623 
Si 10.8903212196 2.6292711840 26.5954699283 
Si 15.5518513722 8.8836538412 12.9740375097 
Si 7.4475437181 5.0064383258 26.7377580619 
H 10.6889605278 0.1722406876 28.3234174914 
H 3.9575740862 13.5628423540 12.7460135309 
Si 16.2518000986 5.6116281213 29.2528127869 
Si 16.1439114276 8.1909867449 2.8940575074 
Si 2.5689493135 5.6009255912 2.8820035569 
Si 2.2149187403 8.8124665406 0.2653452693 
Si 1.2605365015 6.9579151836 1.4417789333 
Si 3.9888183065 6.9237876333 4.2091645835 
Si 16.1184501574 5.4774636801 5.5917977849 
Si 2.6042986138 8.2561956155 5.6071067119 
Si 1.1552884396 6.9068623232 6.8962178835 
Si 15.9976109363 8.3112721060 8.1564967548 
Si 2.5674832135 5.5435522107 8.1822848325 
Si 3.9253198859 6.8132599823 9.5993411661 
Si 7.7767646211 5.8963284539 22.8014319260 
Si 11.5466290356 3.6238897231 23.0510874478 
Si 2.9709702272 3.5079049221 11.1607053578 
Si 1.9349262177 7.7572003309 23.6638835963 
Si 14.6416639039 0.1873431467 16.5936766846 
H 14.0156554882 6.2551319972 12.3944936386 
H 8.0858510840 2.3804251418 26.3883164369 
Si 6.3992333385 5.1620241172 20.9936613345 
Si 6.7243165815 10.0883970923 24.8157120387 
Si 5.1311056969 14.0675717187 15.5119824467 
Si 7.4625142282 5.1381266870 18.8342244938 
Si 3.8071685148 3.2344772696 18.8783364497 
Si 2.2193170403 7.8866569621 10.7639319261 
Si 15.0231105474 7.0588317346 11.6149677618 
Si 3.9812434564 9.6985122287 1.5370689540 
Si 0.4906238535 10.4679866757 0.3147287064 
Si 2.6661680344 10.9927853205 3.0076626248 
Si 1.3617185795 12.2651809422 1.5382485902 
Si 1.2481039734 9.5865347677 4.2293911007 
Si 3.9838498564 12.4001598834 4.3508672897 
Si 3.9413003760 9.6112304079 7.0069222080 
Si 16.2063835782 11.0401729310 5.4996222381 
Si 1.2397097363 12.3256982927 7.0295197063 
Si 1.0525099416 9.5508270873 9.5921989516 
Si 2.5838872436 10.9497308501 8.4427414902 
Si 4.0934326874 12.1364736510 9.8861420575 
Si 0.0384984832 10.5186322862 11.4923499894 
Si 12.3797485132 10.3524905747 11.7426787528 
Si 4.6090600622 9.1351225735 21.5014610758 
Si 10.5896729768 12.1328409810 15.2032572985 
Si 4.2662207190 6.6826630511 20.8272535913 
Si 15.4251314611 4.4767689709 19.6309912080 
Si 14.0965842089 15.3288249802 22.0933281941 
Si 12.1535129912 2.8027433956 18.9796739355 
Si 2.9937925174 13.0692879295 11.7189982138 
Si 13.7899086661 1.0448552706 18.6628113462 
Si 5.4275185396 12.0700593204 24.9816807113 
Si 6.8419140926 11.3585121139 17.0683119627 
Si 16.1847667480 13.6832254551 2.7533851535 
Si 3.1703598290 13.1553968703 0.3316270687 
Si 4.0666845072 15.0429843476 1.4363022599 
Si 1.2776491467 15.0096550073 4.2061789036 
Si 2.6101141439 13.7425536357 5.7326516214 
Si 3.9762261364 15.0747987179 7.1854190273 
Si 16.1026814373 13.7622319559 8.2475599895 
Si 0.7521972729 15.5457263322 9.5113221540 
Si 4.0094088667 7.9073452623 13.9366850824 
Si 2.6814806345 1.8217595867 24.2146244386 
Si 12.2243907818 3.9013410057 27.9897824067 
H 2.5933680237 15.1963546990 27.2466408439 
Si 1.0481768016 15.5526821622 13.6501476333 
Si 8.2312719153 2.3692339117 16.2912448811 
Si 2.4939012828 10.4118839152 21.5679949017 
Si 12.1099861108 9.1153465134 23.7389646625 
Si 14.1213450091 13.7244717355 12.3267596864 
Si 8.1615344246 10.6672459576 23.0593712458 
Si 6.7467479117 0.6920757693 15.4467658325 
Si 7.5122313087 2.3418504214 11.0471031676 
Si 15.5615765023 9.0434261627 16.8008594474 
Si 7.3520028672 0.1742997436 24.3325587917 
Si 5.3011570085 9.4884363868 15.1449779992 
Si 5.3663495891 0.1075446262 29.2211118922 
Si 5.3388520688 2.7688764853 2.8140295795 
Si 8.0677854738 0.0589926065 2.9095976782 
Si 8.0834238739 2.6056506838 0.0968642349 
Si 6.7053224413 1.3270078471 1.4846790544 
Si 6.7142167814 4.1602542680 4.1556272462 
Si 5.3074612385 0.0987141429 5.7128934461 
Si 8.0309212034 2.8266734059 5.6380465508 
Si 6.6551492409 1.4767113195 7.0419893102 
Si 5.2999515485 2.8871907564 8.3891456102 
Si 8.0859814040 0.0015906436 8.2347391291 
Si 6.5846787002 4.2034390584 9.8831563777 
Si 0.6212777997 2.6921342946 17.2189424370 
Si 9.2302398844 5.7475681726 14.6927938625 
Si 11.0416390310 2.0558143088 13.5117818634 
Si 6.7873100121 13.0480131893 14.0547950637 
H 7.3132163769 14.7511327049 11.2239022475 
Si 0.2307788031 1.5095470728 13.4302903670 
Si 10.2821992240 6.6423127207 25.8108215616 
Si 5.2533458580 13.2927704416 26.9427747432 
Si 0.0458374540 0.5201950908 27.2093783888 
Si 13.4586515131 15.4415843612 14.8724615367 
Si 13.4962814134 2.6644087144 24.1394848296 
Si 9.4807637967 13.6526817049 26.0210485470 
Si 7.9669015029 2.8297847959 18.5813491212 
Si 15.9557293459 14.4518365322 19.2460726815 
Si 5.1564529372 5.4784899501 0.1248953778 
Si 5.3521121289 8.2156823851 2.7508678156 
Si 8.0248939034 5.4983474603 2.6744871005 
Si 8.0241934334 8.1163948342 28.9670949361 
Si 6.6635548809 6.8882917230 1.2669468896 
Si 5.3681089091 5.5328985506 5.5455197476 
Si 8.0445233536 8.2250002652 5.5822260466 
Si 6.7166602814 6.8448625826 6.9921108943 
Si 5.3391452888 8.2143466051 8.3283489730 
Si 8.0292270434 5.5333709606 8.4991181504 
Si 6.0191224750 6.8330034625 26.2856910107 
H 10.9865951205 13.9349711174 25.9451478824 
Si 7.9959791531 8.2488814054 11.1804049904 
Si 3.3689512208 9.3244286653 12.1908819830 
Si 6.4475494790 11.2849953432 27.7604412162 
H 7.0388764844 7.1904875158 11.7155149206 
Si 8.9461585718 1.5832153405 27.3479490583 
Si 0.8979259852 5.4088827795 13.8366355369 
Si 15.6879706135 13.5949336543 22.6101435176 
Si 14.9156779964 11.5133485653 21.6687469601 
Si 13.2159305109 10.5018535860 20.2622868628 
Si 3.1203495285 11.5209234154 24.7064420114 
Si 16.1128789774 12.0903566606 19.4763798272 
Si 10.4689803657 4.3650521499 25.0178308543 
H 14.7504485249 14.8239164256 11.4827489798 
H 12.6562875558 13.6069719644 25.8581240969 
Si 4.9482341553 11.4800843850 0.3395830273 
Si 8.0199091633 10.8532777593 2.6976173377 
Si 6.6567456609 12.4260609836 1.6110377081 
Si 6.6755931911 9.5621812175 4.1699702179 
Si 5.3306581988 10.9254587499 5.5932028107 
Si 6.6611928309 12.2601962021 7.0009508483 
Si 6.6935447712 9.5318492372 9.7320282901 
Si 8.0516257936 10.9877517105 8.4251786677 
Si 5.2202934477 10.5131914262 11.2619257582 
Si 2.4618425625 16.0731965370 16.9101002033 
H 5.8507653235 0.2022778188 24.4754030813 
Si 4.0583928971 6.3908602784 27.4710937154 
Si 13.9142502373 8.2175883152 20.3216492029 
Si 8.5143269579 9.5660093675 13.1212725050 
Si 13.0687014895 4.8477900143 19.8481555082 
Si 8.9248675416 6.9207902733 19.3981081816 
Si 6.2766999574 3.7013649639 28.3328721442 
Si 5.8803316738 5.8335305034 17.0660287958 
Si 11.7506124175 14.1757210296 15.8393241868 
Si 2.8012447156 4.7567614935 26.4290621851 
Si 15.1724572688 11.3424013037 17.3885700310 
Si 7.7628203810 3.8850835855 14.5810650400 
Si 5.3454983889 13.7796296760 2.9820794467 
Si 7.9953275531 13.6902790252 0.1504366978 
Si 6.7063975813 15.0666700078 4.3488182937 
Si 8.0376489735 13.5976052144 5.5989107280 
Si 5.3569665490 13.5833514642 8.4741496711 
Si 7.3263786970 14.4229543619 9.4419490051 
Si 4.7684740036 5.1841296474 11.1038310843 
Si 7.6088635896 10.7353055782 19.1742992802 
H 5.9206331341 13.1309618701 24.0044267246 
Si 5.5213000705 0.9995478931 11.6157288175 
Si 13.9178503273 6.5107872595 25.9499483872 
Si 0.6395568088 1.3196138161 21.1170694340 
Si 13.7807699760 4.1784176182 26.1605559004 
Si 13.6556790649 15.2321764093 19.6980226472 
Si 2.0011287783 6.4233262487 17.3994004382 
Si 15.7778588343 2.1477061996 19.2468922799 
Si 8.8588278810 12.1604036612 27.8535534468 
Si 9.9882461713 2.0089316884 19.6646532845 
Si 6.6659006410 14.9269995465 27.9012072385 
Si 3.3415677306 15.3273100102 18.9633112392 
Si 14.9300294865 6.6017506204 23.8497860725 
Si 0.0806635195 10.7691236185 27.3149602234 
Si 9.4548301165 4.0967884275 1.3565524100 
Si 11.2380475628 15.9363768257 0.3727738347 
Si 10.7476045283 2.7978889756 2.8419808116 
Si 12.1750972413 1.4135761659 1.5909692562 
Si 9.3979128560 1.4815950616 4.2367674862 
Si 12.1159645408 4.1540966480 4.2081108141 
Si 9.3807269058 4.1818222282 7.0501852941 
Si 10.8425263592 0.1397049961 5.5195560417 
Si 12.1122504208 1.4584029883 7.0594350473 
Si 9.2572161247 1.3841596837 9.7236566780 
Si 10.7323896682 2.8186424358 8.4773109792 
Si 12.1340790210 4.2500936189 9.8086900103 
Si 2.7491330051 9.7241363989 18.1765553339 
Si 0.4006932787 8.5558990382 26.6018218157 
Si 3.1350268187 12.4206527036 22.5224757619 
Si 6.8649155728 9.0207830625 26.9967511510 
H 12.1062068307 7.0992798049 10.9114303638 
Si 0.1126359028 15.8157656646 25.0472778534 
Si 11.2360113128 12.5413616047 22.6500111246 
Si 5.5120473504 4.5855210119 14.9832536753 
H 9.3025511951 7.2771340266 24.8362019983 
Si 2.3299098513 15.7396587839 24.1167702459 
Si 4.4873411810 2.0237392985 28.1015112291 
Si 8.0844501439 14.4022660617 12.6551844672 
Si 11.2279151827 5.8595782136 13.4807249389 
H 1.1661766757 14.8243562556 0.2379572185 
Si 6.0475485253 2.8728881363 21.6959693350 
Si 10.4035923051 11.1752333222 12.9513814687 
Si 14.5832805434 1.3361644562 11.8812201509 
Si 0.0095377625 12.8153919872 15.8842264696 
Si 10.6250222772 8.5826146385 16.2325850539 
Si 10.8270508590 5.3842522992 29.1890597412 
Si 10.7010314179 8.2009236450 2.6049236877 
Si 12.1319939010 6.8364895225 1.2821533668 
Si 9.3554285356 6.8831115030 4.0883030933 
Si 10.6687446376 5.5070137404 5.5160434772 
Si 11.9976176897 6.8951986831 6.8588676143 
Si 9.4089411861 6.9647569837 9.8087192816 
Si 10.7318195181 8.2559838455 8.3374816407 
Si 11.0947444315 5.9786418247 11.0905711533 
Si 0.1794913666 4.9547175753 17.5162224792 
Si 10.0603782920 9.2491199946 22.4487411788 
Si 15.3756587306 14.2182216400 14.2489520665 
Si 6.0657281655 14.8986712363 21.3618073655 
Si 1.4530500943 15.5166161019 20.3927786340 
Si 9.6423768882 6.9704910637 21.6652636670 
Si 0.9130545084 8.3129499760 18.3018660724 
Si 5.2991533385 6.1117799959 13.2102867438 
Si 5.0734553864 12.7503297266 21.1606545051 
Si 10.4841789359 1.7822563363 15.7957098442 
Si 8.7067770196 2.2793945608 13.0623492356 
H 3.9390360660 9.0683824429 18.8668328010 
Si 0.6126343256 8.9827947822 14.9040160744 
Si 15.4940055817 2.0046311283 15.4850527855 
Si 12.1036004307 8.1094227142 25.9056900745 
Si 9.3349520054 9.5228408671 1.1536871744 
Si 10.6462970174 10.9137136598 29.0073723424 
Si 11.9837711896 12.2863905224 1.2462725204 
Si 12.0648139403 9.5721832775 3.9745545462 
Si 9.3090346151 12.2283166718 4.1308929379 
Si 9.3864609858 9.6311530781 6.9803145319 
Si 10.6768081876 10.8463707992 5.4088224458 
Si 11.9974873697 12.2248957718 6.7235460669 
Si 12.4864480142 9.2680815548 9.5706259513 
Si 9.1009135732 12.8280330273 9.5554633812 
Si 12.9963413089 6.8354958325 18.5925307848 
Si 8.1742894948 4.2433332688 24.5434297472 
Si 13.8210714364 3.6570724534 15.3460430454 
Si 8.3336056962 12.6617121258 15.7871040612 
Si 11.0250721008 10.7553911484 17.0682241486 
Si 1.9670012280 11.1904970523 12.6624144958 
Si 2.1085450393 11.4932467051 19.5305611347 
Si 16.1457196177 8.5640929083 24.2312213058 
Si 15.8631532751 2.9525462370 26.6624135534 
Si 3.7604813744 2.8895202264 14.8672219613 
Si 12.3013936125 13.7916842761 18.1935620004 
Si 12.3585389330 9.6233990380 27.8006600797 
Si 9.4108471161 14.9815221770 1.5147905136 
Si 10.7248311081 13.5502827639 2.8142198435 
Si 12.1221384509 14.9934953271 4.1264729609 
Si 9.4667706866 15.0568797177 6.7930948440 
Si 10.7691073285 13.6518997849 8.1166876905 
Si 12.5410358047 14.5040459826 9.3963734807 
Si 10.5383106064 5.2315498378 16.5506184981 
Si 12.5203963745 3.8756679654 13.4303781811 
Si 5.1435186770 8.7536270601 23.7480095161 
Si 7.7829711112 2.2885006709 23.2504840260 
Si 14.0135214982 7.2623752864 16.4405581437 
H 6.0600755354 8.1932510549 19.3071620324 
Si 13.3601947522 9.3498736455 13.6254718677 
Si 12.6045668053 0.2833824716 12.9137970286 
Si 12.9913891488 11.5231388554 18.1332922478 
H 3.3587373907 14.9467756067 24.9070972584 
Si 3.3364689605 15.5089272218 14.7810177742 
Si 8.2973930259 15.7521532141 26.4022203380 
Si 2.6965000147 8.3134875460 27.2480165983 
Si 1.6881327154 14.2860369107 22.3356073305 
Si 10.6537415474 15.9440494158 19.8339588934 
Si 3.9718115463 2.7614971153 25.9351370736 
Si 2.8578687561 2.1579851897 16.9702821417 
Si 13.5828138942 0.1306132212 2.9332548001 
Si 13.5350027438 2.6436715442 0.1493946370 
Si 14.8913570262 4.1789388982 1.3510259752 
Si 14.8822020461 1.5367578891 4.2890754259 
Si 13.4690934032 2.8451136860 5.6837977034 
Si 14.8209353555 4.1914170383 7.0993026543 
Si 13.5663772841 0.0319428984 8.2886862655 
Si 15.3096842300 0.9243288175 9.6444776199 
Si 12.6146340254 1.2468317244 25.8220032253 
H 5.8679349837 15.8604817151 11.2503928381 
Si 14.1936726098 1.2984058649 27.5876230427 
Si 6.4319110788 10.7879222787 21.2476490193 
Si 11.9454896892 14.7776202452 22.9260401516 
Si 15.8042160545 13.5302297737 24.9571805739 
Si 8.6518308491 8.0492637436 15.0401572202 
H 10.0326690018 0.5447050250 10.6940318926 
Si 11.7762528777 5.6264683115 21.7730701258 
Si 11.9803014196 14.5719427033 11.7078165501 
Si 1.1897075809 4.0683623772 27.9879675817 
Si 13.4437135830 5.4724789400 2.7317419019 
Si 13.5802237842 8.2500217055 0.0048169553 
Si 14.7566713050 6.8016289222 4.1854840445 
Si 13.3717443623 8.2359308553 5.4401428126 
Si 13.3658310922 5.6236501414 8.3090298682 
Si 14.2014918099 7.5310136789 9.4850657343 
Si 9.8053746297 11.4785042550 19.0490470844 
Si 0.0201917810 8.2858759958 20.4803000328 
Si 6.7048337413 8.0199580333 16.4243710757 
Si 6.4101150586 10.7816669186 13.3697864434 
H 13.3475862921 10.4772719758 14.6572584183 
Si 3.5048261121 10.6393900573 16.1743057546 
Si 9.9995188515 13.8670255268 18.8526654575 
Si 8.4505841873 0.0190501778 13.9494766715 
Si 3.8328578451 13.0284651892 19.1370368251 
Si 13.6691346050 3.4497822016 11.4495259739 
Si 1.9549466279 3.2761308000 13.3471889452 
Si 13.7108207154 12.5756194750 25.5412029649 
Si 11.9263326491 3.3609528307 16.7467952254 
Si 15.1504494786 7.1799804657 27.8390641182 
Si 0.8522129868 4.8631026145 21.1946092953 
Si 14.8954783962 9.5593467574 1.4452300280 
Si 13.4534875830 11.0002135606 2.6422651755 
Si 14.8177262255 12.3164292826 4.0775605002 
Si 14.7755839951 9.6586017283 6.7040220626 
Si 13.3529782821 10.9024083997 8.0696485975 
Si 14.1868308097 12.7647789567 9.2091245214 
Si 1.8408188868 6.9965061940 21.3762381514 
Si 0.2393620042 9.8731736103 22.2302889382 
Si 5.8270307933 6.5780486702 23.9613685381 
H 5.0230378359 15.5783389125 22.2484371881 
H 5.2693100582 3.1183784385 25.2414348561 
Si 0.2596023294 15.0209928474 17.0404748890 
Si 0.3925857456 2.6686441144 24.4300909993 
Si 10.7594799384 7.0521365445 17.9710117679 
Si 1.3704956315 12.4311434637 26.0958954422 
Si 2.0740591090 7.0956471349 15.0581591133 
Si 0.8005150423 6.0557098154 11.4913547628 
Si 5.8773831838 2.0897463791 19.4997969239 
Si 10.0341839718 15.7902555244 15.6826638100 
Si 13.2068895608 7.3818298575 22.4539807542 
H 11.9073385089 14.8139469455 24.4183531796 
Si 3.9769754764 5.6670792818 18.5444964653 
Si 12.9531728085 14.2105979200 0.1892089702 
Si 14.8008009154 15.0857618880 1.4322364665 
Si 13.4574297631 13.6293218446 5.4811812745 
Si 14.8318170756 15.0511130577 6.7688288776 
Si 14.0772968487 11.1454714919 27.2982462707 
Si 1.5621588863 11.1767320022 14.9493866992 
Si 8.6148036788 14.5880372234 17.1051646186 
H 13.2774904214 13.9214178373 27.9868552696 
Si 13.0848774597 11.3416193837 23.5697468677 
Si 2.9173435467 13.7365752056 27.3759032175 
H 14.9033301763 4.3164264995 11.3121554305 
Si 8.0887832840 14.8857858461 22.6940059950 
Si 9.0962057632 12.8491774475 23.6961406470 
H 0.2203841540 13.4106937526 11.5768564370 
Si 3.2367415796 9.1730456939 25.0074395177 
Si 12.2869280924 7.6394073399 14.8151481926 
Si 15.2968477099 5.4672172700 15.5424246724 
Si 1.2273863512 14.5373590330 11.5452140851 
Si 4.8295126342 0.9852322410 13.9995014442 
Si 2.3122677811 3.0302006677 20.7805657548 
Si 0.1688686575 4.7878102338 23.4278978046 
Si 4.0504433770 5.3608924390 22.9630098930 
Si 6.3993473685 15.3662268205 17.1237519390 
Si 5.5719945510 16.0395902667 19.2929361462 

