&CONTROL
  dt          = 30.D0,
  prefix = 'aSiHcSi_merged-21',
  pseudo_dir = './',
  outdir='./',
 wf_collect=.true.,
 verbosity ="high",
/

&SYSTEM
    ibrav= 0, nat=  388, ntyp= 2,
  ecutwfc     = 42.D0,
  nbnd=1468,
  degauss     = 0.05D0,
  occupations = "smearing",
  smearing    = "methfessel-paxton",
/
&ELECTRONS
  electron_maxstep=200,
  conv_thr    = 1.D-8,
  mixing_beta = 0.3D0,
  scf_must_converge=.false.,
/
&IONS
/
ATOMIC_SPECIES
Si  28.08  Si.pbe-hgh.UPF
H  1.00784  H.pbe-hgh.UPF

K_POINTS {automatic}
2 2 2 0 0 0

CELL_PARAMETERS angstrom
16.29000014898320 0.00000000000000 0.00000000000000
0.00000000000000 16.29000014898320 0.00000000000000
0.00000000000000 0.00000000000000 29.27589945601073

ATOMIC_POSITIONS angstrom
Si 15.6302225629 0.5059250506 0.2193370880 
Si 16.2112054183 2.7438876251 2.9123898986 
Si 2.6161903139 16.2649461288 2.6589455094 
Si 2.0369179086 3.2641250699 0.1158125307 
Si 1.1681836037 1.4511425353 1.4187657118 
Si 3.8448472852 4.1092176976 1.4280051857 
Si 1.2603996655 4.0046196066 4.3856175662 
Si 3.9914898665 1.3327207502 4.0422990933 
Si 16.2430849486 16.2475972786 5.5315933745 
Si 2.6900980446 2.6122155539 5.6122192016 
Si 1.2836259477 1.2832561647 6.9749537695 
Si 4.0347886869 3.9864073865 7.0062204301 
Si 16.1761330479 2.6051782738 8.3751029369 
Si 2.6523215343 16.2233577584 8.3395327190 
Si 1.2940352578 3.9975171666 9.6750407004 
Si 4.0210725068 1.2747202047 9.7578036682 
Si 9.1725895739 15.9065661255 19.0678031783 
Si 16.2056016582 5.3909474893 10.9770863287 
Si 13.1598603304 12.8003888971 24.5800159074 
Si 11.1799737122 2.8828739064 20.2534478304 
Si 2.9537842770 2.9707258772 11.0248353207 
Si 11.1365445719 12.4916445242 23.4986520092 
Si 10.1017711824 7.5041188886 14.2823061014 
Si 11.4972540452 0.6942667743 19.1178356905 
Si 8.6018857087 5.7283785524 14.6434828730 
Si 5.7710257728 5.5671401309 16.8444157182 
Si 11.7341106473 8.4819424376 24.3246129605 
Si 7.0303079443 3.8057512848 26.9915595733 
Si 8.1737519248 15.1446176585 16.9191278136 
Si 5.1807087474 7.8213177715 21.5231143139 
H 3.7253438441 4.6008661921 14.0755304236 
Si 12.5777045950 15.6056898227 15.2903631474 
Si 3.3936142810 8.9703329320 15.1813396978 
Si 10.5755658367 5.7183276223 11.0766243869 
Si 0.4649328943 5.1236448769 0.1751916665 
Si 16.2569966087 8.0779015639 2.8712104184 
Si 2.6730261244 5.3104260186 3.0735888562 
Si 3.0001944874 7.7421320808 0.4411936600 
Si 1.3856176387 6.6397063207 1.7025604260 
Si 4.0677433572 6.7279329615 4.2890656498 
Si 16.1860373680 5.4168974595 5.6858188128 
Si 2.7077726948 8.1161993542 5.6244858035 
Si 1.2797994267 6.8185053624 6.9920801707 
Si 0.0101467316 8.2152751351 8.4326886311 
Si 2.6104562339 5.4093063195 8.3056312275 
Si 3.9546093062 6.6827119211 9.7927005403 
Si 7.1940387358 6.7826347820 18.2932507064 
Si 10.7229903381 7.8562598219 16.5480850639 
H 1.8805176172 10.1918385932 22.6464598519 
Si 3.1097447384 6.8304948025 18.5956121960 
Si 0.2817583586 4.6408744324 21.8488672471 
Si 12.0749463204 3.1947296692 22.4659446558 
Si 9.3709691957 4.8956500348 24.1917882047 
Si 5.5960060112 12.5934407352 15.3973665599 
Si 15.0774865679 2.7230364249 25.2245248339 
Si 14.5558807631 0.3326890440 14.5136442589 
Si 6.5324040897 9.2677068848 27.8718273181 
Si 12.3868183733 0.3463400642 24.8430891399 
Si 8.9248349616 13.2970058416 15.5419016755 
H 1.9713506580 6.7620930918 13.6304489241 
Si 4.0442694670 9.4188129261 1.6470211171 
Si 16.2836307589 10.6447005974 29.2081550247 
Si 2.6059276138 10.8686229394 2.8094587637 
Si 1.2634980236 12.1577158112 1.2852061309 
Si 1.3317140282 9.4555142965 4.2189498706 
Si 4.0355054469 12.1541320112 4.2007695370 
Si 4.1655648081 9.3773711658 7.0027658740 
Si 16.2620627987 10.8072585088 5.5892961723 
Si 1.4054034729 12.1238163209 6.9000952946 
Si 1.4824714636 9.5705705675 9.7997267562 
Si 2.8294752859 10.7930373387 8.3072706778 
Si 4.0610970371 12.2782618123 9.6767679785 
Si 3.3134511903 2.7552580452 20.2385463975 
Si 2.5654795435 10.1811849331 26.7525218542 
Si 9.0897875031 11.9420687892 27.6912535703 
H 5.4996343703 0.6976909324 17.9598274875 
Si 15.3668458405 8.7093834197 22.5222714864 
Si 13.1886284706 5.5648595309 26.4986412541 
Si 2.2817729009 7.2664477865 16.4702989991 
Si 5.0804926665 9.4100163261 12.0811683249 
Si 13.6565913049 15.9249738256 19.8943496476 
Si 8.4318506871 15.7465005840 26.6667141929 
Si 8.8378952308 3.4172510713 20.5155549582 
Si 9.1350574135 9.6363821681 23.0447584640 
Si 3.9151223458 0.6297730348 27.4257504381 
Si 0.5792235353 10.6849368977 25.5103161644 
Si 16.2299714984 13.5621093040 2.6886019956 
Si 2.7483836651 13.4608832431 29.2218854215 
Si 4.0485374470 14.8417376857 1.3567300809 
Si 1.2967328819 14.9024179363 4.0947322292 
Si 2.6700124744 13.5591445240 5.5087874488 
Si 4.0209747668 14.9346395566 6.8785189567 
Si 16.1596638578 13.4531943630 8.0862669128 
Si 1.1281313803 14.8098907354 9.4462202703 
Si 11.6496307065 11.3971682842 14.9732758804 
Si 2.1306505695 13.1101106699 10.7021563569 
Si 0.9894171420 15.9880161262 12.6267539872 
Si 12.9667260886 13.8315296165 20.8087238153 
Si 3.2376538196 15.0175393673 20.2844802838 
Si 0.0912582098 13.3899728725 17.8516823149 
H 0.8037714134 6.3377222980 11.7342196405 
Si 1.1518170405 16.0817487871 20.2617621858 
H 5.0452085261 5.2146571077 12.3333509228 
Si 2.5493524433 14.1465619294 12.7271995982 
Si 6.7819994720 14.6653495641 28.0242376507 
Si 9.3182058852 4.5411796315 12.7362458511 
Si 7.2178384260 15.0582317877 22.3304265173 
Si 2.4787190027 2.5181408030 27.1829068521 
H 11.7133734771 5.8584867836 26.2909872993 
Si 14.9552626968 4.3437448297 12.6634952410 
Si 8.9818010921 16.0614025769 13.2107789054 
Si 5.3572434790 16.1885134481 29.1729068417 
Si 5.3514442389 2.6530057143 2.5748504882 
Si 8.0736172938 16.2447139486 2.5989064948 
Si 8.1327337044 2.7109329548 28.8982696289 
Si 6.7606432818 1.3597360864 1.1159592286 
Si 6.6927954312 3.9665010063 4.0320232526 
Si 5.3534641990 16.2543087587 5.4296254167 
Si 8.0991763041 2.6439484742 5.4206669915 
Si 6.7316307916 1.2984009779 6.8107452494 
H 4.1892830483 4.1570614280 13.6417201454 
Si 5.4096809895 2.5503950033 8.3157899646 
Si 8.0302696034 16.1482934377 8.1655460486 
Si 6.6810992111 3.9479141161 9.7467081023 
H 2.4766827527 4.3094869594 16.6221823654 
Si 0.6474102179 9.7705466094 19.1177185869 
Si 5.2178662377 7.7692712211 19.1508589050 
Si 14.7783370052 9.4174934361 26.1446370779 
Si 0.1775235346 15.9864359962 27.4893376917 
Si 12.5277594546 4.4829103010 15.2311672787 
Si 0.9932355181 9.4222664062 23.5888510554 
Si 1.6971573755 7.8378684117 20.2111148797 
Si 5.0438727461 0.4790302604 25.3468395418 
Si 1.9030955574 8.2596165155 13.4326023956 
Si 5.6200500514 12.9911285088 26.8017346412 
Si 2.3295351813 15.1408709585 27.5958141380 
Si 13.3629477622 10.8143935289 17.9553482749 
Si 4.6820881328 5.9334044943 0.1668146606 
Si 5.4543644599 8.0728027938 2.9126387437 
Si 8.0154619933 5.3507274789 2.6416902943 
Si 8.1101883442 8.0677040238 29.1830655788 
Si 6.6425896508 6.7824393020 1.3112880298 
Si 5.3823626592 5.2531340880 5.5287536123 
Si 8.0848899739 8.0133117133 5.5518230210 
Si 6.7155688514 6.5990464804 6.8768209545 
Si 5.4798746001 7.9030772823 8.3779719750 
Si 8.0459894536 5.2912689784 8.2912274849 
Si 7.4762466984 10.8941167896 22.0650112128 
Si 11.9118019689 1.1298255403 16.8224295177 
H 5.6708748519 5.4334480997 13.7009452900 
Si 7.7717961711 4.5261439614 22.4427581435 
Si 14.2203230501 8.0336905035 15.1490191048 
Si 15.4778459016 14.1014386290 26.5226767676 
Si 4.7442507734 14.4122029618 25.1092656177 
Si 14.0666106086 8.1543994046 24.3333371786 
Si 7.2057349559 8.5159559579 11.6906278262 
Si 9.0928826032 4.2620016090 16.5530034150 
Si 13.6835512551 1.7675953362 23.5021358412 
Si 9.6664535084 1.2417085194 27.7103414567 
Si 5.3092531386 10.6169587271 0.1004084306 
Si 8.1518907446 10.7168815880 2.7438339075 
Si 6.7003865713 12.0330321501 1.4346391045 
Si 6.8083241123 9.4442416164 4.2195939404 
Si 5.4275674096 10.7909359287 5.5954733871 
Si 6.7563101418 12.1486097011 7.0178722381 
H 7.8623685719 8.6468949791 16.1453950669 
Si 7.5095760387 8.6766893894 9.4264297622 
Si 8.2068369151 10.7074659679 8.3276759798 
Si 12.1780457314 9.3397086854 11.7536295618 
Si 3.6594833735 11.8484175784 18.0366767236 
Si 11.7265195072 1.7658197261 12.3804265692 
Si 7.3079709968 11.0538565311 26.3637379094 
Si 1.3778733726 5.0130194858 15.8836099740 
Si 9.1860939840 7.6536448000 21.9034960755 
Si 13.5614739940 6.0490146253 13.8001613133 
Si 10.9349232400 3.2752837200 13.9511078509 
Si 1.5691179744 0.1594965318 24.2608500515 
Si 0.6311984098 1.4441720442 26.0061620735 
Si 3.8486428552 8.7497500400 25.3919537029 
Si 8.3449598263 0.6315193228 15.3488856704 
Si 7.5094620087 11.5753808859 16.2301780717 
Si 8.8720553611 14.1825465397 20.7354462390 
Si 7.2643300864 7.2590195464 24.9364499832 
Si 5.3682229391 13.4756256932 2.7655449145 
Si 8.1486653245 13.3259205919 0.1200197702 
Si 6.7301809816 14.8871542062 4.0592791150 
Si 8.0123831833 13.4377025729 5.4350121822 
Si 5.3938145293 13.6327264547 8.3036111904 
Si 6.7668334819 14.9141793164 9.7155292694 
Si 3.5678358326 11.3436719237 15.7068128171 
Si 6.6584886909 3.4249562413 16.5150032975 
Si 2.4064728520 14.4841233125 25.3454928504 
Si 1.4380616652 8.7916153404 28.2763909727 
H 13.6206881446 9.7307990090 11.9625131044 
Si 2.6907170646 15.7442851440 16.6511362300 
Si 5.3121527586 10.2311463636 21.3645853183 
Si 15.0642916678 7.2578140864 17.2433291242 
Si 3.9745645564 14.2725650805 18.1297155320 
H 4.9551085353 2.6909125446 19.2327728717 
Si 14.3144792509 7.4806124184 27.5718957282 
Si 13.3009643116 11.2384059428 26.4259784717 
Si 6.8534148327 1.2857941468 12.6119696580 
Si 3.2548071898 4.3672675899 25.9055700829 
Si 10.7138027780 10.5911716569 20.4735147666 
Si 9.3890185159 4.0419074170 1.1958355927 
Si 10.9374319000 16.2071654982 29.1871349289 
Si 10.7816017586 2.6894138646 2.6066938841 
Si 12.2407459419 1.3356936752 1.2967027767 
Si 9.4434108264 1.2920641678 4.0105932942 
Si 12.1294363709 4.0170162967 4.0693207485 
Si 9.4266158362 3.9444606361 6.9131230698 
Si 10.7409093382 16.2588699587 5.5078506201 
Si 12.1663983813 1.3693455575 6.8308577924 
Si 9.9062748906 0.7265665866 9.2764493293 
Si 10.8555909393 2.6692794244 8.3015911533 
Si 12.0361924101 4.1606126481 9.8372877352 
Si 14.6564063540 12.2845334624 16.7345432675 
H 11.0701139512 13.0320978592 18.4689061031 
Si 6.1070396059 13.2064823108 13.1621223605 
Si 14.3532005813 3.8104102248 18.5954658165 
Si 0.6166693586 13.0344273292 24.9186502364 
H 0.6681294691 5.3995323194 18.7949225195 
H 14.0838291388 7.6354977398 10.6045797841 
H 6.8907678030 11.5664539658 10.6994336983 
H 3.4764326418 11.4122854044 23.6202640955 
Si 1.5904937125 11.9398370592 19.1464382442 
Si 12.4637560440 9.4725536366 16.1808774570 
Si 8.6562128592 11.7968434379 20.2387220529 
Si 14.8276305456 13.0976813998 13.4174667556 
Si 15.7632955742 15.5449607022 18.6421316002 
Si 14.6029099936 9.8321879699 19.6414058763 
Si 13.3056232517 14.7491779049 25.8882680264 
Si 14.0116318581 5.8572161636 24.3086868712 
Si 8.5644349983 15.3532762704 24.2850904962 
Si 10.8101744189 5.5109396304 0.0068025187 
Si 10.7639759784 8.0160647233 2.8755637447 
Si 12.1625539412 6.7495823717 1.4884423526 
Si 9.3739013957 6.6323432407 4.1490390227 
Si 10.7831981786 5.3340628088 5.5327058587 
Si 12.1586769212 6.7343023516 6.8974604636 
Si 9.2541861846 6.9553902336 9.4367348789 
Si 10.7910336687 8.1709500447 8.1605691457 
Si 11.7786149277 7.1024074850 12.6008448162 
Si 11.2645188130 5.5012145003 16.9368690087 
Si 9.5709778175 1.3721262605 11.4527025913 
Si 15.6154312428 2.8771561163 20.4449707646 
Si 0.2326440081 15.8515385050 22.3961509115 
Si 12.1871029715 4.7243281032 19.0121789693 
Si 11.9964773897 14.5355508429 27.8566331263 
Si 3.5465285124 1.1875198339 23.6323843179 
Si 16.2518326786 9.2428320545 14.5734841974 
Si 16.0415613567 14.9185776164 14.2720009848 
Si 0.4080254077 3.4834373419 14.1960885775 
Si 14.2990200408 7.5376762889 19.4481849399 
Si 12.2869443824 6.6886414812 20.3000550623 
Si 16.0420826367 5.1862962174 17.6036861706 
Si 9.5149076370 9.3287618053 1.3688239550 
Si 11.5068488552 10.1349539127 0.3103040411 
Si 12.2258894618 12.0411119901 1.5329505025 
Si 12.1951828115 9.4099837461 4.1806862700 
Si 9.4463267364 12.1376954010 4.0979233023 
Si 9.4645878266 9.4805846067 6.7655139848 
Si 10.8603801993 10.8470223992 5.4730415756 
Si 12.2380743819 12.2198784518 6.8360396266 
Si 11.6393517164 9.9500624110 9.5041865512 
Si 9.9664501512 11.7602723876 9.5226010920 
Si 0.4907786085 11.3585772739 10.9818290244 
Si 3.8325320451 3.5353535723 23.6879792509 
Si 8.8045658905 1.4616577304 23.7335618264 
Si 6.2371315470 1.6515127951 14.8900152223 
Si 14.8557959559 12.2385467919 27.9345948465 
Si 13.2020351407 13.2273660910 15.1258325924 
Si 1.1969664049 14.1158226991 15.8950861265 
Si 11.1211668117 10.6818743777 27.3882187350 
H 11.7648335876 4.6387893124 28.4956089078 
Si 10.9216794699 14.2316934702 21.9355531854 
Si 5.4953989703 8.5746814084 14.2603784527 
Si 10.3808351749 8.2793274157 19.9707890211 
Si 9.5186380471 14.8567896459 1.3031141986 
Si 10.7965559787 13.4953528834 2.7445013980 
Si 12.0914318006 14.8920412062 4.1418371514 
Si 9.3397249754 14.7972171153 6.7600979434 
Si 10.7586491484 13.5029277335 8.1146059835 
Si 11.5804959459 15.3114109700 9.3857948138 
Si 9.9237540608 13.9102917672 26.8364265820 
Si 1.3406214003 5.8155626332 25.5424318261 
Si 0.2694708115 13.4873544934 22.6074643538 
Si 14.2228805801 13.8777769269 11.2792136111 
Si 5.6554808017 13.5226875037 23.1933629296 
Si 10.7095999579 10.7795492186 12.9212402598 
Si 5.0798573565 5.3123156586 27.1858929938 
Si 8.5269679980 9.2300606944 25.2381088512 
Si 14.3406409912 12.6812927060 22.4455100780 
Si 11.8858845787 14.3526793013 11.5212374719 
Si 9.6004790078 6.8754552029 27.7430133605 
Si 5.3468667489 10.2363591636 18.9858892116 
Si 1.2510101094 1.9924299182 19.3916531781 
Si 9.2518404246 13.0756736096 24.6999592674 
Si 3.8971544756 11.8391322783 27.9533314222 
Si 0.1243963055 11.3155879635 13.3773587733 
Si 13.4420194229 16.2777337789 2.8284178362 
Si 13.9939246280 2.3565928716 29.2746113164 
Si 14.9706404569 4.0577901671 1.3655304163 
Si 14.8572294759 1.3197946351 4.1860144837 
Si 13.5108935436 2.7248771949 5.4951448797 
Si 14.8106726555 4.0214797568 7.0198337234 
Si 13.4379632129 0.0174775412 8.2820055766 
Si 14.7304769847 1.3278370081 9.7866404291 
Si 13.4981710535 2.8403570060 11.2374661785 
Si 6.3123098977 6.3639817782 14.7048451583 
H 3.0936339283 5.3278563187 18.7655880682 
Si 8.3950189968 5.5657717709 26.1648667244 
Si 0.2985240267 6.7155036914 27.6110376057 
Si 8.4723639175 13.7355163556 13.1875923931 
Si 3.0143667876 8.4264261171 11.2366171774 
H 10.3866018350 12.3537985430 15.6118710752 
H 5.7411010425 4.2457767688 19.6682811520 
Si 0.5478929780 8.7877709004 16.9003326862 
Si 1.9747552681 12.5071200244 14.3945791758 
Si 13.9230468373 10.4460277555 21.8031090163 
Si 11.4556330948 2.0415768487 26.2359486083 
H 15.4326900211 11.3932749742 15.7758746640 
Si 7.2277427461 12.0322176500 24.1093472718 
Si 16.0042735464 4.6660261927 24.1990486277 
Si 12.5563321148 5.5219679605 22.4397134499 
Si 13.5608386840 5.3702103191 2.7537379443 
Si 13.2716748914 8.4109669069 0.2747753950 
Si 14.8746109060 6.7181752514 4.2104013080 
Si 13.5606106240 8.1050407041 5.6043732606 
Si 13.4315123728 5.4108212895 8.3727315890 
Si 14.8904122062 6.7686579619 9.6411684848 
H 4.5179175113 9.5716457075 24.3312000379 
Si 11.4383494046 15.9014184854 13.2475201592 
Si 10.5034011361 8.6662149193 26.3701786073 
Si 12.0184525999 12.1894487315 19.3104125571 
Si 6.4097566786 0.9702747629 21.7586389250 
Si 6.9042396331 2.0620696689 25.2285356321 
Si 4.6012245721 16.2017409282 15.1582702890 
Si 5.7677677728 14.6648445741 16.6223872967 
Si 13.6315047047 2.7936047055 16.5947215717 
Si 13.4458475730 3.1976618692 27.0070465241 
Si 10.6997607979 6.6042755704 23.3388934258 
Si 8.9147514515 8.4838483676 18.0925351397 
Si 11.4765983250 10.3236572744 22.7037820630 
Si 7.6693483601 10.6320921372 18.3837132357 
Si 1.8002730765 1.9688419980 12.9507210906 
Si 14.9491376567 9.4880291368 1.5044065005 
Si 13.6322214647 10.8133346789 2.9289659129 
Si 14.9734097569 12.2304669519 4.2024089874 
Si 14.8799377361 9.5054594369 7.0251912130 
Si 13.4908568434 10.9076537798 8.3601136764 
Si 14.9513368067 12.2398337019 9.7106694701 
Si 2.2636095507 7.5296778989 24.1543443293 
Si 4.0447418770 11.9983018697 22.3559258257 
Si 10.0289223017 2.1937091601 15.8398717802 
Si 7.7252230607 1.4497774333 19.8497917287 
Si 0.7916956362 0.8758497770 17.3454727374 
Si 6.0764469856 2.0442646987 18.3197161195 
Si 3.0616077880 6.8990105431 21.9881327008 
Si 7.0795526147 6.8032579222 22.5520158003 
Si 4.0931068874 0.7523438829 21.3464049848 
Si 5.5509315808 11.6448577365 11.4280815598 
Si 4.7253543732 4.7325871333 10.9363928285 
H 5.8028890131 4.9494070353 19.9851342118 
Si 2.2265335104 12.9953801989 21.1985031407 
Si 10.1070002724 12.6888186860 11.7143998565 
Si 15.9758963661 6.8873306130 21.0070680342 
Si 4.6683719527 15.0717687778 13.0052913671 
H 2.8480947560 1.4565785083 13.9285946842 
Si 13.4493173430 13.4223573928 0.1079882538 
Si 14.7413261248 14.9373436966 1.4258592623 
Si 13.5260269537 13.5886294243 5.4574960730 
Si 14.8086201154 14.9341019866 6.8744203308 
Si 15.7690622342 15.7497097140 10.8441444693 
Si 15.6664189433 1.9873963082 15.7142488956 
Si 10.5410310364 2.9368589669 24.2599717745 
Si 8.8785550712 9.2383360145 13.2514138539 
Si 5.4884105602 0.0132400071 11.1569574550 
Si 7.4361407180 9.5954453978 15.0463485254 
Si 7.9413262026 3.0528274779 11.5535287890 
Si 14.7400555048 0.9235876224 21.6255214102 
Si 8.6361761590 4.9928850457 18.7792306374 
Si 5.5351465706 7.5723088293 26.4655594877 
Si 10.6444236674 16.0578839369 23.4065207536 
Si 6.1454840062 2.9900621073 23.1809499483 
H 14.3270877110 0.9481447977 13.1325829780 
Si 2.7197132649 4.5077036812 21.8158733084 
H 9.8873296204 5.8151879632 19.1473165212 

