&CONTROL
  dt          = 30.D0,
  prefix = 'R0.8-T3000-69',
  pseudo_dir = './',
  outdir='./',
 wf_collect=.true.,
 verbosity ="high",
/

&SYSTEM
    ibrav= 0, nat=  62, ntyp= 1,
  ecutwfc     = 42.D0,
  nbnd=248,
  degauss     = 0.05D0,
  occupations = "smearing",
  smearing    = "methfessel-paxton",
/
&ELECTRONS
  electron_maxstep=200,
  conv_thr    = 1.D-8,
  mixing_beta = 0.3D0,
  scf_must_converge=.false.,
/
&IONS
/
ATOMIC_SPECIES
Si  28.08  Si.pbe-hgh.UPF

K_POINTS {automatic}
4 4 4 0 0 0
CELL_PARAMETERS angstrom
10.86000000000000 0.00000000000000 0.00000000000000
0.00000000000000 10.86000000000000 0.00000000000000
0.00000000000000 0.00000000000000 10.86000000000000

ATOMIC_POSITIONS angstrom
Si 0.0000000000 0.0000000000 0.0000000000 
Si 0.0000000000 2.7150000000 2.7150000000 
Si 2.7150000000 0.0000000000 2.7150000000 
Si 2.7150000000 2.7150000000 0.0000000000 
Si 1.3575000000 1.3575000000 1.3575000000 
Si 1.3575000000 4.0725000000 4.0725000000 
Si 4.0725000000 1.3575000000 4.0725000000 
Si 4.0725000000 4.0725000000 1.3575000000 
Si 5.4300000000 0.0000000000 0.0000000000 
Si 5.4032192400 2.7705706200 2.6454525600 
Si 8.1450000000 0.0000000000 2.7150000000 
Si 8.1450000000 2.7150000000 0.0000000000 
Si 6.7875000000 1.3575000000 1.3575000000 
Si 6.6685612800 3.9740323800 3.8940810600 
Si 9.5025000000 1.3575000000 4.0725000000 
Si 9.5025000000 4.0725000000 1.3575000000 
Si 0.0000000000 0.0000000000 5.4300000000 
Si 0.0000000000 2.7150000000 8.1450000000 
Si 2.7150000000 0.0000000000 8.1450000000 
Si 2.6262086400 2.7432034200 5.4357558000 
Si 1.3575000000 1.3575000000 6.7875000000 
Si 1.3575000000 4.0725000000 9.5025000000 
Si 4.0725000000 1.3575000000 9.5025000000 
Si 4.2942720600 4.0767462600 6.7222965600 
Si 5.4300000000 0.0000000000 5.4300000000 
Si 5.5963534800 2.5992432600 8.1220093800 
Si 8.1450000000 0.0000000000 8.1450000000 
Si 8.1201523200 2.8439950800 5.6124588600 
Si 6.7875000000 1.3575000000 6.7875000000 
Si 6.7875000000 4.0725000000 9.5025000000 
Si 9.5025000000 1.3575000000 9.5025000000 
Si 9.5025000000 4.0725000000 6.7875000000 
Si 0.0000000000 5.4300000000 0.0000000000 
Si 0.0000000000 8.1450000000 2.7150000000 
Si 2.5927924200 5.4101913600 2.5838763600 
Si 2.7150000000 8.1450000000 0.0000000000 
Si 1.3575000000 6.7875000000 1.3575000000 
Si 1.3575000000 9.5025000000 4.0725000000 
Si 4.0187755800 7.1022771000 3.5366567400 
Si 4.0725000000 9.5025000000 1.3575000000 
Si 5.4300000000 5.4300000000 0.0000000000 
Si 5.7333849600 8.1920020800 2.7757942800 
Si 8.1285145200 5.4809877000 2.7117963000 
Si 8.1450000000 8.1450000000 0.0000000000 
Si 6.7875000000 6.7875000000 1.3575000000 
Si 6.7875000000 9.5025000000 4.0725000000 
Si 9.5025000000 6.7875000000 4.0725000000 
Si 9.5025000000 9.5025000000 1.3575000000 
Si 0.0000000000 5.4300000000 5.4300000000 
Si 0.0000000000 8.1450000000 8.1450000000 
Si 3.0169623000 5.2766893800 8.1318159600 
Si 2.6433457200 8.3754817800 5.4537399600 
Si 1.3575000000 6.7875000000 6.7875000000 
Si 1.3575000000 9.5025000000 9.5025000000 
Si 4.0725000000 6.7875000000 9.5025000000 
Si 4.0725000000 9.5025000000 6.7875000000 
Si 9.5025000000 9.5025000000 6.7875000000 
Si 5.3645142000 8.1142553400 8.1883748400 
Si 8.3224198200 5.1739646400 8.3496675600 
Si 8.9410380000 8.6889991200 4.5803896200 
Si 9.5025000000 6.7875000000 9.5025000000 
Si 6.7875000000 9.5025000000 9.5025000000 

