&CONTROL
  dt          = 30.D0,
  prefix = 'R0.8-T3000-2-22',
  pseudo_dir = './',
  outdir='./',
 wf_collect=.true.,
 verbosity ="high",
/

&SYSTEM
    ibrav= 0, nat=  62, ntyp= 1,
  ecutwfc     = 42.D0,
  nbnd=248,
  degauss     = 0.05D0,
  occupations = "smearing",
  smearing    = "methfessel-paxton",
/
&ELECTRONS
  electron_maxstep=200,
  conv_thr    = 1.D-8,
  mixing_beta = 0.3D0,
  scf_must_converge=.false.,
/
&IONS
/
ATOMIC_SPECIES
Si  28.08  Si.pbe-hgh.UPF

K_POINTS {automatic}
4 4 4 0 0 0
CELL_PARAMETERS angstrom
10.86000000000000 0.00000000000000 0.00000000000000
0.00000000000000 10.86000000000000 0.00000000000000
0.00000000000000 0.00000000000000 10.86000000000000

ATOMIC_POSITIONS angstrom
Si 0.0000000000 0.0000000000 0.0000000000 
Si 0.0000000000 2.7150000000 2.7150000000 
Si 2.7150000000 0.0000000000 2.7150000000 
Si 2.7150000000 2.7150000000 0.0000000000 
Si 1.3575000000 1.3575000000 1.3575000000 
Si 1.3575000000 4.0725000000 4.0725000000 
Si 4.0725000000 1.3575000000 4.0725000000 
Si 4.0725000000 4.0725000000 1.3575000000 
Si 5.4300000000 0.0000000000 0.0000000000 
Si 5.3346274800 2.5518176400 2.5199001000 
Si 8.1450000000 0.0000000000 2.7150000000 
Si 8.1450000000 2.7150000000 0.0000000000 
Si 6.7875000000 1.3575000000 1.3575000000 
Si 6.5811708600 4.0564815000 4.0238037600 
Si 9.5025000000 1.3575000000 4.0725000000 
Si 9.5025000000 4.0725000000 1.3575000000 
Si 0.0000000000 0.0000000000 5.4300000000 
Si 0.0000000000 2.7150000000 8.1450000000 
Si 2.7150000000 0.0000000000 8.1450000000 
Si 2.7937132800 2.7171828600 5.4561508800 
Si 1.3575000000 1.3575000000 6.7875000000 
Si 1.3575000000 4.0725000000 9.5025000000 
Si 4.0725000000 1.3575000000 9.5025000000 
Si 9.5025000000 4.0725000000 6.7875000000 
Si 5.4300000000 0.0000000000 5.4300000000 
Si 5.3681305800 2.6879260200 8.1678711600 
Si 8.1450000000 0.0000000000 8.1450000000 
Si 7.9735314600 2.8737080400 5.7390104400 
Si 6.7875000000 1.3575000000 6.7875000000 
Si 6.7875000000 4.0725000000 9.5025000000 
Si 9.5025000000 1.3575000000 9.5025000000 
Si 0.0000000000 5.4300000000 0.0000000000 
Si 0.0000000000 8.1450000000 2.7150000000 
Si 2.5134492600 5.4790546200 2.7606228600 
Si 2.7150000000 8.1450000000 0.0000000000 
Si 1.3575000000 6.7875000000 1.3575000000 
Si 1.3575000000 9.5025000000 4.0725000000 
Si 4.1598795600 6.7449505200 4.1285810400 
Si 4.0725000000 9.5025000000 1.3575000000 
Si 5.4300000000 5.4300000000 0.0000000000 
Si 5.3055878400 8.0146908600 2.6703871200 
Si 8.0655156600 5.5472880000 2.5617328200 
Si 8.1450000000 8.1450000000 0.0000000000 
Si 6.7875000000 6.7875000000 1.3575000000 
Si 6.7875000000 9.5025000000 4.0725000000 
Si 9.5025000000 6.7875000000 4.0725000000 
Si 9.5025000000 9.5025000000 1.3575000000 
Si 0.0000000000 5.4300000000 5.4300000000 
Si 0.0000000000 8.1450000000 8.1450000000 
Si 2.7007842600 5.4061514400 8.0201317200 
Si 2.7322891200 8.0618015400 5.1525052800 
Si 1.3575000000 6.7875000000 6.7875000000 
Si 1.3575000000 9.5025000000 9.5025000000 
Si 4.0725000000 6.7875000000 9.5025000000 
Si 4.0725000000 9.5025000000 6.7875000000 
Si 5.2375933800 5.2281669000 5.4980813400 
Si 5.5823983800 8.0315238600 8.2292084400 
Si 8.2584761400 5.3680437000 8.2071300600 
Si 8.1966610200 7.9993674000 5.5339302000 
Si 9.5025000000 9.5025000000 6.7875000000 
Si 6.7875000000 9.5025000000 9.5025000000 
Si 9.5025000000 6.7875000000 9.5025000000 

