&CONTROL
  dt          = 30.D0,
  prefix = 'R1-T3000-2-226',
  pseudo_dir = './',
  outdir='./',
 wf_collect=.true.,
 verbosity ="high",
/

&SYSTEM
    ibrav= 0, nat=  62, ntyp= 1,
  ecutwfc     = 42.D0,
  nbnd=248,
  degauss     = 0.05D0,
  occupations = "smearing",
  smearing    = "methfessel-paxton",
/
&ELECTRONS
  electron_maxstep=200,
  conv_thr    = 1.D-8,
  mixing_beta = 0.3D0,
  scf_must_converge=.false.,
/
&IONS
/
ATOMIC_SPECIES
Si  28.08  Si.pbe-hgh.UPF

K_POINTS {automatic}
4 4 4 0 0 0
CELL_PARAMETERS angstrom
10.86000000000000 0.00000000000000 0.00000000000000
0.00000000000000 10.86000000000000 0.00000000000000
0.00000000000000 0.00000000000000 10.86000000000000

ATOMIC_POSITIONS angstrom
Si 0.0000000000 0.0000000000 0.0000000000 
Si 0.0000000000 2.7150000000 2.7150000000 
Si 2.7150000000 0.0000000000 2.7150000000 
Si 2.7150000000 2.7150000000 0.0000000000 
Si 1.3575000000 1.3575000000 1.3575000000 
Si 1.9593720600 4.3124408400 3.7695494400 
Si 3.8349592200 1.3238340000 4.3030903800 
Si 4.2132673200 4.0376502600 1.2590541000 
Si 5.4300000000 0.0000000000 0.0000000000 
Si 5.4845172000 2.7113619000 2.7229821000 
Si 8.1450000000 0.0000000000 2.7150000000 
Si 8.1450000000 2.7150000000 0.0000000000 
Si 6.7875000000 1.3575000000 1.3575000000 
Si 6.2756464800 4.3101493800 4.1660806200 
Si 9.5025000000 1.3575000000 4.0725000000 
Si 9.5025000000 4.0725000000 1.3575000000 
Si 0.0000000000 0.0000000000 5.4300000000 
Si 0.0000000000 2.7150000000 8.1450000000 
Si 2.7150000000 0.0000000000 8.1450000000 
Si 2.8370664000 3.3979854000 5.8887481200 
Si 1.3575000000 1.3575000000 6.7875000000 
Si 1.3575000000 4.0725000000 9.5025000000 
Si 4.0725000000 1.3575000000 9.5025000000 
Si 9.7071675600 3.9638782800 6.6465372000 
Si 5.5719727800 0.0191147946 5.4623736600 
Si 5.3225294400 2.9569282200 8.1561532200 
Si 8.1450000000 0.0000000000 8.1450000000 
Si 8.0342171400 3.0026814000 5.2793283600 
Si 6.8003256600 1.5597566400 6.9852606000 
Si 6.8765085600 4.1374862400 9.1902207000 
Si 9.5025000000 1.3575000000 9.5025000000 
Si 0.0000000000 5.4300000000 0.0000000000 
Si 0.0000000000 8.1450000000 2.7150000000 
Si 3.3723558000 5.6316810600 2.5536964200 
Si 2.7150000000 8.1450000000 0.0000000000 
Si 1.3575000000 6.7875000000 1.3575000000 
Si 1.3575000000 9.5025000000 4.0725000000 
Si 4.5498838800 6.1687515000 4.4668048800 
Si 4.0725000000 9.5025000000 1.3575000000 
Si 5.9835342000 5.5886320200 10.8524740200 
Si 5.4107995200 8.0904067800 2.9411377800 
Si 8.4208222800 5.5723094400 2.9587092600 
Si 8.1450000000 8.1450000000 0.0000000000 
Si 7.0944036000 6.8220348000 1.5514704600 
Si 6.6493065000 9.6513471600 3.6940615800 
Si 9.6877064400 6.8686567800 4.2665573400 
Si 9.5025000000 9.5025000000 1.3575000000 
Si 0.6078591780 5.5219950600 5.3371904400 
Si 0.0000000000 8.1450000000 8.1450000000 
Si 3.2883645600 4.4276220000 8.2452703800 
Si 3.0018669000 8.0568276600 4.7912582400 
Si 1.6311177000 7.1009196000 6.8885957400 
Si 1.3575000000 9.5025000000 9.5025000000 
Si 3.4836925200 6.6582334200 8.7861852600 
Si 4.2772978800 9.2382436200 6.6074846400 
Si 7.3847782800 6.8722297200 6.7218295800 
Si 5.4288271200 7.7957315400 8.1956619000 
Si 8.3150350200 5.7046819800 7.9994651400 
Si 8.2502768400 8.3209645800 5.4056953200 
Si 9.5025000000 9.5025000000 6.7875000000 
Si 6.7875000000 9.5025000000 9.5025000000 
Si 9.5025000000 6.7875000000 9.5025000000 

