&CONTROL
  dt          = 30.D0,
  prefix = 'R1-T3000-339',
  pseudo_dir = './',
  outdir='./',
 wf_collect=.true.,
 verbosity ="high",
/

&SYSTEM
    ibrav= 0, nat=  62, ntyp= 1,
  ecutwfc     = 42.D0,
  nbnd=248,
  degauss     = 0.05D0,
  occupations = "smearing",
  smearing    = "methfessel-paxton",
/
&ELECTRONS
  electron_maxstep=200,
  conv_thr    = 1.D-8,
  mixing_beta = 0.3D0,
  scf_must_converge=.false.,
/
&IONS
/
ATOMIC_SPECIES
Si  28.08  Si.pbe-hgh.UPF

K_POINTS {automatic}
4 4 4 0 0 0
CELL_PARAMETERS angstrom
10.86000000000000 0.00000000000000 0.00000000000000
0.00000000000000 10.86000000000000 0.00000000000000
0.00000000000000 0.00000000000000 10.86000000000000

ATOMIC_POSITIONS angstrom
Si 0.0000000000 0.0000000000 0.0000000000 
Si 0.0000000000 2.7150000000 2.7150000000 
Si 2.7150000000 0.0000000000 2.7150000000 
Si 2.7150000000 2.7150000000 0.0000000000 
Si 1.3575000000 1.3575000000 1.3575000000 
Si 1.5498740400 4.0616617200 4.1096955000 
Si 3.7568432400 2.0672118600 3.6825282600 
Si 4.4608210200 3.5661850800 1.7734597200 
Si 5.4300000000 0.0000000000 0.0000000000 
Si 6.5963205600 3.2965530000 2.8577981400 
Si 8.1450000000 0.0000000000 2.7150000000 
Si 8.1450000000 2.7150000000 0.0000000000 
Si 6.7875000000 1.3575000000 1.3575000000 
Si 6.3874936200 6.6665739000 6.2182622400 
Si 9.5025000000 1.3575000000 4.0725000000 
Si 9.5025000000 4.0725000000 1.3575000000 
Si 0.0000000000 0.0000000000 5.4300000000 
Si 0.0000000000 2.7150000000 8.1450000000 
Si 2.7150000000 0.0000000000 8.1450000000 
Si 2.7145981800 2.9052672000 5.8348825200 
Si 1.3575000000 1.3575000000 6.7875000000 
Si 1.3575000000 4.0725000000 9.5025000000 
Si 4.0725000000 1.3575000000 9.5025000000 
Si 4.5157617600 4.6859596800 6.5415970200 
Si 5.5425421800 0.6345085320 4.8389770800 
Si 5.2450324800 2.9780292000 7.8265848000 
Si 8.1450000000 0.0000000000 8.1450000000 
Si 8.1634945800 2.8721659200 5.1549813600 
Si 7.0766909400 1.4779156800 6.6428773800 
Si 6.3345294000 3.5861892000 9.6668661000 
Si 9.5025000000 1.3575000000 9.5025000000 
Si 9.5974489800 4.3571297400 6.6823860600 
Si 0.0000000000 5.4300000000 0.0000000000 
Si 0.0000000000 8.1450000000 2.7150000000 
Si 3.1921341000 5.4086058000 2.5635247200 
Si 2.7150000000 8.1450000000 0.0000000000 
Si 1.3575000000 6.7875000000 1.3575000000 
Si 1.3575000000 9.5025000000 4.0725000000 
Si 3.9500860800 7.1933056200 4.2021684000 
Si 4.0725000000 9.5025000000 1.3575000000 
Si 5.5584412200 5.2370612400 0.2417609760 
Si 5.3155464600 7.9992805200 2.5912720200 
Si 8.0154402000 5.3074557600 2.8288128000 
Si 8.1450000000 8.1450000000 0.0000000000 
Si 6.8874337200 6.5683777800 1.4521449000 
Si 6.4833439800 9.5095698600 3.9455683200 
Si 9.6189735000 6.6748926600 4.0328610000 
Si 9.5025000000 9.5025000000 1.3575000000 
Si 0.3257152920 5.5627852200 5.2037970600 
Si 0.0000000000 8.1450000000 8.1450000000 
Si 2.8581565200 5.4255799800 8.1700214400 
Si 2.6659996800 8.4963535800 5.6121765000 
Si 1.5831382200 6.7658017200 6.7464926400 
Si 1.3575000000 9.5025000000 9.5025000000 
Si 4.3485937800 6.7186910400 9.4859385000 
Si 4.4423481600 10.0243881600 6.6408465600 
Si 9.5025000000 9.5025000000 6.7875000000 
Si 5.3951937000 8.2750485000 8.1038623200 
Si 8.1285905400 5.8608270600 7.7004459000 
Si 8.0715864000 8.0586412800 5.3201836800 
Si 9.5025000000 6.7875000000 9.5025000000 
Si 6.7875000000 9.5025000000 9.5025000000 

