&CONTROL
  dt          = 30.D0,
  prefix = 'R1-T3000-326',
  pseudo_dir = './',
  outdir='./',
 wf_collect=.true.,
 verbosity ="high",
/

&SYSTEM
    ibrav= 0, nat=  62, ntyp= 1,
  ecutwfc     = 42.D0,
  nbnd=248,
  degauss     = 0.05D0,
  occupations = "smearing",
  smearing    = "methfessel-paxton",
/
&ELECTRONS
  electron_maxstep=200,
  conv_thr    = 1.D-8,
  mixing_beta = 0.3D0,
  scf_must_converge=.false.,
/
&IONS
/
ATOMIC_SPECIES
Si  28.08  Si.pbe-hgh.UPF

K_POINTS {automatic}
4 4 4 0 0 0
CELL_PARAMETERS angstrom
10.86000000000000 0.00000000000000 0.00000000000000
0.00000000000000 10.86000000000000 0.00000000000000
0.00000000000000 0.00000000000000 10.86000000000000

ATOMIC_POSITIONS angstrom
Si 0.0000000000 0.0000000000 0.0000000000 
Si 0.0000000000 2.7150000000 2.7150000000 
Si 2.7150000000 0.0000000000 2.7150000000 
Si 2.7150000000 2.7150000000 0.0000000000 
Si 1.3575000000 1.3575000000 1.3575000000 
Si 1.4563042800 3.8966005800 4.4537837400 
Si 4.1560025400 1.2330118200 3.9801682800 
Si 4.3736586600 3.9975660000 1.6796619000 
Si 5.4300000000 0.0000000000 0.0000000000 
Si 5.9620531200 2.7264790200 3.2200334400 
Si 8.1450000000 0.0000000000 2.7150000000 
Si 8.1450000000 2.7150000000 0.0000000000 
Si 6.7875000000 1.3575000000 1.3575000000 
Si 5.8116312600 5.1708912600 7.8956326800 
Si 9.5025000000 1.3575000000 4.0725000000 
Si 9.5025000000 4.0725000000 1.3575000000 
Si 0.0000000000 0.0000000000 5.4300000000 
Si 0.0000000000 2.7150000000 8.1450000000 
Si 2.7150000000 0.0000000000 8.1450000000 
Si 3.0850436400 2.4185220000 5.6175304800 
Si 1.3575000000 1.3575000000 6.7875000000 
Si 1.3575000000 4.0725000000 9.5025000000 
Si 4.0725000000 1.3575000000 9.5025000000 
Si 4.1421777600 3.7943754000 7.0530487200 
Si 4.9684282800 10.2387211200 5.5963643400 
Si 5.4579319200 2.4549464400 8.2348122000 
Si 8.1450000000 0.0000000000 8.1450000000 
Si 7.5281085600 2.3794042800 5.3072494200 
Si 6.3560865000 0.9202047240 6.4516436400 
Si 6.8455141200 3.9601967400 9.5051498400 
Si 9.5025000000 1.3575000000 9.5025000000 
Si 8.9484988200 3.5277298200 6.6015768000 
Si 0.0000000000 5.4300000000 0.0000000000 
Si 0.0000000000 8.1450000000 2.7150000000 
Si 2.6852218800 5.3088458400 2.6165541000 
Si 2.7150000000 8.1450000000 0.0000000000 
Si 1.3575000000 6.7875000000 1.3575000000 
Si 1.3575000000 9.5025000000 4.0725000000 
Si 4.0247485800 6.5481564600 3.9225016800 
Si 4.0725000000 9.5025000000 1.3575000000 
Si 5.4687267600 5.5068996600 0.0893113368 
Si 5.3381352600 7.9331865600 2.5142637600 
Si 7.8582417000 5.1063937200 2.4443145000 
Si 8.1450000000 8.1450000000 0.0000000000 
Si 6.7030960800 6.7567879200 1.1705342400 
Si 6.6186270000 9.1887437400 4.0659297000 
Si 9.1871907600 6.6846775200 3.6067146000 
Si 9.5025000000 9.5025000000 1.3575000000 
Si 10.3330510800 5.4377757600 5.2479429600 
Si 0.0000000000 8.1450000000 8.1450000000 
Si 2.6541514200 5.4364508400 8.0281898400 
Si 2.5411531200 7.8223059600 5.2299588000 
Si 1.2136810200 6.6927465000 6.7425396000 
Si 1.3575000000 9.5025000000 9.5025000000 
Si 3.7085162400 6.4842779400 9.7465133400 
Si 3.6782168400 8.7493372800 7.0438177200 
Si 9.5025000000 9.5025000000 6.7875000000 
Si 5.4119072400 7.5940070400 8.2344646800 
Si 8.0010941400 4.9772683200 8.0057313600 
Si 8.2930326600 7.8453291600 5.2800125400 
Si 9.5025000000 6.7875000000 9.5025000000 
Si 6.7875000000 9.5025000000 9.5025000000 

