&CONTROL
  dt          = 30.D0,
  prefix = 'R1-T3000-2-301',
  pseudo_dir = './',
  outdir='./',
 wf_collect=.true.,
 verbosity ="high",
/

&SYSTEM
    ibrav= 0, nat=  62, ntyp= 1,
  ecutwfc     = 42.D0,
  nbnd=248,
  degauss     = 0.05D0,
  occupations = "smearing",
  smearing    = "methfessel-paxton",
/
&ELECTRONS
  electron_maxstep=200,
  conv_thr    = 1.D-8,
  mixing_beta = 0.3D0,
  scf_must_converge=.false.,
/
&IONS
/
ATOMIC_SPECIES
Si  28.08  Si.pbe-hgh.UPF

K_POINTS {automatic}
4 4 4 0 0 0
CELL_PARAMETERS angstrom
10.86000000000000 0.00000000000000 0.00000000000000
0.00000000000000 10.86000000000000 0.00000000000000
0.00000000000000 0.00000000000000 10.86000000000000

ATOMIC_POSITIONS angstrom
Si 0.0000000000 0.0000000000 0.0000000000 
Si 0.0000000000 2.7150000000 2.7150000000 
Si 2.7150000000 0.0000000000 2.7150000000 
Si 2.7150000000 2.7150000000 0.0000000000 
Si 1.3575000000 1.3575000000 1.3575000000 
Si 1.7881750200 3.9813737400 3.9155512800 
Si 4.3329988200 1.1994544200 4.0000420800 
Si 4.6439857800 3.8615988000 1.4821402200 
Si 5.4300000000 0.0000000000 0.0000000000 
Si 5.7920506800 2.9301691800 3.5319869400 
Si 8.1450000000 0.0000000000 2.7150000000 
Si 8.1450000000 2.7150000000 0.0000000000 
Si 6.7875000000 1.3575000000 1.3575000000 
Si 6.0825882600 4.9638345000 4.6169335200 
Si 9.5025000000 1.3575000000 4.0725000000 
Si 9.5025000000 4.0725000000 1.3575000000 
Si 0.0000000000 0.0000000000 5.4300000000 
Si 0.0000000000 2.7150000000 8.1450000000 
Si 2.7150000000 0.0000000000 8.1450000000 
Si 2.9639329200 3.2893093800 6.1166995200 
Si 1.3575000000 1.3575000000 6.7875000000 
Si 1.3575000000 4.0725000000 9.5025000000 
Si 4.0725000000 1.3575000000 9.5025000000 
Si 9.4460605800 4.0335234600 7.0332509400 
Si 5.6206364400 10.6142056200 5.2956509400 
Si 5.0503126800 2.4846376800 7.3457148600 
Si 8.1450000000 0.0000000000 8.1450000000 
Si 8.3592460800 2.9596975200 4.9562650800 
Si 6.9590988600 1.3777539000 6.5134261800 
Si 7.0119219000 3.3419695200 8.6776178400 
Si 9.5025000000 1.3575000000 9.5025000000 
Si 0.0000000000 5.4300000000 0.0000000000 
Si 0.0000000000 8.1450000000 2.7150000000 
Si 2.9083948800 5.3891121000 2.4297946800 
Si 2.7150000000 8.1450000000 0.0000000000 
Si 1.3575000000 6.7875000000 1.3575000000 
Si 1.3575000000 9.5025000000 4.0725000000 
Si 4.2991807800 6.8309182800 3.6558886800 
Si 4.0725000000 9.5025000000 1.3575000000 
Si 6.1947503400 5.0513878200 10.2303915000 
Si 6.0443176200 8.1741156600 2.5156864200 
Si 8.5137947400 4.9138785000 3.2043516000 
Si 8.1450000000 8.1450000000 0.0000000000 
Si 7.4080078200 6.2965411200 1.2375295800 
Si 7.1964550200 9.5027497800 4.1965212000 
Si 10.1570213400 6.5229721200 4.1203817400 
Si 9.5025000000 9.5025000000 1.3575000000 
Si 0.1429762440 4.6660098600 5.3351704800 
Si 0.0000000000 8.1450000000 8.1450000000 
Si 3.7818972600 4.1690019600 8.2596381600 
Si 2.7952011000 8.1858770400 5.1177750000 
Si 1.0567051500 7.2457594200 6.0640828200 
Si 1.3575000000 9.5025000000 9.5025000000 
Si 4.0107391800 6.3498854400 9.2224206000 
Si 4.0810902600 9.2310977400 6.9539512200 
Si 6.6570931200 6.7957427400 6.1466296800 
Si 5.8224695400 7.5676606800 8.3510250600 
Si 7.9949691000 5.4373305000 7.8487935000 
Si 8.6038893000 7.7589161400 5.4841696800 
Si 9.5025000000 9.5025000000 6.7875000000 
Si 6.7875000000 9.5025000000 9.5025000000 
Si 9.5025000000 6.7875000000 9.5025000000 

