&CONTROL
  dt          = 30.D0,
  prefix = 'R1-T1200-51',
  pseudo_dir = './',
  outdir='./',
 wf_collect=.true.,
 verbosity ="high",
/

&SYSTEM
    ibrav= 0, nat=  62, ntyp= 1,
  ecutwfc     = 42.D0,
  nbnd=248,
  degauss     = 0.05D0,
  occupations = "smearing",
  smearing    = "methfessel-paxton",
/
&ELECTRONS
  electron_maxstep=200,
  conv_thr    = 1.D-8,
  mixing_beta = 0.3D0,
  scf_must_converge=.false.,
/
&IONS
/
ATOMIC_SPECIES
Si  28.08  Si.pbe-hgh.UPF

K_POINTS {automatic}
4 4 4 0 0 0
CELL_PARAMETERS angstrom
10.86000000000000 0.00000000000000 0.00000000000000
0.00000000000000 10.86000000000000 0.00000000000000
0.00000000000000 0.00000000000000 10.86000000000000

ATOMIC_POSITIONS angstrom
Si 0.0000000000 0.0000000000 0.0000000000 
Si 0.0000000000 2.7150000000 2.7150000000 
Si 2.7150000000 0.0000000000 2.7150000000 
Si 2.7150000000 2.7150000000 0.0000000000 
Si 1.3575000000 1.3575000000 1.3575000000 
Si 1.5730927200 4.1028645600 3.8649762600 
Si 4.2899497800 1.2445994400 3.9927441600 
Si 4.3183269600 3.8895198600 1.3759402800 
Si 5.4300000000 0.0000000000 0.0000000000 
Si 5.5972765800 2.6927261400 2.8635756600 
Si 8.1450000000 0.0000000000 2.7150000000 
Si 8.1450000000 2.7150000000 0.0000000000 
Si 6.7875000000 1.3575000000 1.3575000000 
Si 7.2732460800 3.8971327200 4.1397016800 
Si 9.5025000000 1.3575000000 4.0725000000 
Si 9.5025000000 4.0725000000 1.3575000000 
Si 0.0000000000 0.0000000000 5.4300000000 
Si 0.0000000000 2.7150000000 8.1450000000 
Si 2.7150000000 0.0000000000 8.1450000000 
Si 2.8052900400 2.7563114400 5.4429342600 
Si 1.3575000000 1.3575000000 6.7875000000 
Si 1.3575000000 4.0725000000 9.5025000000 
Si 4.0725000000 1.3575000000 9.5025000000 
Si 4.0937747400 4.2228132600 6.5772829800 
Si 5.5090282200 -0.0276710628 5.3794141200 
Si 5.2891023600 2.7688656000 8.1604103400 
Si 8.1450000000 0.0000000000 8.1450000000 
Si 8.1904925400 2.4365278800 5.5615689000 
Si 6.6746537400 1.3408299000 7.0110205200 
Si 6.8089376400 4.0767897000 9.4551178200 
Si 9.5025000000 1.3575000000 9.5025000000 
Si 9.6316254000 3.9229903800 6.5816052600 
Si 0.0000000000 5.4300000000 0.0000000000 
Si 0.0000000000 8.1450000000 2.7150000000 
Si 2.9088618600 5.3367234600 2.4039587400 
Si 2.7150000000 8.1450000000 0.0000000000 
Si 1.3575000000 6.7875000000 1.3575000000 
Si 1.3575000000 9.5025000000 4.0725000000 
Si 4.0812423000 6.6655096200 4.0132261200 
Si 4.0725000000 9.5025000000 1.3575000000 
Si 5.5898483400 5.3835626400 0.0330306900 
Si 5.2668610800 8.0307310800 2.7491438400 
Si 8.1937722600 5.5281635400 2.8648571400 
Si 8.1450000000 8.1450000000 0.0000000000 
Si 6.8101431000 6.8619344400 1.4488543200 
Si 6.7392598800 9.4358413200 3.9911260200 
Si 9.6654325800 7.1551001400 4.2412101000 
Si 9.5025000000 9.5025000000 1.3575000000 
Si 0.1468119960 5.4589744800 5.1945986400 
Si 0.0000000000 8.1450000000 8.1450000000 
Si 2.8715251800 5.3800331400 8.2679895000 
Si 2.7481664400 8.0424816000 5.4415441800 
Si 1.3661228400 6.7593943200 6.9216427200 
Si 1.3575000000 9.5025000000 9.5025000000 
Si 4.1748337800 6.7893027600 9.4582672200 
Si 4.1371713000 9.5526732000 6.8951008800 
Si 9.5025000000 9.5025000000 6.7875000000 
Si 5.6162707200 8.1231388200 7.9924604400 
Si 8.6897593200 5.0379105600 8.3055325200 
Si 7.9333277400 7.9007803200 5.4275565000 
Si 9.5025000000 6.7875000000 9.5025000000 
Si 6.7875000000 9.5025000000 9.5025000000 

