&CONTROL
  dt          = 30.D0,
  prefix = 'R1-T3000-2-176',
  pseudo_dir = './',
  outdir='./',
 wf_collect=.true.,
 verbosity ="high",
/

&SYSTEM
    ibrav= 0, nat=  62, ntyp= 1,
  ecutwfc     = 42.D0,
  nbnd=248,
  degauss     = 0.05D0,
  occupations = "smearing",
  smearing    = "methfessel-paxton",
/
&ELECTRONS
  electron_maxstep=200,
  conv_thr    = 1.D-8,
  mixing_beta = 0.3D0,
  scf_must_converge=.false.,
/
&IONS
/
ATOMIC_SPECIES
Si  28.08  Si.pbe-hgh.UPF

K_POINTS {automatic}
4 4 4 0 0 0
CELL_PARAMETERS angstrom
10.86000000000000 0.00000000000000 0.00000000000000
0.00000000000000 10.86000000000000 0.00000000000000
0.00000000000000 0.00000000000000 10.86000000000000

ATOMIC_POSITIONS angstrom
Si 0.0000000000 0.0000000000 0.0000000000 
Si 0.0000000000 2.7150000000 2.7150000000 
Si 2.7150000000 0.0000000000 2.7150000000 
Si 2.7150000000 2.7150000000 0.0000000000 
Si 1.3575000000 1.3575000000 1.3575000000 
Si 0.9731559120 4.1319802200 4.4531430000 
Si 3.5900553600 1.5593765400 4.5505246200 
Si 3.9087637800 4.3027102800 1.5153718200 
Si 5.4300000000 0.0000000000 0.0000000000 
Si 4.8883575000 2.5002109200 2.9041160400 
Si 8.1450000000 0.0000000000 2.7150000000 
Si 8.1450000000 2.7150000000 0.0000000000 
Si 6.7875000000 1.3575000000 1.3575000000 
Si 6.9203069400 3.7865344800 3.9623904600 
Si 9.5025000000 1.3575000000 4.0725000000 
Si 9.5025000000 4.0725000000 1.3575000000 
Si 0.0000000000 0.0000000000 5.4300000000 
Si 0.0000000000 2.7150000000 8.1450000000 
Si 2.7150000000 0.0000000000 8.1450000000 
Si 2.4176857800 3.1758984000 6.2723776200 
Si 1.3575000000 1.3575000000 6.7875000000 
Si 1.3575000000 4.0725000000 9.5025000000 
Si 4.0725000000 1.3575000000 9.5025000000 
Si 9.0654936000 4.4732665800 7.3399373400 
Si 4.9191890400 10.8246832800 5.3117780400 
Si 5.1561433800 2.7390440400 7.9796239200 
Si 8.1450000000 0.0000000000 8.1450000000 
Si 8.3530993200 2.8284870000 5.5103422800 
Si 6.2263855200 0.8941157460 6.9703715400 
Si 6.7583083200 3.8367294000 9.5019570000 
Si 9.5025000000 1.3575000000 9.5025000000 
Si 0.0000000000 5.4300000000 0.0000000000 
Si 0.0000000000 8.1450000000 2.7150000000 
Si 2.2138327200 5.6632619400 3.1052106600 
Si 2.7150000000 8.1450000000 0.0000000000 
Si 1.3575000000 6.7875000000 1.3575000000 
Si 1.3575000000 9.5025000000 4.0725000000 
Si 4.5010681800 6.8896274400 4.0824043200 
Si 4.0725000000 9.5025000000 1.3575000000 
Si 5.3510586600 5.1218475000 10.7923313400 
Si 5.2876797000 7.7553866400 2.1128021400 
Si 8.5822887600 5.3048819400 3.1200237000 
Si 8.1450000000 8.1450000000 0.0000000000 
Si 7.0075887600 6.5435409600 1.3092381600 
Si 6.1280482200 9.5810721000 3.7240569000 
Si 9.8853584400 6.6657376800 4.3532853000 
Si 9.5025000000 9.5025000000 1.3575000000 
Si 10.7056033800 5.4428148000 5.8938631800 
Si 0.0000000000 8.1450000000 8.1450000000 
Si 3.4318360200 4.4850388200 8.3012428200 
Si 2.9814826800 8.1080651400 5.4226369200 
Si 1.0531767360 7.4823879600 6.3799785000 
Si 1.3575000000 9.5025000000 9.5025000000 
Si 4.0414838400 6.7146837000 9.3495151800 
Si 4.3878418200 9.2694661200 7.1506258200 
Si 6.3042082800 6.9114017400 5.7971657400 
Si 5.8824384600 7.5601129800 8.1867132600 
Si 7.7370441000 6.0244003800 8.3151870600 
Si 8.3967565200 8.2468450800 5.2572282600 
Si 9.5025000000 9.5025000000 6.7875000000 
Si 6.7875000000 9.5025000000 9.5025000000 
Si 9.5025000000 6.7875000000 9.5025000000 

