&CONTROL
  dt          = 30.D0,
  prefix = 'R1-T3000-3',
  pseudo_dir = './',
  outdir='./',
 wf_collect=.true.,
 verbosity ="high",
/

&SYSTEM
    ibrav= 0, nat=  62, ntyp= 1,
  ecutwfc     = 42.D0,
  nbnd=248,
  degauss     = 0.05D0,
  occupations = "smearing",
  smearing    = "methfessel-paxton",
/
&ELECTRONS
  electron_maxstep=200,
  conv_thr    = 1.D-8,
  mixing_beta = 0.3D0,
  scf_must_converge=.false.,
/
&IONS
/
ATOMIC_SPECIES
Si  28.08  Si.pbe-hgh.UPF

K_POINTS {automatic}
4 4 4 0 0 0
CELL_PARAMETERS angstrom
10.86000000000000 0.00000000000000 0.00000000000000
0.00000000000000 10.86000000000000 0.00000000000000
0.00000000000000 0.00000000000000 10.86000000000000

ATOMIC_POSITIONS angstrom
Si 0.0000000000 0.0000000000 0.0000000000 
Si 0.0000000000 2.7150000000 2.7150000000 
Si 2.7150000000 0.0000000000 2.7150000000 
Si 2.7150000000 2.7150000000 0.0000000000 
Si 1.3575000000 1.3575000000 1.3575000000 
Si 1.2903309000 4.1235963000 3.9457638000 
Si 3.8682559800 1.3523849400 4.3120824600 
Si 4.1172975000 4.1394301800 1.2027993000 
Si 5.4300000000 0.0000000000 0.0000000000 
Si 5.2361707200 2.7602536200 2.8407913800 
Si 8.1450000000 0.0000000000 2.7150000000 
Si 8.1450000000 2.7150000000 0.0000000000 
Si 6.7875000000 1.3575000000 1.3575000000 
Si 6.7088736000 4.2634296600 4.0475437200 
Si 9.5025000000 1.3575000000 4.0725000000 
Si 9.5025000000 4.0725000000 1.3575000000 
Si 0.0000000000 0.0000000000 5.4300000000 
Si 0.0000000000 2.7150000000 8.1450000000 
Si 2.7150000000 0.0000000000 8.1450000000 
Si 2.5170547800 2.8616860200 5.5433566800 
Si 1.3575000000 1.3575000000 6.7875000000 
Si 1.3575000000 4.0725000000 9.5025000000 
Si 4.0725000000 1.3575000000 9.5025000000 
Si 4.2868764000 3.8383149600 6.8141830200 
Si 5.3651332200 0.0030044624 5.5594512000 
Si 5.6286837000 2.6915532600 8.2953132600 
Si 8.1450000000 0.0000000000 8.1450000000 
Si 8.0418191400 2.7469501200 5.0090012400 
Si 6.8708939400 1.4063917200 6.7279329000 
Si 6.8883568200 4.1630941200 9.5689306200 
Si 9.5025000000 1.3575000000 9.5025000000 
Si 9.2843117400 3.7567346400 6.7840682400 
Si 0.0000000000 5.4300000000 0.0000000000 
Si 0.0000000000 8.1450000000 2.7150000000 
Si 2.8614253800 5.5238304000 2.6285761200 
Si 2.7150000000 8.1450000000 0.0000000000 
Si 1.3575000000 6.7875000000 1.3575000000 
Si 1.3575000000 9.5025000000 4.0725000000 
Si 4.3445647200 6.6740455800 4.2255391200 
Si 4.0725000000 9.5025000000 1.3575000000 
Si 5.6473303200 5.5320731400 0.0958195176 
Si 5.7225141000 7.9916350800 2.7738394800 
Si 8.2289369400 5.2454125800 2.7113293200 
Si 8.1450000000 8.1450000000 0.0000000000 
Si 7.0134531600 6.7389558000 1.4064786000 
Si 6.5933340600 9.7302885000 3.9697209600 
Si 9.1369415400 6.9130416000 4.0240969800 
Si 9.5025000000 9.5025000000 1.3575000000 
Si -0.3136856700 5.2956943800 5.3835083400 
Si 0.0000000000 8.1450000000 8.1450000000 
Si 2.8344925800 5.3297839200 8.2458242400 
Si 2.7858397800 8.0574684000 5.3209764600 
Si 1.3081630200 6.7392490200 6.7454283600 
Si 1.3575000000 9.5025000000 9.5025000000 
Si 4.0840116000 6.7107089400 9.7193416200 
Si 3.9990429600 9.4687579800 6.8139332400 
Si 9.5025000000 9.5025000000 6.7875000000 
Si 5.1825874800 8.1504951600 8.3497327200 
Si 8.1204129600 5.5537497000 7.8716320800 
Si 8.2372774200 8.7770411400 5.1831522000 
Si 9.5025000000 6.7875000000 9.5025000000 
Si 6.7875000000 9.5025000000 9.5025000000 

