&CONTROL
  dt          = 30.D0,
  prefix = 'R1-T3000-298',
  pseudo_dir = './',
  outdir='./',
 wf_collect=.true.,
 verbosity ="high",
/

&SYSTEM
    ibrav= 0, nat=  62, ntyp= 1,
  ecutwfc     = 42.D0,
  nbnd=248,
  degauss     = 0.05D0,
  occupations = "smearing",
  smearing    = "methfessel-paxton",
/
&ELECTRONS
  electron_maxstep=200,
  conv_thr    = 1.D-8,
  mixing_beta = 0.3D0,
  scf_must_converge=.false.,
/
&IONS
/
ATOMIC_SPECIES
Si  28.08  Si.pbe-hgh.UPF

K_POINTS {automatic}
4 4 4 0 0 0
CELL_PARAMETERS angstrom
10.86000000000000 0.00000000000000 0.00000000000000
0.00000000000000 10.86000000000000 0.00000000000000
0.00000000000000 0.00000000000000 10.86000000000000

ATOMIC_POSITIONS angstrom
Si 0.0000000000 0.0000000000 0.0000000000 
Si 0.0000000000 2.7150000000 2.7150000000 
Si 2.7150000000 0.0000000000 2.7150000000 
Si 2.7150000000 2.7150000000 0.0000000000 
Si 1.3575000000 1.3575000000 1.3575000000 
Si 1.1552976600 3.8779539600 4.0517682600 
Si 4.1543844000 1.4437392600 3.9831873600 
Si 4.3736478000 3.6620571600 1.0823857920 
Si 5.4300000000 0.0000000000 0.0000000000 
Si 5.7827979600 2.8045624200 2.9859352800 
Si 8.1450000000 0.0000000000 2.7150000000 
Si 8.1450000000 2.7150000000 0.0000000000 
Si 6.7875000000 1.3575000000 1.3575000000 
Si 6.3467469000 4.5662390400 7.1413839600 
Si 9.5025000000 1.3575000000 4.0725000000 
Si 9.5025000000 4.0725000000 1.3575000000 
Si 0.0000000000 0.0000000000 5.4300000000 
Si 0.0000000000 2.7150000000 8.1450000000 
Si 2.7150000000 0.0000000000 8.1450000000 
Si 2.6578546800 2.8195818000 5.3409154200 
Si 1.3575000000 1.3575000000 6.7875000000 
Si 1.3575000000 4.0725000000 9.5025000000 
Si 4.0725000000 1.3575000000 9.5025000000 
Si 3.7963410600 3.8088735000 7.0743886200 
Si 5.2323262800 10.4994371400 5.1946203600 
Si 5.9453504400 2.5601581200 8.3051524200 
Si 8.1450000000 0.0000000000 8.1450000000 
Si 7.5002852400 3.1967061600 5.0721304200 
Si 6.9012042000 1.2284614800 6.2755378800 
Si 6.9055264800 4.2189688200 9.6586668000 
Si 9.5025000000 1.3575000000 9.5025000000 
Si 9.6017929800 3.7727205600 6.5408585400 
Si 0.0000000000 5.4300000000 0.0000000000 
Si 0.0000000000 8.1450000000 2.7150000000 
Si 2.5828012200 5.0057215200 2.4333133200 
Si 2.7150000000 8.1450000000 0.0000000000 
Si 1.3575000000 6.7875000000 1.3575000000 
Si 1.3575000000 9.5025000000 4.0725000000 
Si 4.0516270800 6.1514515200 3.9204925800 
Si 4.0725000000 9.5025000000 1.3575000000 
Si 5.3263738800 5.4483208200 10.8500631000 
Si 5.2627017000 7.7607297600 2.5651211400 
Si 7.3534146000 4.3400035200 2.0538106200 
Si 8.1450000000 8.1450000000 0.0000000000 
Si 7.2982023600 6.6460485000 1.4868317400 
Si 6.6525102000 9.0592273800 4.1868992400 
Si 9.3970168200 6.5809536600 3.9963171000 
Si 9.5025000000 9.5025000000 1.3575000000 
Si 10.9053948000 5.3972028000 5.4354734400 
Si 0.0000000000 8.1450000000 8.1450000000 
Si 2.3986373400 5.5276096800 8.0803178400 
Si 2.7823211400 7.7667787800 5.1306875400 
Si 1.0493062320 7.1678497800 6.3055332000 
Si 1.3575000000 9.5025000000 9.5025000000 
Si 4.0031697600 6.8987932800 9.2807713800 
Si 3.7338200400 9.1414050000 6.9159520800 
Si 9.5025000000 9.5025000000 6.7875000000 
Si 5.4782509800 8.0692949400 8.2622988600 
Si 7.6027167600 6.7243273800 8.0062200600 
Si 8.0131161600 7.5138928200 5.7432567000 
Si 9.5025000000 6.7875000000 9.5025000000 
Si 6.7875000000 9.5025000000 9.5025000000 

