&CONTROL
  dt          = 30.D0,
  prefix = 'R1-T3000-254',
  pseudo_dir = './',
  outdir='./',
 wf_collect=.true.,
 verbosity ="high",
/

&SYSTEM
    ibrav= 0, nat=  62, ntyp= 1,
  ecutwfc     = 42.D0,
  nbnd=248,
  degauss     = 0.05D0,
  occupations = "smearing",
  smearing    = "methfessel-paxton",
/
&ELECTRONS
  electron_maxstep=200,
  conv_thr    = 1.D-8,
  mixing_beta = 0.3D0,
  scf_must_converge=.false.,
/
&IONS
/
ATOMIC_SPECIES
Si  28.08  Si.pbe-hgh.UPF

K_POINTS {automatic}
4 4 4 0 0 0
CELL_PARAMETERS angstrom
10.86000000000000 0.00000000000000 0.00000000000000
0.00000000000000 10.86000000000000 0.00000000000000
0.00000000000000 0.00000000000000 10.86000000000000

ATOMIC_POSITIONS angstrom
Si 0.0000000000 0.0000000000 0.0000000000 
Si 0.0000000000 2.7150000000 2.7150000000 
Si 2.7150000000 0.0000000000 2.7150000000 
Si 2.7150000000 2.7150000000 0.0000000000 
Si 1.3575000000 1.3575000000 1.3575000000 
Si 1.1902125600 4.2817830600 4.2024507600 
Si 4.3293498600 1.2421450800 3.7288244400 
Si 4.2563598000 4.3146780000 0.9873499320 
Si 5.4300000000 0.0000000000 0.0000000000 
Si 5.8452646800 3.0704912400 2.6211478800 
Si 8.1450000000 0.0000000000 2.7150000000 
Si 8.1450000000 2.7150000000 0.0000000000 
Si 6.7875000000 1.3575000000 1.3575000000 
Si 6.5580716400 4.9112938200 6.1165800600 
Si 9.5025000000 1.3575000000 4.0725000000 
Si 9.5025000000 4.0725000000 1.3575000000 
Si 0.0000000000 0.0000000000 5.4300000000 
Si 0.0000000000 2.7150000000 8.1450000000 
Si 2.7150000000 0.0000000000 8.1450000000 
Si 2.7070504800 2.9176584600 5.4334426200 
Si 1.3575000000 1.3575000000 6.7875000000 
Si 1.3575000000 4.0725000000 9.5025000000 
Si 4.0725000000 1.3575000000 9.5025000000 
Si 4.1962714200 4.2635165400 6.4249280400 
Si 5.0326108800 10.7289523800 5.4937916400 
Si 5.1476508600 2.6904129600 7.9646479800 
Si 8.1450000000 0.0000000000 8.1450000000 
Si 7.8600336000 2.8476331800 5.3652201000 
Si 6.6900206400 1.1279196000 6.6892495800 
Si 7.1189037600 3.7130340000 8.9732053200 
Si 9.5025000000 1.3575000000 9.5025000000 
Si 9.3640893000 3.5931939000 6.6848078400 
Si 0.0000000000 5.4300000000 0.0000000000 
Si 0.0000000000 8.1450000000 2.7150000000 
Si 3.1548082800 5.4786419400 2.8025424600 
Si 2.7150000000 8.1450000000 0.0000000000 
Si 1.3575000000 6.7875000000 1.3575000000 
Si 1.3575000000 9.5025000000 4.0725000000 
Si 3.8620657800 7.3033282800 4.0971847800 
Si 4.0725000000 9.5025000000 1.3575000000 
Si 5.7640101600 5.3799897000 10.4269249200 
Si 5.4244288200 8.1846281400 2.6920962600 
Si 7.4818558200 5.0726299800 1.5442811400 
Si 8.1450000000 8.1450000000 0.0000000000 
Si 6.3481695600 6.9032676000 0.9151526520 
Si 6.7197444600 9.2979193200 4.2781232400 
Si 8.6996093400 7.3611252000 3.9503032800 
Si 9.5025000000 9.5025000000 1.3575000000 
Si 9.8124444000 5.5933669800 5.2251912600 
Si 0.0000000000 8.1450000000 8.1450000000 
Si 2.7007951200 5.7246752400 7.7163123600 
Si 2.6515667400 8.5368505200 5.5564104000 
Si 0.8835196440 6.7488709800 6.3409476600 
Si 1.3575000000 9.5025000000 9.5025000000 
Si 4.1065026600 6.7431369000 9.3118852800 
Si 3.9849792600 9.2129072400 7.1935988400 
Si 9.5025000000 9.5025000000 6.7875000000 
Si 5.8212532200 7.8181574400 7.6931805600 
Si 7.9360427400 5.4895996800 7.7994782400 
Si 7.7012821200 7.7784098400 6.4940845200 
Si 9.5025000000 6.7875000000 9.5025000000 
Si 6.7875000000 9.5025000000 9.5025000000 

