&CONTROL
  dt          = 30.D0,
  prefix = 'R1-T3000-2-68',
  pseudo_dir = './',
  outdir='./',
 wf_collect=.true.,
 verbosity ="high",
/

&SYSTEM
    ibrav= 0, nat=  62, ntyp= 1,
  ecutwfc     = 42.D0,
  nbnd=248,
  degauss     = 0.05D0,
  occupations = "smearing",
  smearing    = "methfessel-paxton",
/
&ELECTRONS
  electron_maxstep=200,
  conv_thr    = 1.D-8,
  mixing_beta = 0.3D0,
  scf_must_converge=.false.,
/
&IONS
/
ATOMIC_SPECIES
Si  28.08  Si.pbe-hgh.UPF

K_POINTS {automatic}
4 4 4 0 0 0
CELL_PARAMETERS angstrom
10.86000000000000 0.00000000000000 0.00000000000000
0.00000000000000 10.86000000000000 0.00000000000000
0.00000000000000 0.00000000000000 10.86000000000000

ATOMIC_POSITIONS angstrom
Si 0.0000000000 0.0000000000 0.0000000000 
Si 0.0000000000 2.7150000000 2.7150000000 
Si 2.7150000000 0.0000000000 2.7150000000 
Si 2.7150000000 2.7150000000 0.0000000000 
Si 1.3575000000 1.3575000000 1.3575000000 
Si 1.4632438200 4.2969870600 3.7705920000 
Si 4.1772990000 1.4138199600 4.3265262600 
Si 4.1276688000 4.0978038000 1.1572416000 
Si 5.4300000000 0.0000000000 0.0000000000 
Si 5.2834660200 2.9529643200 2.8605891600 
Si 8.1450000000 0.0000000000 2.7150000000 
Si 8.1450000000 2.7150000000 0.0000000000 
Si 6.7875000000 1.3575000000 1.3575000000 
Si 6.2038618800 4.5709522800 4.4203675200 
Si 9.5025000000 1.3575000000 4.0725000000 
Si 9.5025000000 4.0725000000 1.3575000000 
Si 0.0000000000 0.0000000000 5.4300000000 
Si 0.0000000000 2.7150000000 8.1450000000 
Si 2.7150000000 0.0000000000 8.1450000000 
Si 2.5260034200 2.5830401400 5.1455657400 
Si 1.3575000000 1.3575000000 6.7875000000 
Si 1.3575000000 4.0725000000 9.5025000000 
Si 4.0725000000 1.3575000000 9.5025000000 
Si 9.5383488600 3.6766964400 6.5071816800 
Si 5.6820931800 0.0216700440 5.5857867000 
Si 5.1686975400 2.7948318600 7.9602822600 
Si 8.1450000000 0.0000000000 8.1450000000 
Si 7.6209724200 2.5994821800 5.1774724200 
Si 6.8035619400 1.2592713000 6.8922555600 
Si 6.9079699800 4.0323071400 9.2496031800 
Si 9.5025000000 1.3575000000 9.5025000000 
Si 0.0000000000 5.4300000000 0.0000000000 
Si 0.0000000000 8.1450000000 2.7150000000 
Si 3.0338387400 5.5360479000 2.5922277000 
Si 2.7150000000 8.1450000000 0.0000000000 
Si 1.3575000000 6.7875000000 1.3575000000 
Si 1.3575000000 9.5025000000 4.0725000000 
Si 4.5301078200 6.5184109200 4.2560231400 
Si 4.0725000000 9.5025000000 1.3575000000 
Si 5.4940088400 5.2216183200 0.0568972776 
Si 5.3142975600 7.9669828800 2.5520022600 
Si 7.8308419200 5.4397740000 2.8167582000 
Si 8.1450000000 8.1450000000 0.0000000000 
Si 6.5666619000 6.6411397800 1.1891917200 
Si 6.3852238800 9.6797895000 3.5321389800 
Si 9.4733409000 6.4769583000 4.0470550200 
Si 9.5025000000 9.5025000000 1.3575000000 
Si 0.2644703220 5.3857780800 5.3516668200 
Si 0.0000000000 8.1450000000 8.1450000000 
Si 2.7883701600 5.5227878400 8.0744751600 
Si 2.8884233400 8.0999527200 5.4388291800 
Si 1.4499186000 6.7916159400 6.9269532600 
Si 1.3575000000 9.5025000000 9.5025000000 
Si 4.0261278000 6.5501547000 9.4872525600 
Si 4.2989961600 9.5225584200 6.6768040200 
Si 7.3539358800 7.3748413800 7.8509872200 
Si 5.0515615800 8.3890350600 8.5375781400 
Si 8.0870076000 5.2963677000 7.8088721400 
Si 8.5882726200 7.7298330600 5.7254137200 
Si 9.5025000000 9.5025000000 6.7875000000 
Si 6.7875000000 9.5025000000 9.5025000000 
Si 9.5025000000 6.7875000000 9.5025000000 

