&CONTROL
  dt          = 30.D0,
  prefix = 'R1-T1200-2-46',
  pseudo_dir = './',
  outdir='./',
 wf_collect=.true.,
 verbosity ="high",
/

&SYSTEM
    ibrav= 0, nat=  62, ntyp= 1,
  ecutwfc     = 42.D0,
  nbnd=248,
  degauss     = 0.05D0,
  occupations = "smearing",
  smearing    = "methfessel-paxton",
/
&ELECTRONS
  electron_maxstep=200,
  conv_thr    = 1.D-8,
  mixing_beta = 0.3D0,
  scf_must_converge=.false.,
/
&IONS
/
ATOMIC_SPECIES
Si  28.08  Si.pbe-hgh.UPF

K_POINTS {automatic}
4 4 4 0 0 0
CELL_PARAMETERS angstrom
10.86000000000000 0.00000000000000 0.00000000000000
0.00000000000000 10.86000000000000 0.00000000000000
0.00000000000000 0.00000000000000 10.86000000000000

ATOMIC_POSITIONS angstrom
Si 0.0000000000 0.0000000000 0.0000000000 
Si 0.0000000000 2.7150000000 2.7150000000 
Si 2.7150000000 0.0000000000 2.7150000000 
Si 2.7150000000 2.7150000000 0.0000000000 
Si 1.3575000000 1.3575000000 1.3575000000 
Si 1.3742569800 4.1699793600 4.1128557600 
Si 4.1694689400 1.2872140800 3.9304512000 
Si 4.1857915200 4.1852811000 1.4306855400 
Si 5.4300000000 0.0000000000 0.0000000000 
Si 5.3257765800 2.8137608400 2.7458532600 
Si 8.1450000000 0.0000000000 2.7150000000 
Si 8.1450000000 2.7150000000 0.0000000000 
Si 6.7875000000 1.3575000000 1.3575000000 
Si 6.6199193400 4.0978146600 4.2651129600 
Si 9.5025000000 1.3575000000 4.0725000000 
Si 9.5025000000 4.0725000000 1.3575000000 
Si 0.0000000000 0.0000000000 5.4300000000 
Si 0.0000000000 2.7150000000 8.1450000000 
Si 2.7150000000 0.0000000000 8.1450000000 
Si 2.8514667600 2.6191170600 5.4599953200 
Si 1.3575000000 1.3575000000 6.7875000000 
Si 1.3575000000 4.0725000000 9.5025000000 
Si 4.0725000000 1.3575000000 9.5025000000 
Si 9.7268024400 3.9249669000 6.6488503800 
Si 5.4072483000 -0.0521238732 5.4884919600 
Si 5.4991999200 2.8179528000 8.2304030400 
Si 8.1450000000 0.0000000000 8.1450000000 
Si 8.0677311000 2.6053683000 5.3355723000 
Si 6.6213963000 1.1387470200 6.8703292200 
Si 6.9291252600 4.2258432000 9.3547279800 
Si 9.5025000000 1.3575000000 9.5025000000 
Si 0.0000000000 5.4300000000 0.0000000000 
Si 0.0000000000 8.1450000000 2.7150000000 
Si 2.6645661600 5.5363085400 2.8262932800 
Si 2.7150000000 8.1450000000 0.0000000000 
Si 1.3575000000 6.7875000000 1.3575000000 
Si 1.3575000000 9.5025000000 4.0725000000 
Si 3.9743038800 6.9263559600 4.2253002000 
Si 4.0725000000 9.5025000000 1.3575000000 
Si 5.4755468400 5.5189868400 -0.0991673298 
Si 5.1599335200 8.0399729400 2.6357002800 
Si 7.9551237600 5.3372230200 2.9845126200 
Si 8.1450000000 8.1450000000 0.0000000000 
Si 6.7529652000 6.7688208000 1.4294583600 
Si 6.5927693400 9.2483977200 4.0154524200 
Si 9.3640350000 6.7024879200 4.1551337400 
Si 9.5025000000 9.5025000000 1.3575000000 
Si 0.0830068896 5.4777622800 5.5614928800 
Si 0.0000000000 8.1450000000 8.1450000000 
Si 2.6164998000 5.5196493000 7.9644850800 
Si 2.5805857800 8.1639072600 5.5771312800 
Si 1.2109225800 6.8782570200 6.7369792800 
Si 1.3575000000 9.5025000000 9.5025000000 
Si 4.0781689200 6.8264656800 9.3622322400 
Si 4.0058087400 9.3584964000 6.9152787600 
Si 5.6845584000 5.6308014000 5.5112545200 
Si 5.6062686600 8.1591505800 8.0525271000 
Si 8.2871899800 5.4055650000 8.1680992200 
Si 7.9349241600 8.3695739400 5.4971691000 
Si 9.5025000000 9.5025000000 6.7875000000 
Si 6.7875000000 9.5025000000 9.5025000000 
Si 9.5025000000 6.7875000000 9.5025000000 

