&CONTROL
  dt          = 30.D0,
  prefix = 'R1-T1200-2-1',
  pseudo_dir = './',
  outdir='./',
 wf_collect=.true.,
 verbosity ="high",
/

&SYSTEM
    ibrav= 0, nat=  62, ntyp= 1,
  ecutwfc     = 42.D0,
  nbnd=248,
  degauss     = 0.05D0,
  occupations = "smearing",
  smearing    = "methfessel-paxton",
/
&ELECTRONS
  electron_maxstep=200,
  conv_thr    = 1.D-8,
  mixing_beta = 0.3D0,
  scf_must_converge=.false.,
/
&IONS
/
ATOMIC_SPECIES
Si  28.08  Si.pbe-hgh.UPF

K_POINTS {automatic}
4 4 4 0 0 0
CELL_PARAMETERS angstrom
10.86000000000000 0.00000000000000 0.00000000000000
0.00000000000000 10.86000000000000 0.00000000000000
0.00000000000000 0.00000000000000 10.86000000000000

ATOMIC_POSITIONS angstrom
Si 0.0000000000 0.0000000000 0.0000000000 
Si 0.0000000000 2.7150000000 2.7150000000 
Si 2.7150000000 0.0000000000 2.7150000000 
Si 2.7150000000 2.7150000000 0.0000000000 
Si 1.3575000000 1.3575000000 1.3575000000 
Si 1.3304586000 4.0298853600 4.0143012600 
Si 4.0561665600 1.3263209400 4.1347603800 
Si 4.0875954000 4.0665595800 1.3012017600 
Si 5.4300000000 0.0000000000 0.0000000000 
Si 5.3623747800 2.7213856800 2.7298239000 
Si 8.1450000000 0.0000000000 2.7150000000 
Si 8.1450000000 2.7150000000 0.0000000000 
Si 6.7875000000 1.3575000000 1.3575000000 
Si 6.8100996600 4.1420257200 4.0726737600 
Si 9.5025000000 1.3575000000 4.0725000000 
Si 9.5025000000 4.0725000000 1.3575000000 
Si 0.0000000000 0.0000000000 5.4300000000 
Si 0.0000000000 2.7150000000 8.1450000000 
Si 2.7150000000 0.0000000000 8.1450000000 
Si 2.6440081800 2.7525647400 5.4552169200 
Si 1.3575000000 1.3575000000 6.7875000000 
Si 1.3575000000 4.0725000000 9.5025000000 
Si 4.0725000000 1.3575000000 9.5025000000 
Si 9.5560832400 4.0141492200 6.7692986400 
Si 5.3835626400 -0.0100974325 5.4484294200 
Si 5.4946604400 2.7092767800 8.1671544000 
Si 8.1450000000 0.0000000000 8.1450000000 
Si 8.1671544000 2.6936709600 5.2460533200 
Si 6.7857189600 1.3777539000 6.8001084600 
Si 6.7541598000 4.0843482600 9.5561049600 
Si 9.5025000000 1.3575000000 9.5025000000 
Si 0.0000000000 5.4300000000 0.0000000000 
Si 0.0000000000 8.1450000000 2.7150000000 
Si 2.6834842800 5.3136568200 2.6136979200 
Si 2.7150000000 8.1450000000 0.0000000000 
Si 1.3575000000 6.7875000000 1.3575000000 
Si 1.3575000000 9.5025000000 4.0725000000 
Si 4.1100430200 6.8375537400 4.0563837600 
Si 4.0725000000 9.5025000000 1.3575000000 
Si 5.4673258200 5.4410554800 -0.0529559664 
Si 5.4775776600 8.1810443400 2.7088423800 
Si 8.1877123800 5.3668491000 2.7828750000 
Si 8.1450000000 8.1450000000 0.0000000000 
Si 6.6977638200 6.8682875400 1.4240500800 
Si 6.8731528200 9.4306611000 4.1189047800 
Si 9.5046611400 6.8140527000 4.0611404400 
Si 9.5025000000 9.5025000000 1.3575000000 
Si 0.1042319994 5.4355929000 5.4726689400 
Si 0.0000000000 8.1450000000 8.1450000000 
Si 2.7333751200 5.4534141600 8.2090197000 
Si 2.7345697200 8.1463900800 5.5052489400 
Si 1.3737139800 6.7274224800 6.7238712600 
Si 1.3575000000 9.5025000000 9.5025000000 
Si 4.0288102200 6.8360333400 9.5834395800 
Si 4.0316121000 9.4511756400 6.8350776600 
Si 5.4702145800 5.4312163200 5.4431949000 
Si 5.3728981200 8.1936093600 8.0931869400 
Si 8.0563824000 5.4493959600 8.1414813600 
Si 8.1360730800 8.1987461400 5.3495491200 
Si 9.5025000000 9.5025000000 6.7875000000 
Si 6.7875000000 9.5025000000 9.5025000000 
Si 9.5025000000 6.7875000000 9.5025000000 

