&CONTROL
  dt          = 30.D0,
  prefix = 'R1-T3000-419',
  pseudo_dir = './',
  outdir='./',
 wf_collect=.true.,
 verbosity ="high",
/

&SYSTEM
    ibrav= 0, nat=  62, ntyp= 1,
  ecutwfc     = 42.D0,
  nbnd=248,
  degauss     = 0.05D0,
  occupations = "smearing",
  smearing    = "methfessel-paxton",
/
&ELECTRONS
  electron_maxstep=200,
  conv_thr    = 1.D-8,
  mixing_beta = 0.3D0,
  scf_must_converge=.false.,
/
&IONS
/
ATOMIC_SPECIES
Si  28.08  Si.pbe-hgh.UPF

K_POINTS {automatic}
4 4 4 0 0 0
CELL_PARAMETERS angstrom
10.86000000000000 0.00000000000000 0.00000000000000
0.00000000000000 10.86000000000000 0.00000000000000
0.00000000000000 0.00000000000000 10.86000000000000

ATOMIC_POSITIONS angstrom
Si 0.0000000000 0.0000000000 0.0000000000 
Si 0.0000000000 2.7150000000 2.7150000000 
Si 2.7150000000 0.0000000000 2.7150000000 
Si 2.7150000000 2.7150000000 0.0000000000 
Si 1.3575000000 1.3575000000 1.3575000000 
Si 1.5918913800 3.9174517800 3.7445931600 
Si 4.5459742800 1.1775172200 3.9963279600 
Si 4.4257540800 4.0172551800 1.3010171400 
Si 5.4300000000 0.0000000000 0.0000000000 
Si 5.8278235200 2.9651601000 2.8256091000 
Si 8.1450000000 0.0000000000 2.7150000000 
Si 8.1450000000 2.7150000000 0.0000000000 
Si 6.7875000000 1.3575000000 1.3575000000 
Si 6.2781225600 6.4877314200 6.1149619200 
Si 9.5025000000 1.3575000000 4.0725000000 
Si 9.5025000000 4.0725000000 1.3575000000 
Si 0.0000000000 0.0000000000 5.4300000000 
Si 0.0000000000 2.7150000000 8.1450000000 
Si 2.7150000000 0.0000000000 8.1450000000 
Si 3.0496509000 2.7901077600 5.1136264800 
Si 1.3575000000 1.3575000000 6.7875000000 
Si 1.3575000000 4.0725000000 9.5025000000 
Si 4.0725000000 1.3575000000 9.5025000000 
Si 4.2228567000 4.3158617400 6.4613959200 
Si 5.7852631800 -0.3099183360 5.5555741800 
Si 5.2352259000 2.7279451200 7.7184192000 
Si 8.1450000000 0.0000000000 8.1450000000 
Si 8.4018933000 3.0228592800 5.3031009000 
Si 7.1467270800 1.6501118400 6.7299094200 
Si 6.5745571200 3.9360115200 9.2371576200 
Si 9.5025000000 1.3575000000 9.5025000000 
Si 9.5139030000 4.1437741800 6.8016614400 
Si 0.0000000000 5.4300000000 0.0000000000 
Si 0.0000000000 8.1450000000 2.7150000000 
Si 2.9129452200 5.4832791600 2.6183351400 
Si 2.7150000000 8.1450000000 0.0000000000 
Si 1.3575000000 6.7875000000 1.3575000000 
Si 1.3575000000 9.5025000000 4.0725000000 
Si 4.6552367400 6.6900423600 4.1276145000 
Si 4.0725000000 9.5025000000 1.3575000000 
Si 5.3295015600 5.4694543800 10.4008066200 
Si 5.5023710400 8.2594318200 2.4676960800 
Si 7.9231519200 4.2793178400 2.9823514800 
Si 8.1450000000 8.1450000000 0.0000000000 
Si 7.6425946800 6.8250104400 2.1165597000 
Si 6.8759872800 9.3372868200 3.8267925000 
Si 9.4537711800 6.8520735600 3.8601001200 
Si 9.5025000000 9.5025000000 1.3575000000 
Si -0.0321230112 5.0822519400 5.1090218400 
Si 0.0000000000 8.1450000000 8.1450000000 
Si 2.7430513800 5.3159700000 8.0102491200 
Si 2.5133841000 7.7174526600 5.0435686200 
Si 0.9062593980 6.5054983800 6.7262170200 
Si 1.3575000000 9.5025000000 9.5025000000 
Si 3.8839486800 6.9993786000 9.2912838600 
Si 4.0368574800 9.2269166400 6.6809525400 
Si 9.5025000000 9.5025000000 6.7875000000 
Si 5.3066304000 7.8931457400 7.9032889800 
Si 7.8267911400 5.3722791000 7.9112819400 
Si 8.0790363600 7.9982379600 5.3691731400 
Si 9.5025000000 6.7875000000 9.5025000000 
Si 6.7875000000 9.5025000000 9.5025000000 

