&CONTROL
  dt          = 30.D0,
  prefix = 'R1-T3000-128',
  pseudo_dir = './',
  outdir='./',
 wf_collect=.true.,
 verbosity ="high",
/

&SYSTEM
    ibrav= 0, nat=  62, ntyp= 1,
  ecutwfc     = 42.D0,
  nbnd=248,
  degauss     = 0.05D0,
  occupations = "smearing",
  smearing    = "methfessel-paxton",
/
&ELECTRONS
  electron_maxstep=200,
  conv_thr    = 1.D-8,
  mixing_beta = 0.3D0,
  scf_must_converge=.false.,
/
&IONS
/
ATOMIC_SPECIES
Si  28.08  Si.pbe-hgh.UPF

K_POINTS {automatic}
4 4 4 0 0 0
CELL_PARAMETERS angstrom
10.86000000000000 0.00000000000000 0.00000000000000
0.00000000000000 10.86000000000000 0.00000000000000
0.00000000000000 0.00000000000000 10.86000000000000

ATOMIC_POSITIONS angstrom
Si 0.0000000000 0.0000000000 0.0000000000 
Si 0.0000000000 2.7150000000 2.7150000000 
Si 2.7150000000 0.0000000000 2.7150000000 
Si 2.7150000000 2.7150000000 0.0000000000 
Si 1.3575000000 1.3575000000 1.3575000000 
Si 1.3122572400 4.2662749800 4.0587621000 
Si 3.8578303800 1.4671534200 4.1996271600 
Si 4.0150723200 3.9679725000 1.5707469600 
Si 5.4300000000 0.0000000000 0.0000000000 
Si 5.5167171000 2.6998285800 2.8276725000 
Si 8.1450000000 0.0000000000 2.7150000000 
Si 8.1450000000 2.7150000000 0.0000000000 
Si 6.7875000000 1.3575000000 1.3575000000 
Si 5.6285425200 4.3520364000 4.7630548200 
Si 9.5025000000 1.3575000000 4.0725000000 
Si 9.5025000000 4.0725000000 1.3575000000 
Si 0.0000000000 0.0000000000 5.4300000000 
Si 0.0000000000 2.7150000000 8.1450000000 
Si 2.7150000000 0.0000000000 8.1450000000 
Si 2.3981052000 2.9844257400 5.4706489800 
Si 1.3575000000 1.3575000000 6.7875000000 
Si 1.3575000000 4.0725000000 9.5025000000 
Si 4.0725000000 1.3575000000 9.5025000000 
Si 3.9585025800 3.9860978400 6.5453654400 
Si 5.1070887600 -0.1196272440 5.4220179000 
Si 5.1041782800 2.8197772800 7.9782555600 
Si 8.1450000000 0.0000000000 8.1450000000 
Si 8.9687635800 1.9290618000 6.3530348400 
Si 6.6642390000 1.4903178000 6.9066559200 
Si 6.6956244000 4.4280021000 9.2215192200 
Si 9.5025000000 1.3575000000 9.5025000000 
Si 9.6511951200 4.2705321000 6.9040278000 
Si 0.0000000000 5.4300000000 0.0000000000 
Si 0.0000000000 8.1450000000 2.7150000000 
Si 2.7099066600 5.5296405000 2.6773918200 
Si 2.7150000000 8.1450000000 0.0000000000 
Si 1.3575000000 6.7875000000 1.3575000000 
Si 1.3575000000 9.5025000000 4.0725000000 
Si 4.5287503200 6.5563340400 4.3145694000 
Si 4.0725000000 9.5025000000 1.3575000000 
Si 4.9895075400 5.2443591600 10.5227318400 
Si 5.6669434800 8.1347481600 2.9086881000 
Si 7.6320930600 5.6481774000 2.5050327600 
Si 8.1450000000 8.1450000000 0.0000000000 
Si 6.4965606000 7.1189254800 0.9619885740 
Si 7.1285474400 9.6830040600 4.5360048000 
Si 9.3154473600 6.9363580200 3.9806244000 
Si 9.5025000000 9.5025000000 1.3575000000 
Si 10.8567637200 5.8457859600 5.5590711000 
Si 0.0000000000 8.1450000000 8.1450000000 
Si 3.2779172400 5.5925199000 8.2054902000 
Si 2.9763459000 7.9401152400 5.2634619000 
Si 1.6205726400 6.9720114000 6.9799500600 
Si 1.3575000000 9.5025000000 9.5025000000 
Si 4.6579408800 7.2568366200 9.2253093600 
Si 4.0455020400 9.4029463800 6.6719496000 
Si 9.5025000000 9.5025000000 6.7875000000 
Si 5.9327311200 8.1202609200 7.7054306400 
Si 7.6681917000 6.5213648400 7.8876397200 
Si 8.0423078400 7.7422786200 5.8567654200 
Si 9.5025000000 6.7875000000 9.5025000000 
Si 6.7875000000 9.5025000000 9.5025000000 

