&CONTROL
  dt          = 30.D0,
  prefix = 'R1-T3000-107',
  pseudo_dir = './',
  outdir='./',
 wf_collect=.true.,
 verbosity ="high",
/

&SYSTEM
    ibrav= 0, nat=  62, ntyp= 1,
  ecutwfc     = 42.D0,
  nbnd=248,
  degauss     = 0.05D0,
  occupations = "smearing",
  smearing    = "methfessel-paxton",
/
&ELECTRONS
  electron_maxstep=200,
  conv_thr    = 1.D-8,
  mixing_beta = 0.3D0,
  scf_must_converge=.false.,
/
&IONS
/
ATOMIC_SPECIES
Si  28.08  Si.pbe-hgh.UPF

K_POINTS {automatic}
4 4 4 0 0 0
CELL_PARAMETERS angstrom
10.86000000000000 0.00000000000000 0.00000000000000
0.00000000000000 10.86000000000000 0.00000000000000
0.00000000000000 0.00000000000000 10.86000000000000

ATOMIC_POSITIONS angstrom
Si 0.0000000000 0.0000000000 0.0000000000 
Si 0.0000000000 2.7150000000 2.7150000000 
Si 2.7150000000 0.0000000000 2.7150000000 
Si 2.7150000000 2.7150000000 0.0000000000 
Si 1.3575000000 1.3575000000 1.3575000000 
Si 1.2927309600 4.3481702400 4.0107391800 
Si 3.9184834800 1.1022900000 4.2980622000 
Si 4.4682275400 3.7922902800 1.6831371000 
Si 5.4300000000 0.0000000000 0.0000000000 
Si 5.9467296600 2.5722235800 3.3053278800 
Si 8.1450000000 0.0000000000 2.7150000000 
Si 8.1450000000 2.7150000000 0.0000000000 
Si 6.7875000000 1.3575000000 1.3575000000 
Si 4.9988797200 4.4686728000 4.7739908400 
Si 9.5025000000 1.3575000000 4.0725000000 
Si 9.5025000000 4.0725000000 1.3575000000 
Si 0.0000000000 0.0000000000 5.4300000000 
Si 0.0000000000 2.7150000000 8.1450000000 
Si 2.7150000000 0.0000000000 8.1450000000 
Si 2.2918835400 2.5729294800 5.2556535600 
Si 1.3575000000 1.3575000000 6.7875000000 
Si 1.3575000000 4.0725000000 9.5025000000 
Si 4.0725000000 1.3575000000 9.5025000000 
Si 3.7393586400 3.8070055800 6.6106666200 
Si 5.4402301200 10.6739356200 5.5658911800 
Si 5.1802200000 2.9299411200 8.3950949400 
Si 8.1450000000 0.0000000000 8.1450000000 
Si 7.6041611400 2.6026858800 5.3353659600 
Si 6.3616251000 1.3584339600 6.8487178200 
Si 7.0617041400 3.9421148400 9.2782084200 
Si 9.5025000000 1.3575000000 9.5025000000 
Si 9.1083037200 3.6919547400 6.6980353200 
Si 0.0000000000 5.4300000000 0.0000000000 
Si 0.0000000000 8.1450000000 2.7150000000 
Si 2.9067550200 5.6284339200 2.6661843000 
Si 2.7150000000 8.1450000000 0.0000000000 
Si 1.3575000000 6.7875000000 1.3575000000 
Si 1.3575000000 9.5025000000 4.0725000000 
Si 4.5910867200 6.7217101200 4.1661132000 
Si 4.0725000000 9.5025000000 1.3575000000 
Si 5.5021212600 5.2352259000 0.2319000960 
Si 5.9230765800 8.2496795400 2.7938761800 
Si 8.2583132400 6.0678729600 2.3602146600 
Si 8.1450000000 8.1450000000 0.0000000000 
Si 6.7654107600 6.9473049000 0.9871414200 
Si 7.4969295000 9.4632411000 4.5697251000 
Si 9.7444825200 6.6350473200 4.0592290800 
Si 9.5025000000 9.5025000000 1.3575000000 
Si -0.1643432940 5.1761475000 5.7804413400 
Si 0.0000000000 8.1450000000 8.1450000000 
Si 3.0895071000 5.5957779000 8.4209091600 
Si 2.8903998600 7.9653647400 5.4269374800 
Si 1.6119715200 6.8202320400 6.9850868400 
Si 1.3575000000 9.5025000000 9.5025000000 
Si 4.7145975000 7.0961412000 9.8396921400 
Si 4.1801117400 8.9734985400 7.0710111600 
Si 9.5025000000 9.5025000000 6.7875000000 
Si 6.4480707000 7.8894533400 7.9236949200 
Si 8.4080509200 5.4707141400 7.9108041000 
Si 8.4339737400 7.4482549800 5.9194059000 
Si 9.5025000000 6.7875000000 9.5025000000 
Si 6.7875000000 9.5025000000 9.5025000000 

