&CONTROL
  dt          = 30.D0,
  prefix = 'R1-T1200-2-11',
  pseudo_dir = './',
  outdir='./',
 wf_collect=.true.,
 verbosity ="high",
/

&SYSTEM
    ibrav= 0, nat=  62, ntyp= 1,
  ecutwfc     = 42.D0,
  nbnd=248,
  degauss     = 0.05D0,
  occupations = "smearing",
  smearing    = "methfessel-paxton",
/
&ELECTRONS
  electron_maxstep=200,
  conv_thr    = 1.D-8,
  mixing_beta = 0.3D0,
  scf_must_converge=.false.,
/
&IONS
/
ATOMIC_SPECIES
Si  28.08  Si.pbe-hgh.UPF

K_POINTS {automatic}
4 4 4 0 0 0
CELL_PARAMETERS angstrom
10.86000000000000 0.00000000000000 0.00000000000000
0.00000000000000 10.86000000000000 0.00000000000000
0.00000000000000 0.00000000000000 10.86000000000000

ATOMIC_POSITIONS angstrom
Si 0.0000000000 0.0000000000 0.0000000000 
Si 0.0000000000 2.7150000000 2.7150000000 
Si 2.7150000000 0.0000000000 2.7150000000 
Si 2.7150000000 2.7150000000 0.0000000000 
Si 1.3575000000 1.3575000000 1.3575000000 
Si 1.3192185000 4.0262364000 4.1889192000 
Si 4.1126928600 1.3871043600 3.9621189600 
Si 4.0475763000 4.0635948000 1.3382343600 
Si 5.4300000000 0.0000000000 0.0000000000 
Si 5.5564429800 2.8987837800 2.7301388400 
Si 8.1450000000 0.0000000000 2.7150000000 
Si 8.1450000000 2.7150000000 0.0000000000 
Si 6.7875000000 1.3575000000 1.3575000000 
Si 6.8762153400 3.9958827000 4.1745622800 
Si 9.5025000000 1.3575000000 4.0725000000 
Si 9.5025000000 4.0725000000 1.3575000000 
Si 0.0000000000 0.0000000000 5.4300000000 
Si 0.0000000000 2.7150000000 8.1450000000 
Si 2.7150000000 0.0000000000 8.1450000000 
Si 2.8267276800 2.6448009600 5.3837364000 
Si 1.3575000000 1.3575000000 6.7875000000 
Si 1.3575000000 4.0725000000 9.5025000000 
Si 4.0725000000 1.3575000000 9.5025000000 
Si 9.5246544000 4.1077624200 6.8034533400 
Si 5.5218430200 -0.0822838308 5.3804349600 
Si 5.3487454800 2.8817118600 8.2665125400 
Si 8.1450000000 0.0000000000 8.1450000000 
Si 8.2982671800 2.6359283400 5.5112653800 
Si 6.7662904200 1.4537739000 6.7749784200 
Si 6.8882699400 4.0091536200 9.5707225200 
Si 9.5025000000 1.3575000000 9.5025000000 
Si 0.0000000000 5.4300000000 0.0000000000 
Si 0.0000000000 8.1450000000 2.7150000000 
Si 2.6375139000 5.4987546600 2.8446141000 
Si 2.7150000000 8.1450000000 0.0000000000 
Si 1.3575000000 6.7875000000 1.3575000000 
Si 1.3575000000 9.5025000000 4.0725000000 
Si 4.0845654600 6.8831983200 4.1249212200 
Si 4.0725000000 9.5025000000 1.3575000000 
Si 5.4192811800 5.3446838400 0.0255308826 
Si 5.3711605200 8.2522533600 2.6548790400 
Si 8.1013645200 5.4262098600 2.7003607200 
Si 8.1450000000 8.1450000000 0.0000000000 
Si 6.8216004000 6.6121218600 1.3684468800 
Si 6.7694615400 9.5502731400 3.9763890000 
Si 9.4049337600 6.7887163200 4.1026039200 
Si 9.5025000000 9.5025000000 1.3575000000 
Si -0.0910729374 5.4583989000 5.3362564800 
Si 0.0000000000 8.1450000000 8.1450000000 
Si 2.7309750600 5.4466918200 8.0919271800 
Si 2.7207340800 8.2670989800 5.4430971600 
Si 1.4356377000 6.8356206600 6.8337201600 
Si 1.3575000000 9.5025000000 9.5025000000 
Si 4.1260072200 6.6995122800 9.4455284400 
Si 4.0660817400 9.5942127000 6.8031058200 
Si 5.5435413000 5.5004379600 5.4168051000 
Si 5.4364508400 7.9808511000 8.0839993800 
Si 8.1135494400 5.3700093600 8.0961300000 
Si 8.1006151800 8.1011690400 5.5287717000 
Si 9.5025000000 9.5025000000 6.7875000000 
Si 6.7875000000 9.5025000000 9.5025000000 
Si 9.5025000000 6.7875000000 9.5025000000 

