&CONTROL
  dt          = 30.D0,
  prefix = 'R1-T3000-2-202',
  pseudo_dir = './',
  outdir='./',
 wf_collect=.true.,
 verbosity ="high",
/

&SYSTEM
    ibrav= 0, nat=  62, ntyp= 1,
  ecutwfc     = 42.D0,
  nbnd=248,
  degauss     = 0.05D0,
  occupations = "smearing",
  smearing    = "methfessel-paxton",
/
&ELECTRONS
  electron_maxstep=200,
  conv_thr    = 1.D-8,
  mixing_beta = 0.3D0,
  scf_must_converge=.false.,
/
&IONS
/
ATOMIC_SPECIES
Si  28.08  Si.pbe-hgh.UPF

K_POINTS {automatic}
4 4 4 0 0 0
CELL_PARAMETERS angstrom
10.86000000000000 0.00000000000000 0.00000000000000
0.00000000000000 10.86000000000000 0.00000000000000
0.00000000000000 0.00000000000000 10.86000000000000

ATOMIC_POSITIONS angstrom
Si 0.0000000000 0.0000000000 0.0000000000 
Si 0.0000000000 2.7150000000 2.7150000000 
Si 2.7150000000 0.0000000000 2.7150000000 
Si 2.7150000000 2.7150000000 0.0000000000 
Si 1.3575000000 1.3575000000 1.3575000000 
Si 1.1897998800 4.2984314400 4.1304598200 
Si 3.7627185000 1.8106226400 3.7455488400 
Si 3.9507376800 3.9515739000 1.4880480600 
Si 5.4300000000 0.0000000000 0.0000000000 
Si 5.6302801200 2.8564080600 2.6941705200 
Si 8.1450000000 0.0000000000 2.7150000000 
Si 8.1450000000 2.7150000000 0.0000000000 
Si 6.7875000000 1.3575000000 1.3575000000 
Si 6.3851261400 4.7351554800 4.1763650400 
Si 9.5025000000 1.3575000000 4.0725000000 
Si 9.5025000000 4.0725000000 1.3575000000 
Si 0.0000000000 0.0000000000 5.4300000000 
Si 0.0000000000 2.7150000000 8.1450000000 
Si 2.7150000000 0.0000000000 8.1450000000 
Si 2.3584662000 2.8904433000 5.4236469000 
Si 1.3575000000 1.3575000000 6.7875000000 
Si 1.3575000000 4.0725000000 9.5025000000 
Si 4.0725000000 1.3575000000 9.5025000000 
Si 9.1501690200 4.1126385600 6.8121196200 
Si 5.3315432400 0.3926280960 5.2369309200 
Si 5.1161677200 2.7755119200 8.0291129400 
Si 8.1450000000 0.0000000000 8.1450000000 
Si 8.1303498600 2.9611636200 5.2623433200 
Si 6.5706801000 1.2550902000 6.8035185000 
Si 6.5228526600 4.2477043800 9.3986241000 
Si 9.5025000000 1.3575000000 9.5025000000 
Si 0.0000000000 5.4300000000 0.0000000000 
Si 0.0000000000 8.1450000000 2.7150000000 
Si 2.9121958800 5.3507654400 2.9173218000 
Si 2.7150000000 8.1450000000 0.0000000000 
Si 1.3575000000 6.7875000000 1.3575000000 
Si 1.3575000000 9.5025000000 4.0725000000 
Si 4.4980165200 6.2343241800 4.3692386400 
Si 4.0725000000 9.5025000000 1.3575000000 
Si 5.4064229400 5.3115174000 11.0637336000 
Si 5.5778914800 7.8494125200 2.6517622200 
Si 8.5029130200 5.2406124600 2.9605663200 
Si 8.1450000000 8.1450000000 0.0000000000 
Si 7.1784165600 6.4040116800 1.3150482600 
Si 6.4086489000 9.6221880600 3.6938986800 
Si 9.7476862200 6.7590033600 4.3350513600 
Si 9.5025000000 9.5025000000 1.3575000000 
Si 0.3583463340 5.5778154600 5.9293862400 
Si 0.0000000000 8.1450000000 8.1450000000 
Si 2.9268460200 4.1790691800 7.6882827000 
Si 3.2456087400 7.9970433600 5.3998417800 
Si 2.0879218800 6.7303438200 7.1643745800 
Si 1.3575000000 9.5025000000 9.5025000000 
Si 3.1286791200 5.8751079600 9.6275529000 
Si 4.5250362000 9.4079962800 6.8013682200 
Si 7.1295031200 6.2186097600 5.7809843400 
Si 6.8059837200 8.5977751200 6.9304719000 
Si 7.9425696000 5.4766871400 8.1223243200 
Si 8.1801755400 8.2918054800 5.1170365200 
Si 9.5025000000 9.5025000000 6.7875000000 
Si 6.7875000000 9.5025000000 9.5025000000 
Si 9.5025000000 6.7875000000 9.5025000000 

