&CONTROL
  dt          = 30.D0,
  prefix = 'R1-T1200-21',
  pseudo_dir = './',
  outdir='./',
 wf_collect=.true.,
 verbosity ="high",
/

&SYSTEM
    ibrav= 0, nat=  62, ntyp= 1,
  ecutwfc     = 42.D0,
  nbnd=248,
  degauss     = 0.05D0,
  occupations = "smearing",
  smearing    = "methfessel-paxton",
/
&ELECTRONS
  electron_maxstep=200,
  conv_thr    = 1.D-8,
  mixing_beta = 0.3D0,
  scf_must_converge=.false.,
/
&IONS
/
ATOMIC_SPECIES
Si  28.08  Si.pbe-hgh.UPF

K_POINTS {automatic}
4 4 4 0 0 0
CELL_PARAMETERS angstrom
10.86000000000000 0.00000000000000 0.00000000000000
0.00000000000000 10.86000000000000 0.00000000000000
0.00000000000000 0.00000000000000 10.86000000000000

ATOMIC_POSITIONS angstrom
Si 0.0000000000 0.0000000000 0.0000000000 
Si 0.0000000000 2.7150000000 2.7150000000 
Si 2.7150000000 0.0000000000 2.7150000000 
Si 2.7150000000 2.7150000000 0.0000000000 
Si 1.3575000000 1.3575000000 1.3575000000 
Si 1.4571513600 4.1356617600 4.0981621800 
Si 4.0883773200 1.3728886200 4.0319379000 
Si 4.1541672000 4.0647676800 1.3306649400 
Si 5.4300000000 0.0000000000 0.0000000000 
Si 5.3058484800 2.7073437000 2.7142398000 
Si 8.1450000000 0.0000000000 2.7150000000 
Si 8.1450000000 2.7150000000 0.0000000000 
Si 6.7875000000 1.3575000000 1.3575000000 
Si 6.6563763600 4.1702943000 4.0257802800 
Si 9.5025000000 1.3575000000 4.0725000000 
Si 9.5025000000 4.0725000000 1.3575000000 
Si 0.0000000000 0.0000000000 5.4300000000 
Si 0.0000000000 2.7150000000 8.1450000000 
Si 2.7150000000 0.0000000000 8.1450000000 
Si 2.7519783000 2.7001869600 5.4406971000 
Si 1.3575000000 1.3575000000 6.7875000000 
Si 1.3575000000 4.0725000000 9.5025000000 
Si 4.0725000000 1.3575000000 9.5025000000 
Si 4.2201091200 3.9177450000 6.8056253400 
Si 5.4077044200 -0.0439018758 5.3729958600 
Si 5.5613625600 2.6985145200 8.2732783200 
Si 8.1450000000 0.0000000000 8.1450000000 
Si 8.0985083400 2.8301811600 5.2908182400 
Si 6.6829616400 1.4194128600 6.6511744200 
Si 6.9085998600 4.0032023400 9.5330166000 
Si 9.5025000000 1.3575000000 9.5025000000 
Si 9.4789881000 4.1054818200 6.7159869000 
Si 0.0000000000 5.4300000000 0.0000000000 
Si 0.0000000000 8.1450000000 2.7150000000 
Si 2.9060817000 5.4494502600 2.6867205600 
Si 2.7150000000 8.1450000000 0.0000000000 
Si 1.3575000000 6.7875000000 1.3575000000 
Si 1.3575000000 9.5025000000 4.0725000000 
Si 4.3532961600 6.8084815200 4.1230858800 
Si 4.0725000000 9.5025000000 1.3575000000 
Si 5.6316050400 5.3001144000 0.0317693010 
Si 5.5178682600 8.2713018000 2.6669662200 
Si 8.1287100000 5.4256777200 2.6757519600 
Si 8.1450000000 8.1450000000 0.0000000000 
Si 6.8976964200 6.7749024000 1.2708806400 
Si 6.9517900800 9.4192363800 4.2052092000 
Si 9.4652719200 6.8362071000 4.0995414000 
Si 9.5025000000 9.5025000000 1.3575000000 
Si 0.1022112792 5.4571608600 5.4865697400 
Si 0.0000000000 8.1450000000 8.1450000000 
Si 2.8133590200 5.3799462600 8.1657969000 
Si 2.7377625600 8.1022116000 5.2851167400 
Si 1.4692494000 6.8045719200 6.7416273600 
Si 1.3575000000 9.5025000000 9.5025000000 
Si 4.0547873400 6.5736774600 9.5971014600 
Si 3.9997271400 9.5172153000 6.7612188000 
Si 9.5025000000 9.5025000000 6.7875000000 
Si 5.2810985400 8.0003882400 8.1327499200 
Si 8.1639289800 5.4769477800 8.0902656000 
Si 8.1743002800 8.1195115800 5.7033462000 
Si 9.5025000000 6.7875000000 9.5025000000 
Si 6.7875000000 9.5025000000 9.5025000000 

