&CONTROL
  dt          = 30.D0,
  prefix = 'R1-T3000-2-86',
  pseudo_dir = './',
  outdir='./',
 wf_collect=.true.,
 verbosity ="high",
/

&SYSTEM
    ibrav= 0, nat=  62, ntyp= 1,
  ecutwfc     = 42.D0,
  nbnd=248,
  degauss     = 0.05D0,
  occupations = "smearing",
  smearing    = "methfessel-paxton",
/
&ELECTRONS
  electron_maxstep=200,
  conv_thr    = 1.D-8,
  mixing_beta = 0.3D0,
  scf_must_converge=.false.,
/
&IONS
/
ATOMIC_SPECIES
Si  28.08  Si.pbe-hgh.UPF

K_POINTS {automatic}
4 4 4 0 0 0
CELL_PARAMETERS angstrom
10.86000000000000 0.00000000000000 0.00000000000000
0.00000000000000 10.86000000000000 0.00000000000000
0.00000000000000 0.00000000000000 10.86000000000000

ATOMIC_POSITIONS angstrom
Si 0.0000000000 0.0000000000 0.0000000000 
Si 0.0000000000 2.7150000000 2.7150000000 
Si 2.7150000000 0.0000000000 2.7150000000 
Si 2.7150000000 2.7150000000 0.0000000000 
Si 1.3575000000 1.3575000000 1.3575000000 
Si 1.3184583000 4.0144641600 4.0485645600 
Si 4.1549165400 1.5245593800 4.0658211000 
Si 3.9252601200 4.4116469400 1.4672185800 
Si 5.4300000000 0.0000000000 0.0000000000 
Si 5.7332872200 3.0795593400 3.0106092000 
Si 8.1450000000 0.0000000000 2.7150000000 
Si 8.1450000000 2.7150000000 0.0000000000 
Si 6.7875000000 1.3575000000 1.3575000000 
Si 7.1699457600 4.5358744800 4.6267835400 
Si 9.5025000000 1.3575000000 4.0725000000 
Si 9.5025000000 4.0725000000 1.3575000000 
Si 0.0000000000 0.0000000000 5.4300000000 
Si 0.0000000000 2.7150000000 8.1450000000 
Si 2.7150000000 0.0000000000 8.1450000000 
Si 2.7669542400 2.8029008400 5.5619707200 
Si 1.3575000000 1.3575000000 6.7875000000 
Si 1.3575000000 4.0725000000 9.5025000000 
Si 4.0725000000 1.3575000000 9.5025000000 
Si 9.1792412400 3.6536189400 6.4213659600 
Si 4.9692210600 -0.1105461120 5.6212120200 
Si 6.1803391200 2.6918464800 8.7851427000 
Si 8.1450000000 0.0000000000 8.1450000000 
Si 7.7542463400 2.4270036600 5.2695869400 
Si 6.4472887800 1.3323048000 6.8226646800 
Si 6.7716987000 4.5150884400 9.8234455800 
Si 9.5025000000 1.3575000000 9.5025000000 
Si 0.0000000000 5.4300000000 0.0000000000 
Si 0.0000000000 8.1450000000 2.7150000000 
Si 2.7570933600 5.6674647600 3.1051129200 
Si 2.7150000000 8.1450000000 0.0000000000 
Si 1.3575000000 6.7875000000 1.3575000000 
Si 1.3575000000 9.5025000000 4.0725000000 
Si 4.4036865600 6.6928008000 4.4990156400 
Si 4.0725000000 9.5025000000 1.3575000000 
Si 5.1911451600 5.8230777000 -0.0051849007 
Si 4.9075579800 7.8411806400 2.5746562200 
Si 8.2003751400 5.4741459000 2.7778033800 
Si 8.1450000000 8.1450000000 0.0000000000 
Si 6.8465784000 6.6975574800 1.3567941000 
Si 6.3283174800 9.5942235600 3.8033892000 
Si 9.3326604600 6.9393445200 4.2438816600 
Si 9.5025000000 9.5025000000 1.3575000000 
Si 10.7212092000 5.3286762000 5.4405885000 
Si 0.0000000000 8.1450000000 8.1450000000 
Si 2.9796473400 5.6055844800 8.2350511200 
Si 3.1012033200 8.1517332000 5.5556719200 
Si 1.5187384200 6.7823523600 6.5804106600 
Si 1.3575000000 9.5025000000 9.5025000000 
Si 4.2746371800 7.3502326200 9.0593685600 
Si 4.2370724400 9.4446053400 7.1178829200 
Si 6.5630563800 6.2243547000 6.0251497200 
Si 5.9825785200 8.0530483800 7.9280932200 
Si 8.2014611400 5.2801211400 7.9052329200 
Si 7.8469364400 8.1850625400 5.5865469000 
Si 9.5025000000 9.5025000000 6.7875000000 
Si 6.7875000000 9.5025000000 9.5025000000 
Si 9.5025000000 6.7875000000 9.5025000000 

