&CONTROL
  dt          = 30.D0,
  prefix = 'R1-T3000-413',
  pseudo_dir = './',
  outdir='./',
 wf_collect=.true.,
 verbosity ="high",
/

&SYSTEM
    ibrav= 0, nat=  62, ntyp= 1,
  ecutwfc     = 42.D0,
  nbnd=248,
  degauss     = 0.05D0,
  occupations = "smearing",
  smearing    = "methfessel-paxton",
/
&ELECTRONS
  electron_maxstep=200,
  conv_thr    = 1.D-8,
  mixing_beta = 0.3D0,
  scf_must_converge=.false.,
/
&IONS
/
ATOMIC_SPECIES
Si  28.08  Si.pbe-hgh.UPF

K_POINTS {automatic}
4 4 4 0 0 0
CELL_PARAMETERS angstrom
10.86000000000000 0.00000000000000 0.00000000000000
0.00000000000000 10.86000000000000 0.00000000000000
0.00000000000000 0.00000000000000 10.86000000000000

ATOMIC_POSITIONS angstrom
Si 0.0000000000 0.0000000000 0.0000000000 
Si 0.0000000000 2.7150000000 2.7150000000 
Si 2.7150000000 0.0000000000 2.7150000000 
Si 2.7150000000 2.7150000000 0.0000000000 
Si 1.3575000000 1.3575000000 1.3575000000 
Si 1.7062580400 4.0249223400 4.2906448200 
Si 4.3352034000 1.2696534600 4.0777671000 
Si 4.3538065800 4.0241947200 1.0163602500 
Si 5.4300000000 0.0000000000 0.0000000000 
Si 5.6451691800 2.8395642000 2.8844703000 
Si 8.1450000000 0.0000000000 2.7150000000 
Si 8.1450000000 2.7150000000 0.0000000000 
Si 6.7875000000 1.3575000000 1.3575000000 
Si 6.0269524800 6.3530891400 6.5741227200 
Si 9.5025000000 1.3575000000 4.0725000000 
Si 9.5025000000 4.0725000000 1.3575000000 
Si 0.0000000000 0.0000000000 5.4300000000 
Si 0.0000000000 2.7150000000 8.1450000000 
Si 2.7150000000 0.0000000000 8.1450000000 
Si 3.2269295400 2.5360054800 5.7646291800 
Si 1.3575000000 1.3575000000 6.7875000000 
Si 1.3575000000 4.0725000000 9.5025000000 
Si 4.0725000000 1.3575000000 9.5025000000 
Si 4.5116784000 4.0781146200 6.4706052000 
Si 5.6229279000 0.1311301560 5.6070180000 
Si 5.3311957200 2.7543349200 8.0909389200 
Si 8.1450000000 0.0000000000 8.1450000000 
Si 7.9590333600 3.0155613600 5.2249089000 
Si 7.0307314200 1.5280888800 6.6450385200 
Si 6.9087627600 4.3174364400 9.4189757400 
Si 9.5025000000 1.3575000000 9.5025000000 
Si 9.3687048000 4.1528857200 6.5520986400 
Si 0.0000000000 5.4300000000 0.0000000000 
Si 0.0000000000 8.1450000000 2.7150000000 
Si 2.9998035000 5.5363411200 2.8261846800 
Si 2.7150000000 8.1450000000 0.0000000000 
Si 1.3575000000 6.7875000000 1.3575000000 
Si 1.3575000000 9.5025000000 4.0725000000 
Si 4.4532190200 6.7015648200 4.6731448800 
Si 4.0725000000 9.5025000000 1.3575000000 
Si 4.9536912600 5.6261316000 10.2616031400 
Si 5.6490787800 8.0013873600 2.9504230800 
Si 7.6714822800 4.5315522000 3.3144177000 
Si 8.1450000000 8.1450000000 0.0000000000 
Si 7.6411177200 6.5299768200 1.7043684000 
Si 6.7831451400 9.6274877400 4.2329673600 
Si 9.1069679400 6.6914433000 3.8507605200 
Si 9.5025000000 9.5025000000 1.3575000000 
Si 0.1345586580 5.5464626400 5.2146244800 
Si 0.0000000000 8.1450000000 8.1450000000 
Si 2.7593739600 5.0727494400 7.8060702600 
Si 3.0508129200 8.2688257200 5.5430308800 
Si 1.4458026600 6.9659080800 6.6650752200 
Si 1.3575000000 9.5025000000 9.5025000000 
Si 3.8818635600 7.1484212400 8.7642263400 
Si 4.0486188600 9.9739217400 6.6228841200 
Si 9.5025000000 9.5025000000 6.7875000000 
Si 5.5487106600 8.3572587000 7.5364924800 
Si 7.9831860000 5.4134059200 7.8347841000 
Si 7.7160734400 7.9024093200 5.8457099400 
Si 9.5025000000 6.7875000000 9.5025000000 
Si 6.7875000000 9.5025000000 9.5025000000 

