&CONTROL
  dt          = 30.D0,
  prefix = 'R1-T3000-2-346',
  pseudo_dir = './',
  outdir='./',
 wf_collect=.true.,
 verbosity ="high",
/

&SYSTEM
    ibrav= 0, nat=  62, ntyp= 1,
  ecutwfc     = 42.D0,
  nbnd=248,
  degauss     = 0.05D0,
  occupations = "smearing",
  smearing    = "methfessel-paxton",
/
&ELECTRONS
  electron_maxstep=200,
  conv_thr    = 1.D-8,
  mixing_beta = 0.3D0,
  scf_must_converge=.false.,
/
&IONS
/
ATOMIC_SPECIES
Si  28.08  Si.pbe-hgh.UPF

K_POINTS {automatic}
4 4 4 0 0 0
CELL_PARAMETERS angstrom
10.86000000000000 0.00000000000000 0.00000000000000
0.00000000000000 10.86000000000000 0.00000000000000
0.00000000000000 0.00000000000000 10.86000000000000

ATOMIC_POSITIONS angstrom
Si 0.0000000000 0.0000000000 0.0000000000 
Si 0.0000000000 2.7150000000 2.7150000000 
Si 2.7150000000 0.0000000000 2.7150000000 
Si 2.7150000000 2.7150000000 0.0000000000 
Si 1.3575000000 1.3575000000 1.3575000000 
Si 1.3783186200 4.0075137600 4.0001072400 
Si 4.1634525000 1.6336480800 4.1462285400 
Si 4.0568181600 4.0493247600 1.1197203000 
Si 5.4300000000 0.0000000000 0.0000000000 
Si 5.3243539200 2.9183426400 2.6543577600 
Si 8.1450000000 0.0000000000 2.7150000000 
Si 8.1450000000 2.7150000000 0.0000000000 
Si 6.7875000000 1.3575000000 1.3575000000 
Si 6.5410648800 4.4133845400 3.9867494400 
Si 9.5025000000 1.3575000000 4.0725000000 
Si 9.5025000000 4.0725000000 1.3575000000 
Si 0.0000000000 0.0000000000 5.4300000000 
Si 0.0000000000 2.7150000000 8.1450000000 
Si 2.7150000000 0.0000000000 8.1450000000 
Si 2.6686603800 2.9172132000 5.3946832800 
Si 1.3575000000 1.3575000000 6.7875000000 
Si 1.3575000000 4.0725000000 9.5025000000 
Si 4.0725000000 1.3575000000 9.5025000000 
Si 9.0728132400 4.1874205200 6.8078625000 
Si 4.9874550000 10.8131173800 5.7437019600 
Si 5.6527386000 2.5272088800 8.4111460200 
Si 8.1450000000 0.0000000000 8.1450000000 
Si 7.9534296000 2.6377202400 5.2214988600 
Si 6.7650849600 1.1054719800 6.9636166200 
Si 6.5434106400 3.9958392600 9.7522691400 
Si 9.5025000000 1.3575000000 9.5025000000 
Si 0.0000000000 5.4300000000 0.0000000000 
Si 0.0000000000 8.1450000000 2.7150000000 
Si 2.7055192200 5.5027402800 2.7302148600 
Si 2.7150000000 8.1450000000 0.0000000000 
Si 1.3575000000 6.7875000000 1.3575000000 
Si 1.3575000000 9.5025000000 4.0725000000 
Si 4.4568462600 6.1334130600 4.5273168000 
Si 4.0725000000 9.5025000000 1.3575000000 
Si 5.1319364400 5.7145102800 11.1256356000 
Si 5.2939676400 8.1933487200 3.2975086800 
Si 8.1988981800 5.7756303600 2.6963642400 
Si 8.1450000000 8.1450000000 0.0000000000 
Si 6.7333520400 7.0761262200 1.6227229200 
Si 6.7921046400 9.4890118800 4.3970728200 
Si 9.7476536400 6.8556682200 4.3795882200 
Si 9.5025000000 9.5025000000 1.3575000000 
Si -0.1055985132 5.1627245400 5.5686930600 
Si 0.0000000000 8.1450000000 8.1450000000 
Si 2.7550082400 5.7436911000 8.2225838400 
Si 2.4905998200 7.9401369600 4.9747922400 
Si 1.1646481200 6.6431163000 6.4723753800 
Si 1.3575000000 9.5025000000 9.5025000000 
Si 4.2531995400 7.1245618200 9.3529143600 
Si 3.7382943600 9.2496357600 6.8158228800 
Si 6.3078463800 7.0104449400 6.3583453800 
Si 5.2004304600 8.3655231600 7.9308299400 
Si 7.7444071800 5.7074512800 8.0567190600 
Si 8.3969628600 8.1033844800 5.4591373800 
Si 9.5025000000 9.5025000000 6.7875000000 
Si 6.7875000000 9.5025000000 9.5025000000 
Si 9.5025000000 6.7875000000 9.5025000000 

