&CONTROL
  dt          = 30.D0,
  prefix = 'R1-T3000-2-257',
  pseudo_dir = './',
  outdir='./',
 wf_collect=.true.,
 verbosity ="high",
/

&SYSTEM
    ibrav= 0, nat=  62, ntyp= 1,
  ecutwfc     = 42.D0,
  nbnd=248,
  degauss     = 0.05D0,
  occupations = "smearing",
  smearing    = "methfessel-paxton",
/
&ELECTRONS
  electron_maxstep=200,
  conv_thr    = 1.D-8,
  mixing_beta = 0.3D0,
  scf_must_converge=.false.,
/
&IONS
/
ATOMIC_SPECIES
Si  28.08  Si.pbe-hgh.UPF

K_POINTS {automatic}
4 4 4 0 0 0
CELL_PARAMETERS angstrom
10.86000000000000 0.00000000000000 0.00000000000000
0.00000000000000 10.86000000000000 0.00000000000000
0.00000000000000 0.00000000000000 10.86000000000000

ATOMIC_POSITIONS angstrom
Si 0.0000000000 0.0000000000 0.0000000000 
Si 0.0000000000 2.7150000000 2.7150000000 
Si 2.7150000000 0.0000000000 2.7150000000 
Si 2.7150000000 2.7150000000 0.0000000000 
Si 1.3575000000 1.3575000000 1.3575000000 
Si 1.3815549000 3.7850901000 4.1164395600 
Si 3.9148453800 1.5621458400 3.9810153600 
Si 3.8275635600 3.1688719800 2.0506829400 
Si 5.4300000000 0.0000000000 0.0000000000 
Si 6.2331078600 3.6451481400 1.9683315600 
Si 8.1450000000 0.0000000000 2.7150000000 
Si 8.1450000000 2.7150000000 0.0000000000 
Si 6.7875000000 1.3575000000 1.3575000000 
Si 6.3190539000 4.9796249400 5.0872909800 
Si 9.5025000000 1.3575000000 4.0725000000 
Si 9.5025000000 4.0725000000 1.3575000000 
Si 0.0000000000 0.0000000000 5.4300000000 
Si 0.0000000000 2.7150000000 8.1450000000 
Si 2.7150000000 0.0000000000 8.1450000000 
Si 2.8689730800 2.7634356000 5.9456762400 
Si 1.3575000000 1.3575000000 6.7875000000 
Si 1.3575000000 4.0725000000 9.5025000000 
Si 4.0725000000 1.3575000000 9.5025000000 
Si 9.6774546000 4.0887574200 6.4254167400 
Si 5.4163489800 0.2426688720 5.4825732600 
Si 5.1013546800 2.9949816600 8.0271798600 
Si 8.1450000000 0.0000000000 8.1450000000 
Si 7.9661575200 2.8942334400 4.9514106600 
Si 6.9989442000 1.6103859600 6.9682755600 
Si 6.8646168600 4.0711316400 9.3827359200 
Si 9.5025000000 1.3575000000 9.5025000000 
Si 0.0000000000 5.4300000000 0.0000000000 
Si 0.0000000000 8.1450000000 2.7150000000 
Si 3.5971469400 4.8369679800 3.5530119000 
Si 2.7150000000 8.1450000000 0.0000000000 
Si 1.3575000000 6.7875000000 1.3575000000 
Si 1.3575000000 9.5025000000 4.0725000000 
Si 4.8338946000 6.6397931400 4.1225646000 
Si 4.0725000000 9.5025000000 1.3575000000 
Si 5.9554502400 5.5222231200 0.5560819560 
Si 5.3121255600 8.4197254200 3.1052649600 
Si 7.8142369800 5.0864982000 3.1188508200 
Si 8.1450000000 8.1450000000 0.0000000000 
Si 7.0320129000 7.1884620600 1.7712877200 
Si 6.8327101800 9.7621408800 4.2584992200 
Si 9.7174194000 6.2356273800 3.8733601800 
Si 9.5025000000 9.5025000000 1.3575000000 
Si 0.3964747080 5.5407502800 5.3079118800 
Si 0.0000000000 8.1450000000 8.1450000000 
Si 3.1769518200 4.4099527800 7.8007054200 
Si 3.1893105000 8.2552290000 5.3691731400 
Si 1.6398600000 6.8868472800 6.8700468600 
Si 1.3575000000 9.5025000000 9.5025000000 
Si 3.4183370400 6.7019775000 8.6602527000 
Si 4.5027732000 9.3122219400 6.7908774600 
Si 6.9140950200 6.6270543600 6.5253939000 
Si 5.6423021400 7.5103850400 8.4003186000 
Si 8.2257441000 5.4211708200 8.0008660800 
Si 8.2545774000 7.9971736800 4.9917229800 
Si 9.5025000000 9.5025000000 6.7875000000 
Si 6.7875000000 9.5025000000 9.5025000000 
Si 9.5025000000 6.7875000000 9.5025000000 

