&CONTROL
  dt          = 30.D0,
  prefix = 'R1-T3000-398',
  pseudo_dir = './',
  outdir='./',
 wf_collect=.true.,
 verbosity ="high",
/

&SYSTEM
    ibrav= 0, nat=  62, ntyp= 1,
  ecutwfc     = 42.D0,
  nbnd=248,
  degauss     = 0.05D0,
  occupations = "smearing",
  smearing    = "methfessel-paxton",
/
&ELECTRONS
  electron_maxstep=200,
  conv_thr    = 1.D-8,
  mixing_beta = 0.3D0,
  scf_must_converge=.false.,
/
&IONS
/
ATOMIC_SPECIES
Si  28.08  Si.pbe-hgh.UPF

K_POINTS {automatic}
4 4 4 0 0 0
CELL_PARAMETERS angstrom
10.86000000000000 0.00000000000000 0.00000000000000
0.00000000000000 10.86000000000000 0.00000000000000
0.00000000000000 0.00000000000000 10.86000000000000

ATOMIC_POSITIONS angstrom
Si 0.0000000000 0.0000000000 0.0000000000 
Si 0.0000000000 2.7150000000 2.7150000000 
Si 2.7150000000 0.0000000000 2.7150000000 
Si 2.7150000000 2.7150000000 0.0000000000 
Si 1.3575000000 1.3575000000 1.3575000000 
Si 1.3062299400 4.2414273000 4.4203566600 
Si 4.1636262600 1.3926429600 3.9742821600 
Si 3.9125104800 4.1289937200 1.5593765400 
Si 5.4300000000 0.0000000000 0.0000000000 
Si 5.5075621200 3.0067321800 2.8594054200 
Si 8.1450000000 0.0000000000 2.7150000000 
Si 8.1450000000 2.7150000000 0.0000000000 
Si 6.7875000000 1.3575000000 1.3575000000 
Si 6.5275659000 6.9962183400 6.4437375600 
Si 9.5025000000 1.3575000000 4.0725000000 
Si 9.5025000000 4.0725000000 1.3575000000 
Si 0.0000000000 0.0000000000 5.4300000000 
Si 0.0000000000 2.7150000000 8.1450000000 
Si 2.7150000000 0.0000000000 8.1450000000 
Si 2.6957126400 2.5206603000 5.1696858000 
Si 1.3575000000 1.3575000000 6.7875000000 
Si 1.3575000000 4.0725000000 9.5025000000 
Si 4.0725000000 1.3575000000 9.5025000000 
Si 3.3748536000 3.9294303600 7.1034174000 
Si 5.2226500200 11.1209658000 5.8186033800 
Si 5.0888548200 2.3663505600 7.8887365800 
Si 8.1450000000 0.0000000000 8.1450000000 
Si 7.9016165400 3.1054821600 4.8821455800 
Si 7.0634308800 1.5540225600 6.7158457200 
Si 6.3221381400 4.0356846000 9.3950403000 
Si 9.5025000000 1.3575000000 9.5025000000 
Si 9.1015596600 4.0925584200 6.8571560400 
Si 0.0000000000 5.4300000000 0.0000000000 
Si 0.0000000000 8.1450000000 2.7150000000 
Si 2.7649777200 5.5941054600 3.0760515600 
Si 2.7150000000 8.1450000000 0.0000000000 
Si 1.3575000000 6.7875000000 1.3575000000 
Si 1.3575000000 9.5025000000 4.0725000000 
Si 4.5060420600 7.0114223400 4.6430518200 
Si 4.0725000000 9.5025000000 1.3575000000 
Si 5.8761179400 5.2221396000 0.4098227340 
Si 5.4891218400 8.1051329400 2.8697007000 
Si 7.8578941800 4.1714563200 2.7738937800 
Si 8.1450000000 8.1450000000 0.0000000000 
Si 7.4466477000 6.5475374400 1.8041175000 
Si 6.1592815800 9.9758331000 3.9892906800 
Si 9.1218352800 7.0690020600 3.6650653800 
Si 9.5025000000 9.5025000000 1.3575000000 
Si 10.4176287600 5.7022493400 5.2880598000 
Si 0.0000000000 8.1450000000 8.1450000000 
Si 2.7251866800 5.5806825000 8.3495589600 
Si 2.8098078000 8.2532524800 5.3771443800 
Si 1.2721621200 6.8365980600 6.6187356000 
Si 1.3575000000 9.5025000000 9.5025000000 
Si 4.5814756200 6.9020838600 9.7610548800 
Si 4.1667430800 9.2674787400 6.8531052600 
Si 9.5025000000 9.5025000000 6.7875000000 
Si 5.4768174600 8.3106367200 8.1045030600 
Si 7.9348155600 5.7204724200 8.1424261800 
Si 7.9523544600 8.4956911200 5.2464442800 
Si 9.5025000000 6.7875000000 9.5025000000 
Si 6.7875000000 9.5025000000 9.5025000000 

