&CONTROL
  dt          = 30.D0,
  prefix = 'R1-T3000-366',
  pseudo_dir = './',
  outdir='./',
 wf_collect=.true.,
 verbosity ="high",
/

&SYSTEM
    ibrav= 0, nat=  62, ntyp= 1,
  ecutwfc     = 42.D0,
  nbnd=248,
  degauss     = 0.05D0,
  occupations = "smearing",
  smearing    = "methfessel-paxton",
/
&ELECTRONS
  electron_maxstep=200,
  conv_thr    = 1.D-8,
  mixing_beta = 0.3D0,
  scf_must_converge=.false.,
/
&IONS
/
ATOMIC_SPECIES
Si  28.08  Si.pbe-hgh.UPF

K_POINTS {automatic}
4 4 4 0 0 0
CELL_PARAMETERS angstrom
10.86000000000000 0.00000000000000 0.00000000000000
0.00000000000000 10.86000000000000 0.00000000000000
0.00000000000000 0.00000000000000 10.86000000000000

ATOMIC_POSITIONS angstrom
Si 0.0000000000 0.0000000000 0.0000000000 
Si 0.0000000000 2.7150000000 2.7150000000 
Si 2.7150000000 0.0000000000 2.7150000000 
Si 2.7150000000 2.7150000000 0.0000000000 
Si 1.3575000000 1.3575000000 1.3575000000 
Si 1.8215152200 4.2228567000 4.1562197400 
Si 4.0610970000 1.2290153400 3.9912780600 
Si 4.5104186400 3.3442501200 1.4192934000 
Si 5.4300000000 0.0000000000 0.0000000000 
Si 6.0979008600 2.5917933000 3.2270924400 
Si 8.1450000000 0.0000000000 2.7150000000 
Si 8.1450000000 2.7150000000 0.0000000000 
Si 6.7875000000 1.3575000000 1.3575000000 
Si 6.7568313600 6.9455998800 6.8071240200 
Si 9.5025000000 1.3575000000 4.0725000000 
Si 9.5025000000 4.0725000000 1.3575000000 
Si 0.0000000000 0.0000000000 5.4300000000 
Si 0.0000000000 2.7150000000 8.1450000000 
Si 2.7150000000 0.0000000000 8.1450000000 
Si 2.5877425200 2.4972678600 5.1925569600 
Si 1.3575000000 1.3575000000 6.7875000000 
Si 1.3575000000 4.0725000000 9.5025000000 
Si 4.0725000000 1.3575000000 9.5025000000 
Si 5.3035678800 5.1807195600 7.3737119400 
Si 5.3858323800 10.4453326200 5.0607057000 
Si 5.0672217000 2.6060633400 7.8730764600 
Si 8.1450000000 0.0000000000 8.1450000000 
Si 7.6253055600 2.4471381000 5.3453571600 
Si 6.5469292800 0.9644157840 6.8401167000 
Si 5.9689600800 3.2918506200 9.7825359600 
Si 9.5025000000 1.3575000000 9.5025000000 
Si 9.0678067800 3.8570919000 6.6394130400 
Si 0.0000000000 5.4300000000 0.0000000000 
Si 0.0000000000 8.1450000000 2.7150000000 
Si 3.0204918000 5.3215194600 2.4895246800 
Si 2.7150000000 8.1450000000 0.0000000000 
Si 1.3575000000 6.7875000000 1.3575000000 
Si 1.3575000000 9.5025000000 4.0725000000 
Si 3.7165092000 6.8545279200 4.1118783600 
Si 4.0725000000 9.5025000000 1.3575000000 
Si 5.9772354000 5.3181528600 0.4476481140 
Si 5.5128726600 8.0916556800 2.9394979200 
Si 7.6817992800 4.3730830800 2.9591653800 
Si 8.1450000000 8.1450000000 0.0000000000 
Si 7.4221475400 6.8869993200 1.8718730400 
Si 6.7824935400 9.4969831200 3.8282043000 
Si 9.1856052000 6.3981907200 3.8864464800 
Si 9.5025000000 9.5025000000 1.3575000000 
Si 10.7691886800 5.2698367200 5.2746259800 
Si 0.0000000000 8.1450000000 8.1450000000 
Si 2.8165844400 5.4079650600 8.2991468400 
Si 2.5629817200 8.0453052000 5.6100588000 
Si 1.2176449200 6.7049097000 6.9284519400 
Si 1.3575000000 9.5025000000 9.5025000000 
Si 4.2906991200 6.5808124800 9.6216993600 
Si 4.1132032800 9.5689957800 6.8419194600 
Si 9.5025000000 9.5025000000 6.7875000000 
Si 5.4490050000 8.2017435000 8.1465638400 
Si 7.9005957000 5.3894704800 7.8586000800 
Si 8.1048831600 8.2825744800 5.1261263400 
Si 9.5025000000 6.7875000000 9.5025000000 
Si 6.7875000000 9.5025000000 9.5025000000 

