&CONTROL
  dt          = 30.D0,
  prefix = 'R1-T3000-2-173',
  pseudo_dir = './',
  outdir='./',
 wf_collect=.true.,
 verbosity ="high",
/

&SYSTEM
    ibrav= 0, nat=  62, ntyp= 1,
  ecutwfc     = 42.D0,
  nbnd=248,
  degauss     = 0.05D0,
  occupations = "smearing",
  smearing    = "methfessel-paxton",
/
&ELECTRONS
  electron_maxstep=200,
  conv_thr    = 1.D-8,
  mixing_beta = 0.3D0,
  scf_must_converge=.false.,
/
&IONS
/
ATOMIC_SPECIES
Si  28.08  Si.pbe-hgh.UPF

K_POINTS {automatic}
4 4 4 0 0 0
CELL_PARAMETERS angstrom
10.86000000000000 0.00000000000000 0.00000000000000
0.00000000000000 10.86000000000000 0.00000000000000
0.00000000000000 0.00000000000000 10.86000000000000

ATOMIC_POSITIONS angstrom
Si 0.0000000000 0.0000000000 0.0000000000 
Si 0.0000000000 2.7150000000 2.7150000000 
Si 2.7150000000 0.0000000000 2.7150000000 
Si 2.7150000000 2.7150000000 0.0000000000 
Si 1.3575000000 1.3575000000 1.3575000000 
Si 1.1489988600 4.0458061200 4.3076190000 
Si 3.2865400800 1.7086906800 4.2493008000 
Si 3.9640846200 4.3236375000 1.4525793000 
Si 5.4300000000 0.0000000000 0.0000000000 
Si 5.4139597800 2.7716674800 2.8367840400 
Si 8.1450000000 0.0000000000 2.7150000000 
Si 8.1450000000 2.7150000000 0.0000000000 
Si 6.7875000000 1.3575000000 1.3575000000 
Si 7.1261039400 3.6622743600 3.8357737200 
Si 9.5025000000 1.3575000000 4.0725000000 
Si 9.5025000000 4.0725000000 1.3575000000 
Si 0.0000000000 0.0000000000 5.4300000000 
Si 0.0000000000 2.7150000000 8.1450000000 
Si 2.7150000000 0.0000000000 8.1450000000 
Si 2.6354722200 3.5461266600 6.0309163800 
Si 1.3575000000 1.3575000000 6.7875000000 
Si 1.3575000000 4.0725000000 9.5025000000 
Si 4.0725000000 1.3575000000 9.5025000000 
Si 9.3566502000 4.3735174800 7.3750151400 
Si 4.7709283200 10.6193206800 5.5209199200 
Si 5.0425369200 3.0296359200 8.2778612400 
Si 8.1450000000 0.0000000000 8.1450000000 
Si 8.4415648800 2.9740435800 5.6578319400 
Si 6.1453156200 1.1593484400 6.9779518200 
Si 6.8284096200 4.2046553400 9.3515134200 
Si 9.5025000000 1.3575000000 9.5025000000 
Si 0.0000000000 5.4300000000 0.0000000000 
Si 0.0000000000 8.1450000000 2.7150000000 
Si 2.5916521200 5.2581730800 2.8618272000 
Si 2.7150000000 8.1450000000 0.0000000000 
Si 1.3575000000 6.7875000000 1.3575000000 
Si 1.3575000000 9.5025000000 4.0725000000 
Si 4.2848673000 6.2289267600 3.8757385200 
Si 4.0725000000 9.5025000000 1.3575000000 
Si 5.5300314600 5.7457979400 -0.0846161244 
Si 5.4254496600 7.8972182400 2.3921322000 
Si 8.2245169200 5.4895128000 2.9103062400 
Si 8.1450000000 8.1450000000 0.0000000000 
Si 7.0072086600 6.4549233600 1.3752778200 
Si 6.6251104200 9.4800306600 3.8780299800 
Si 9.8584365000 7.0421452800 4.3580419800 
Si 9.5025000000 9.5025000000 1.3575000000 
Si -0.0350988684 5.3187175800 5.9254114800 
Si 0.0000000000 8.1450000000 8.1450000000 
Si 3.3069894600 4.6641745200 8.2008964200 
Si 3.0078942000 8.1069574200 5.2774604400 
Si 1.0552998660 7.1038409400 6.2968343400 
Si 1.3575000000 9.5025000000 9.5025000000 
Si 3.6485799000 6.4706812200 9.6731649000 
Si 4.1963908800 9.2214975000 7.2980503200 
Si 5.9773983000 7.5274026600 6.1947069000 
Si 5.5710388200 7.5219183600 8.5842218400 
Si 7.4595602400 5.9535497400 8.2533828000 
Si 8.0213697600 8.1649824000 5.3496251400 
Si 9.5025000000 9.5025000000 6.7875000000 
Si 6.7875000000 9.5025000000 9.5025000000 
Si 9.5025000000 6.7875000000 9.5025000000 

