&CONTROL
  dt          = 30.D0,
  prefix = 'R1-T1200-71',
  pseudo_dir = './',
  outdir='./',
 wf_collect=.true.,
 verbosity ="high",
/

&SYSTEM
    ibrav= 0, nat=  62, ntyp= 1,
  ecutwfc     = 42.D0,
  nbnd=248,
  degauss     = 0.05D0,
  occupations = "smearing",
  smearing    = "methfessel-paxton",
/
&ELECTRONS
  electron_maxstep=200,
  conv_thr    = 1.D-8,
  mixing_beta = 0.3D0,
  scf_must_converge=.false.,
/
&IONS
/
ATOMIC_SPECIES
Si  28.08  Si.pbe-hgh.UPF

K_POINTS {automatic}
4 4 4 0 0 0
CELL_PARAMETERS angstrom
10.86000000000000 0.00000000000000 0.00000000000000
0.00000000000000 10.86000000000000 0.00000000000000
0.00000000000000 0.00000000000000 10.86000000000000

ATOMIC_POSITIONS angstrom
Si 0.0000000000 0.0000000000 0.0000000000 
Si 0.0000000000 2.7150000000 2.7150000000 
Si 2.7150000000 0.0000000000 2.7150000000 
Si 2.7150000000 2.7150000000 0.0000000000 
Si 1.3575000000 1.3575000000 1.3575000000 
Si 1.4641777800 3.9882155400 4.0502152800 
Si 4.3045130400 1.1477391000 4.0325895000 
Si 4.2086301000 4.0058087400 1.4090524200 
Si 5.4300000000 0.0000000000 0.0000000000 
Si 5.4996560400 2.6917596000 2.8111110000 
Si 8.1450000000 0.0000000000 2.7150000000 
Si 8.1450000000 2.7150000000 0.0000000000 
Si 6.7875000000 1.3575000000 1.3575000000 
Si 6.9855538200 4.0228263600 4.2577716000 
Si 9.5025000000 1.3575000000 4.0725000000 
Si 9.5025000000 4.0725000000 1.3575000000 
Si 0.0000000000 0.0000000000 5.4300000000 
Si 0.0000000000 2.7150000000 8.1450000000 
Si 2.7150000000 0.0000000000 8.1450000000 
Si 2.7837981000 2.6827566600 5.4654253200 
Si 1.3575000000 1.3575000000 6.7875000000 
Si 1.3575000000 4.0725000000 9.5025000000 
Si 4.0725000000 1.3575000000 9.5025000000 
Si 4.0385950800 4.1685892800 6.7500655800 
Si 5.3659042800 -0.1866996900 5.6215269600 
Si 5.3858975400 2.9214160200 8.0886909000 
Si 8.1450000000 0.0000000000 8.1450000000 
Si 8.1577496400 2.5109080200 5.5773484800 
Si 6.5861773200 1.2624641400 6.9388123800 
Si 6.7885425600 4.1507028600 9.3808028400 
Si 9.5025000000 1.3575000000 9.5025000000 
Si 9.6452981400 4.0255087800 6.7534864800 
Si 0.0000000000 5.4300000000 0.0000000000 
Si 0.0000000000 8.1450000000 2.7150000000 
Si 2.7625668000 5.3736257400 2.6007419400 
Si 2.7150000000 8.1450000000 0.0000000000 
Si 1.3575000000 6.7875000000 1.3575000000 
Si 1.3575000000 9.5025000000 4.0725000000 
Si 4.2191317200 6.5576481000 4.2985617600 
Si 4.0725000000 9.5025000000 1.3575000000 
Si 5.5003836600 5.4721150800 -0.0454581138 
Si 5.2314466200 8.1440877600 2.7727100400 
Si 8.1141358800 5.4352345200 2.6893812600 
Si 8.1450000000 8.1450000000 0.0000000000 
Si 6.7423767000 6.8455032600 1.2846511200 
Si 6.6040420200 9.4411953000 4.1849227200 
Si 9.6395423400 6.7800609000 4.0986834600 
Si 9.5025000000 9.5025000000 1.3575000000 
Si 0.1998739560 5.5467341400 5.2980075600 
Si 0.0000000000 8.1450000000 8.1450000000 
Si 2.6638168200 5.4284470200 8.1188056800 
Si 2.7673234800 8.0078273400 5.5213977600 
Si 1.3763746800 6.8423212800 6.8679508800 
Si 1.3575000000 9.5025000000 9.5025000000 
Si 4.0988246400 6.8049846000 9.3829965600 
Si 4.0463165400 9.4352331600 6.8200365600 
Si 9.5025000000 9.5025000000 6.7875000000 
Si 5.5303464000 8.1131584800 8.1241488000 
Si 8.3963981400 5.4862982400 8.1103023000 
Si 8.0467604400 7.8423426600 5.3314563600 
Si 9.5025000000 6.7875000000 9.5025000000 
Si 6.7875000000 9.5025000000 9.5025000000 

