&CONTROL
  dt          = 30.D0,
  prefix = 'R1-T3000-279',
  pseudo_dir = './',
  outdir='./',
 wf_collect=.true.,
 verbosity ="high",
/

&SYSTEM
    ibrav= 0, nat=  62, ntyp= 1,
  ecutwfc     = 42.D0,
  nbnd=248,
  degauss     = 0.05D0,
  occupations = "smearing",
  smearing    = "methfessel-paxton",
/
&ELECTRONS
  electron_maxstep=200,
  conv_thr    = 1.D-8,
  mixing_beta = 0.3D0,
  scf_must_converge=.false.,
/
&IONS
/
ATOMIC_SPECIES
Si  28.08  Si.pbe-hgh.UPF

K_POINTS {automatic}
4 4 4 0 0 0
CELL_PARAMETERS angstrom
10.86000000000000 0.00000000000000 0.00000000000000
0.00000000000000 10.86000000000000 0.00000000000000
0.00000000000000 0.00000000000000 10.86000000000000

ATOMIC_POSITIONS angstrom
Si 0.0000000000 0.0000000000 0.0000000000 
Si 0.0000000000 2.7150000000 2.7150000000 
Si 2.7150000000 0.0000000000 2.7150000000 
Si 2.7150000000 2.7150000000 0.0000000000 
Si 1.3575000000 1.3575000000 1.3575000000 
Si 1.4099103600 3.8722307400 3.9735002400 
Si 4.1507245800 1.7290097400 3.6491446200 
Si 3.7474167600 3.8457323400 1.5356583000 
Si 5.4300000000 0.0000000000 0.0000000000 
Si 5.6296936800 3.4616032800 2.4131028600 
Si 8.1450000000 0.0000000000 2.7150000000 
Si 8.1450000000 2.7150000000 0.0000000000 
Si 6.7875000000 1.3575000000 1.3575000000 
Si 6.8122065000 4.5855372600 6.6538134000 
Si 9.5025000000 1.3575000000 4.0725000000 
Si 9.5025000000 4.0725000000 1.3575000000 
Si 0.0000000000 0.0000000000 5.4300000000 
Si 0.0000000000 2.7150000000 8.1450000000 
Si 2.7150000000 0.0000000000 8.1450000000 
Si 2.5126673400 2.8322011200 5.5451485800 
Si 1.3575000000 1.3575000000 6.7875000000 
Si 1.3575000000 4.0725000000 9.5025000000 
Si 4.0725000000 1.3575000000 9.5025000000 
Si 4.1143653000 3.9552120000 6.8807982600 
Si 5.1781240200 0.1026467652 5.3330093400 
Si 5.4736897800 2.4106159200 7.9777017000 
Si 8.1450000000 0.0000000000 8.1450000000 
Si 8.1678277200 3.0263236200 5.2605731400 
Si 6.7685384400 1.3000614600 6.4987108800 
Si 6.8554836000 3.6830061000 9.0291560400 
Si 9.5025000000 1.3575000000 9.5025000000 
Si 9.4061392200 4.1426881800 6.8666151000 
Si 0.0000000000 5.4300000000 0.0000000000 
Si 0.0000000000 8.1450000000 2.7150000000 
Si 2.5388833800 5.5634368200 2.7256753800 
Si 2.7150000000 8.1450000000 0.0000000000 
Si 1.3575000000 6.7875000000 1.3575000000 
Si 1.3575000000 9.5025000000 4.0725000000 
Si 3.5581595400 7.0409724000 4.0392575400 
Si 4.0725000000 9.5025000000 1.3575000000 
Si 5.4194440800 5.0929056000 0.0072236267 
Si 5.2958138400 8.0078925000 3.0151704000 
Si 7.6649011200 4.8729688800 2.4402854400 
Si 8.1450000000 8.1450000000 0.0000000000 
Si 6.7012281600 6.6662481000 1.3557515400 
Si 6.8069828400 9.4378395600 4.2559688400 
Si 9.8858471400 6.6972751200 4.1646688200 
Si 9.5025000000 9.5025000000 1.3575000000 
Si 0.3491099040 5.3356048800 5.6082017400 
Si 0.0000000000 8.1450000000 8.1450000000 
Si 3.0333826200 5.0990849400 8.4391213800 
Si 2.8864359600 8.4898593000 5.7003705600 
Si 1.7473088400 6.7273030200 7.1986596000 
Si 1.3575000000 9.5025000000 9.5025000000 
Si 3.8762598000 6.8147803200 9.4811275200 
Si 4.4063364000 9.1821408600 7.1433279000 
Si 9.5025000000 9.5025000000 6.7875000000 
Si 5.7382611000 7.6961344800 8.6955042600 
Si 7.8512261400 6.6059099400 7.5669439200 
Si 8.2254834600 7.7719481400 5.4372110400 
Si 9.5025000000 6.7875000000 9.5025000000 
Si 6.7875000000 9.5025000000 9.5025000000 

