&CONTROL
  dt          = 30.D0,
  prefix = 'R1-T3000-2-193',
  pseudo_dir = './',
  outdir='./',
 wf_collect=.true.,
 verbosity ="high",
/

&SYSTEM
    ibrav= 0, nat=  62, ntyp= 1,
  ecutwfc     = 42.D0,
  nbnd=248,
  degauss     = 0.05D0,
  occupations = "smearing",
  smearing    = "methfessel-paxton",
/
&ELECTRONS
  electron_maxstep=200,
  conv_thr    = 1.D-8,
  mixing_beta = 0.3D0,
  scf_must_converge=.false.,
/
&IONS
/
ATOMIC_SPECIES
Si  28.08  Si.pbe-hgh.UPF

K_POINTS {automatic}
4 4 4 0 0 0
CELL_PARAMETERS angstrom
10.86000000000000 0.00000000000000 0.00000000000000
0.00000000000000 10.86000000000000 0.00000000000000
0.00000000000000 0.00000000000000 10.86000000000000

ATOMIC_POSITIONS angstrom
Si 0.0000000000 0.0000000000 0.0000000000 
Si 0.0000000000 2.7150000000 2.7150000000 
Si 2.7150000000 0.0000000000 2.7150000000 
Si 2.7150000000 2.7150000000 0.0000000000 
Si 1.3575000000 1.3575000000 1.3575000000 
Si 1.5372112800 4.0080893400 3.8658016200 
Si 4.2189036600 1.2940667400 4.3032750000 
Si 4.4813355600 4.1321431200 1.0809805080 
Si 5.4300000000 0.0000000000 0.0000000000 
Si 5.4694000800 3.1217287200 3.1026042600 
Si 8.1450000000 0.0000000000 2.7150000000 
Si 8.1450000000 2.7150000000 0.0000000000 
Si 6.7875000000 1.3575000000 1.3575000000 
Si 6.4402297800 4.9373035200 4.5504268800 
Si 9.5025000000 1.3575000000 4.0725000000 
Si 9.5025000000 4.0725000000 1.3575000000 
Si 0.0000000000 0.0000000000 5.4300000000 
Si 0.0000000000 2.7150000000 8.1450000000 
Si 2.7150000000 0.0000000000 8.1450000000 
Si 2.8076683800 2.8435715400 5.5674876000 
Si 1.3575000000 1.3575000000 6.7875000000 
Si 1.3575000000 4.0725000000 9.5025000000 
Si 4.0725000000 1.3575000000 9.5025000000 
Si 10.0603999200 4.4229847800 6.7527480000 
Si 5.3772855600 -0.0627919770 5.9374117800 
Si 5.0791785600 3.1125846000 8.3464421400 
Si 8.1450000000 0.0000000000 8.1450000000 
Si 7.9043424000 2.9632704600 5.3265476400 
Si 6.9527023200 1.8365780400 7.0229122200 
Si 6.7369141200 4.3106489400 9.2002444800 
Si 9.5025000000 1.3575000000 9.5025000000 
Si 0.0000000000 5.4300000000 0.0000000000 
Si 0.0000000000 8.1450000000 2.7150000000 
Si 2.8696029600 5.4192486000 2.4930324600 
Si 2.7150000000 8.1450000000 0.0000000000 
Si 1.3575000000 6.7875000000 1.3575000000 
Si 1.3575000000 9.5025000000 4.0725000000 
Si 4.4334972600 6.4943560200 4.2612468000 
Si 4.0725000000 9.5025000000 1.3575000000 
Si 5.2894933200 5.9515406400 10.4001333000 
Si 5.3623422000 8.2284699600 3.0943506600 
Si 8.0143107600 5.5932801000 2.4850829400 
Si 8.1450000000 8.1450000000 0.0000000000 
Si 6.5036087400 7.1422527600 1.3542420000 
Si 7.1344661400 9.8204482200 4.6552476000 
Si 9.2546313600 6.8179405800 4.2216838200 
Si 9.5025000000 9.5025000000 1.3575000000 
Si 0.1703847120 5.5888492200 5.2744087800 
Si 0.0000000000 8.1450000000 8.1450000000 
Si 2.9630967000 4.5107770200 7.7371201200 
Si 2.6841358800 7.6142609400 5.3260480800 
Si 1.4944446000 6.5385562200 7.0453707000 
Si 1.3575000000 9.5025000000 9.5025000000 
Si 3.1173195600 6.2327820600 9.3067267800 
Si 3.7309095600 9.3791629800 6.5661732000 
Si 6.5666076000 6.3203136600 6.9967722000 
Si 4.9627050600 8.1150481200 8.1744631800 
Si 8.3279584200 5.3336175000 8.0505505800 
Si 8.0473903200 8.0217715800 5.7760539000 
Si 9.5025000000 9.5025000000 6.7875000000 
Si 6.7875000000 9.5025000000 9.5025000000 
Si 9.5025000000 6.7875000000 9.5025000000 

