&CONTROL
  dt          = 30.D0,
  prefix = 'aSiHcSi_merged-5',
  pseudo_dir = './',
  outdir='./',
 wf_collect=.true.,
 verbosity ="high",
/

&SYSTEM
    ibrav= 0, nat=  388, ntyp= 2,
  ecutwfc     = 42.D0,
  nbnd=1468,
  degauss     = 0.05D0,
  occupations = "smearing",
  smearing    = "methfessel-paxton",
/
&ELECTRONS
  electron_maxstep=200,
  conv_thr    = 1.D-8,
  mixing_beta = 0.3D0,
  scf_must_converge=.false.,
/
&IONS
/
ATOMIC_SPECIES
Si  28.08  Si.pbe-hgh.UPF
H  1.00784  H.pbe-hgh.UPF

K_POINTS {automatic}
2 2 2 0 0 0

CELL_PARAMETERS angstrom
16.29000014898320 0.00000000000000 0.00000000000000
0.00000000000000 16.29000014898320 0.00000000000000
0.00000000000000 0.00000000000000 28.96283823314758

ATOMIC_POSITIONS angstrom
Si 15.7420371240 14.9815384670 26.1380346946 
Si 2.6812851545 0.0098726035 2.6649141901 
Si 1.3261737991 1.4574141853 1.3370172939 
Si 4.0958924775 1.3497112203 4.0128591629 
Si 16.2781573189 0.0332066766 5.4622464766 
Si 1.3241961931 1.4014645508 6.8075992753 
Si 2.6445837842 0.0128807475 8.1548056958 
Si 5.5179606205 0.5300261058 10.5298453194 
Si 16.1894093981 11.5740776859 10.6458994122 
Si 0.2914965207 0.1824756947 13.6197457163 
Si 2.5795703936 0.5781597983 13.1869250617 
Si 3.9377817360 1.9136514775 17.3066281349 
Si 3.3508367406 1.6732762353 19.5774594665 
H 2.4702807826 0.9910689481 21.5930413049 
H 2.7587115252 0.2575009194 21.6937740562 
Si 1.0460867946 1.9462640578 20.1874168397 
H 3.0255905977 0.1621180815 19.3899250890 
Si 2.1425911396 1.0968382900 23.9151947859 
Si 0.0194197979 11.2159094526 27.1691117357 
Si 16.1612602778 2.7888317355 2.6208182689 
Si 5.2986157685 3.8237354450 26.2495126590 
Si 4.1328544878 4.1858132783 1.4122917105 
Si 1.2989971919 4.1333594778 4.0057343047 
Si 2.6867097246 2.7288356650 5.3646996374 
Si 4.0065744066 4.1175093077 6.7415060785 
Si 0.0064006017 2.7449301851 8.2658492175 
Si 1.5788154114 3.9161160358 9.5621100055 
Si 2.9546965170 2.8438267760 13.6431187268 
Si 0.3090424798 2.8426701860 16.4445202920 
Si 2.5776807536 3.2908569601 15.9405089811 
H 3.7231446941 3.4439178015 20.0434715337 
Si 0.7576234719 2.4410076523 22.5252392162 
Si 1.9573249679 1.4890672846 26.1904574318 
Si 12.6464483957 6.7012010713 28.1776846515 
Si 2.7126434048 5.5364823506 2.6873198417 
Si 0.0370460667 5.4273393496 5.5561729610 
Si 2.7968627056 5.4570360199 8.2755517684 
Si 3.2432575797 2.0669077989 9.4065216385 
Si 3.0280829677 5.5509152908 16.4466345792 
Si 2.5740643735 6.0299879051 18.7647043000 
Si 3.9829701964 4.9227728850 20.3047163346 
Si 0.3185297759 5.5531958908 19.2817488882 
Si 3.4910447719 5.1396090770 22.6351242245 
Si 0.7778149271 5.0327629660 25.4039425967 
Si 1.2038587040 4.6817460428 23.0730423386 
Si 0.0342759522 8.1359428344 2.7301761535 
Si 13.5669148541 8.6171820188 27.1008752888 
Si 1.9098721975 7.4096531778 1.4784370404 
Si 4.0766051173 6.8014823122 4.0967355424 
Si 2.7323217250 8.1652322547 5.4826942404 
Si 1.3873639267 6.8512482627 6.9351805778 
Si 16.2755346289 8.1825973948 8.3570531951 
Si 4.6065188221 6.2540731472 9.6901547133 
Si 14.2104513100 8.1571035446 11.6693013012 
Si 1.9043987574 6.8519976027 12.5932158408 
Si 1.6733413953 6.9000042331 15.0137850461 
Si 3.9590564762 7.3890137476 23.1180505892 
Si 3.5698395026 7.5775216293 25.5050808278 
Si 1.2634393796 7.2602575864 25.8496517143 
Si 3.6286138232 9.1902805141 1.3088770003 
Si 1.3343481212 9.5493446973 4.1052506168 
Si 4.1151309676 9.4356567863 6.9663156289 
Si 10.9683666103 6.0965488458 10.6839276188 
Si 3.1898100892 0.2143145000 10.8781234491 
Si 2.1301292895 9.1521130437 15.5746504085 
Si 1.7008063356 9.6167364280 17.8617298924 
Si 3.0394859678 8.2795228957 19.2836604355 
Si 2.6069701738 8.6552680392 21.6033810381 
Si 0.3371296981 8.2271342552 22.0567942706 
Si 10.5524829065 10.7980220788 28.5609498898 
Si 2.7367363150 10.8765887495 2.7254233517 
Si 1.9300717977 12.7379493265 1.4786600543 
Si 4.1336526978 12.1575366212 4.1359512254 
Si 16.2611342687 10.8636544894 5.4845188992 
Si 1.3746707586 12.2048590716 6.8319570223 
Si 4.3538446298 12.0638365403 9.6248435131 
Si 2.7487420451 10.8799444895 8.2799830826 
Si 1.1532635925 9.7960078796 9.6959762438 
Si 0.7791116111 10.4435679655 14.1165742434 
Si 2.1310252395 11.9004967088 18.2297896407 
Si 2.9926847974 10.9519137102 21.8760661601 
Si 0.3177217919 10.8216588690 24.8299860315 
H 3.2943593101 10.7245704681 25.1689381273 
Si 2.1992314701 11.8116673380 23.9006264782 
H 1.7998006665 3.9078244257 28.4845169597 
H 8.1121431442 13.5791812242 0.8195556409 
Si 0.0489126802 13.6177070745 2.6472526513 
Si 6.9039952831 12.4164661736 1.2499289356 
Si 2.7047590447 13.5770798142 5.4195262902 
Si 16.1654630978 13.5749621142 8.0660925223 
Si 8.2215793652 10.7854299086 8.4031330708 
Si 3.4531705216 13.1912674506 14.1483754397 
Si 5.9279636342 13.1344642201 11.4026404496 
Si 1.2002374370 12.7579697367 14.6282027807 
Si 0.7519382619 13.2439330211 16.8986865584 
Si 1.6726572153 12.3012470025 20.4901943506 
H 1.3254847321 12.7698125668 23.0465123787 
H 0.9236299764 13.4811154233 25.4417970263 
Si 3.0695084381 13.7900389861 24.7942169263 
Si 9.3201932652 16.1656748678 28.1844040300 
H 12.5267494746 9.7235010889 27.2365661859 
Si 3.6626599235 14.4711890523 1.5092592929 
Si 1.3284983822 14.9797302770 4.0863089206 
Si 4.0583114471 14.9480788067 6.8016618935 
Si 1.1501961855 15.0130270373 9.4652582745 
Si 3.8821513855 15.4552028013 14.5924336755 
Si 1.2148153581 15.5127553719 17.3843933555 
Si 3.4913217019 15.9277105457 16.8871883116 
Si 2.1177000194 14.5506516731 21.0780241154 
Si 0.7279675267 15.9213248656 19.7028106304 
Si 1.7211851257 15.1154911382 23.3688687683 
Si 7.3791094275 1.2381556703 28.1991750775 
Si 8.1491051545 0.0273378783 2.6983112389 
Si 7.3532734873 1.9224643676 1.4735770762 
Si 5.4214912396 0.0144982630 5.4415380472 
Si 6.7409323817 1.3883445847 6.8327969446 
Si 8.1768633148 0.0973312848 8.2175392034 
Si 6.4334912088 1.9212751976 14.6505910547 
Si 7.5659883092 1.0065623672 18.3646985412 
Si 7.1692127756 1.4886665506 20.6523862447 
Si 4.9727017355 0.9531588597 21.2038676475 
Si 4.4421038506 1.4473290462 23.4732508373 
Si 8.0334135735 0.4973223015 24.3864491268 
Si 5.7784703028 0.0692947284 24.8973825560 
Si 7.6909977703 3.2090159993 26.9074035294 
Si 5.4835398502 2.7568381752 2.6890952637 
Si 11.4177425544 0.9800455050 28.5828168327 
Si 6.7718182219 4.1181771977 4.1133891744 
Si 8.1450978145 2.7167973548 5.4489814967 
Si 5.2114479777 2.7154127048 8.1385285807 
Si 6.2312997270 4.3980719802 9.4510375209 
Si 8.8990967614 5.1794055474 11.2649511166 
H 7.8210734215 2.2379365105 14.2126150149 
Si 5.2107475077 3.2923393501 13.1910667476 
Si 6.2216723369 2.3870063018 16.9630999106 
Si 7.5598306891 3.7530694243 21.1022660110 
Si 4.9034855248 3.6904506638 23.9136887183 
Si 10.5682190467 6.4562809190 27.0324940277 
Si 5.5599562408 5.4296525297 0.0421849531 
Si 8.1396406644 5.4369504497 2.7103800535 
Si 5.4150566895 5.4629330000 5.4622464766 
Si 8.0127252733 5.3694283991 8.1387892462 
Si 5.6454135816 5.5722226110 13.6052063715 
Si 7.9754537529 6.0372858252 13.2745955731 
Si 5.2889720884 6.0043637349 15.9509935285 
Si 6.6325713007 4.6791070628 17.4051017849 
Si 6.2425886971 5.1457504071 19.7196090766 
Si 7.1294325952 4.0642735872 23.3788609475 
Si 5.4501942198 0.2417778112 27.2722484026 
Si 5.3484794589 8.1975353250 2.6706720023 
Si 7.9262253725 8.3935691868 0.1008228258 
Si 6.7781876120 6.8599145427 1.3866538061 
Si 8.1270973643 8.1647109747 5.3845391816 
Si 6.7655465719 6.8261616624 6.7877886940 
Si 5.5287283106 8.0619862337 8.4001209356 
Si 4.2633862590 6.8296477225 12.0788647966 
Si 6.6728890510 7.4029416977 20.2282544416 
Si 6.2213954069 7.6782101202 22.5469613449 
Si 7.5424818390 6.2830530575 23.9067665999 
Si 7.1040039050 6.8525025927 26.1325317553 
Si 4.6091252222 14.5357300329 28.3083070519 
Si 6.7529544018 9.5404503573 4.0233726732 
Si 7.3581279073 8.9599073319 9.7155840853 
Si 7.1104221650 9.5459075073 12.1190941789 
Si 4.9226099850 9.0358838926 12.7806922927 
Si 5.7598019627 8.2472849854 16.5175066444 
Si 4.4201286404 9.5618065474 15.0817029018 
Si 8.0196648133 8.7171374597 15.9874287790 
Si 5.3072657585 8.7163718297 18.8113923953 
Si 7.1370563153 9.5778359076 23.5459475612 
H 7.9288969325 8.6266139289 24.4655466380 
Si 4.1602053980 9.8036804697 26.0736792680 
Si 5.0180856759 6.0951804857 26.8104359470 
Si 15.4375444412 9.3099957251 28.2720166156 
Si 8.1452118445 10.8876659496 2.6262198382 
Si 5.6823755920 12.4010721234 28.1656940365 
Si 5.4583880899 10.8131880689 5.5507569102 
Si 6.8612829028 12.1628471612 6.9125026754 
Si 11.6516995366 9.8770180503 9.5034312953 
Si 7.4451002181 11.8311175982 12.6739642338 
Si 4.8401988743 11.8581752885 15.5075435123 
Si 5.7356601825 11.0043512206 19.1709660319 
Si 5.2079130476 11.5174047753 21.3999750252 
Si 8.0103958033 11.4354497846 18.7806917867 
H 5.9891651648 10.5318597663 22.2677016587 
Si 6.3537842381 10.4573493056 25.5570401596 
Si 5.4534685099 13.5411766538 2.7509454048 
Si 3.9536319062 2.0911798991 27.2290068852 
Si 8.1791276248 13.5759558042 5.4819122437 
Si 5.4312652397 13.5869841343 8.1643923952 
Si 6.6416937007 15.3505395504 11.9655911363 
Si 7.0998336649 12.3056615925 15.0245012963 
Si 4.3966058802 12.3563397830 17.7900758307 
Si 8.0015503332 14.1849085897 21.5343915574 
Si 5.7793010929 13.6803258351 22.0733320513 
Si 5.3764493892 14.0874943888 24.3863912011 
Si 6.6360410707 12.7374443365 25.9256212390 
Si 6.7839054020 14.9585858568 4.0870040288 
Si 6.8230014024 14.9409112066 9.4831283457 
Si 6.3804020984 2.7166507448 11.1774833451 
Si 6.1501266562 15.9160631956 14.2288921300 
Si 7.5490629990 14.5707698233 15.5697556889 
Si 7.1133706551 15.0340085575 17.8679569027 
Si 4.8494190144 14.6065752436 18.3272206285 
Si 4.4286971805 14.9919314871 20.6534868326 
Si 9.5716457075 4.3177948595 28.0404297611 
Si 12.5849047751 1.7731502262 1.5154428589 
Si 9.5428124073 1.3046107259 4.1202823299 
Si 10.9086474698 16.2736449888 5.5316124741 
Si 12.2317864419 1.3744850526 6.9841277744 
Si 9.5245513171 1.2825426627 9.8196186002 
Si 8.7312771799 2.7221404749 11.5086734003 
Si 11.9980249397 1.9340791377 14.5678442259 
Si 9.8569976401 1.4396108442 17.9711225324 
H 9.1335424435 1.6718915853 15.0613999522 
Si 10.2303318636 0.8934837022 15.7010442346 
Si 11.1980556124 0.0953787654 19.3533739871 
Si 10.7538435984 0.5571000861 21.6472597380 
Si 8.4773975275 0.1234891154 22.0844537812 
Si 12.0523032202 2.0378790186 25.6226409882 
Si 9.0860896731 3.7009740038 1.3886174865 
Si 10.8291848490 2.7532380852 2.7426475516 
Si 12.1808476114 4.1313720978 4.1121148095 
Si 9.5191267471 4.0233856868 6.8935320164 
Si 10.8863301696 2.7457772651 8.4192943345 
Si 12.8682530377 4.4528226707 12.1270879223 
Si 11.8680796085 8.2306366053 11.2616493530 
H 9.1080974633 2.3220254912 12.9473155010 
H 10.9625022103 2.7151520648 13.7475297586 
H 9.1382665436 3.4087965612 14.4271137949 
Si 10.2508409738 3.7367305542 18.3646985412 
Si 11.1777094022 2.8439896760 22.0352459190 
Si 10.6985879178 3.3199020304 24.2904373180 
Si 8.4833922476 2.7505013652 24.7597801116 
Si 14.6620426941 0.6225858867 27.0853801704 
Si 10.8562751193 5.4482557098 5.5253854639 
Si 9.0123448424 7.0838205948 9.4063768243 
Si 11.7177229072 5.2187784777 14.1532122337 
Si 12.1916967515 4.3048117294 9.7713085861 
Si 9.4224944662 4.8412577243 14.7161049948 
Si 8.9200619916 5.1462716871 17.0106568910 
Si 9.8221533298 4.1714129182 20.6399901500 
Si 11.1903178623 5.5591091608 24.8767030895 
Si 11.6442061365 3.1474397988 27.6574831140 
Si 10.8958923997 8.1929252549 2.6730730216 
Si 12.7788372269 7.3201396269 1.4973555664 
Si 9.5495890473 6.7859416521 4.0561296432 
Si 12.2449324720 6.8051638522 6.8994114725 
Si 14.1621351695 10.5551381765 11.2976791238 
Si 10.7255804481 8.1614041046 8.1255821920 
Si 12.1082919507 7.4607874882 14.6967867817 
Si 9.3657401057 7.4131392378 17.4582775559 
Si 11.6441898465 7.7960031113 16.9838662656 
Si 8.9287282717 7.8475609618 19.7565656582 
Si 10.2801955540 6.4295164488 21.0813548418 
Si 9.8038596597 6.6607692909 23.3720546805 
H 10.1169371725 8.1268693043 23.6963805430 
Si 9.5330872772 9.5202018871 1.3010106934 
Si 12.1853436514 9.5599983574 4.0912036403 
Si 9.4390451063 9.5475039273 6.7776227378 
Si 0.4170158588 5.3137980486 11.2539742009 
Si 14.4340315620 12.6245220555 9.3794124219 
Si 10.7651814385 8.7612182001 13.2879764043 
Si 8.4669230574 8.3002926459 13.6381660814 
Si 12.0881249306 10.0685070021 17.3861890515 
Si 9.3515515155 10.1041821024 20.2080094177 
Si 10.5691638667 9.9269306108 24.2679331927 
Si 10.1150964025 9.1506795237 26.5451653116 
Si 12.7033167862 15.6465940131 27.4694274053 
Si 12.1566732512 12.1883735915 1.0515711454 
Si 9.5073164970 12.2483533720 4.0167981089 
Si 10.8222941790 10.9072302398 5.4514723008 
Si 12.1833888514 12.2556187121 6.8043264746 
Si 10.0258272017 11.7346970873 9.7060842744 
Si 11.1038179616 11.0454671810 13.6452619768 
Si 10.7172073880 11.4157225944 15.9791454073 
Si 8.4476682773 10.9871978505 16.4786674783 
Si 11.6428866465 10.5089560261 19.6564990521 
Si 8.9772236021 10.5988279569 22.5569824869 
H 10.9450230401 11.4214078045 24.3831473632 
H 11.1493159320 11.2629549730 21.9492262894 
H 11.2030403525 10.4794059658 21.9983183003 
Si 2.7450116351 2.8742727863 0.1033787963 
Si 10.8454911392 13.5616694740 2.5215018003 
Si 10.9578595602 13.5356217638 8.3934305200 
Si 9.7146881988 12.2942097224 12.1023246956 
Si 11.1840625023 13.6702260350 16.4792756979 
Si 10.7100723680 14.1552933695 18.7542487154 
Si 8.4552919973 13.6984891853 19.2646897765 
Si 12.0542743102 12.8033048071 20.1202230550 
Si 11.5874029060 13.3001986816 22.4064626166 
H 11.3580722839 13.0312670692 24.8255257544 
H 11.2031869625 13.7967178862 24.9422459925 
Si 8.8323892108 13.2558410112 25.3026595514 
Si 9.2825144949 12.8970211780 22.9881522597 
Si 9.2422456145 14.8231670856 1.2072290232 
Si 12.1761235114 14.9308439866 4.0083409601 
Si 9.5545086274 14.9156617064 6.9395539663 
Si 12.7764263068 14.4787150324 9.7024639196 
Si 10.2865975241 14.5300774029 12.7104863728 
Si 8.8820574212 15.8624202251 11.3964134393 
Si 9.8316341099 14.9514834167 15.0538696143 
Si 12.1222687709 15.5383795421 23.0704356831 
Si 11.5910355760 16.0252550666 25.3809461032 
Si 9.3423639554 15.4952924917 25.8792806978 
Si 13.6165504845 0.0171295868 2.7225907861 
Si 14.9484046067 1.3798395756 4.0964748769 
Si 13.6486580748 -0.0006099530 8.3830618239 
Si 15.1774257188 1.2586908445 9.7412161971 
Si 15.1854241089 1.5689843963 12.1667090850 
Si 13.0280579392 0.8874694341 12.7441991165 
Si 13.9935662480 0.0049406430 16.6541533151 
Si 16.1715229779 0.5773518143 15.9654459848 
H 13.0466122493 0.8956111762 15.8649449361 
Si 13.4662263632 0.5413134470 18.8983967613 
Si 14.8109821655 1.9167954475 23.0377366388 
Si 16.2166951483 0.2066647159 28.8968319248 
Si 1.3365374972 15.7807910343 27.2047939524 
Si 14.2805960506 3.6034620630 1.2729572883 
Si 13.5535081840 2.7172697649 5.4912093148 
Si 14.8979218963 4.0983033975 6.9067101078 
Si 15.2097613691 3.9281869259 12.6307806420 
Si 12.9654228886 3.8453522752 15.5924335912 
Si 16.1090834073 3.3219545704 18.7380295260 
Si 13.4627240131 3.2675133899 21.6168777207 
Si 13.8770112969 2.8273738759 19.3079312939 
Si 14.3746545115 2.2961081010 25.3536631096 
Si 13.5912684043 5.4123525495 2.6907374567 
Si 13.6554510049 5.5134645804 8.3814978306 
Si 1.3882386997 9.2047786142 12.0629931613 
Si 15.2326651093 4.1862693983 15.0272527659 
Si 12.5137663444 4.1511807380 17.8951819706 
Si 16.1717836179 5.9759539747 21.5886389534 
Si 13.9049812272 5.5330451606 22.0756490783 
Si 13.4770917933 5.9107125241 24.3905618498 
Si 14.7977058153 4.5505626716 25.8956736643 
Si 13.6672612550 4.5312427314 28.0379968827 
Si 15.0043281772 6.7139235614 4.1004138229 
Si 13.5751250142 8.1357473544 5.4245947869 
Si 3.4418163915 12.7221480264 11.8038047219 
Si 3.3904377310 10.3642193748 11.6927322373 
Si 14.3559535913 7.8532298818 14.1036278547 
Si 15.6996342536 6.4562157590 15.5169853976 
Si 15.2646586696 6.8822155529 17.8472484733 
Si 12.9988662589 6.4186673087 18.3404856084 
Si 12.5525854148 6.8391936625 20.6286077545 
Si 14.5386296530 9.0751102130 1.4897904730 
Si 14.9040958063 9.4758116367 6.8814834757 
Si 14.8079685154 10.0766845822 14.7231140016 
Si 15.7342342139 9.1375986536 18.3598907101 
Si 13.0074673790 9.0939577432 21.0440217433 
Si 15.2858519598 9.5680781975 20.6434656905 
Si 12.7316613864 9.5112586770 23.3874339476 
Si 16.2693118488 8.5624639083 24.3676232819 
Si 13.9999845080 8.1638964747 24.8279296700 
Si 14.8630450059 13.0365450292 27.1195273566 
H 9.3132374352 11.6841329269 28.5084113013 
Si 13.4923392334 10.8995739397 2.6191818685 
Si 14.9496426467 12.2209373018 4.0139597507 
Si 13.4350310129 10.8330944491 8.1888949564 
Si 15.1636443787 6.7387332316 9.9134871590 
Si 1.1599033966 13.4979267034 11.3145065328 
Si 13.4272769728 11.4123179844 13.3408335841 
Si 14.3769514015 10.5034662961 17.0015625598 
Si 15.7297544639 11.8509588184 21.0266150775 
Si 13.1556575103 11.8071550080 23.2805900373 
Si 7.7688476811 8.9657880220 26.8184586532 
H 0.0647998287 16.2831094789 9.7380592478 
Si 13.4897165434 13.7996012162 28.8255254171 
Si 13.5527099739 13.5896394043 5.3994260805 
Si 16.2095764182 14.1709643496 13.2453720693 
Si 13.8999150371 13.6982122553 13.6081316182 
Si 13.4488938030 14.1116361691 15.9623759239 
Si 14.7924278553 12.7860374069 17.4038563828 
Si 14.3332616211 13.2188138409 19.6947010357 
Si 15.4471066713 12.3212837027 23.3631341263 
H 13.4536504830 14.2823227906 24.6220907786 
Si 13.6492933848 12.9173510981 25.1975244486 
Si 1.9672618680 12.0220363999 28.2005652937 
H 6.6113291405 4.3586175999 28.6919198443 
Si 14.9826298970 14.9953523871 1.2832999179 
Si 14.8721185360 15.0061852372 6.7802004304 
Si 12.5190443045 14.9753971370 12.1152421214 
Si 14.7807316352 15.4526289813 20.2545237359 
Si 14.3710218414 15.9583194559 22.5283092771 
Si 15.7792271943 14.6160071537 23.8456550113 
Si 2.7310022350 13.9398255375 27.0969942685 
Si 3.9145196158 10.6269770772 28.2766506697 

