&CONTROL
  dt          = 30.D0,
  prefix = 'aSiHcSi_merged-25',
  pseudo_dir = './',
  outdir='./',
 wf_collect=.true.,
 verbosity ="high",
/

&SYSTEM
    ibrav= 0, nat=  388, ntyp= 2,
  ecutwfc     = 42.D0,
  nbnd=1468,
  degauss     = 0.05D0,
  occupations = "smearing",
  smearing    = "methfessel-paxton",
/
&ELECTRONS
  electron_maxstep=200,
  conv_thr    = 1.D-8,
  mixing_beta = 0.3D0,
  scf_must_converge=.false.,
/
&IONS
/
ATOMIC_SPECIES
Si  28.08  Si.pbe-hgh.UPF
H  1.00784  H.pbe-hgh.UPF

K_POINTS {automatic}
2 2 2 0 0 0

CELL_PARAMETERS angstrom
16.29000014898320 0.00000000000000 0.00000000000000
0.00000000000000 16.29000014898320 0.00000000000000
0.00000000000000 0.00000000000000 29.18601123518865

ATOMIC_POSITIONS angstrom
Si 3.0712514681 2.8126640057 0.1111047238 
Si 2.6822625545 16.2083709582 2.6716145034 
Si 1.5338973650 1.3857968287 1.2727406593 
Si 4.1248072277 1.3589476504 3.8946105252 
Si 16.1921786981 16.2667380288 5.3463227241 
Si 1.2943073008 1.3290017432 6.6247867602 
Si 2.6922809046 16.2870842390 7.9246733286 
Si 3.5934600029 1.6738138053 9.2849165682 
Si 0.1587571287 14.1589423295 12.2796056230 
Si 3.2190506394 1.2523116805 13.0218934468 
Si 3.3385052105 1.7930077364 16.5520290637 
Si 1.4244920950 0.8466255167 17.5282135815 
Si 1.6637628752 0.5930407134 21.4735493943 
Si 3.3563264707 0.8026376293 23.1114391588 
Si 2.8571845761 1.7220322057 25.2919844302 
Si 1.2580115515 0.2631730974 26.2678479018 
Si 0.0397072012 2.7216354849 2.6073585811 
Si 1.1540618026 3.6437635233 27.9957765110 
Si 4.3932501402 4.4893774311 1.3035494128 
Si 1.3939287967 4.0957458675 3.9878598311 
Si 2.7567893052 2.6915804346 5.3272934447 
Si 4.1533473080 4.0350656169 6.7079668922 
Si 0.0427057015 2.5507533833 8.1927176558 
Si 1.9006194774 3.4049032511 9.4129847855 
Si 3.2967865202 3.5967017129 13.1066788094 
Si 1.3880090107 3.7807461346 11.6727700774 
Si 0.1971529848 3.9737337663 15.5037550982 
Si 2.5806129536 3.7369749042 15.3760079270 
Si 1.2227322982 2.8036067656 20.7685904789 
Si 3.2009850293 3.8033729448 19.8074075709 
Si 1.6934595455 3.7444845942 25.7410695851 
Si 0.1343921754 5.5079096904 29.0903978624 
Si 2.7699516253 5.5365475106 2.6578532991 
Si 0.0079097236 5.3810268792 5.4534061993 
Si 2.7503547552 5.2427410679 8.1635608306 
Si 0.1228187819 5.7762222828 11.9674028609 
Si 3.6686220636 5.6597324918 16.1273726003 
Si 2.9968550374 5.8819118038 18.4716805807 
H 2.8480621760 6.3146882378 21.1550716397 
Si 0.7554178059 4.5223646814 22.3469699665 
H 2.0788483690 4.7464825034 23.0540302747 
Si 2.8788991463 5.7114532422 25.3332826361 
Si 16.2927694490 8.1185288242 2.7082371103 
Si 4.0975703475 15.3498716604 28.5009863655 
Si 1.4789381625 6.9645126337 1.2578674680 
Si 4.0427382070 6.8609733927 4.1202475781 
Si 2.6589189843 8.1544319846 5.5293482005 
Si 1.3310591702 6.7015431613 6.9009447985 
Si 16.2445510486 8.0030001432 8.3454480526 
Si 4.0823391973 6.6701197510 9.4971572419 
Si 1.7380941459 7.4202905479 12.6447226236 
Si 3.6788847636 6.7990876822 13.9474402351 
Si 0.6751439432 6.2289213870 18.7879693845 
H 3.5715499527 6.2543337872 21.4166366724 
Si 0.2007335268 6.5024304895 21.2017692576 
Si 1.2971499059 7.5087941187 24.9000162993 
Si 4.4476098707 9.8749492203 1.3829820610 
Si 1.3804699986 9.5053942769 4.0312594298 
Si 4.0853365574 9.5157710070 6.8281840725 
Si 2.9456229869 8.2848171458 10.7981528788 
Si 1.4559855523 9.4530056365 9.4332398773 
Si 0.3765791914 9.0760713230 13.7377679304 
H 1.7851722463 8.3799018766 16.8367677893 
Si 0.4004554447 8.1577388546 17.4263252163 
Si 3.9112290358 10.0632942020 18.5845428861 
H 3.9437438761 8.5522663682 21.1477751369 
Si 2.9122121966 9.3691284257 21.8647295029 
Si 0.9905623291 8.2664908956 22.6399099613 
Si 2.0129878984 9.4725373466 26.0744030194 
Si 0.6367614448 10.4239222253 0.2044882854 
Si 2.7769237454 10.9302480100 2.7003656431 
Si 1.6932640655 12.6084275353 1.3209968103 
Si 4.0815735673 12.1903121015 4.1801956452 
Si 16.2828651289 10.7708014885 5.4639423494 
Si 1.3124348130 12.2091270517 6.7581376456 
Si 2.7012078247 10.9396310501 8.1300552897 
Si 3.4880799919 12.8081266471 9.4094824642 
Si 4.7342650033 9.7457532291 11.4552175497 
Si 1.7171614957 10.9032554797 14.4581662457 
Si 3.5648384726 10.7685208885 16.2220228347 
Si 0.2623015824 10.1920992332 18.7192655140 
Si 2.1732652099 10.5728616967 20.0026328000 
Si 0.7750928681 11.9748931395 23.1242810037 
Si 2.4525083924 11.3279194936 24.7220691888 
Si 0.1819609307 10.7075962879 27.0670192615 
Si 16.2273650984 13.5006145535 2.6932792796 
Si 4.9680265054 13.6972022753 27.0306826775 
Si 2.6575994943 13.5828301842 5.4079052078 
Si 0.0966660012 13.6548971449 8.1528495644 
Si 0.2215260830 10.9462936601 10.7305580767 
Si 0.3656420853 12.5437562347 15.4335335552 
H 2.4695640226 13.4888531734 17.3060496640 
Si 3.7647493544 13.0809189896 16.5988142397 
Si 1.7663572962 12.5986046652 21.0617347757 
Si 3.7183554340 13.7430423357 21.6399388443 
Si 0.5217296088 13.8090819963 19.4843476125 
Si 16.1854997980 13.9438002975 24.0124696976 
Si 2.7694955053 12.8133557372 26.5783286894 
Si 6.7462266317 1.4787215055 1.0641161324 
Si 1.2649201406 14.9193758264 4.0367755860 
Si 4.1150820976 14.9615506368 6.6462676645 
Si 1.8106335166 14.7754048051 9.5071972298 
Si 0.3327493170 16.1687862579 10.9447542132 
Si 1.0555463977 14.6085789136 14.5083661850 
Si 3.5533377325 14.4651128823 14.6754852853 
Si 2.0004120183 15.6746779734 19.3233867606 
Si 3.5684222726 14.8466409758 23.7089351808 
Si 1.7986929465 14.5155630128 25.2838707191 
Si 15.5433479922 14.6106640336 28.4590752534 
Si 8.0081477832 0.0090073601 2.5580867569 
Si 4.8773074946 1.3044624869 28.6063186800 
Si 5.4725603901 16.2889738790 5.2722194415 
Si 6.7808917520 1.2709621016 6.7653465903 
Si 8.0968468341 16.1266928975 8.1091581056 
Si 7.3023672368 0.4462710701 12.2743229550 
Si 3.6732158436 0.1194079817 11.0342093376 
Si 6.7819180220 0.3554575773 14.5820900494 
Si 4.3592854899 0.3848577695 14.9158029019 
Si 7.5563120491 0.1504337531 18.9362051355 
Si 5.4255311596 0.6598003920 19.8192570914 
Si 5.2850624883 1.5911974406 22.0003860831 
Si 6.5514796799 0.1370189380 25.2152835927 
Si 7.2080155559 1.3753875186 23.3376891179 
Si 5.0970921766 1.7367420759 26.2641412784 
Si 5.5137252204 2.8366754659 2.5885481969 
Si 13.6694441150 3.0832571982 28.9558795366 
Si 6.8863857930 4.0479347170 4.0534116124 
Si 8.1853341149 2.6493078842 5.4341726179 
Si 5.4288868997 2.6406090242 8.1544256091 
Si 6.8276440524 3.8577652553 9.6050871115 
H 5.4431569398 2.7323868850 15.2944038396 
H 5.9241354842 3.2654282699 15.5866433701 
Si 6.3824057684 3.9193088758 18.2642847849 
Si 4.7172745331 3.8326949451 21.6543567339 
Si 4.5491943116 2.4222252822 18.4640338458 
Si 5.8905129239 3.8570484953 25.5113173046 
Si 7.7978275913 3.4964041820 24.2163339861 
Si 10.9538033502 5.6817728620 28.9449347824 
Si 8.1625932747 5.3979684794 2.5971434772 
Si 5.4791904201 5.4320960297 5.3667821179 
Si 5.7922027730 5.6511476617 10.7603861802 
Si 8.1790624648 5.2597641181 8.2016485752 
Si 7.0542053745 5.5789340910 14.3448953361 
Si 8.0818437439 2.2625669907 10.9172318046 
Si 5.0879697765 5.1288739669 12.9459806316 
Si 6.0216474251 5.5828925611 16.5029673788 
H 8.1334341744 5.5098807804 18.7117938951 
Si 6.4767900292 4.9030456948 20.5386630824 
Si 4.5557591817 4.8525141144 23.8382875826 
Si 8.4579961374 5.8939989839 25.8621039736 
H 2.7312140050 15.6228106129 27.8928958214 
Si 5.4306136397 8.1202555643 2.6942249063 
Si 9.6468077682 10.4722709458 28.2799023304 
Si 6.3304569579 8.8822366112 27.1150302500 
Si 8.1977796750 8.1113612242 5.4940039409 
Si 6.8293382125 6.7127669714 6.8364728997 
Si 5.3936027593 8.0761911139 8.1352212137 
Si 7.5022781186 7.3541694373 10.9206465679 
Si 7.3043057468 7.6558276600 13.2484936380 
Si 6.0217125851 7.8261233216 17.2310999871 
Si 4.4743091809 7.7371473408 19.0134021352 
Si 5.9247870842 7.1786772657 20.9244729649 
Si 5.4389378297 6.9424885535 23.3491300343 
H 4.2625065990 7.8293813216 23.6890011351 
Si 7.0992309349 7.6218304297 24.9673776132 
Si 10.5939572469 9.0643588129 26.6223995663 
Si 3.5227939822 14.4015004317 1.4111348874 
Si 6.8390307625 9.4340277863 4.0704270569 
Si 6.5403536098 9.2538440946 9.8336427655 
Si 3.8725239954 11.9973570497 11.5617464907 
Si 5.1789657174 8.6137448288 13.5351878264 
Si 5.5559489008 9.6239691880 15.6190106566 
Si 8.0503714636 8.5681002484 18.1317511078 
Si 7.4099952678 8.9736723821 21.4704556771 
H 6.4828336193 9.9053952306 22.2285915049 
H 5.1804643974 9.9756702912 24.2659793912 
Si 3.9293272259 9.3763448958 27.6248223082 
H 3.6770114136 6.1455491662 26.5858003082 
Si 8.5641417783 14.3563282613 28.3271544826 
Si 7.9925419631 10.8253566990 2.5522699849 
Si 6.1834234166 11.7621620276 1.2755250048 
Si 5.4870096202 10.7954971287 5.4553032900 
Si 6.7955853322 12.0943314206 6.9194487296 
Si 8.0237210234 10.7339046382 8.5232492330 
Si 6.7941843921 14.6859075443 9.4394856837 
Si 7.5175744288 10.9093316498 15.1780392128 
Si 7.7790615111 10.3980862851 19.6287016241 
Si 5.6374640616 11.4165859644 19.5531098550 
Si 5.3159320386 12.0690982104 21.8735436782 
Si 4.1937465084 10.6578954975 23.3533911919 
Si 9.4510997064 7.0630508446 27.6682219069 
Si 5.3037471185 13.4676435932 2.6610695976 
Si 6.7570269018 12.7142962463 28.3054692762 
Si 8.1238882343 13.4599710031 5.4252416985 
Si 5.3110450386 13.5461288139 8.0658752510 
Si 7.1284389052 12.7634431767 13.7174544665 
Si 5.0240152359 13.5571571440 12.9237992630 
Si 5.3725560791 13.4320988128 18.2848317368 
Si 7.0182859242 12.9540850485 23.3195646049 
Si 8.8355006008 2.2127684602 0.0931620397 
Si 6.7762491020 14.8352216857 3.9632852097 
Si 5.6931269921 15.3123720800 11.3835950781 
Si 1.6102485957 12.0993324507 12.2729220265 
Si 7.6935878804 14.5451293630 15.1902681515 
Si 7.3707037874 14.4761737924 17.5725179466 
Si 4.2054427285 14.9576899068 19.6908970140 
Si 5.6111231313 14.3404455112 24.7821048139 
Si 10.6838454677 0.5233830438 0.0632192352 
Si 15.4786115316 2.1980748801 27.7441055361 
Si 9.4892834668 1.3328022002 3.9493051103 
Si 10.8184497389 16.2622745687 5.4292401820 
Si 12.2426192920 1.2985084919 6.7971301566 
Si 9.5159990670 1.2239328712 9.3646235649 
Si 10.9061388097 16.2416351385 10.7798824357 
Si 12.2353865319 1.3238280391 12.3128776759 
Si 8.4869597576 1.5999810086 15.7508146833 
Si 10.4237593253 0.2527817063 16.1435124645 
Si 10.9649620003 0.3401661541 23.4816345253 
Si 9.1774928639 1.0359218345 22.1529413638 
Si 10.3902019250 0.8594636659 25.6928542945 
Si 9.6899599786 4.1553509780 1.1969942044 
Si 10.9557255702 2.8106440457 2.6948319754 
Si 12.3000252525 4.1371876278 4.0914993570 
Si 9.5513157874 4.0496614570 6.7507243987 
Si 10.8966417397 2.6884690446 8.1363594681 
Si 12.3250792727 3.9317381460 9.5981700268 
Si 10.0336952718 2.9165779167 12.0678027395 
H 11.0951516815 2.8109535557 14.8385475301 
Si 9.6825154486 3.0574538380 14.3660551942 
Si 8.0737964838 2.2687083207 17.9355627403 
Si 10.0032492615 3.1804759191 18.8665089407 
Si 9.8114019297 3.0581054380 21.1933345004 
Si 11.9418081492 3.6215113831 22.0481927695 
Si 9.8813023204 3.2504251797 25.3482258738 
Si 6.4079484886 6.4243525188 1.3362640128 
Si 14.7348427048 6.4971851094 27.7336569441 
Si 10.9038907897 5.4742708401 5.4300282043 
Si 10.7875313187 4.9588063654 11.0646503473 
Si 11.3820348741 5.8270959533 13.1686115253 
Si 9.4349563163 5.3208516187 14.5659209992 
Si 10.3088496643 6.1376159361 16.5542472006 
Si 9.6424420482 5.4537617299 18.6627613963 
Si 8.2420070254 4.5571275417 22.1001146835 
Si 11.1004785115 4.7309907133 23.9246489898 
Si 10.7517747683 8.2373643753 2.5301499070 
Si 12.2589581621 7.0150116342 1.1974407504 
Si 9.5204462371 6.8121196823 3.9916831986 
Si 12.2480438620 6.7508041217 6.9351216177 
Si 9.4484281464 6.5193232196 9.7683244723 
Si 10.8002538088 8.0053459032 8.3527445554 
Si 12.3448390429 7.9749650529 13.2261955254 
H 8.5470698582 7.6367194898 19.2149023568 
Si 10.7652303085 6.6218687706 20.3668450342 
Si 9.7637536793 6.2807724574 22.5448511227 
H 9.6867019786 6.0588700754 24.9612193649 
H 11.6266780963 7.9936333931 22.5910233924 
Si 12.8368459174 4.9960615957 27.6271863751 
H 8.6491755791 2.5973590738 27.8328018243 
Si 9.0912698931 9.3222620953 1.0858013388 
Si 12.1275630209 9.5242906771 4.0130181728 
Si 9.4495684464 9.4661679566 6.9985136341 
Si 12.3401149429 9.3459640455 9.5746461018 
Si 11.2244454127 10.7828397986 11.0070663472 
Si 10.7808198386 9.7805486694 13.0992947486 
Si 8.7988806805 9.1496369637 14.2553818396 
Si 10.9218749499 9.8683191903 17.3648302906 
Si 9.5572942174 8.3308689762 16.3331047934 
Si 11.4425196446 8.8207744407 19.5338762736 
Si 8.7292897998 8.2881077258 23.3317935436 
Si 7.6203643297 10.9457072201 27.0449838230 
Si 12.6892096461 9.9948924914 27.4321362620 
Si 12.5983928952 12.6257600955 1.3640432583 
Si 9.4536246565 12.1632381212 3.9290500185 
Si 10.7585025384 10.8261549090 5.4686412972 
Si 12.1772963914 12.1702428213 6.8308108135 
Si 9.5402060073 12.0700756104 9.8592388973 
Si 12.0324620000 11.4825441750 14.2208839743 
Si 9.2869779549 11.5136092053 16.6915673834 
Si 11.3360156237 10.8166415489 20.7652340876 
Si 9.3628567756 12.0553657403 20.2795788606 
Si 11.8958866388 10.8031697188 23.1015742870 
Si 8.3532188564 11.7079326171 24.9037521087 
Si 9.9924652814 9.9976129214 24.4145361884 
Si 10.8324265591 13.6372224947 2.6039846782 
Si 10.8492541292 13.4423126429 8.3464987490 
Si 8.7996463105 13.1169687600 11.9359111547 
H 10.0610461820 12.6405677056 12.6223369530 
Si 11.9258602391 13.8547102867 14.4875857450 
H 10.1206512926 12.1302182909 15.5562899184 
Si 9.2654425747 13.2470444112 18.2226655328 
Si 8.8296524908 13.7091917154 21.9117189809 
Si 9.5056549169 13.7079536754 25.3753396783 
Si 14.0033402481 15.2298958093 26.6618006815 
Si 9.5100695070 15.1043650681 1.2043490792 
Si 12.1873799015 14.9719925269 4.0174252605 
Si 9.5338854872 14.7917436753 6.8138245550 
Si 12.3552972230 14.7305747247 9.6944546779 
Si 9.2698734548 15.4223132910 12.2190446497 
Si 9.9014041806 15.0376575175 14.4679435595 
Si 10.9334408500 14.8467224258 17.7533252862 
Si 11.3900006842 15.4567014814 19.9547677416 
Si 9.0850634031 15.6593653732 20.5876080232 
Si 10.6044642970 14.2881383207 23.4123469346 
Si 10.6807992377 13.6829485251 27.3858180622 
Si 8.5119811978 15.7309273439 26.2921306632 
Si 13.5588187240 16.2637569587 2.5428574963 
Si 14.9257452165 1.3449072993 3.9383603561 
Si 13.5524656239 16.1571226178 8.2031662478 
Si 15.0454278476 1.0815191739 9.5650439041 
Si 0.8653476139 1.6013917226 12.5692475985 
Si 16.2590980187 0.0514627169 15.8135062354 
Si 12.5374031347 1.3576770304 16.2612196478 
Si 14.6876017043 0.5147249087 19.1053672566 
Si 12.6749721859 1.1346229454 20.0239094022 
Si 12.7813784669 1.4618092274 22.3948058389 
Si 14.8364760157 1.2367335533 23.5248298219 
Si 15.2226467592 0.8013213973 25.7908025482 
Si 12.3774353332 1.6003459046 1.2349914724 
Si 15.0267595074 4.2297799887 1.3300765784 
Si 13.6297453847 2.6965488847 5.4429284213 
Si 14.9841285770 4.0357823769 6.9089709516 
Si 13.6843168852 2.4874993127 10.8671486093 
Si 13.3707506723 2.4060656020 14.2880701722 
Si 15.7439267640 1.9464106678 14.4757654105 
Si 12.2040608616 2.6760886445 18.2428038806 
Si 0.0145147159 2.2662159507 18.8268159654 
H 14.9422144067 3.2851065900 24.4438973157 
H 13.0222749891 2.6315517841 24.8292694081 
H 12.5078042044 2.4257927922 25.3915962865 
Si 0.4625561832 0.3677386084 28.5700112821 
Si 13.5706452641 5.5558022908 2.6481139272 
Si 13.6881450352 5.4224523496 8.3777569670 
Si 15.4332927511 5.6382459816 14.1682324101 
Si 13.1939390107 4.8106651040 14.3722134426 
Si 15.7670585642 4.3359419197 17.8105006822 
Si 13.4449842030 4.7136418631 18.2876335938 
Si 12.7685908168 5.3026068185 20.5701256025 
Si 12.4738069741 5.8755098337 25.3829864132 
Si 16.0500810268 4.3522319198 24.4961110898 
Si 7.5956686895 7.8684447420 28.9838981074 
Si 13.6873468252 8.3479408963 28.9279777099 
Si 14.9221125465 6.8032742122 4.1245962938 
Si 13.5061694435 8.1599054246 5.4671528106 
Si 15.0588996777 6.6619258809 10.0141290590 
Si 13.6782570051 8.2076839951 11.1802853239 
Si 15.5975936927 7.7347364207 15.3338633268 
Si 12.6433044256 5.9897190248 16.4004077354 
H 14.4007510917 7.8126352015 18.7495022216 
Si 14.1977939798 6.8288332225 21.6623245149 
Si 13.8372148266 7.3606365673 24.0609476623 
Si 15.5026555718 6.4972176894 25.4362508837 
Si 2.5286641431 8.9048960014 0.2705394393 
Si 15.0277531974 9.5296663772 1.3180081628 
Si 14.9428008467 9.4222338262 6.8871981872 
Si 15.0185493474 9.8907668105 12.1372362602 
Si 13.3322574019 8.1399827544 15.4616104980 
Si 13.7452903557 8.4378616972 19.9665005181 
H 12.0201467599 8.4419504872 22.0857551659 
Si 13.8797480169 9.7591436093 24.0068659835 
Si 13.5736752041 10.8866722596 2.6672716250 
Si 14.9356332466 12.1307232809 4.1129802613 
Si 13.6132273245 10.8596471493 8.2167961151 
Si 15.0396448975 12.3097340926 9.5303417367 
Si 13.2670322413 11.5852363360 12.2086544297 
Si 12.8526472175 10.3947142551 16.1582514001 
Si 13.7674121759 12.1088295207 17.5672060925 
Si 14.9409926566 10.3888661450 20.4030940602 
Si 13.2130471808 11.9017021688 19.8492019390 
Si 15.7363193339 10.1067559224 22.6062001183 
Si 14.3315511711 11.0329075909 25.9704424474 
Si 11.6050775561 11.8232821081 28.5151999530 
Si 0.9397375286 12.7595498667 28.1607650325 
Si 13.5346117838 13.5468292839 5.4147055484 
Si 14.0387709984 13.7028223253 11.3480173304 
H 15.3282548302 12.3269689127 14.7132227979 
Si 16.1130907474 12.2939490824 17.7243727630 
Si 12.8552536176 14.0838942988 16.6677224123 
Si 13.0370988892 13.9382128275 20.9708203507 
Si 12.5920560852 13.1059404299 23.2224919315 
Si 14.1252871892 13.3782277824 25.0917683931 
Si 14.4265870319 14.3331313011 1.3565920696 
Si 14.9312512366 14.9009355463 6.7825371509 
Si 13.1686243504 15.3441701603 13.0608567718 
H 14.3339458011 15.6950404735 13.9945172712 
Si 14.1652139796 16.0361204967 16.9210278038 
Si 15.0946888081 15.0069671572 20.5353942491 
Si 16.0598713169 15.8231939047 22.4889890972 
Si 11.7001622870 15.8389952049 27.2680525069 

