&CONTROL
  dt          = 30.D0,
  prefix = 'aSiHcSi_merged-8',
  pseudo_dir = './',
  outdir='./',
 wf_collect=.true.,
 verbosity ="high",
/

&SYSTEM
    ibrav= 0, nat=  388, ntyp= 2,
  ecutwfc     = 42.D0,
  nbnd=1468,
  degauss     = 0.05D0,
  occupations = "smearing",
  smearing    = "methfessel-paxton",
/
&ELECTRONS
  electron_maxstep=200,
  conv_thr    = 1.D-8,
  mixing_beta = 0.3D0,
  scf_must_converge=.false.,
/
&IONS
/
ATOMIC_SPECIES
Si  28.08  Si.pbe-hgh.UPF
H  1.00784  H.pbe-hgh.UPF

K_POINTS {automatic}
2 2 2 0 0 0

CELL_PARAMETERS angstrom
16.29000014898320 0.00000000000000 0.00000000000000
0.00000000000000 16.29000014898320 0.00000000000000
0.00000000000000 0.00000000000000 29.20513569536355

ATOMIC_POSITIONS angstrom
Si 2.8262498658 2.2375292605 27.0203871094 
Si 2.6058461638 16.1787883180 2.4722001340 
Si 1.0472319816 1.1480133255 1.1388046177 
Si 3.8818418755 1.2642261866 4.0087845410 
Si 0.0991334475 16.2276257384 5.3268707252 
Si 1.3288225532 1.2902266558 6.8494804746 
Si 2.7901675155 16.2530707186 8.1543659375 
Si 4.1266479977 1.3310363642 9.5261895714 
Si 0.1217459225 1.9554516179 14.1183759030 
Si 3.2540252698 0.5305555309 15.2484978339 
Si 0.2476536143 0.3634983213 17.7289484187 
Si 1.4046182948 1.6240869509 16.1247687253 
Si 3.6554271634 0.2764771405 19.2394088318 
Si 1.1230293523 1.6074516027 21.5420585505 
Si 1.4085327819 0.0312953709 19.7937515124 
Si 1.2397423163 2.0916197291 25.2330912151 
Si 2.2748822308 0.9406644296 23.4560463235 
Si 7.5386048189 2.9599907671 0.0127293504 
H 3.8388851451 6.8271879324 28.3434965769 
Si 16.2459682786 2.6158319339 2.6563297531 
Si 8.3254606961 1.6989655655 27.3202362376 
Si 3.9763075864 3.9054786657 1.3560440991 
Si 1.3549908094 4.0241024468 3.9938607166 
Si 2.6592122043 2.7044495347 5.4650986324 
Si 4.1453000479 4.0819808173 6.7187582873 
Si 15.8017073945 2.2030433301 8.0914288701 
Si 15.7541568841 2.7962273956 10.4424422936 
Si 2.8786873763 2.8122893357 10.9091987722 
Si 4.5098702512 3.6146207131 12.3703901213 
Si 2.3980346319 3.4078354512 17.3106724653 
Si 2.0979565392 3.7119534639 21.0678255571 
H 7.5762021393 7.5697838792 0.2842918445 
Si 0.6604471050 4.7715202336 29.0862415879 
Si 2.7474225551 5.4579971299 2.6627724060 
Si 0.0294412431 5.2935821584 5.4911496134 
Si 3.1254808786 5.8073687631 7.9852389967 
Si 0.0259157612 5.1232213369 10.7669113511 
Si 1.1347369754 5.7332003924 14.9074986695 
H 0.1153372736 4.8003046639 15.5614016577 
Si 3.3120991203 4.8302945542 15.4953688459 
Si 1.1023149881 4.3793710601 19.0604689654 
H 1.2757252977 5.8792239538 19.0064686695 
Si 1.9586281679 5.0574260263 22.9780750727 
Si 0.6287760868 4.3178437295 24.7525791175 
Si 4.0050920166 4.8410459543 24.1039622589 
Si 0.8672372539 11.5023853952 25.9566484520 
Si 3.4744289718 4.4084161303 26.3690541731 
Si 16.2390776085 7.9431181026 2.7462523659 
Si 1.8237469667 8.4835551476 28.9281541884 
Si 1.3167207120 6.6700871710 1.2059267811 
Si 4.0816224373 6.8439992126 4.0284980075 
Si 2.6551722843 8.1645317847 5.4203271594 
Si 1.3358223662 6.7652533519 6.7866310226 
Si 16.1508998377 7.9972497731 8.1911059982 
Si 5.4878567002 7.7503748209 10.3779281488 
Si 0.2029375639 6.4727012392 12.7516047576 
Si 2.2858291109 4.9706980655 10.0460993970 
Si 7.3293597670 3.5124987021 9.2809540470 
Si 1.0801931679 7.6753919502 16.2759053025 
Si 2.9506565970 8.0720860338 17.7532178865 
H 0.6267903357 8.0061604032 19.9286208290 
Si 1.5745848984 7.3193251269 22.5208978785 
Si 2.6529894243 8.1064742241 24.5633882485 
Si 4.7818806737 5.8610606036 27.6505755274 
Si 3.7768365345 9.5030159369 0.9607934746 
Si 1.2973844819 9.4394197763 4.0080836177 
Si 3.9853159564 9.4469131764 6.9178496973 
Si 1.0646948617 9.3640133656 9.6614093497 
Si 12.2119126417 3.8161768849 9.6517424497 
Si 3.8308541750 9.2303702044 14.0571911437 
Si 1.5836225905 9.5267993371 14.8792865084 
Si 2.8508640561 8.1410090245 20.2673711980 
H 12.1186361008 11.6322492764 25.8985886422 
Si 14.2630191404 12.8519956175 27.6151204927 
Si 2.6757139745 10.7801682386 2.6610551440 
Si 1.1062262171 11.9125675989 1.3093830538 
Si 4.1193337877 12.1147753708 4.0523878085 
Si 16.2361942785 10.7996673688 5.4207068261 
Si 1.3581201184 12.1121038108 6.7759711481 
Si 2.5822256636 10.7958555087 8.3514713983 
Si 3.5564654125 12.7002542662 9.5065345151 
Si 0.8095722824 10.2705355839 12.7793496365 
Si 1.5555011632 8.2790016157 11.7517669371 
Si 1.4975462297 10.8918198996 16.7869367669 
Si 3.9548699462 10.3656040248 17.0372539849 
Si 3.9899586065 11.7010093670 19.0253351871 
Si 0.7034641084 11.6519764666 20.4180989033 
Si 2.7216354849 10.4858568059 20.6392986010 
Si 3.2926651501 11.3804384541 22.7383301137 
Si 2.7309859450 10.4518107056 24.8715024301 
Si 12.7227670464 13.4333531429 0.0578740651 
Si 16.1011990473 13.4920948834 2.5409402619 
Si 2.7084731648 12.9941421588 29.1560418623 
Si 2.7106886048 13.5011847035 5.3773371996 
Si 0.1558231367 13.5984034244 8.1296875978 
H 1.6870249954 12.2813894923 13.8019674629 
Si 2.5265301531 13.2625524913 14.6551078868 
Si 1.3743791676 13.2150671409 16.6460803974 
Si 2.7570988152 13.6393890647 18.4369977285 
Si 1.4015769518 13.9891679479 20.4574090159 
Si 3.0039086075 13.6578945049 22.2178069802 
Si 3.9573623162 14.7061560145 1.1467542556 
Si 1.3225020331 14.8058671054 3.8912046646 
Si 4.1094131776 14.8874311362 6.7514680392 
Si 1.8816904972 14.5569070331 9.5073814640 
Si 1.0432995755 15.5063696918 11.5883057926 
Si 2.6999860747 15.2826754098 13.4489357826 
Si 3.9814389364 15.3600692005 17.2029931300 
Si 2.2035157402 14.9546925468 23.9513362197 
Si 1.5495471682 13.4866377333 27.1361270622 
Si 13.8061823763 5.4528494899 26.4848817413 
Si 8.1227479343 16.2593097887 2.6001478335 
Si 6.5821374602 1.1556077236 1.1873318712 
Si 5.3300554687 16.2550580987 5.3056677966 
Si 6.6752022310 1.3199477611 6.6318438034 
Si 8.0467387936 16.2749156088 7.9770907638 
Si 5.5639961609 16.2231785684 10.8082658233 
Si 7.3239514870 0.7232776356 14.0821031245 
Si 6.9449972135 14.8728678760 9.4978605898 
Si 6.2211021869 1.6718915853 18.0636976841 
H 6.0209632451 0.4038698287 17.2246341355 
Si 7.0628716546 1.0594820617 20.1457610129 
Si 5.1360904370 0.0732861043 21.0711841477 
Si 4.5408375415 1.2112771701 23.0563448363 
Si 7.6438870899 1.4095720839 25.0556992209 
Si 5.6651733518 0.1846943927 24.8401069092 
Si 4.2653084790 0.3381608551 26.8435208076 
Si 5.3327270288 2.5276215831 2.6796383719 
Si 12.1324663110 6.2606217273 28.2304142915 
Si 6.8137161023 4.0180751467 3.8826183547 
Si 8.1099114142 2.7257242749 5.3885519717 
Si 5.4607338499 2.6688070144 8.1056225660 
Si 6.7212051915 3.4642640117 11.5399712930 
Si 6.6277657506 2.8433380760 14.8002282061 
Si 7.5647502692 3.0484943379 16.8807144576 
Si 4.2944838693 2.7409391351 14.5842854327 
Si 4.1330336778 2.4591384225 18.6292843420 
Si 4.4017372303 3.7858286146 20.5494636037 
Si 7.5112864887 3.2026791893 23.4867993313 
Si 5.2703363282 3.4010425211 22.7659581721 
Si 5.2386848579 13.3290156919 25.8335195999 
Si 5.8585356536 4.7763094937 0.1846515148 
Si 8.2723390057 5.4521490199 2.6285323049 
Si 5.4983963303 5.3921529493 5.2912696647 
Si 8.2089709051 5.3928045493 8.1569359894 
Si 7.2314405761 1.2037968020 11.8206034419 
Si 4.3884445901 5.7631414127 13.3737033530 
Si 7.8401001417 4.3606864299 13.3815011243 
Si 0.9795030480 1.6512032851 11.8419231909 
Si 7.4812803084 4.7767167437 18.4095741061 
Si 5.3495383089 5.4996017903 19.2370724209 
Si 6.1524724163 7.1753703956 26.2761234313 
Si 5.2992510785 8.1822227248 2.4518558365 
Si 6.2579990372 9.4598800165 26.5974383343 
Si 6.7914476721 6.6911664312 1.2831363983 
Si 8.0824627639 8.1767818648 5.4272487765 
Si 6.7275582915 6.7202440815 6.8205381852 
Si 4.8509176944 7.5507245791 8.1152602608 
Si 7.7070271305 8.0487098836 12.9549601174 
Si 6.6099933605 6.3019983276 13.9709191729 
Si 4.3612891599 6.2135436268 17.1849443561 
Si 6.2895201875 7.1063659550 16.1877349978 
Si 5.1979109875 7.5937301794 20.3636021201 
Si 6.1145492959 7.7300286107 22.5292797524 
Si 4.8084496640 7.0288255543 24.3346536257 
Si 8.3542614164 6.1918942166 26.4816983815 
H 9.3610485856 12.7303581864 26.8062842596 
Si 6.7461126017 9.4826860167 3.9181025946 
Si 3.8564131853 7.7639606810 12.1957434099 
Si 8.4618242874 10.4372637355 10.4697198903 
H 12.2916196124 15.5272697620 10.0097390031 
Si 6.1781454565 9.3402625454 16.9404681652 
Si 7.9733523429 10.1144773825 15.6329250350 
Si 6.7174259114 9.0661181329 19.2621888376 
Si 7.0698437747 9.9013553106 22.7537796305 
Si 6.6069471304 12.2663212422 28.7286539065 
Si 10.6081784170 14.7996117454 28.7303185992 
Si 8.2990546059 10.8669613594 2.6955434888 
Si 7.4259594679 12.7571715267 1.6034174394 
Si 5.4623139800 10.7471158283 5.5045547707 
Si 6.8053267522 12.1487888911 6.9118334393 
Si 8.6654818693 11.3130141435 8.1967425894 
Si 5.0502421362 11.1369355319 13.4097424905 
H 7.5045261386 11.1564183720 14.6407973703 
Si 4.5360971515 12.1922343215 15.4529045786 
Si 7.2716931665 10.9042980397 20.6594209395 
H 4.7971281139 11.3338653437 22.7756250720 
H 6.4994005494 10.7841104186 23.8190953653 
Si 8.7626843001 15.5526821622 27.2670828906 
Si 5.4380744597 13.5570919840 2.6607163644 
Si 6.6458150708 14.3259637010 27.5899748709 
Si 8.0542810637 13.5775685142 5.4869440739 
Si 5.4194549896 13.5342045338 8.2154922865 
Si 5.7959983430 14.0315056583 16.3359802666 
Si 7.2292251361 13.7379761456 18.2663229155 
Si 5.2428062279 14.1408441393 21.7357178053 
Si 5.9254061042 12.6817814060 19.9676680955 
Si 6.2066529568 14.2679713005 23.9022715917 
Si 4.5779135819 11.0417367710 26.3010062070 
Si 5.3714157791 15.9204940756 28.8741246874 
Si 3.2457825297 14.6210896337 26.0268575982 
Si 6.7544205018 14.9437293767 4.0210214928 
Si 4.4963169711 12.6254994555 11.6742857121 
Si 4.7810173037 14.8010615554 12.5196283648 
Si 6.5066821795 14.8191434555 14.1907462292 
Si 11.6198200063 0.6203443827 28.6250632902 
Si 12.2017802616 1.4026700108 1.5632516163 
Si 9.4481186364 1.2589726615 4.1224217239 
Si 10.8620091993 16.1996558082 5.5131994909 
Si 12.2608152221 1.3508173114 6.7659829917 
Si 15.0918217680 14.4928384625 11.2561849894 
Si 9.5866813777 0.9652085728 14.4365950615 
Si 9.5962436078 2.0030672883 16.5147449022 
Si 10.4915745960 1.3413055803 21.8149513385 
Si 11.1226654917 0.6425476529 24.0266562647 
Si 10.5495507065 2.3823799418 27.4638378898 
Si 9.4200509662 3.9343282560 1.2008742926 
Si 10.6923651378 2.6871984246 2.7625459111 
Si 12.1942868615 4.1506757480 3.8951473580 
Si 9.5522280274 4.1392564579 6.6684086333 
Si 10.8576597693 2.7335271850 8.0621361190 
Si 13.5508203339 2.0872865891 10.8611271189 
Si 10.6850020577 1.9840894381 12.6643106070 
Si 11.4694470149 3.2674482299 16.7121424144 
Si 11.1612402121 4.0419399970 18.9165168515 
Si 12.1045452507 2.6329853041 20.5781722520 
Si 8.4877579676 2.5184828930 21.4349049077 
H 10.9507734102 3.9669082563 22.8267340595 
Si 11.6166760362 2.5039847929 25.4030943100 
Si 13.2899848515 3.0748678481 0.3418607159 
Si 10.9090058498 5.5202412205 5.3311638801 
Si 11.1695318222 5.5335664406 10.9704711469 
Si 10.2321889236 4.3207433495 12.9541715788 
Si 11.2924724533 4.9398773852 15.0281450850 
Si 9.0803555930 4.3329445596 20.0205878013 
Si 8.6125067888 5.0821705365 24.4212468531 
Si 10.8264969990 4.3953678402 24.2814418685 
H 7.5386536889 11.3361785237 27.9692619681 
Si 10.9756971104 8.2221495152 2.4854446631 
Si 12.8148218372 7.2634341364 1.1882605945 
Si 9.5605033474 6.9072207032 3.9742348654 
Si 12.1917944915 6.7214169615 6.9184922103 
Si 7.8244291616 8.1452281345 10.6559318355 
Si 9.5016964469 6.7122945614 9.6469820126 
Si 10.8371180791 8.1245398343 8.2902574339 
H 11.3449099638 7.4960553386 13.1173114668 
H 11.0517388311 6.7991691322 13.3288734697 
Si 10.1296759526 6.8510202027 15.8245107252 
Si 8.2942653459 6.6134794205 17.2963327437 
Si 11.6944119170 7.8234191816 17.2536932456 
Si 8.7345514699 7.8893611022 19.2040706176 
Si 9.5484650373 6.4592131191 20.9678563776 
Si 11.9602972994 6.7512439517 21.0556470155 
Si 8.3262751961 6.8621462728 22.9343257794 
Si 10.0291829417 10.0551003320 1.2151030347 
Si 12.2063740416 9.4023274460 4.1246705194 
Si 9.4895115268 9.4841195367 6.8865417918 
Si 12.1993367616 9.3264974953 9.8484974489 
Si 11.2413381428 9.9662709611 13.5401142162 
Si 9.3963653059 8.6487357491 14.4141071070 
Si 10.3803464749 9.3074219051 18.3823841248 
Si 8.9536031019 8.9843260422 23.7978048214 
Si 11.9326368791 8.1442833145 25.3953257439 
Si 11.2002384724 9.5429590173 23.6831454586 
Si 8.4095008069 10.0100910615 25.9265963673 
Si 9.7249020289 9.6148630779 27.9900852299 
Si 10.3923196250 7.5183563488 27.1072723881 
Si 11.8212458581 11.7932922179 1.5169789993 
Si 9.4840706667 12.1309513409 4.2970100251 
Si 10.9182748599 10.7511394583 5.5359502916 
Si 12.2284144118 12.1041217107 6.9564588867 
Si 10.7428641383 10.7016015679 11.2311269830 
Si 14.9963623672 12.5706673150 9.6487635259 
Si 7.1412591353 11.5829557359 12.1847330737 
Si 9.6752012385 10.9570124802 16.9017713604 
Si 11.1406659419 11.6322981464 15.2100054650 
Si 11.2724846231 10.4563719056 20.1631088635 
Si 9.4182753561 11.8426183383 20.5192946985 
Si 11.3555310439 11.7124938171 24.6102040810 
Si 9.1966173241 12.1746737013 25.4030943100 
Si 1.2921684238 5.2807782183 26.8032761306 
Si 10.7927929887 13.4303394928 2.8889077717 
Si 10.4559483656 13.0490720393 8.2104982083 
Si 8.1641896947 13.5333085838 13.0643041455 
Si 10.3152842143 13.4789162733 14.1004147445 
Si 11.6551693066 13.5049802735 18.1771596363 
Si 9.3890673859 12.7390896265 18.3246163664 
Si 9.9658311311 13.6288657246 21.9829976893 
Si 8.5334025480 13.8730854069 23.8916993326 
Si 12.1106214208 13.2890889015 22.9887933575 
Si 4.3974366702 11.3288154436 28.6630299666 
Si 9.2158558143 14.4573262622 1.4881681330 
Si 12.1894650215 14.8544927559 4.1405873183 
Si 9.5143211970 14.8226458056 6.8770209176 
Si 8.8368200908 14.5134616027 11.0166736716 
Si 9.4052596460 0.6312049258 11.1216661344 
Si 10.7198789480 15.4400531012 15.3156404408 
Si 9.8866780204 16.1851902880 17.4138834149 
Si 8.3104901860 15.6572150932 19.1213324681 
Si 10.0861327822 15.5675549324 20.6796893037 
Si 11.5941306760 15.6763558434 18.9029656686 
Si 9.2050229642 15.8930128454 24.9298250861 
Si 0.0005359540 10.0537971319 0.1301926983 
Si 13.5310442738 16.2178028683 2.7868475045 
Si 14.9214772365 1.3178284321 4.0875799971 
Si 14.1563359295 0.4478463131 7.9229736474 
Si 9.0262565026 1.7663084262 9.1264880843 
Si 15.6185589228 10.5800130068 10.6757329175 
H 15.8991378854 0.5186573147 14.1710619678 
Si 12.9789598787 1.6972551155 13.1117332858 
Si 12.9031299280 0.0059320361 14.8998469239 
Si 13.3756050923 1.9034376474 16.2922017682 
Si 14.7180640046 1.7277174158 18.1991511034 
Si 13.2219415209 0.7960190023 19.6809612783 
Si 15.2424391094 1.9417191478 22.4291645473 
Si 15.2842555398 1.5750393894 24.8169472366 
Si 15.5775244125 16.2756975289 28.9511094251 
Si 15.0923756280 4.1536405280 1.2948564193 
Si 13.4892604234 2.7446858351 5.3029517190 
Si 14.8755720160 3.9362016060 6.7742772502 
Si 14.3193662510 3.1029192284 14.4774238412 
Si 15.0884334480 3.9191948458 19.0574608364 
Si 14.0854255588 3.7233564641 21.3250643923 
Si 13.8372148266 1.3783783626 28.0360541135 
Si 13.6808796951 5.5410598407 2.6094204641 
Si 13.5101279136 5.2019183276 8.1979400000 
H 2.9754988472 5.9457686044 10.9762537638 
Si 13.6298919947 5.3512813389 14.9667558898 
Si 14.1709806396 5.5219353805 17.4795365599 
Si 13.6615760449 5.7736484628 22.4891226909 
H 15.4453473513 4.4235332505 24.3958383850 
Si 12.5079833944 5.9769965347 24.5786917396 
Si 13.8402773466 2.8940488465 26.1562363493 
Si 2.2003880601 2.8975511965 0.0300237556 
Si 11.2589150530 4.1723903182 28.8808126635 
Si 14.9326033066 6.7094438114 4.2402352413 
Si 13.5522864339 8.1101883442 5.5704123517 
Si 14.8284613356 6.5427482398 9.5694715825 
Si 13.6708287650 16.1235977975 10.1206601085 
Si 14.1680810196 7.0346247943 13.2019187449 
Si 15.2380408094 7.6114536996 17.3984631032 
Si 12.2794672723 6.1191104960 18.7795447651 
Si 15.4858768716 7.2704877065 23.0230509816 
Si 15.3992303608 7.2360180662 25.5388397807 
Si 14.5814234834 9.0470262527 1.4829228906 
Si 14.8759955561 9.5334293672 6.9281299051 
H 6.1083753859 12.4997406543 11.1608594265 
Si 13.4707224032 9.1437725636 14.0251823150 
Si 13.5878637943 9.0216790125 16.4407682935 
Si 15.6131995128 8.6645044692 19.4818698683 
Si 12.2687484522 8.9911352622 21.6622376839 
Si 14.6223113837 9.0142181924 21.6612739144 
H 14.1647415695 9.9536787910 24.6009460530 
Si 14.0860771588 9.1432024136 25.9001365144 
Si 13.5339276038 10.7425872082 2.7700574720 
Si 14.8645273959 12.1888785815 4.0788476615 
Si 13.5953083243 10.8525284193 8.4856982020 
Si 10.7542997184 13.0777913096 10.6029245142 
Si 13.0355350492 7.2365393462 11.0239165453 
H 15.2261165293 11.8417386783 15.0540208353 
Si 13.9900150279 11.1119792516 17.5208910320 
H 15.7712125142 11.4685184849 15.4910172807 
Si 16.1260738775 10.7276818581 18.4567988105 
Si 12.8756324078 11.9410588092 19.4361346258 
Si 15.4588354714 11.1419854319 22.1253727258 
Si 15.7742750343 12.1651277613 24.2081661830 
Si 1.3187341561 7.5861227494 26.5242794693 
H 10.7209540881 10.7034912079 27.6287592911 
Si 15.7366288439 14.6623522041 27.1888131270 
Si 13.5429033939 13.5244631137 5.5455295761 
Si 12.0152434699 13.7952354962 12.4850202790 
Si 14.2600217804 13.1683148404 13.0625226322 
Si 14.8097278354 10.8054014488 12.8750548662 
Si 12.8727490777 12.7740642568 16.2676694542 
H 15.1213392483 14.0136518182 18.1955296666 
Si 13.8648589568 12.7005637762 21.4371537031 
Si 16.2472063186 14.3734164715 23.6990330524 
H 14.3962550517 12.3878283533 24.7776371239 
Si 14.4966829026 14.7617863650 1.2370302506 
Si 15.0586716177 14.9256474765 6.7385301641 
H 12.1876405415 15.3110688800 12.5519000397 
Si 14.2368736902 14.3302153911 15.1470391925 
Si 15.7848472444 14.5475891530 16.9439435764 
Si 15.4869357216 14.4414272221 21.4709732502 
Si 14.1109356991 0.0185215673 21.6983060265 
Si 12.9109491281 15.4506090213 23.6161488773 
Si 14.8188502355 15.5725559624 25.1004998991 
Si 15.3102380900 10.7465945483 27.3072691573 

