&CONTROL
  dt          = 30.D0,
  prefix = 'aSiHcSi_merged-23',
  pseudo_dir = './',
  outdir='./',
 wf_collect=.true.,
 verbosity ="high",
/

&SYSTEM
    ibrav= 0, nat=  388, ntyp= 2,
  ecutwfc     = 42.D0,
  nbnd=1468,
  degauss     = 0.05D0,
  occupations = "smearing",
  smearing    = "methfessel-paxton",
/
&ELECTRONS
  electron_maxstep=200,
  conv_thr    = 1.D-8,
  mixing_beta = 0.3D0,
  scf_must_converge=.false.,
/
&IONS
/
ATOMIC_SPECIES
Si  28.08  Si.pbe-hgh.UPF
H  1.00784  H.pbe-hgh.UPF

K_POINTS {automatic}
2 2 2 0 0 0

CELL_PARAMETERS angstrom
16.29000014898320 0.00000000000000 0.00000000000000
0.00000000000000 16.29000014898320 0.00000000000000
0.00000000000000 0.00000000000000 29.21725545547440

ATOMIC_POSITIONS angstrom
Si 1.1850893658 15.0248209974 27.7816656087 
Si 16.2302321384 2.7949567756 2.6013641829 
Si 1.8321526068 1.9020367074 1.5347006208 
Si 1.2436828674 4.1414881879 4.0417105989 
Si 16.1963326481 16.2481185586 5.4148047363 
Si 1.2805129287 1.2704098706 6.8530241361 
Si 16.2018875382 2.6292060240 8.1909114807 
Si 15.6353213330 5.0746282664 10.7749732049 
Si 1.6829687854 2.2255072404 13.0348694799 
Si 1.9779481081 1.9255431776 20.9482462510 
Si 1.4793470415 0.0086505602 24.1875049288 
Si 14.4960638826 3.3585907807 28.1071166172 
Si 15.6235925329 6.1879846166 0.1894026115 
Si 16.2648320988 8.2196245652 2.7742660573 
Si 1.2661793576 7.0424277044 1.2348497715 
Si 16.2158643583 5.4288706097 5.4653213710 
Si 1.4351408681 6.7313864416 6.7689660922 
Si 16.2495032086 8.0104120933 8.0445622481 
Si 0.7601793730 6.2229918269 14.2886111287 
Si 1.5974837516 7.6378597899 18.2139201819 
Si 1.7043249756 7.8450360117 20.6065212312 
Si 1.9474532278 4.2209182286 20.4542116785 
Si 1.8001264665 4.8072767840 24.8171075666 
Si 15.9470467758 5.1258277369 27.3833175478 
Si 0.4285051959 10.6328740572 29.1414951121 
Si 1.4465178042 12.2977283625 1.2824885065 
Si 1.4895657586 9.5152660170 3.9918659611 
Si 0.1979984358 10.7866842387 5.4185445450 
Si 1.5153919249 12.2056084116 6.7523414738 
Si 14.7582351450 6.5799057302 9.2216086014 
Si 0.5874760494 10.0361387718 13.1644187906 
Si 0.5070800116 8.4910811277 14.9272126812 
Si 0.7499622849 11.7803905377 18.8883713069 
Si 1.3342275752 11.5904980060 21.2224501934 
Si 2.0914079591 8.4934431777 24.8098032528 
Si 2.7565286652 7.7638466510 27.0608759166 
Si 16.2281144384 13.5152266836 2.6491811432 
Si 1.2332100263 14.9772053270 3.9734298729 
Si 15.8562951850 12.8972166580 7.9318712938 
Si 15.8006485445 15.8793781152 10.8650207862 
Si 1.5514856782 14.9474272067 10.2273834032 
Si 1.8100959466 13.3360203920 15.4231463753 
Si 1.6389694950 15.7076326437 15.8175208895 
H 0.0246159821 13.0951564498 18.6624050532 
Si 1.9690537680 13.9739042178 24.1594271463 
Si 0.0900986876 12.7573344267 25.0240826043 
Si 15.7925198344 12.0687398304 27.3950921017 
Si 2.6767076645 0.1004708565 2.8057067459 
Si 3.6720266736 3.8020534548 28.1784651550 
Si 3.4673265317 3.6345596732 1.3479410022 
Si 4.0580833871 1.3587945244 4.1875339209 
Si 2.5758888536 2.6998231747 5.4210864462 
Si 3.9595451762 4.0276699568 6.7573668417 
Si 2.5944920337 16.2297108584 8.3801808615 
Si 3.9924509765 1.3967958368 9.7033427093 
Si 2.7097926548 0.2236502990 13.7911289201 
Si 2.6828164145 3.5263614923 14.7108589046 
Si 3.0546845379 0.6092932466 17.2422711345 
Si 2.1923570901 2.8029062956 16.9007798527 
Si 3.1137520785 0.4134825578 19.5662116334 
Si 2.9846049573 1.3713964685 22.9701971975 
Si 3.2863609201 3.0676839581 24.5228898042 
Si 1.4026032218 0.7641834550 26.4885098822 
Si 2.5538647734 5.4992434103 2.5577778812 
Si 6.5796613802 6.5381055898 28.4217280239 
Si 4.0156153567 6.8307065725 3.9188812570 
Si 2.7755390954 8.1847313849 5.4499530946 
Si 15.7231570138 6.7309140316 12.3789713122 
Si 2.6963534047 5.3464106289 8.2429766299 
Si 2.7089129948 2.9842628673 11.0299229760 
Si 1.1724988247 4.0461265270 9.5920249660 
Si 3.0215343876 5.6925079721 13.8488329996 
Si 3.5083773321 6.3791966383 17.7845433957 
Si 3.2049597893 4.1763162082 18.4970938218 
Si 2.9676633571 6.0820018756 21.5816471320 
Si 2.9865434673 6.5345543698 23.8924690832 
Si 4.0574317871 9.7752055494 1.0720921282 
Si 2.8139672057 10.9772935304 2.6620075184 
Si 4.1279186178 12.2358263619 4.1432405616 
Si 4.1208161777 9.4766098467 7.0078171555 
Si 3.3646180808 11.4806545350 8.1337625290 
Si 2.0736681490 11.1515476620 10.0870529252 
Si 2.6470272842 10.9981447306 12.3774520149 
H 7.4010031877 14.1086388090 10.2124826029 
H 3.6694691436 9.8896590904 12.6411961799 
Si 2.0664516789 9.2815208049 16.4969973823 
Si 2.3057354911 11.6000765261 17.1090696669 
Si 2.7566752752 9.7952422496 21.1966221396 
Si 3.3730237208 9.9230210108 23.4604043095 
H 2.9107460966 11.3492593938 23.8047880996 
Si 8.5591896183 13.6405130748 0.0042352165 
Si 2.6998883347 13.8833806870 29.2013320513 
Si 4.0107935167 15.0152261873 1.5213658654 
Si 2.6514092942 13.6760741451 5.3306006061 
Si 3.9422289061 14.9475412367 6.8549524750 
Si 3.1603740589 14.9660140969 12.0340616115 
Si 3.2625938098 13.0380437092 13.5289624869 
H 2.4730012126 13.8062149563 18.7647238818 
Si 2.6588375343 13.3993396225 21.8903858704 
Si 2.1131388193 14.6611141641 19.9613165789 
Si 3.6170153431 12.9435454184 25.4833486428 
H 1.5568255402 1.4629022864 0.1016848142 
Si 5.2634945281 0.1188221933 0.2106581649 
Si 5.2563757981 2.7390006251 2.6962676721 
Si 5.3941077493 16.2663307788 5.5247784858 
Si 5.3117455086 2.6714459944 8.1549742565 
Si 6.4960285194 4.3835087201 9.2423236355 
Si 4.9389488552 3.0861731082 14.7234807589 
Si 4.9988471857 0.7990961833 14.3892061393 
Si 5.2711834082 0.1914742908 16.6045460997 
Si 5.4319331297 3.5117982321 18.6981377566 
Si 5.3365225988 0.2219773160 20.1906428170 
Si 5.2566690181 0.9355738046 22.4355214227 
H 4.5381985615 3.7353784842 23.9594642500 
Si 5.6347599215 0.6753964382 25.9616643318 
Si 3.5510571325 1.9540669679 26.5702597630 
Si 7.7206944406 2.9300171668 29.1420210227 
Si 5.3231647987 8.3183582561 2.5692514975 
Si 5.3080476785 5.4859181902 5.3833961867 
Si 5.4342951797 8.0165697133 8.3942927959 
H 13.8477707466 7.5368292089 9.9580295251 
Si 5.8802828038 4.2192240686 16.5181214580 
Si 4.5290598714 6.4284413088 15.6198661563 
Si 5.0375522261 7.6683058001 19.1116203558 
Si 5.2445655480 6.4354134289 21.0820028465 
Si 5.1946041175 6.6849762311 24.8462663876 
Si 2.0481742987 5.3655513791 27.1003484287 
Si 5.3607784090 11.2925539033 28.8588766001 
Si 5.4477181398 10.8028927888 5.5265315212 
Si 0.4015827127 12.8525494775 10.1079724801 
H 4.0946870174 9.0486063828 13.9079102901 
H 2.3267658813 8.0279075534 10.1196009478 
Si 4.1328870678 8.7591819501 15.4053530668 
Si 4.5792167819 11.3689051340 17.8587552246 
Si 5.8931030339 9.8858635204 16.4819212785 
Si 6.0478254553 10.9163037698 21.2482782472 
Si 4.5593592717 9.9227766608 19.7280752286 
Si 5.6915794421 9.8092842297 23.2752545617 
Si 5.1869315274 7.8515031418 26.9286094011 
Si 4.4054676403 13.2460181411 27.6836124994 
Si 5.4714363800 13.5790020342 2.7159922413 
Si 5.1243290569 13.2927215716 8.0221233959 
Si 5.1141803868 16.0186087465 11.0133567922 
Si 5.4798746001 13.1925217807 14.3615666156 
Si 6.0807964156 14.3217283010 20.2646501251 
Si 5.0220604359 12.9646735486 21.8753974183 
Si 5.4849407902 13.2108154508 24.1947215909 
Si 5.9367113643 15.5809290225 24.0392857919 
Si 8.0975473041 0.0444216901 2.7603411133 
Si 8.8773007412 1.4226350350 27.7552824270 
Si 6.7051269613 1.4326941101 1.4159178687 
Si 6.6482259908 4.1710871181 3.9683752877 
Si 7.9988787732 2.7844334355 5.3578603054 
Si 6.7492728617 1.3794697926 6.8122952820 
Si 8.0038146432 16.2304276184 8.1853309849 
Si 8.4378454072 8.5705274584 10.8167830975 
Si 6.6335649907 0.4087421677 12.7204333767 
Si 7.4941982785 2.6034352438 12.4533292273 
Si 6.2929247976 1.3578399304 18.3753163011 
Si 6.6531618608 2.9041812266 22.3933317058 
Si 7.5409505790 3.8572765553 24.4052611337 
Si 7.8127492315 1.8318105168 25.6687905632 
Si 8.0734381038 5.5608847709 2.6507734836 
Si 9.8200844998 10.5737087767 26.6437411604 
Si 7.0899130548 7.3211007370 1.3934790165 
Si 8.1467593945 8.2681036056 5.4186321968 
Si 6.6872405412 6.9250093833 6.6806423289 
Si 8.0486447236 5.5717827810 7.9670780866 
Si 8.3218606061 3.3138584403 10.4216197174 
Si 7.9154251024 7.8914462222 14.1009486969 
H 6.5956744503 5.3822974992 13.2065500729 
Si 8.1527866946 4.4509004507 16.0543851794 
Si 7.0132197341 6.5965866903 15.9034488378 
Si 6.4518826190 4.4774205709 20.5892830505 
Si 6.2634561873 7.5535753291 22.9089870473 
Si 5.7832106929 4.6055088421 25.6592365206 
Si 6.3650080482 9.9286084808 27.1698854967 
Si 8.0659447038 10.9155218498 2.6044466034 
Si 10.1798328631 12.5817119351 27.8474044334 
Si 6.7291058415 9.5860786477 4.0219889515 
Si 6.8203135524 12.2112447517 6.8028581085 
Si 4.6283962923 6.0106842550 9.5961738163 
Si 8.1068488941 10.9468638101 8.3376113203 
Si 3.9372604560 4.9492767153 11.6823150731 
H 6.1116170959 11.7860431678 14.4921969647 
Si 7.5448764690 10.0893582023 14.7966115493 
Si 6.8480880026 8.1325545144 17.7556183128 
Si 6.5534996399 11.1463185719 25.0255434670 
H 8.2777309957 8.1526075046 25.3538869839 
Si 8.2328520453 15.3761800106 27.6502463936 
Si 6.7787903420 14.9351771266 4.1287488029 
Si 8.2053219450 13.5664261541 5.4559426320 
Si 6.3765576583 14.8694632660 9.3712593838 
H 6.2775959074 13.8176342464 13.2284922318 
Si 6.2464005571 14.3733513115 16.2540266860 
Si 6.1501918162 13.0870928997 18.2256363014 
H 7.4882524285 12.3514202030 18.1773109608 
Si 8.1394126044 15.1076067782 23.3585821743 
Si 5.9952087548 4.3075158694 28.0036583156 
H 1.3623408575 14.0344215684 26.6197245765 
Si 9.3383077454 4.1626651881 1.2137841303 
Si 9.4338323063 1.3945787678 4.1112184497 
Si 9.3980757560 4.1413415779 6.6522431566 
Si 9.3795866058 1.4559171343 9.3981100416 
Si 9.0147720524 3.3711340808 14.0986697510 
Si 9.6273737980 0.3253373670 16.4517106364 
Si 9.2910015850 3.7344825342 18.0100421734 
Si 8.6341236190 1.4812969545 18.2639109060 
Si 9.8368957800 4.0255848368 21.7812302040 
Si 9.3314496553 0.5127228677 20.2757526822 
Si 8.7693306202 1.9842197581 22.0210162195 
Si 9.1461834836 0.8271003226 24.0074682007 
Si 8.9054009914 6.8081449223 27.9067738965 
Si 9.4847874267 6.8632377028 4.0261670190 
Si 6.6818485511 9.5911774177 9.6193138826 
Si 10.1281121126 4.8838397847 10.7175612979 
Si 10.4214135653 4.9908325056 13.0679434131 
Si 10.1580694229 7.1395161053 14.0575610726 
H 9.4177703661 6.6874034412 17.0400877267 
Si 9.4241723362 7.1485407654 20.2405458893 
Si 8.6866751594 4.9514432853 19.9365987808 
Si 8.5902546486 7.4885293585 22.4655859785 
Si 9.3019158851 5.5793087610 23.7315404402 
Si 9.4008776360 7.1805994857 25.7067729952 
Si 8.8091108006 9.0762179330 1.2842035594 
Si 9.5401408473 12.1399922910 4.0787288616 
Si 9.5196480271 9.5345696672 6.9712079344 
Si 11.9195885890 9.0808605831 10.4122994129 
H 7.8866080921 7.8643233719 12.1599003308 
Si 9.7087749288 10.7993252788 15.4301292994 
Si 8.6810388194 9.0361934026 18.9822755659 
Si 8.3841535667 10.7844362186 20.7394305262 
Si 9.2512702746 9.7750752294 22.7057518184 
Si 8.8316235808 11.2114297025 24.5784902413 
Si 12.1032583407 11.7298589573 28.7758119428 
Si 9.6022383278 14.9615832168 1.5917911379 
Si 9.5221892671 14.8502084858 6.9725227109 
Si 8.3272363062 13.2661037113 11.8180876592 
H 8.5488780482 12.3500518429 13.0106483751 
Si 8.5295092380 15.2617590496 13.1356982285 
Si 8.5424923681 14.7073777645 15.5149469920 
H 8.2378367853 15.0039209272 18.2340508709 
Si 8.2656438156 14.7879318152 21.0143356828 
Si 9.6164106279 12.8997741880 20.5990416138 
H 8.6793935294 14.3514575513 18.4374029689 
Si 9.5037815669 13.4873056234 24.3073541107 
Si 10.1062672224 14.4687129723 26.4164601303 
H 10.7393454982 16.0793541571 1.1116493704 
Si 11.2557547929 1.6414781550 28.0225618799 
Si 10.6883740878 2.7209838849 2.5898701146 
Si 11.8143226081 1.1999230400 1.1524220504 
Si 12.1312934309 4.0416956470 3.9716768376 
Si 10.7802659786 16.2502688386 5.4722458605 
Si 12.2139000217 1.3215946801 6.6919201895 
Si 10.7235441981 2.6698169944 7.9098999177 
Si 11.9302259591 3.9789302764 9.4078686049 
Si 11.1816678723 0.6711854731 10.7579395450 
Si 10.6247616372 0.0832057370 12.9589630502 
Si 10.5420084364 1.6962614255 14.7426472785 
Si 11.6323470164 3.7567509644 17.7452461872 
Si 11.6949006170 0.3067928308 20.3020189948 
Si 12.1332319410 3.5512363225 21.6190160017 
Si 11.4522284847 0.7923961062 24.3743200602 
Si 11.8660107785 16.1656259978 26.5226356366 
Si 8.5549216382 9.2076130742 28.1069997482 
Si 10.7194391180 8.2067717551 2.4994660828 
Si 12.1109309308 6.8015148922 1.1760149842 
Si 10.8159247889 5.4757369401 5.3489198253 
Si 12.1435272211 6.8285888725 6.7629473375 
Si 10.9066112197 8.1145703542 8.3641113710 
Si 11.8116184680 8.1929089649 12.7222448465 
Si 10.6787466977 7.3013246768 16.4510970740 
Si 11.8028381579 6.9810144038 19.9220193704 
Si 11.6463075465 6.0673408755 23.7813850780 
Si 11.2000104124 8.7270091998 26.1256315695 
Si 10.7011291579 5.4677222600 28.9569297094 
Si 13.4096837726 8.7776222303 27.0791951358 
Si 12.7595009967 12.7060372162 1.5397727363 
Si 12.1312445609 9.5478297273 3.9531823149 
Si 10.8862487196 10.8321333391 5.5343909629 
Si 12.2527842521 12.2170277017 6.9502883795 
Si 9.3674668457 6.7682670019 9.5127293347 
Si 10.1106003625 10.2919569341 11.3022862314 
Si 11.3074755434 10.3320792045 13.6624561271 
Si 10.2886826441 9.4879151068 17.2891356122 
Si 11.8854447487 10.7483538683 18.4361466269 
Si 11.5454235756 9.7428373191 22.3918416258 
Si 12.2630632422 8.2879285358 24.0772974412 
Si 6.8505966627 12.3762135832 1.1632587304 
Si 10.9739215004 13.5524656239 2.8324814388 
Si 12.2363965119 15.0111862673 4.1014598863 
Si 10.8953059596 13.5285844837 8.4978679665 
Si 12.2496728620 15.0942326880 9.6996029006 
Si 9.4567523365 12.2043703716 9.9584970012 
Si 12.0077826498 14.5031500326 13.1910064930 
Si 11.7812376177 15.8321859848 16.9635677347 
Si 10.1555607629 13.0160684990 16.2623536038 
Si 12.1783552414 14.0394063084 15.4691343354 
Si 10.9478575001 12.9182470481 18.6272859121 
Si 11.0056707107 13.5039051335 22.4889597829 
Si 11.9806760896 15.7229778238 22.5158104407 
H 11.6355072764 12.8533639776 25.7122074048 
Si 13.4596126231 16.2500733586 2.4397197171 
Si 12.1230832709 3.8705529054 27.5956977777 
Si 13.5457052739 2.6396642041 5.2532040964 
Si 13.5291872137 16.1957787881 8.0694845670 
Si 13.0010654089 2.2505123906 10.5831619228 
H 13.2372215411 0.6241236627 14.1998198894 
Si 12.2877914624 3.1365254987 15.5284745812 
H 13.6617063649 2.5268559531 15.7917804874 
H 12.6860330960 0.7477338128 16.7728374911 
Si 12.6511562057 2.4530459624 19.5724641261 
Si 12.6759332959 2.7421608851 23.8374237739 
Si 13.4456683830 5.3942054893 2.5698738250 
Si 13.9041178572 7.8778766520 0.0429283291 
Si 13.5047685035 8.1597099446 5.3368823160 
Si 13.3398485420 5.2555775881 7.9907440635 
Si 13.6045121744 6.8431358426 13.4506018078 
Si 12.6793053260 4.6491823325 13.6789638764 
Si 12.2460564820 6.0396478752 17.7207621271 
Si 12.7984015171 5.7552407626 21.7260972430 
Si 12.5878532651 4.5864658319 25.3574514890 
Si 13.6699165250 10.9090221398 2.7440904758 
Si 14.1470180494 11.1724477322 8.0029568763 
Si 13.4978778334 10.2870862241 14.8554843191 
Si 13.7379109856 11.2089699125 17.0426588452 
Si 12.3693554931 9.2401767845 20.2363386045 
Si 12.4939088343 11.7673096676 22.9935710019 
Si 12.9505338284 12.2900394824 25.2287494787 
Si 13.6711545650 11.1111321716 27.1227288464 
Si 2.1626278398 8.8497054809 29.1018765137 
Si 15.2721357797 14.3364218811 28.2802872903 
Si 13.5311257238 13.5554955640 5.4325103931 
Si 13.6818245151 14.3542105613 11.5222045132 
Si 12.5467535947 14.7661846650 19.0257216248 
Si 14.2089363400 15.1449760385 22.8426638775 
Si 14.2064765499 15.7161197337 26.6403227416 
Si 14.8855577861 4.1302480878 1.1656545454 
Si 14.8880827362 1.2765202497 3.8664655007 
Si 14.8476020858 3.9504064861 6.7375867598 
Si 14.7978850053 1.2238628242 9.4821388683 
Si 14.1389382093 3.6347551532 12.0557115978 
Si 15.6832139334 2.7823483154 13.5818165020 
Si 14.7485914649 0.7368716407 14.2677207911 
Si 15.7860527044 0.4217383299 16.3244402716 
Si 16.1221316974 2.6515070342 17.1230939495 
Si 15.0469265276 2.6619000543 19.3112034278 
Si 16.1100282273 1.0563592687 20.7092198841 
Si 15.7494327840 0.6046017265 22.9928113532 
Si 14.9673335869 2.3938155219 24.2882460256 
Si 15.3627896305 1.6067592777 26.5426786738 
Si 14.8594612059 6.7490773817 4.0113246532 
Si 5.8117670632 4.1456258479 12.8407208174 
Si 1.1849916258 8.9726624021 9.8214388559 
Si 14.3557581113 6.1725416965 16.5941739740 
Si 15.6856411435 4.4400838906 15.4345411050 
Si 14.4575380322 8.1253869143 15.2268064187 
Si 15.8108786646 6.4916139294 18.3767771638 
Si 15.9358066757 8.0251545434 21.7502306960 
Si 15.9857192362 4.7377184833 19.9440491810 
H 14.9884128471 7.4337623780 19.2449386924 
Si 15.1676028487 5.7697388628 21.9004658235 
Si 14.6850604643 5.7225956023 25.4790829235 
Si 15.9094657455 4.5698826118 23.8678389369 
Si 14.4026081517 8.0281356134 25.0600198285 
Si 5.8992932340 15.2451432494 27.5356855350 
Si 15.0125872073 9.5911774177 1.3032707403 
Si 15.0287305974 12.1667078913 4.1857516683 
Si 15.0105835373 9.4473204264 6.6604239881 
Si 13.9871642779 10.2827693740 10.2596392532 
Si 15.7743239043 8.9210556816 11.4074391338 
Si 15.1204270083 11.4848247750 13.5601080812 
H 15.9764828061 9.0414713627 17.6739853011 
Si 15.3859703007 10.2306576636 18.4028973902 
Si 14.4425675221 11.7229682872 21.7160172898 
Si 14.6185321037 9.6537635983 20.5430613523 
Si 16.2073121082 11.2700411231 23.1797433536 
Si 16.2265017284 8.9983680223 23.9009713046 
Si 14.4643146723 14.3903906516 1.3281258595 
Si 14.9278954965 14.7947899053 6.8127627581 
Si 14.6993142144 12.2445903820 11.3767902328 
Si 15.4315660111 15.1803742088 13.0765625034 
Si 15.8582988550 13.3788630924 14.6298978897 
Si 14.7685630051 15.2131333991 17.8825672878 
Si 14.2781036806 13.4252407228 16.4023919092 
Si 14.3814148615 13.9363883475 20.8317570535 
Si 16.1141007274 15.1534631286 19.7947490056 
Si 14.4492138421 14.0902473989 24.8998800513 

