&CONTROL
  dt          = 30.D0,
  prefix = 'aSiHcSi_merged-17',
  pseudo_dir = './',
  outdir='./',
 wf_collect=.true.,
 verbosity ="high",
/

&SYSTEM
    ibrav= 0, nat=  388, ntyp= 2,
  ecutwfc     = 42.D0,
  nbnd=1468,
  degauss     = 0.05D0,
  occupations = "smearing",
  smearing    = "methfessel-paxton",
/
&ELECTRONS
  electron_maxstep=200,
  conv_thr    = 1.D-8,
  mixing_beta = 0.3D0,
  scf_must_converge=.false.,
/
&IONS
/
ATOMIC_SPECIES
Si  28.08  Si.pbe-hgh.UPF
H  1.00784  H.pbe-hgh.UPF

K_POINTS {automatic}
2 2 2 0 0 0

CELL_PARAMETERS angstrom
16.29000014898320 0.00000000000000 0.00000000000000
0.00000000000000 16.29000014898320 0.00000000000000
0.00000000000000 0.00000000000000 29.20415829535462

ATOMIC_POSITIONS angstrom
Si 16.1300812175 16.2501710986 28.8739760817 
Si 2.6720161444 0.0323527548 2.6171364865 
Si 1.2834760797 1.3871488987 1.1249967450 
Si 4.0662283872 1.3430551263 4.0687233337 
Si 16.2773265289 16.2820506289 5.4300167643 
Si 1.3323281612 1.3347293072 6.7918358698 
Si 2.6482001642 16.2647995188 8.2273954750 
Si 3.5606356526 1.7417105259 9.5566227398 
Si 0.7075708175 0.5031818146 14.7254667165 
Si 0.4321508980 0.5612230851 17.1320937891 
Si 2.3799364418 0.5566553691 21.7805780733 
Si 1.3825111356 1.1262531433 23.8774074348 
Si 2.9051097566 0.1578924554 25.5008081861 
Si 3.6805952137 1.4968099217 27.3806798556 
Si 0.0119625616 2.6912057646 2.6525465284 
Si 2.5602830334 2.9029920565 28.9546379669 
Si 4.1093480176 4.0447581670 1.2062368726 
Si 1.3695019415 4.0743082273 4.0297941907 
Si 2.7181005549 2.7194200449 5.4400045865 
Si 4.0857763874 4.0790323273 6.8024661834 
Si 16.2011219082 2.6272349340 8.1626206519 
Si 1.7773204663 3.4493097915 9.3905094874 
Si 0.3987449946 3.7452339343 12.5793699400 
Si 3.5736024927 2.7947287156 13.5380840485 
Si 1.3969815428 2.7438876251 14.4645859704 
Si 1.2148055841 4.0272464168 16.5030070153 
Si 1.0651933357 2.5422174233 18.3808635978 
Si 3.4570801216 4.0228481168 21.4378088674 
Si 2.6425638242 2.2437357505 20.1451744129 
Si 1.1637836746 3.4724253018 23.9038664022 
Si 13.1786915705 3.1278592186 0.1210334216 
Si 0.2564143763 4.0969024575 25.9047893078 
Si 14.2042936899 7.5901626694 29.1938200233 
Si 2.7353353750 5.4337738997 2.6033784075 
Si 16.2756323689 5.4187708096 5.4183058969 
Si 2.6211913440 5.3325315488 8.1638764307 
Si 0.3083452678 6.0520282753 12.7540108066 
Si 4.1239601477 4.9658436454 12.4762208529 
Si 2.9661646771 5.5939534712 16.1013038179 
H 3.5779519227 4.7456680034 15.0115214470 
H 1.4034600758 5.7102477822 18.4969793312 
Si 2.3234264312 6.0036143949 21.0450713466 
Si 3.3605618707 4.2504194189 23.8153193942 
Si 0.0365573667 8.1474435745 2.7059346502 
Si 2.6837123645 8.1094715842 28.8702087452 
Si 1.3697381465 6.8533659627 1.2482382930 
Si 4.0696818672 6.7788229220 4.0306119071 
Si 2.7098089448 8.1311861544 5.4353319211 
Si 1.3136142090 6.7527100518 6.8041600246 
Si 16.1654468078 8.0745458238 8.1457990567 
Si 4.0033652766 6.7635754819 9.3692196560 
Si 2.5703502535 6.8424353726 12.6874253257 
Si 2.9140040967 7.6348624298 14.8947340180 
H 0.4776781904 7.7675281910 17.6516357652 
H 1.2862453798 6.3692923183 18.1085056176 
Si 3.7108946139 7.1876856357 19.5790810085 
H 2.4424900423 6.6716998810 22.4056346733 
Si 3.8980178457 6.5016974395 24.5167156640 
Si 13.2994493416 8.3815308767 27.1472802225 
Si 1.4866091236 4.7861649438 27.7237703072 
Si 4.0814595373 9.4227388162 1.1762354408 
Si 1.3738823226 9.4922482468 4.0656276929 
Si 4.0560797171 9.5181167670 6.7794533067 
Si 1.2567050935 9.3802056258 9.5135174021 
Si 2.9382761969 8.3054565760 10.8051297111 
Si 1.3324780292 9.3489776955 15.3056657293 
Si 0.9677432969 9.2052998942 17.6668219275 
Si 3.0155885376 9.2757052748 18.8114205036 
Si 1.9161764275 9.5637613475 22.4674598764 
H 2.6889414546 9.1451409236 25.4199710759 
Si 3.3989411111 8.8007866105 24.1285047878 
Si 1.5520183612 9.8855865904 27.6999689182 
Si 0.1139040793 10.8714085294 0.0681587089 
Si 2.7730304354 10.8024040888 2.6972055273 
Si 1.3975859018 12.2281211918 1.4743544090 
Si 4.0745037073 12.2304832419 4.0521645760 
Si 0.0000282200 10.8632961094 5.3864149560 
Si 1.3552286434 12.1904424215 6.7832498473 
Si 2.6303951941 10.7974356387 8.1890796193 
Si 3.9273561359 12.0493221502 9.7119596578 
Si 16.0942595072 10.6411005073 10.8977945053 
Si 2.2006975701 11.1855611823 13.9991008914 
Si 3.3156666303 10.4904994559 20.7868773832 
Si 1.0603845277 11.0977255015 24.0339417232 
Si 3.3044591102 11.6166760362 27.7193604793 
Si 16.2322032285 13.6243859746 2.6745577025 
Si 2.7103302248 13.4513210130 29.2032529664 
Si 2.7268645749 13.5833514642 5.4511313708 
Si 16.2780595789 13.5202602937 8.2000311786 
Si 1.5280720610 13.2596691613 14.9225071725 
Si 3.9227460659 12.3554601230 17.1427825111 
Si 1.6106949417 13.1141505899 17.2151504153 
Si 3.0522247479 12.7967236470 20.5595522150 
Si 0.7360098997 13.2518825412 20.6404477335 
Si 3.6704954136 13.8647449268 22.5125510968 
Si 2.6917107546 12.2237228918 25.4665225042 
Si 4.0846686674 14.9887875171 1.2249158522 
Si 1.3460834373 14.9404225066 4.0521061676 
Si 4.1135508376 14.9056433563 6.9042426751 
Si 11.8559924284 11.9974222097 12.2022274398 
Si 2.5822745336 13.5570105340 11.0277822139 
Si 3.9158065258 15.0927177180 12.3253521711 
Si 2.5819813136 15.2897941398 14.3075844154 
Si 3.9996348666 15.6707683733 17.9968289162 
Si 1.7542212460 15.2784237197 18.1560499873 
Si 0.9892265490 15.5499617322 20.3970894824 
H 2.3165520512 14.2624652804 23.1040521189 
Si 1.7796662263 14.3674380414 25.8321585661 
Si 0.9313367755 14.3621763714 28.0192287767 
Si 8.1196854143 0.0236810990 2.6164063825 
Si 6.7199019915 1.3660435745 1.1500363903 
Si 5.4552441199 16.2633334187 5.4670768412 
Si 6.8059783522 1.3571427184 6.8587425965 
Si 8.6739037993 0.5791371983 8.1348474973 
Si 6.8024760022 1.3015156259 11.9883361844 
Si 4.3230076595 1.1855796948 11.7972533767 
Si 7.4119663578 0.5696140642 17.3824026299 
Si 4.5092186512 1.2842856927 19.1644987774 
Si 6.0254104151 0.5922213264 20.7779701149 
Si 6.2495933972 1.7751701862 25.3051403255 
Si 5.2461782580 0.1240833746 28.8597536566 
Si 5.4009495494 2.6792489045 2.6483236071 
Si 11.4253499845 4.8557721144 0.2773472187 
Si 6.7671104119 4.0686555972 4.0168567486 
Si 8.1021085041 2.7239975349 5.4188607759 
Si 5.3369624288 2.6336531941 8.2137279289 
Si 5.5644359909 5.5481948607 10.6015183194 
Si 6.9112606232 2.8726274963 13.8885631522 
Si 5.0686824164 2.1331266495 15.2959115405 
Si 5.7681750228 2.3446197214 17.5416237009 
Si 7.0255186843 2.5943291337 21.4645014681 
Si 7.8201611815 2.1910864700 23.6272154106 
Si 4.4830243310 3.2272770895 25.7530445013 
Si 8.2219214552 8.1374740944 28.9323843983 
Si 8.1412370845 5.4895997302 2.6990191055 
Si 5.4227292796 5.4184450096 5.4070622959 
Si 8.1305834244 5.3672618291 8.1041539270 
H 1.2138851991 3.5690412926 11.0357549491 
Si 6.0136001650 5.1124047768 13.8652874380 
H 14.7083877445 15.0199991574 10.9411626804 
H 5.7217973923 5.3695098491 15.3498516208 
Si 4.5653051218 6.0420587953 17.7305161968 
Si 6.0568501154 4.4551358507 18.5112601646 
Si 5.6596347518 4.3203523895 20.8591576749 
Si 6.6835427111 6.0197740751 22.0852942610 
Si 7.7660783810 3.2340374396 29.1334258240 
Si 5.9822744947 4.8996899548 29.1451658956 
H 10.1979473433 2.2711844008 27.5220571859 
Si 5.4427333998 8.1133486042 2.6211491378 
Si 7.9657123329 13.6417511148 29.1858764923 
Si 6.8445367826 6.7773242420 1.1729704159 
Si 8.1636032547 8.1521188046 5.4354195336 
Si 6.7990225222 6.7641130519 6.7592148250 
Si 5.3957856193 8.1086570842 8.0742488689 
Si 7.2512329263 7.3360549571 10.8728833583 
Si 7.4540922982 6.8965507531 13.2282863373 
H 5.4210839896 7.0940018449 17.0922593172 
Si 5.6966619221 7.6597861301 20.7547528090 
H 6.7367947216 7.7709002211 19.6330502931 
Si 6.3856474784 6.6577719309 24.3590424134 
Si 6.7842474920 9.4901794168 4.0460609069 
Si 6.4795919093 9.3279635953 9.7847948285 
Si 4.5489499616 10.1001421824 11.0700990393 
Si 7.2179361660 8.6177195888 14.8786133226 
Si 4.6147615622 10.0881364523 17.3103559714 
Si 4.8611315245 8.9888057922 15.1765541455 
Si 5.4474249198 9.8307055799 21.5888527741 
H 6.2292146070 8.1792905248 24.1630241029 
Si 7.2347963162 9.9951368414 27.7155055304 
Si 5.3203792087 10.8143772389 28.9052537352 
Si 8.1220800443 10.8433897292 2.6358884765 
Si 6.6438439808 12.1514441611 1.2518012003 
Si 5.4271927396 10.8714248194 5.4130491484 
Si 6.7647972319 12.1625376512 6.8428847385 
Si 7.9729125129 10.7172888380 8.3086998517 
Si 4.4162842004 10.5681050167 13.4484564867 
Si 6.0533803454 12.1615765412 13.7590135060 
Si 7.9284733925 10.7448026483 13.8800063338 
Si 6.8476155926 10.1949174032 18.1813407884 
Si 7.3915061176 10.3932970251 20.5084449380 
Si 5.2624030981 10.2948076842 23.8901988561 
Si 7.2021837359 10.3671678648 25.2512002451 
Si 5.4119778795 13.5852411042 2.6517872203 
Si 6.5079853795 14.7866286152 27.7345174375 
Si 8.1302739144 13.5878475043 5.4629006466 
Si 5.4041749694 13.4132024127 8.3338154278 
Si 6.0880943357 13.9955536280 12.2790635802 
Si 5.7322881524 13.1675980804 15.8407735218 
Si 7.3286104270 12.3126500026 17.3058293268 
Si 4.5933890820 13.6052778044 18.9742920944 
Si 7.7254511207 12.5689242850 21.2461711807 
Si 6.9342783934 13.5448744839 19.2840898056 
H 6.7363548916 12.8461800875 22.3560460125 
Si 4.5872477520 12.5446358947 24.2081445275 
Si 5.9371674843 13.9811532679 25.6011244698 
Si 7.9646371928 12.6207101954 25.6127477248 
Si 8.7696238402 11.9040153489 27.8570580857 
Si 6.7856321421 14.9277488865 4.0388766839 
Si 7.0168035342 13.9890213379 10.0262256052 
Si 7.2985390868 15.6765513234 13.4132362718 
Si 4.2827550692 16.1976195581 15.7045653275 
Si 6.4750307092 15.4252617811 15.6140032326 
Si 7.5804375393 15.7378017239 19.4691857609 
Si 4.5471743516 16.0321294466 22.3884042199 
Si 5.1312197269 16.0911318272 24.6826828956 
H 7.4891157985 15.3706414106 23.0823534293 
H 9.5195502871 16.1840825680 26.1399995987 
Si 13.1622712504 14.5260863529 26.7345378533 
Si 12.2229572618 1.4167087330 1.3930733957 
Si 9.4611832165 1.3413544503 4.0687817420 
Si 10.8586045893 16.2750296388 5.3966364114 
Si 12.1788602314 1.3371548882 6.8008599547 
Si 6.8470780226 3.9236094359 9.4595189134 
Si 11.2556570529 0.3934816956 14.1594901287 
Si 11.2895402533 0.3986195616 16.4674363505 
Si 9.5639079575 1.5219274729 17.4745417493 
Si 10.1254568426 1.7989861665 19.7546272040 
Si 8.6560662492 0.0574106846 23.0292018612 
Si 11.2855166232 1.8185341666 24.3852093392 
H 6.8389493125 1.6864059754 26.7057717573 
Si 9.4575831265 4.0665216072 1.3871040657 
Si 10.8106468289 2.6860907046 2.7348058811 
Si 12.2114239417 4.0588815971 4.0700083167 
Si 9.5073816570 4.0386331269 6.7663990479 
Si 11.8500628684 4.1339784978 9.5788763084 
Si 10.5724381567 2.4390039823 8.1772519352 
Si 8.4551290973 3.1240962286 11.0573952304 
Si 9.1352854735 3.5910979528 14.3809452611 
Si 10.9833859905 2.5500203333 13.3573979211 
Si 9.6129408579 3.6637513535 16.6877817248 
Si 8.7911755104 3.6327351932 20.2596255093 
Si 9.5629794275 3.3792139209 24.6972557706 
Si 5.1957932875 5.2142172777 26.8925907580 
Si 9.3056788751 3.4084870512 27.1141042986 
Si 10.8573176793 5.4172069695 5.4133411899 
Si 10.1108610025 5.0384644661 11.0608121169 
Si 9.4891694368 5.6843303920 13.3224113395 
Si 11.7183582172 4.5143662913 17.3513878138 
Si 8.3168921561 4.8300176242 18.2307250200 
Si 8.9487649718 5.4948125303 21.6717633795 
Si 10.0901564123 5.4682598300 23.7183907928 
Si 10.8885781896 8.1249145043 2.6382160479 
Si 12.3657065331 6.7414862417 1.3204689377 
Si 9.5195177071 6.7997555722 4.0601081070 
Si 12.1585791812 6.7744083320 6.7938801609 
Si 9.2451452346 6.7105515314 9.6603851142 
Si 10.7749065685 8.0369973735 8.2880525117 
Si 11.1665018821 6.8176257024 14.5132400981 
Si 11.1549034020 6.7164810914 16.9007676513 
Si 9.2233003444 6.9954310540 18.2495909063 
Si 9.8593434002 7.2771666066 20.5099343500 
Si 12.0423500301 6.4963543194 20.8724455670 
Si 8.7659260102 7.0578217545 24.8973918674 
Si 9.5799210276 7.3240655170 27.1334666556 
Si 9.5029670669 9.4642783166 1.2538659343 
Si 12.2112121717 9.5041562369 4.0373872719 
Si 9.4864978768 9.4843150167 6.8904291082 
Si 12.6178268654 9.0020984323 9.4823857694 
Si 13.1468283302 2.5717674835 10.7169623572 
H 9.9004593605 9.4942030468 13.8189696430 
Si 11.3422384037 9.0068876924 13.8057401593 
Si 8.3500585964 8.7911266404 17.0346395129 
Si 9.1795454040 9.2623148947 21.5916271691 
Si 8.9127314915 9.2327485444 24.0207998520 
Si 11.0811422813 9.2455361946 27.1573848612 
Si 10.6715953876 10.8173745989 28.9254046044 
Si 12.1551745712 12.1681088313 1.1150906945 
Si 9.4922156668 12.2136230917 4.0502955098 
Si 10.8350981191 10.8417444392 5.4454365599 
Si 12.1566895412 12.2103325117 6.8392050146 
Si 11.9836571596 14.8343583157 9.6863184068 
Si 9.4198554862 11.8438726683 11.9264525730 
H 8.8465289309 13.1685754804 12.4576762124 
Si 12.1241258309 10.3135737643 15.5994887659 
Si 10.2339808236 10.2986032542 16.9802321660 
Si 8.9611616620 11.7937483379 15.7267896919 
Si 10.7338068982 11.5286611654 18.9280035035 
Si 10.9063017097 10.7766658886 21.1479575963 
Si 10.6753095076 10.3852008950 25.0524951521 
Si 10.8621720993 13.5406716638 2.6227407644 
Si 8.9119007015 12.4496489039 9.6262162490 
Si 10.6840735277 13.5083523035 8.2437205995 
Si 10.2715292739 13.5478392639 15.0133905131 
Si 11.9734759095 13.5514067739 18.7396658866 
H 9.3771756858 12.2344580019 19.1030532283 
Si 9.9324855008 12.7237770264 22.0465987512 
Si 10.0442186119 12.6289040655 24.4547444401 
Si 9.4652882966 14.9034279163 1.3196541417 
Si 12.2064717816 14.9176979564 4.0238949507 
Si 9.4949198068 15.0058431472 6.8372191318 
Si 14.6820305243 1.3148050080 9.4332059668 
Si 10.2389492736 15.7655598842 11.1551123441 
Si 9.6061967979 15.2205779292 13.4354606363 
Si 10.6730614876 14.5551477131 17.0911495592 
H 9.2931844450 14.7173961146 17.7027138381 
Si 9.4969886369 16.1091485673 20.8135991880 
Si 11.1434678219 14.4206086019 20.8677144933 
Si 10.1899978232 16.0808039671 24.7836416708 
Si 11.6977839470 14.3053731408 24.7594898319 
Si 3.1908689392 6.4389646489 27.0440727270 
Si 13.5677945141 0.0183352097 2.6847149088 
Si 14.9341345666 1.3567924834 4.0610718442 
Si 13.3930353925 16.1429340276 8.1730465364 
Si 15.8434586649 16.1421032376 10.8652318688 
Si 1.2657949136 14.9242465365 9.6271507821 
Si 15.1977556390 0.4928620995 13.0982986287 
Si 13.4348192429 1.2399866663 16.7413129470 
H 14.0310169583 0.6769048922 15.4521537873 
Si 15.3009527899 0.5554059261 20.3765297549 
H 13.1737394105 1.5544683772 19.6029408059 
Si 14.1182173291 0.2284770261 22.4377884516 
Si 15.5337857621 0.1580569844 24.3679204775 
H 12.2947635824 1.9945639082 25.5700804496 
Si 14.6487663440 0.2392512322 26.7380715564 
Si 14.9833303670 4.1385396978 1.3296945313 
Si 16.0497552268 5.7544099726 29.1620458991 
Si 13.5724045841 2.7122198648 5.4527375995 
Si 14.9037374263 4.1051289075 6.8445201714 
Si 14.5746305533 2.7350258650 12.5763619117 
Si 12.9983612689 3.6583593635 13.9746862150 
Si 13.5419422839 3.5563513825 16.2616346470 
Si 12.2420002720 2.4698083726 20.3503920333 
Si 15.7541405941 2.9294795968 20.1200588368 
Si 12.7749764968 2.1327519795 22.6142691802 
Si 13.8202895164 4.0739987173 23.4035991706 
Si 13.5246748837 2.3199240812 27.0901860930 
Si 13.6145631045 5.4151870095 2.7585371801 
Si 13.4046664526 5.3979033194 8.2156846075 
Si 13.1667672904 5.9581978745 13.5467868877 
Si 15.3800896107 5.0510892162 16.7064431820 
Si 14.8740570460 5.2979804585 19.1280811920 
Si 16.2703706988 6.1061436558 20.9926206783 
Si 12.5697550750 4.6248124923 19.5425174023 
Si 12.3927479333 5.9574974045 23.1504283223 
Si 15.9003922154 4.1316490278 22.2260583039 
Si 14.2348374402 4.1309648478 25.7736626370 
Si 10.7821067486 5.3076730085 27.3095677301 
Si 14.9416442567 6.8033067922 4.0830625754 
Si 13.5564566740 8.1535197446 5.4400337906 
Si 1.0238411704 12.1633195712 12.1820181622 
Si 8.0434319236 16.1082200373 10.2756291170 
Si 14.3227871510 7.2131794860 9.4181074170 
Si 15.2183461992 6.4042506586 14.7041184768 
Si 13.1541751203 7.7120933205 17.4976422385 
H 13.8908089270 6.5804595902 16.7572584174 
Si 13.7911141261 7.4589630082 19.6985844243 
Si 13.4138865927 7.5358029389 24.6103733997 
Si 15.7660485842 7.7346549707 24.3704904434 
Si 12.9029018680 5.9979617649 26.4056698267 
Si 14.9789809370 9.4399410563 1.2921730288 
Si 14.9360242066 9.5343578972 6.7688814014 
Si 14.6562597440 6.9374223634 11.7215269942 
Si 15.4208797710 8.7830956703 14.6649557005 
Si 14.1306465992 9.5755878876 16.5222817598 
Si 14.6954534844 9.3872917759 20.6539400546 
Si 16.2454958686 8.2361752053 22.0762409719 
Si 12.8016920971 9.8163703798 24.2973048227 
Si 0.0537752453 9.6847145986 25.6547141003 
Si 13.5485234439 10.8420702392 2.5996694794 
Si 14.9025156763 12.2094528517 4.0225223553 
Si 13.5417305138 10.8184986089 8.1810484758 
Si 14.8363294057 12.1985222616 9.6026484933 
Si 13.3911783325 13.5499080939 11.0880011883 
H 15.4414377512 11.4774128250 14.1266646548 
Si 12.4530535139 9.7374941991 11.8131112346 
Si 15.3505558404 10.3534842647 18.4848304014 
Si 13.0691087395 10.4851563359 22.0401738364 
Si 14.1932816498 10.5467976965 26.0557163978 
Si 13.4791280433 13.6596864049 29.0118489130 
Si 13.5548765440 13.5586232440 5.4313893598 
Si 10.6111920670 1.8673715871 11.0938128158 
Si 15.7249652038 12.9652274086 13.9154893862 
Si 12.2307764619 12.3948167634 14.5136781605 
Si 14.1394269093 13.9635600677 17.6867683676 
Si 13.8852214570 13.9157814973 15.1648432780 
Si 15.9815164162 12.6186413654 18.5389457067 
H 14.1766332697 12.7528383866 20.5061086053 
Si 13.9597319177 12.6396228856 22.0108820656 
Si 16.1132047774 14.2017524499 24.5836515948 
Si 16.1639318378 12.7436996965 22.7863108767 
Si 15.4842315816 12.7113966263 28.1464128861 
Si 14.8441323158 14.9799094670 1.2315422757 
Si 14.9154499364 14.9006097463 6.8183532455 
Si 14.7284733147 9.2220948843 12.3463207568 
Si 13.2323019610 15.4911548317 13.4937521362 
Si 14.7081759745 16.2155222683 18.1717910286 
Si 12.7495640966 14.5834434434 22.5837508347 
Si 14.6708881642 12.8907495279 25.9700898057 

