&CONTROL
  dt          = 30.D0,
  prefix = 'aSiHcSi_merged-13',
  pseudo_dir = './',
  outdir='./',
 wf_collect=.true.,
 verbosity ="high",
/

&SYSTEM
    ibrav= 0, nat=  388, ntyp= 2,
  ecutwfc     = 42.D0,
  nbnd=1468,
  degauss     = 0.05D0,
  occupations = "smearing",
  smearing    = "methfessel-paxton",
/
&ELECTRONS
  electron_maxstep=200,
  conv_thr    = 1.D-8,
  mixing_beta = 0.3D0,
  scf_must_converge=.false.,
/
&IONS
/
ATOMIC_SPECIES
Si  28.08  Si.pbe-hgh.UPF
H  1.00784  H.pbe-hgh.UPF

K_POINTS {automatic}
2 2 2 0 0 0

CELL_PARAMETERS angstrom
16.29000014898320 0.00000000000000 0.00000000000000
0.00000000000000 16.29000014898320 0.00000000000000
0.00000000000000 0.00000000000000 29.32587717646782

ATOMIC_POSITIONS angstrom
Si 0.7235952906 15.2618242096 27.8546272444 
Si 2.6952945547 16.2661678788 2.7339694167 
Si 4.2824618492 3.9125648158 28.6300034369 
Si 4.0731190573 1.3740028686 4.0665607363 
Si 16.2737427288 -0.0000439796 5.4363431333 
Si 1.3060784549 1.3709957345 6.8189116128 
Si 2.6274955740 16.2146263183 8.1257313516 
Si 3.2006103593 2.6066606638 10.8699589601 
Si 2.6400225841 1.3766711706 12.8520656726 
Si 1.4780454705 1.9268626676 16.8922917712 
Si 0.3947751216 0.3390486601 19.4489510693 
H 1.0481930916 1.4995059167 22.1868149625 
Si 2.6246936940 1.9718882280 23.7557787173 
Si 0.5832878903 0.0138350971 25.7796748048 
Si 2.6807964545 1.1193250062 25.9481812950 
Si 16.2401038785 2.6989598047 2.6652911449 
Si 5.9752372146 15.7971624845 0.0252574103 
Si 4.5483472316 4.5074593312 1.5433945225 
Si 1.3629663935 4.0538154071 4.0492584688 
Si 2.7080170448 2.7255287949 5.4575457425 
Si 4.0358964069 4.1255239877 6.8324308422 
Si 16.2636917987 2.7127411448 8.2962613273 
Si 1.5175161409 3.9319336260 9.7263084020 
Si 1.9807825681 2.8058059157 14.6959302001 
H 2.3733878617 2.8199782158 17.7690768470 
Si 3.9465620461 3.8970404456 15.3842671891 
Si 1.1128415862 3.8174963749 20.4389047052 
Si 3.5079700821 3.7728943545 20.4574386595 
Si 0.9326513785 3.6143600731 24.2029690184 
Si 0.8565168048 4.0429173970 27.3206909986 
Si 16.2490145086 5.3486749389 29.1805381292 
Si 2.7379906450 5.4374391497 2.7179985440 
Si 0.0069003300 5.4247655296 5.4390704399 
Si 2.7834071655 5.4702309200 8.3479041971 
Si 2.8800394463 6.1896950666 12.1065725489 
Si 0.2577843654 4.2573263789 13.9487655014 
Si 3.8824120255 5.6616872918 16.9700639975 
Si 0.2881961666 4.8037581439 18.4752732953 
Si 0.1339803642 4.7351772433 22.3229456844 
Si 2.0260361885 5.2512933180 25.5685871409 
Si 11.6018684261 3.7087280439 27.8067087611 
Si 0.0410211526 8.1124852342 2.6555520211 
Si 2.6537387643 8.1502943245 29.1734705928 
Si 1.4075390919 6.6826467611 1.2423878540 
Si 4.0578553271 6.8239625124 4.0874407609 
Si 2.7102324848 8.1486001645 5.4672526079 
Si 1.3730661936 6.7684136119 6.8521085058 
Si 16.2723743688 8.1825159448 8.1203353902 
Si 4.2917308593 6.5248781097 9.9070437830 
H 8.6336837890 5.7622128827 12.5690416320 
Si 1.6173705838 7.6622296301 13.5358278248 
Si 0.3579238833 6.3531815081 15.0866095358 
Si 1.5834319975 6.2485997071 17.1144059649 
Si 3.1599016489 7.7254999907 20.0283717506 
Si 2.1180583994 8.1038678241 22.0992478933 
Si 0.6413421929 7.0814259648 25.0508094534 
Si 3.8142220849 7.6275156398 23.6826106538 
Si 0.2091619729 7.0158912942 22.7628045161 
Si 4.0095880567 9.5223684571 1.2485961422 
Si 1.3591056634 9.4923622768 4.0781151319 
Si 4.0903375874 9.4786623867 6.8353927558 
Si 1.6060034217 12.0516353302 11.7946331934 
Si 2.3595739416 9.6098783379 14.6013249203 
Si 3.2467762197 9.5773960776 16.8456929524 
Si 1.7578376261 8.2810867357 18.2323084029 
Si 3.5786198127 9.0486878328 25.5397891295 
Si 1.2992105909 9.2051532842 25.8014346056 
Si 0.7045767154 8.9831857422 28.0747472785 
Si 16.1061186273 10.8758719895 29.1752301454 
Si 2.6874264846 10.8416955692 2.7058371027 
Si 1.3381746422 12.1747388613 1.2706140108 
Si 4.0693071972 12.2169462517 4.0661794999 
Si 0.0162046405 10.8837237695 5.4124425434 
Si 1.3603339294 12.2505199420 6.8324308422 
Si 2.8174206858 10.9287330400 8.1587522893 
Si 5.3007008885 10.7463990683 11.3676484217 
Si 4.2868764392 12.1474694011 9.6303541319 
Si 3.3541761907 10.9688064403 12.9219199120 
Si 0.1793643046 10.5807949268 14.9469010569 
Si 3.6330284132 11.7066782871 17.8516878430 
Si 2.5011503329 11.8999754288 21.6136406931 
Si 0.9652036858 10.2016288833 22.1283391634 
Si 0.3530645762 10.8045543688 24.3753465244 
Si 0.0204191894 13.5899814943 2.6488217323 
Si 4.0419725770 13.8269847065 27.2683443079 
Si 2.7289008250 13.5647971541 5.4535280974 
Si 0.0657252636 13.6153776045 8.2946777300 
Si 1.6399957650 14.0700640887 14.3179782950 
Si 0.1035600921 12.5166170945 13.5457692972 
Si 3.7235519441 12.9753597887 14.1326387513 
Si 1.4779086345 12.6109850653 18.0595789863 
Si 1.1805900678 13.3452405321 20.3252962570 
Si 3.4108653912 12.5690220250 23.7226991279 
Si 1.4376364961 12.8095112972 24.9264090825 
Si 6.5255948697 3.9970284666 27.9731917658 
Si 3.9929070965 15.0358167475 1.1431344227 
Si 1.3678908605 14.9037374263 4.0953587477 
Si 4.1012030175 14.8800028961 6.8480908606 
Si 3.0959145283 13.7055427553 10.8964695531 
Si 1.3671692135 15.7055801036 12.5238211294 
Si 2.6621932743 16.1645671478 17.0311791255 
Si 1.1165899152 14.4296006820 16.5855430959 
Si 3.9452262661 16.1189388574 19.0466586862 
Si 2.1823713200 15.5026229918 20.5005476990 
Si 2.3662528416 16.0099098864 22.8102244595 
Si 0.6195983007 14.8150057955 23.9754881891 
Si 0.7736560901 0.7636181920 1.5848437173 
Si 6.4036642186 0.5651310562 26.1629933454 
Si 8.1807403348 16.2734820888 2.6838104364 
Si 6.8917614930 1.3259783191 1.2537457662 
Si 5.4248469796 16.2727653288 5.4425602193 
Si 6.8275137324 1.3281106801 6.7700547015 
Si 8.1494635345 0.0724685092 8.2658210668 
Si 6.4923143994 1.5561902302 12.4305941658 
Si 4.6932304929 0.3158093459 13.3512800798 
Si 4.6471460825 0.1804817987 15.7070571192 
Si 7.6613825501 0.3292860630 19.3954020176 
Si 7.4285007079 1.0940624740 24.0764865101 
Si 8.9123568215 10.6392760273 26.9873144269 
Si 7.8238753016 12.8089248571 26.8863161059 
Si 5.4930532102 2.6883875946 2.6880802841 
Si 7.1636090155 6.1744476265 28.7226145571 
Si 6.8165505623 4.0442694670 4.1018984183 
Si 8.1627724647 2.7154615748 5.4518271965 
Si 5.3658771791 2.6024578438 8.0359941674 
Si 6.3787405183 5.2887603184 10.2739691582 
Si 5.3662192691 3.4974304520 11.5564777448 
Si 5.1570719572 2.3123981011 16.6520541854 
Si 7.3671525674 2.9525788170 16.1375903221 
Si 4.6224178623 2.1427051696 19.0718496147 
Si 6.6710971510 2.2506915806 20.2513950465 
Si 4.2037159884 3.4828834819 22.7691095797 
Si 6.4690522792 2.7582716952 22.5421272904 
Si 2.5603970634 2.4382872223 27.9052437084 
Si 3.8783883955 7.5193174588 27.2582268803 
Si 8.1415465945 5.3853111493 2.7146348659 
Si 5.4292289897 5.4336435797 5.4344076254 
Si 8.0510067736 5.4915545302 8.3368483414 
Si 7.4841799284 6.6020112604 11.9678318240 
Si 4.5773108519 4.8933205648 13.2958541719 
Si 7.6941417404 5.4149426595 16.4484739460 
Si 4.3607841699 5.7436097025 19.3715307536 
Si 7.8641930519 4.6855741929 22.7683764328 
Si 8.0720208738 4.5739388218 25.0658243026 
Si 4.1019034875 5.3274816487 24.3495104266 
Si 5.9891000048 5.1634576372 25.8892362819 
Si 5.3935375993 8.1661770747 2.6625110518 
Si 11.9664874994 9.0697019329 27.9875321198 
Si 6.2756085274 6.2521183472 1.5773861467 
Si 8.1356007444 8.1471666445 5.4451115706 
Si 6.7564078818 6.8095947323 6.8408180431 
Si 5.3423707089 8.0789278339 8.3212763006 
Si 11.6622554567 11.3365531937 10.6944142593 
H 4.9887636756 8.0719068438 13.2514547939 
Si 5.8224044332 6.8584973127 13.6373833375 
Si 5.7841555129 6.7876358121 15.9940988050 
Si 6.6284988006 6.5253342297 19.7047900218 
Si 7.3193577069 6.8299735225 21.9227940903 
Si 6.1825274665 7.3100561169 26.9430323524 
Si 6.8036000122 9.4917432568 4.0408126161 
Si 6.6600688209 9.5253495271 9.6695041779 
Si 5.5606241309 9.0019844023 16.7577153208 
H 7.8174244615 8.8412183909 15.1179588985 
Si 6.5533530299 8.7428919500 18.9008504249 
Si 4.9241249550 9.2349639845 20.4746822753 
Si 5.6907323620 8.3991892368 22.5628313597 
Si 6.5594943600 10.0430457319 23.9628487361 
Si 7.6874791303 8.9797811321 25.7456274614 
Si 2.2157658203 0.3952182096 29.1084844490 
Si 1.7186113057 13.1854356306 27.2841216298 
Si 8.1608991146 10.8869491896 2.6698425211 
Si 6.7642922419 12.2829859123 1.3237290395 
Si 5.4435316098 10.8491563892 5.4423842640 
Si 6.8135206223 12.2248306118 6.8230758874 
Si 8.1073701741 10.8663912094 8.2841790659 
Si 4.1270226677 1.1556565936 9.3470075066 
Si 6.9715824938 11.1812443323 13.2010436110 
Si 6.4847069693 10.9385070400 15.6750919131 
Si 8.0256106634 11.6183864863 17.4091896823 
Si 4.3127938294 11.4500456247 20.1869954202 
Si 7.7538771709 11.5014405752 22.5838286877 
Si 4.7384189533 11.0370126709 25.0180231228 
Si 5.5498727308 12.0323479700 27.0362006642 
Si 5.3964372194 13.6061085944 2.6985760155 
Si 7.6532049700 13.9476936076 29.1752008195 
Si 8.1497730445 13.5868701043 5.4518565224 
Si 5.5457676507 13.5917733943 8.2601025208 
Si 7.1852584257 13.5496148739 12.9699850247 
Si 4.9518994053 12.6779532559 16.1052145536 
Si 7.3266230470 13.1326071601 19.1443725090 
Si 6.2008211367 12.5779652350 21.1132239250 
Si 4.9836649056 11.3731242440 0.0533584335 
Si 9.8772949803 2.0201554985 27.4217186455 
Si 6.7807451420 14.9318702566 4.0613993819 
Si 8.4469189373 13.9147389373 10.9156193509 
Si 6.8208511224 15.0189403074 9.6264831161 
Si 4.8264664041 14.3547970013 12.5825022096 
Si 8.1334993344 14.4174483419 15.0735301946 
Si 6.1111283959 14.7455941049 16.3184723325 
Si 6.1056386658 15.0750267779 18.6068585062 
H 5.5148329404 15.7495956840 21.1149834776 
Si 5.9357013843 14.7184386746 22.1577236923 
Si 4.1865463283 14.7885834153 23.7103822595 
Si 8.0607156137 15.3358948403 22.9709595923 
Si 4.3561415198 15.7366940039 25.8895002148 
Si 11.0128220207 11.1377011619 25.9921114590 
Si 12.2238043418 1.3873166857 1.3471164266 
Si 9.5053779869 1.3544646424 4.0638627556 
Si 10.8524958393 16.2777826489 5.4120319812 
Si 12.1853110714 1.3199607931 6.7692922286 
Si 9.5717271575 1.3499620863 9.8371895436 
Si 8.1511576945 1.9802612881 14.0695001377 
Si 9.4649136266 0.0402475405 14.6120875172 
Si 8.5569578883 1.6464303151 17.6841784326 
Si 10.4502631556 0.9636219268 16.5480939508 
Si 11.2338121627 0.9081170093 20.9153622316 
Si 8.2035137550 2.6566709643 29.0964021876 
Si 9.4415211863 4.0533429971 1.2617605285 
Si 10.8302274090 2.7426821651 2.6809482308 
Si 12.2186892817 4.0682972172 4.0661208481 
Si 9.4526146765 4.0933838174 6.8672993102 
Si 10.7778713486 2.5796029736 8.1502771108 
Si 13.4055135326 5.3314726988 8.2075798748 
Si 10.9542268902 2.7994528156 11.4467109865 
Si 9.5024132069 3.6176506531 13.0990775360 
Si 11.2618798330 3.2139355794 16.5055127771 
H 9.9355643109 3.9265905059 16.3346602167 
Si 12.2053151916 3.8685166554 18.5885298330 
Si 10.6999725679 3.1385617487 20.2968794820 
Si 8.5997680087 3.2605086898 19.3455480264 
Si 9.0691643629 2.4260045622 25.1638313841 
Si 11.0130500807 3.0700297181 23.9897112396 
Si 10.7856416786 5.3908986193 29.2229433476 
Si 10.8318075391 5.4192432196 5.4156977158 
H 10.0000727115 4.6305465723 14.0852188079 
H 10.6137495971 6.0376767852 16.9381574431 
Si 8.3975439468 5.4537291499 18.6845134290 
Si 10.1629238429 4.3674141999 22.2266688296 
Si 11.7537075175 4.5832078319 25.6182358509 
Si 9.8185858198 6.0106842550 25.7355686855 
H 6.1076749159 1.9113057175 26.8505971875 
Si 10.8785924195 8.1434199445 2.6800361960 
Si 12.1627820012 6.6666825610 1.3204592042 
Si 9.4845430767 6.8044145122 4.0478508267 
Si 12.1880477915 6.7449234317 6.7559782804 
Si 0.1683099105 10.5544865765 10.7515703939 
Si 9.6104484879 6.8454653126 9.5113203964 
Si 10.8842613395 8.1631145547 8.0900710849 
Si 16.0626406169 8.6921323095 12.2874252334 
Si 10.8291848490 7.5889897894 14.3146937968 
Si 9.4983244169 6.9938183440 16.1194082782 
Si 10.4968525560 6.5986066503 18.5897321939 
Si 9.3406209254 8.0458265536 22.2330618708 
Si 9.5759788476 8.0515932136 24.6332676142 
Si 11.1046976216 6.5143547696 22.1964045243 
H 11.6738539368 6.7000281913 23.6082988810 
H 3.7893798347 5.2429365480 28.0473569092 
Si 10.0288571417 10.0076312715 1.4903000219 
Si 12.2224685618 9.4616067565 4.0959159394 
Si 9.4587234265 9.5412322773 6.8229292580 
Si 12.5451571747 9.2500648146 9.3827850767 
H 8.2926526358 8.6297578989 14.5400045111 
Si 10.0987575324 8.7208678698 17.7168181339 
Si 12.2519860421 9.6746636685 17.4630026669 
H 11.2709207831 9.0026522923 14.6663697159 
Si 8.5982204586 9.9372421809 18.9939894108 
H 12.1525681711 9.7992332996 22.7348569552 
Si 11.5829557359 8.8713548911 25.6210804610 
Si 9.3437811855 6.7710200119 28.0231044088 
Si 11.8084256280 11.7125101071 1.3522161966 
Si 9.4950664168 12.2508294520 4.0620738771 
Si 10.8418421792 10.8550696593 5.4231464886 
Si 12.2036861916 12.2122384417 6.7811692089 
Si 9.5965694078 12.1694609013 9.6610583253 
Si 8.3993032668 8.4107062669 10.8329497031 
Si 11.0387882810 10.8271323090 12.8370801493 
Si 11.3444538438 12.1429896511 14.7043174009 
Si 9.4057646360 10.2526491638 21.3161003433 
Si 11.5735726958 11.0401566410 22.0949369893 
Si 12.2830836523 11.4065024543 28.2228429582 
Si 9.7286161490 9.0901784631 28.6502089663 
Si 10.8349352191 13.5545507440 2.5877241998 
Si 10.8371017891 13.5363711038 8.1661424103 
Si 9.6336780281 12.8747201677 16.2211104203 
Si 10.9881915405 13.5761512842 18.0553560600 
Si 9.4916455168 13.7350113656 19.8737950520 
H 9.9670365912 12.6692869759 20.8485872093 
Si 8.6595034392 13.1821450506 24.0846977557 
Si 11.0222865108 12.4378060738 23.9946379869 
Si 10.8534243693 0.0995522634 29.3020645642 
Si 9.4464407664 14.9222754465 1.1557914713 
Si 12.2134276117 14.9055293263 4.0371468815 
Si 9.4936003168 14.9618601468 6.8400848961 
Si 10.2699328539 15.5208026319 10.8426565685 
Si 12.2155127317 14.7851299352 9.6195622091 
Si 11.0671328812 15.5440973322 13.0445607304 
Si 11.8560575884 15.7378343039 17.5842651690 
Si 9.2645629147 15.8162380747 20.9174150430 
H 11.9487476893 14.4898248125 20.9658027404 
H 10.2085847134 15.3877296207 23.4571826359 
Si 11.4409558046 15.7978629545 24.3326187214 
Si 14.1458125894 13.7327796356 26.4805046175 
Si 13.5819342342 0.0103417229 2.7039573140 
Si 14.9075329963 1.3675846085 4.0871181762 
Si 13.4803660833 16.2741988488 8.2176386506 
Si 14.3388165111 1.8310448867 9.4352197451 
Si 12.2571336821 1.1822988888 12.5903908705 
H 12.5976272652 1.4412528762 14.0463620206 
Si 14.3712010314 1.3655744225 11.6825203649 
Si 14.8742688160 0.7778002661 14.9618572543 
H 16.1134165474 0.5465278760 15.8268533275 
Si 12.9646083886 0.3245521890 19.4039065220 
Si 16.1982222881 1.8015436965 21.1956003139 
Si 12.2167996417 1.2711999356 23.0098750313 
Si 14.8699519660 1.1140991742 25.1701364477 
Si 14.5098452227 0.7961248873 22.7580243981 
Si 11.2936290433 0.1198307072 26.9451731414 
Si 13.3504044621 2.6040705538 28.9864008223 
Si 14.8301554956 3.9356640360 1.1551492346 
Si 13.5723394241 2.7125619548 5.4646426048 
Si 14.9414813567 4.0869981374 6.8433693944 
H 12.1964045615 3.4753737918 13.5073523981 
Si 12.6592197558 4.0462242670 14.8113861785 
Si 15.6629003032 2.9672072371 17.3449366854 
Si 14.7924930153 3.1518869688 15.1410970156 
Si 13.9729431078 2.3890099718 18.8961582845 
H 14.5680493932 2.8597095262 20.2370546926 
H 13.4536504830 3.3582812707 22.1076057683 
Si 15.3299489902 3.3545019907 25.5600826365 
Si 15.2949906499 7.2290948161 28.1153049666 
Si 13.5923924143 5.3741036291 2.6591766996 
Si 14.3303294211 7.2873152766 9.2835756342 
Si 0.7278404647 5.1210873468 11.6405843605 
H 15.3972266908 5.6524182817 18.9172142643 
Si 14.0778507088 4.7160364931 22.4056153321 
Si 13.8660318368 5.0292280360 24.7600727071 
Si 14.6910388944 15.2864383998 28.3077413727 
Si 13.5354588638 8.0599174037 0.0636075343 
Si 14.9441529167 6.7794256520 4.0429240793 
Si 13.5838564542 8.1177469042 5.4344369513 
Si 12.4870670342 3.4740705918 9.5342532324 
Si 8.9194755516 10.0426710618 12.4762545566 
Si 12.7266277764 6.2968506876 14.2492384389 
Si 1.5530641792 9.3887904559 9.3624329180 
Si 14.4722479024 7.4079264378 15.3128000265 
Si 13.9118556072 7.9442746927 17.6003064239 
Si 12.8139910472 6.1743987565 18.8708793784 
Si 13.1732018405 6.4712840092 21.1743683789 
Si 14.4446363521 8.1259244843 22.2733556261 
Si 14.7708924751 6.8929180830 25.8488252232 
Si 14.8802309561 9.5075445570 1.3729349288 
Si 14.9727255769 9.5045146169 6.7047459730 
Si 15.0292844575 12.0503972902 9.4809387876 
Si 14.5777745233 9.4213378762 14.0988553407 
Si 15.2513986095 6.7138421114 11.3429560331 
Si 15.8012186945 9.0785474030 18.6430466386 
Si 15.2084092991 9.8778977103 20.8552735093 
Si 13.6499286948 8.5128771479 24.5762874348 
Si 13.5447604539 10.8453119492 2.7391190407 
Si 14.9270809965 12.2424563920 4.0470003762 
Si 13.6303969847 10.8275232690 8.0410088924 
Si 1.4594308873 14.9914590771 9.7774234059 
Si 14.2831047106 12.1776710614 17.0433493645 
Si 16.2190571983 10.9784175404 17.2932938157 
Si 13.0580641194 10.7992438288 15.5351195013 
Si 12.5756683450 11.7949212179 18.5744827378 
Si 13.5713620241 11.6546643166 20.7189081804 
Si 14.4552411422 10.6350569173 25.1665000389 
H 13.5293175337 11.6056477061 24.4449661568 
Si 14.4741375424 11.5678874858 27.4112199815 
Si 13.5889878043 0.8472901487 27.2605142987 
Si 13.5787576842 13.5810545742 5.4458447175 
Si 13.3956906625 13.0756084496 10.8296652049 
Si 14.4571959422 13.7807373960 12.8844121151 
Si 12.5486921048 14.1055762890 14.1935779240 
Si 15.1092846482 13.5250169737 20.8759775786 
H 12.2721041922 14.1010313790 21.5407952142 
Si 12.9054756880 13.9582495277 24.2938499118 
H 15.4726819715 13.9213526773 25.7412579057 
Si 3.2232534595 13.0446574493 0.0894471512 
Si 15.2914394299 15.3589777705 1.3804628815 
Si 14.9390867266 14.9409274966 6.8659796457 
H 6.2821571075 3.3671919008 8.9821349427 
Si 15.3868662507 16.0102682664 12.9030340471 
Si 13.4063280326 15.4868216916 15.8888482318 
Si 15.0639007078 14.3818546915 17.0645812996 
Si 14.8213100256 15.1819869188 19.2726438957 
Si 14.7925255953 14.7165001646 22.8837737595 

