&CONTROL
  dt          = 30.D0,
  prefix = 'aSiHcSi_merged-29',
  pseudo_dir = './',
  outdir='./',
 wf_collect=.true.,
 verbosity ="high",
/

&SYSTEM
    ibrav= 0, nat=  388, ntyp= 2,
  ecutwfc     = 42.D0,
  nbnd=1468,
  degauss     = 0.05D0,
  occupations = "smearing",
  smearing    = "methfessel-paxton",
/
&ELECTRONS
  electron_maxstep=200,
  conv_thr    = 1.D-8,
  mixing_beta = 0.3D0,
  scf_must_converge=.false.,
/
&IONS
/
ATOMIC_SPECIES
Si  28.08  Si.pbe-hgh.UPF
H  1.00784  H.pbe-hgh.UPF

K_POINTS {automatic}
2 2 2 0 0 0

CELL_PARAMETERS angstrom
16.29000014898320 0.00000000000000 0.00000000000000
0.00000000000000 16.29000014898320 0.00000000000000
0.00000000000000 0.00000000000000 29.18935068521919

ATOMIC_POSITIONS angstrom
Si 15.9732736761 16.2841683289 29.1797181995 
Si 16.2824252989 2.7140769248 2.5905373597 
Si 1.2473937294 1.1968116499 1.3186230793 
Si 1.3600032424 4.0146053767 4.0135649086 
Si 16.2273162284 16.2283913684 5.3779627276 
Si 1.3181086201 1.2050739380 6.7562546777 
Si -0.0024089001 2.5379494432 8.1459012851 
Si 15.9159165856 4.7306160433 10.7677179530 
Si 1.8631361870 3.4909959019 18.9843742241 
Si 1.8206518667 0.1864439387 21.3342920904 
Si 1.4193460840 2.6518491243 25.3325617792 
Si 5.6919215321 3.1996166693 27.2057591701 
Si 1.5511289272 3.4466056515 27.5645254793 
Si 0.0946590732 8.2158778651 2.6293358446 
Si 1.9809780481 7.2455151363 1.6113572395 
Si 16.2410161185 5.3675387591 5.3107104637 
Si 1.2541475635 6.6911501412 6.7253723446 
Si 0.0183379790 7.9927863131 8.2374682782 
Si 16.1325247175 6.3590459082 12.5914977731 
Si 1.2706672526 4.9818567156 14.1716632725 
Si 0.2522881193 6.5913413103 18.8442945302 
Si 0.4428615731 4.5756492718 22.1990266044 
Si 0.9283328995 4.7680504636 24.5140340073 
Si 2.8087869857 2.3278573113 29.1678381338 
Si 9.8277896699 9.4912871368 28.7110831742 
Si 1.3503318693 12.2624930921 1.3621152119 
Si 1.3094732910 9.5152008570 4.1598035555 
Si 16.2218590784 10.8289242090 5.5375992865 
Si 1.3705445015 12.0885973406 6.9389508236 
Si 15.3544980204 13.6954103753 10.4372361245 
Si 8.2446297154 6.0509857153 12.0620321411 
Si 1.4697245384 9.6574125583 14.0271467972 
Si 1.7157931357 8.2965785259 15.9507541967 
Si 0.3052012978 11.9650376894 17.3490992307 
Si 1.0156635903 8.5158582179 21.9112196067 
Si 1.3477629363 10.8981241297 24.9759262925 
Si 1.0664053118 8.6562291492 24.2782424324 
Si 16.0830682771 11.2769155031 29.0701413770 
Si 0.0082062668 13.5125714136 2.8138855143 
Si 1.3748515776 14.8440019958 4.1514845906 
Si 16.2453492586 13.5041006135 8.2395699114 
Si 1.7314641158 8.7824114903 9.7251911039 
Si 1.5423355851 14.3422048312 13.8822216711 
Si 0.9896533471 16.2396640485 15.2146863405 
Si 0.2447702842 15.9143527455 17.4692717874 
Si 0.2164468610 12.4496163239 21.6291045323 
Si 0.6185492247 15.2412336494 25.6180920076 
Si 1.1789056818 15.1259656083 27.8759466618 
Si 2.6864490846 16.1812969780 2.6786775230 
Si 4.4508027107 1.2349986683 27.7845256154 
Si 4.0557864971 3.9451448161 1.2577837157 
Si 4.0622536272 1.3154843010 3.9920231678 
Si 2.6913849546 2.6260946340 5.4122018360 
Si 4.0335995169 3.9938030465 6.8016149286 
Si 2.6283100740 16.2086967582 8.2741009133 
Si 3.2517609597 1.8620610470 9.6073536952 
Si 1.5135136878 3.7070664639 9.5074385478 
H 2.2288629804 3.5789944827 13.6413219599 
Si 3.5210509522 2.4117508121 13.6454668477 
Si 2.9827153173 1.1755922958 15.6153101787 
Si 3.1537114488 1.9523402279 17.8869713957 
Si 2.0989828092 0.0926992232 18.9239230788 
Si 2.4889491228 3.8215200050 21.2586041040 
Si 3.3006146702 1.8223134467 22.1065255521 
Si 3.4867279219 2.0976958992 24.4160161677 
Si 2.8236597558 5.3581068490 2.7370066025 
Si 1.5298688480 10.7417075482 27.3549167521 
Si 4.1297593878 6.6814901711 4.1849647758 
Si 2.6946103746 8.1019456041 5.4803881592 
Si 2.5633781334 5.3051480585 8.0894490808 
Si 8.4223210370 7.1631528955 9.9815903603 
H 3.9357780660 6.4123304986 10.6391096739 
H 10.9791668804 2.8036556356 11.2751748146 
H 6.3927987885 9.6388582482 10.6994148724 
Si 2.5618305834 6.0809756056 15.7893954662 
Si 2.1814427900 5.5772725110 18.0707767370 
H 3.4564611016 6.0503178253 18.7522021288 
H 2.6158319339 6.6609484809 21.6858778194 
Si 3.5560418725 5.6193984514 22.2831211237 
Si 3.2064910493 5.5858736311 24.7500007182 
Si 3.0676350881 7.8786911521 25.2179643884 
Si 2.5023883729 8.5472327582 27.4211473888 
H 6.6011316004 11.0886356814 27.4244165960 
Si 3.7006807838 8.9071928915 1.5747041718 
Si 2.6733519244 10.7772849086 2.6854115062 
Si 4.0382258769 12.1710899013 4.0394558626 
Si 3.9642529863 9.5321098772 6.9160955620 
Si 2.6324314441 10.7307606681 8.4742522909 
Si 3.7238288741 12.4638212040 9.7172224112 
Si 3.5915052028 10.8426240992 13.7795919141 
Si 3.2766357900 9.5726882675 17.0933129506 
Si 2.6033212138 11.8651311185 17.1038503062 
Si 4.1439153979 8.6973451095 19.1188495627 
Si 3.2609648098 8.9819965721 21.3105319589 
Si 3.8731918854 11.1122398916 21.9939130372 
Si 3.6690130236 11.1879395223 24.3394525008 
Si 2.6094136739 13.7112931254 29.1416844756 
Si 4.1266479977 14.9165413664 1.2787562642 
Si 2.7125456648 13.4856277533 5.5342425112 
Si 4.0422006370 14.9400315466 6.8535719728 
Si 1.8421872468 15.4858605816 11.7666067228 
Si 2.0264108585 14.2987756908 9.6748978527 
Si 3.1245523486 12.8453004275 14.9427875389 
Si 3.6910208138 12.8573061576 18.8840796152 
Si 2.5640134434 12.8044125271 21.0950269828 
Si 3.8872175756 15.0585575877 18.2376230655 
Si 2.9879281173 14.7196767146 22.3879692714 
Si 2.8079073257 14.7992533653 24.7774095185 
Si 4.2153144686 0.2703700195 25.5959372904 
Si 3.5017147220 12.1174795108 27.7054224751 
Si 5.7237847723 16.0912132772 29.1445158426 
Si 5.4928577302 2.6386868041 2.6059610126 
Si 5.3733542891 16.2624048887 5.4352614230 
Si 5.1601996372 2.6394687241 8.3418202069 
Si 5.4274696696 3.8125279249 13.9272900285 
Si 5.4058365494 2.6968095247 18.1320743734 
Si 5.3604037390 1.0210539513 21.3715960805 
Si 4.8693253945 3.8526501952 25.0682522087 
Si 2.9553155370 5.3472739989 27.3577481191 
Si 6.2057570068 7.0140505241 28.5006571452 
Si 5.4748084101 8.0838474139 2.8720336198 
Si 5.4584858299 5.2915133284 5.4636334719 
Si 5.2691308682 8.0568874637 8.1859782636 
H 15.4282428511 12.2124665017 8.4254768859 
H 4.8522534744 7.7370333108 13.3119201374 
Si 5.6196102214 7.6784707602 14.6118094915 
Si 5.9050761840 4.9808141556 17.4434100227 
Si 4.8558372744 5.6204573014 15.4282648195 
Si 5.4915545302 6.6893256612 19.1434561853 
Si 5.6541124417 6.1713199464 21.4542311323 
Si 5.5135460304 11.0477966510 28.5085382698 
Si 5.3062557785 10.8805472195 5.5341549432 
Si 6.9803139338 9.0112697024 9.4491182251 
Si 4.9646707654 9.7628088593 15.4923938229 
Si 6.0056017749 12.1788928114 18.7724595381 
Si 6.0477602953 11.3064818534 21.0674722358 
H 5.2882064584 9.6995710787 19.2867467079 
H 4.1936813484 8.2257821852 22.2495825598 
Si 4.7965090939 9.4030930760 25.3724928109 
Si 10.8856459896 5.6873440420 28.8651445672 
Si 5.4135905895 13.4833308633 2.6207191483 
Si 5.3078521985 13.5849641742 8.3031443172 
H 5.0666950363 14.5872227234 13.3583020156 
Si 5.0959192966 14.0848228288 14.7842893647 
Si 4.6678343827 15.9066964455 16.1615304980 
H 5.0176947159 15.4292365411 19.1519794757 
H 5.0968315366 16.2687742788 20.3267048941 
H 5.6591297618 13.4163463827 23.2453188797 
H 4.4290718505 15.1261610883 22.2563836785 
Si 4.1307204978 13.0484855993 25.6465516245 
Si 8.1408461245 16.2337670685 2.8354856338 
Si 13.3599178222 2.6867260146 0.1075662600 
Si 6.9722015138 1.2830069277 1.3079164255 
Si 6.8032905022 4.0270509368 3.9991745587 
Si 8.0575390637 2.7602264952 5.5783184308 
Si 6.6374094307 1.3560854974 6.9082144373 
Si 8.0784717139 0.0172538795 8.2212389992 
Si 10.5008110260 8.2073419051 10.0340728128 
Si 6.4339473288 1.0682802908 16.7105821844 
Si 7.1637393355 2.7144190148 15.1349702238 
Si 6.6528686408 2.4361369423 20.1224961967 
Si 6.8813847629 0.0492096470 22.7896147368 
Si 6.8875912530 3.8171542849 23.9123539216 
Si 8.3853590267 0.8817174351 25.8700252933 
Si 8.1713084247 5.3818902492 2.5911123899 
Si 4.5949203420 8.8464474809 28.5514174260 
Si 7.2097097159 7.2445051563 1.4698881325 
Si 8.0833424239 8.0223526634 5.4751048867 
Si 6.6719931010 6.6887229312 6.8704142282 
Si 7.9597827728 5.4436782198 8.3832690848 
Si 6.6244100106 4.3566627998 11.9070658783 
Si 7.8178805815 7.4293152079 13.9031212462 
Si 7.6265382397 2.2295145804 11.2187809891 
Si 8.0642505438 4.4204870204 16.5113356767 
Si 7.3709970074 8.0172701833 19.1054808401 
Si 6.9074976332 4.2438545488 21.5949529920 
Si 7.1047043750 7.7144065006 22.6526291141 
Si 7.7162961406 7.0359605743 26.5579307209 
Si 8.0006543832 10.7340023782 2.7047903162 
Si 6.7193807115 12.0421871301 1.2138070400 
Si 6.7017875113 9.5149076370 4.2488018857 
Si 6.6830051411 12.2034581316 6.8954295017 
Si 4.7079077831 11.4147614844 11.7350530347 
Si 8.0357919135 10.6765801276 8.0847495954 
Si 6.8705193328 12.1326943710 12.4735144177 
H 16.1183035474 2.0984289492 12.9345894011 
Si 6.7257012315 10.9675521103 16.5612202770 
H 7.1506910454 8.8148774606 17.8235721261 
Si 7.3796958675 9.4024251860 20.9969215752 
Si 6.9619551037 8.6473999691 24.8676921802 
H 1.1603041306 11.3604506239 11.4107009699 
Si 8.4824800076 13.2441285011 0.1471388465 
Si 6.7124737514 14.8523261858 4.0841155692 
Si 8.0731611738 13.4911500634 5.4232645999 
Si 6.5936056203 15.0889221480 9.6021288014 
Si 3.6419390433 0.9192512244 11.7509612308 
Si 7.5518160091 16.0653121769 13.1275310091 
Si 7.8142479115 13.4433063329 10.7110614233 
H 7.0416783644 15.4641785914 14.4414896302 
Si 6.9972066640 12.6827588060 14.9026521817 
Si 8.1060995541 16.0007549063 17.7947914263 
Si 7.5798673893 13.9809252079 19.0974245793 
Si 7.8964798322 14.6533601240 21.4096298045 
Si 6.9308574934 12.9037652380 22.5838006252 
Si 8.0351728935 12.7011990862 24.6596888672 
Si 6.4311291588 15.8886959953 25.0846274345 
Si 6.3845886284 13.7269641055 25.9497122207 
Si 9.6499191583 4.1503173680 1.1891332818 
Si 9.4371880463 1.4198184940 4.1752739114 
Si 9.4270556662 4.1123453776 7.0065241704 
Si 6.0053574249 0.3452274572 11.3851019093 
Si 9.3624169456 1.3723266276 9.7472290637 
Si 8.6252129889 1.7914764764 13.5776016073 
Si 9.5149890870 3.2638155598 18.0208629473 
Si 8.6892652695 1.4451315252 19.3021294957 
Si 9.9037499406 2.5602178734 22.4830681759 
Si 8.1137069842 1.8159440566 23.7457119185 
Si 12.1688581713 4.0133673367 27.7985073144 
Si 7.1917744258 14.6298699438 27.9474313816 
Si 9.4581858565 6.6352102807 4.1304098794 
Si 6.5193232196 4.0392847269 9.6047850323 
Si 10.4186279753 5.7091237722 13.1309461631 
Si 9.2545119846 6.1387236561 15.2724812549 
Si 10.1093786125 7.7364631608 16.8111394975 
Si 9.4934537068 7.1015278249 18.9551264947 
Si 9.1803761940 4.6226622123 21.6429986632 
Si 9.0129312824 6.4024587586 23.1851596280 
Si 8.3890079867 5.1629852272 25.2186357435 
Si 4.9585945953 4.9881935256 28.5357427447 
Si 8.9641101520 8.9137414715 1.5588777059 
Si 9.4294828762 12.2213771318 3.8926626180 
Si 9.5016149969 9.4816760367 6.6645417378 
Si 0.6394216018 8.5943271486 11.9809733142 
Si 8.9839676622 11.0564955111 12.4642905828 
Si 9.1534976937 9.3477722355 13.9727670369 
Si 8.9716198421 9.8359020900 16.2429979758 
Si 9.3852881058 10.5011205360 20.5009069390 
H 9.6547735783 10.9924595205 22.0128861151 
Si 8.5507839782 10.4374592155 24.9708765348 
Si 11.4140773044 12.5050023244 26.6553355842 
Si 9.5194851271 14.9329128166 1.4419101398 
Si 9.3755466857 14.9379952966 6.7678428499 
Si 9.1561855437 14.6987277744 12.0967966577 
Si 10.1654650830 12.9536940885 13.2779145438 
Si 9.2814719349 13.2847231815 15.3868743202 
Si 9.8493250501 15.3650702305 16.2864609190 
Si 9.4404786263 12.3889686533 18.9811342062 
Si 10.1187616525 13.8551989867 25.2260790279 
Si 14.1940961498 12.9879845388 29.1289871080 
Si 10.8049779088 2.8298173759 2.8290085169 
Si 12.0868054405 1.3726117026 1.5546802773 
Si 12.2649854622 4.0900769474 4.1415018326 
Si 10.8126179189 0.0037766248 5.4725946026 
Si 12.1421425710 1.3355372912 6.8966554544 
Si 10.7774966786 2.6884038846 8.3262622830 
Si 12.3443340529 4.0807264873 9.3508084920 
Si 12.2223219518 2.5527896333 12.0504439688 
Si 11.9148970690 0.4223475759 12.9033567959 
Si 10.4630345157 0.8431687787 14.8095965317 
Si 11.1681471721 2.1410924596 16.7220244099 
Si 10.3264591544 0.8477658168 20.9377255720 
Si 12.0064142898 2.8676916262 23.3335290975 
Si 12.1933746215 6.7687068319 1.3474183738 
Si 10.7823348086 8.0065513632 2.7828835050 
Si 8.8007703205 2.2334241804 0.0405664839 
Si 10.8158433389 5.3719533491 5.5380955055 
Si 12.2566449821 6.8291101525 6.6416864762 
Si 11.3094629234 8.5744696384 7.8776219629 
Si 11.7431515974 7.2654866764 11.8222124358 
Si 12.1421588610 4.2341294187 13.6222321245 
H 11.8815677287 8.2065274051 14.7923164361 
Si 10.1855995232 4.9612172854 19.5874553986 
Si 10.6886347278 7.9614769328 22.7029807440 
Si 9.9139474807 7.4902560985 27.4618373436 
H 13.1836763106 7.7820262912 0.7782377112 
H 11.7124938171 11.2102405325 25.9227412607 
Si 14.1053970990 0.9357171566 27.9557503466 
Si 12.2371784319 12.2177770417 1.1537236805 
Si 12.1975448616 9.4698494966 3.9747722615 
Si 10.7573622384 10.8684274594 5.2345846371 
Si 12.0750277704 12.1419308010 6.6967667810 
Si 14.1016178190 7.5961410995 11.3757905064 
Si 11.3789234841 8.8414627409 13.5073136509 
Si 10.2214212335 11.6824876368 16.8464294225 
Si 10.6510536974 8.5302911580 20.3996782708 
Si 10.4097662152 10.1929137332 23.4692303888 
Si 12.1059461907 15.8552037550 27.6900396873 
Si 10.9782057704 13.5799142742 2.6717450522 
Si 12.2062763016 14.8924973262 4.1649408812 
Si 10.7021065579 13.5123433536 8.0569321442 
Si 11.9956465997 14.8498501058 9.4983314704 
Si 10.6542302474 16.0709648070 10.9826391421 
Si 11.7694273676 14.9740287769 17.6514425251 
Si 11.2128306425 13.7518063558 19.6506503428 
Si 10.2396986136 14.8580113959 21.5052249280 
Si 11.4457450647 13.9024236971 23.3236630970 
Si 10.5941853069 16.1584583978 25.8397267473 
Si 13.5155036136 16.1765240079 2.6999565597 
Si 16.2113031583 5.0159353959 28.3237113013 
Si 13.5500384139 2.6168093339 5.4560150514 
Si 13.4816529933 16.2068722782 8.2452326455 
Si 12.5795942350 3.6889031137 15.8447968538 
Si 12.6648072258 0.8127846704 18.0626037188 
Si 13.1127007799 3.0339962377 21.2619608794 
Si 12.6060654853 0.9422820266 20.3797711336 
Si 12.4312086237 0.8797772960 24.5901598339 
Si 13.3533855321 13.7977604462 27.0622059434 
Si 13.6023130244 5.3488215489 2.5763454974 
Si 8.0350099935 2.8699885162 27.0713713995 
Si 13.6591488349 8.1093086842 5.2731145800 
Si 14.4217814819 9.9698058912 11.4633585585 
Si 13.5710199341 5.4450954498 7.9738592521 
H 13.3951856725 4.8151285640 13.0421521584 
H 13.1145904199 6.2965248876 14.3336933581 
Si 12.4161240836 7.4351470280 17.3122330808 
Si 12.9758647787 5.1885279475 17.6641690820 
Si 13.6901975752 6.8220891624 21.0264611980 
Si 12.5081951644 4.9294029151 19.9771332303 
Si 12.6915554061 6.8532030627 23.1900926282 
Si 12.1252172609 4.9177555650 24.4334422100 
Si 13.6872979552 4.2243879986 25.9965027499 
H 9.0081583124 10.4178134753 26.3790000012 
Si 13.5375928538 10.7555214684 2.5229289856 
Si 12.9495727184 10.3041255642 7.8857657918 
Si 10.4018329851 10.5147552662 10.6213625486 
Si 12.9927737988 10.5094935961 13.2537165721 
Si 13.9646026277 10.3114886443 15.3113322806 
Si 14.2546786604 8.1457657045 16.0565947823 
Si 12.6234306254 11.4980848352 16.8657527727 
Si 13.3762892723 10.6265861172 18.9271922861 
H 12.7830889169 9.7437821391 21.5804458847 
Si 12.7624331967 8.3960778468 19.4376848402 
Si 14.1781645297 9.3959091859 22.1031103981 
Si 13.9093306572 10.8511111892 24.0091749978 
Si 13.8918514871 8.5145550179 24.3094750377 
Si 12.1550442512 11.7497816275 22.7509388472 
Si 10.5019839060 0.3620745753 0.1574278007 
Si 1.4918251816 6.7753694420 28.5973030853 
Si 13.5726326441 13.4941148434 5.4816724906 
Si 15.7510617841 15.8650429151 11.2447887006 
Si 13.9578585677 13.9783350978 14.3116262090 
Si 12.4690665840 12.7857116069 12.9673982313 
Si 14.1650999495 15.9665133260 13.0994800431 
Si 13.4654444432 13.7008675253 16.6489050864 
Si 14.2113798400 15.7315463639 21.4728831274 
Si 12.9001651480 12.3347881128 20.5049058800 
Si 13.3823817324 15.2021050690 23.6178625625 
Si 14.9888689671 4.0643061672 1.0886460232 
Si 14.9017663363 1.3271886661 3.9791214748 
Si 14.9578202268 3.9820905364 6.7582979322 
Si 14.9641244569 1.1831264208 9.6058942276 
Si 14.0220737482 3.0720659681 10.6551346274 
Si 15.6053151527 1.2282220282 14.0743751666 
Si 14.6271169338 2.5752861236 15.6606704296 
Si 14.9395428466 1.3612233634 17.6448749212 
Si 15.8495511250 3.0149206476 19.0459637541 
Si 15.4030585109 2.8781335163 21.3538197660 
Si 16.0144547965 0.7959913093 22.2598572112 
Si 16.1730542379 1.0245367534 24.6943950052 
Si 14.2372646502 1.8499412869 25.7942205496 
Si 14.9768632370 6.7594378218 3.8655457112 
Si 14.9711128669 6.5089790695 9.4780448716 
Si 16.0157905765 11.8031150879 11.6487985034 
Si 14.6257322838 6.4388994889 14.4945266804 
Si 15.2680144096 4.9550759553 17.8693410279 
Si 15.7042443236 4.6255618323 15.5771888867 
Si 16.0850230771 6.6039823504 21.1373807306 
Si 15.6099903828 7.9376772426 25.7029162607 
Si 15.5950850326 5.5991825612 26.0913681396 
Si 15.0791481479 9.5572942174 1.1724282164 
Si 14.8575552759 12.1102956208 4.0557435203 
Si 14.8968141762 9.3846690858 6.8712899087 
Si 12.7236141264 10.9791017204 10.1033683314 
Si 9.2832801249 12.1535781512 9.3571425811 
Si 13.0793714396 13.1950304407 10.7166365893 
Si 16.1562429578 11.1350296018 15.1645390360 
Si 16.1263670975 8.3581221464 17.4285526432 
Si 15.6925318135 10.2839096741 18.6766600892 
Si 16.0781975670 10.2405131137 20.9777733611 
Si 14.9102208464 14.7577953150 1.3803643939 
Si 14.9028740563 14.9081194363 6.8425675876 
Si 3.4507107316 7.0817354748 9.3683221024 
Si 15.9714329061 12.9244372482 13.7356327519 
Si 15.4141520010 13.9037106072 18.0045461003 
Si 14.8658305960 13.6953777953 20.3818143882 
Si 15.8624039351 12.1555655312 23.9791975347 
Si 14.9050080463 14.0442770184 25.1257260402 
Si 10.4469888655 11.7867436378 28.7237221631 

