&CONTROL
  dt          = 30.D0,
  prefix = 'aSiHcSi_merged-16',
  pseudo_dir = './',
  outdir='./',
 wf_collect=.true.,
 verbosity ="high",
/

&SYSTEM
    ibrav= 0, nat=  388, ntyp= 2,
  ecutwfc     = 42.D0,
  nbnd=1468,
  degauss     = 0.05D0,
  occupations = "smearing",
  smearing    = "methfessel-paxton",
/
&ELECTRONS
  electron_maxstep=200,
  conv_thr    = 1.D-8,
  mixing_beta = 0.3D0,
  scf_must_converge=.false.,
/
&IONS
/
ATOMIC_SPECIES
Si  28.08  Si.pbe-hgh.UPF
H  1.00784  H.pbe-hgh.UPF

K_POINTS {automatic}
2 2 2 0 0 0

CELL_PARAMETERS angstrom
16.29000014898320 0.00000000000000 0.00000000000000
0.00000000000000 16.29000014898320 0.00000000000000
0.00000000000000 0.00000000000000 29.22087183550747

ATOMIC_POSITIONS angstrom
Si 2.4502603724 2.9907625774 0.0226706043 
Si 2.5703828335 0.0321180159 2.4976510981 
Si 1.0625005987 1.4095101819 1.1280980560 
Si 3.9428479261 1.3333348832 4.0406913783 
Si 16.2471900286 16.2467990686 5.4024716684 
Si 1.2901484638 1.2287579692 6.8607684983 
Si 2.1898158500 15.7361727239 8.1964545499 
Si 5.3212099987 2.7143864348 8.4315656846 
Si 15.1321232284 6.8436897026 9.7259626443 
Si 1.4491600423 16.0334163566 11.9715574240 
Si 1.7209896457 0.9778740479 15.7277251733 
Si 2.0595935888 1.0816657839 18.0467520039 
Si 2.4859517627 2.0281864685 21.3123013150 
Si 0.6019643755 1.0316522254 22.4555971464 
H 1.7419874559 1.4736927825 25.2176123940 
Si 1.5085680438 0.1706556706 24.4507690545 
Si 16.2555467987 2.7248609049 2.7262079913 
Si 2.0040935583 3.7477425943 25.8849878859 
Si 4.0025996466 4.0990853175 1.4039576966 
Si 1.3455784473 4.0170325867 4.1474644440 
Si 2.7249097749 2.6930302446 5.5855988722 
Si 4.1486394979 4.1524350680 6.9267200060 
Si 16.1258458175 2.5433414333 8.1934740209 
Si 1.4911752106 3.7876205146 9.3238250061 
H 2.2949189310 3.0313246777 12.9728105975 
Si 3.5282022623 2.5262532231 15.6177378117 
Si 1.6284282359 3.0366352178 19.3224768265 
Si 3.7863824746 3.3505923906 22.7327571158 
Si 7.8197376415 2.8819127964 29.0735986415 
Si 5.0810139465 5.6866109920 0.0287878477 
Si 0.6644300101 10.2591488738 0.0757854999 
Si 2.6518979943 5.4359078897 2.7723506700 
Si 16.2063021282 5.3680600391 5.4395237339 
Si 2.6642295244 5.5155822804 8.2160617549 
Si 6.1378765761 1.6578170252 11.6724818008 
Si 1.9932444182 5.9878945448 14.5493058539 
Si 2.1254866394 4.3355835397 16.1447362352 
Si 2.6804054945 4.9070204549 18.3563179201 
H 1.6201985278 4.6484818625 21.1270994293 
Si 1.1555002096 5.4403713498 22.3364928728 
Si 2.6775547445 4.9647033454 24.0533651975 
Si 5.3220570787 0.1430736052 29.1206734660 
Si 16.2035165382 8.1865232849 2.8138735289 
Si 2.3410847914 8.4447034972 0.2414064794 
Si 1.2252523612 6.8083566923 1.4876199747 
Si 4.0431454570 6.8115984023 4.0832077468 
Si 2.6782389245 8.1413999845 5.4557413178 
Si 1.2896581348 6.7343838016 6.7468947607 
Si 16.2206699083 8.1222266543 8.0643469883 
Si 4.0585720871 12.5116975144 11.8589986257 
Si 1.9576344779 5.8517915935 12.2064055710 
Si 3.8112898849 7.4170651278 14.6151989199 
Si 0.1480493858 7.2390805862 15.2242203307 
Si 1.8419266068 7.0859057148 18.3584218229 
Si 2.1116075593 7.5243184888 22.1740540463 
Si 3.9695472363 9.5590372474 1.5164317543 
Si 1.2631429016 9.5225965171 4.2011724064 
Si 4.0796839273 9.5266527271 6.7293622376 
Si 3.0915813883 7.9274145425 12.1501553927 
Si 0.2295814881 5.1917696575 10.7355145454 
Si 0.9226721244 10.6828191977 10.6610889848 
Si 3.3468294006 8.1724650147 16.9146769872 
Si 1.5729070284 8.5297535880 20.1879113876 
Si 1.0630772647 8.7198904697 23.9488421389 
Si 4.0472994070 8.5871432585 25.9817966343 
Si 7.5331476689 8.5294277880 28.9440625166 
Si 15.9958027463 4.1996923584 26.1735732161 
Si 2.6360804041 10.8781525895 2.8807162732 
Si 1.4133774279 12.1266507809 1.3388652825 
Si 4.0870470074 12.2586323621 4.0523505061 
Si 16.2052432782 10.9448438501 5.5109103238 
Si 1.4120497929 12.2584368821 6.8434989630 
Si 2.8522975761 10.8935955096 8.1869577665 
Si 3.4003257611 7.4285007079 9.5929784566 
Si 2.6869377846 11.7318300473 13.6411795990 
Si 2.3011254210 10.2840399941 17.1674083077 
Si 3.5963759129 11.7263240272 15.8455437285 
Si 2.6182102739 10.5813487868 19.5021851882 
H 1.9110450775 10.5782048167 21.7294000396 
Si 2.1237924794 10.6296160572 23.2360574123 
Si 1.7273590358 9.0984049132 26.1639303284 
H 2.8325052259 0.4593828912 27.3891322636 
Si 16.2056831082 13.6087801545 2.4790578573 
Si 3.1137520785 13.0758853796 29.1982841016 
Si 2.6823440045 13.5776662542 5.3609780304 
Si 0.4188077588 13.9227699073 8.1925389530 
Si 1.0366516265 13.3732267523 14.0662848424 
Si 3.3550395607 13.5324940838 17.3076392717 
Si 1.0948590550 13.7819591460 17.9217743350 
H 3.9626891462 12.9688437886 18.5931530863 
Si 1.7068010556 13.8044393463 21.6252276315 
Si 1.1701954187 12.3718804431 19.8382252144 
Si 1.6538422651 12.8315679574 23.7587603677 
Si 3.4539524416 13.5781549542 25.1857616437 
Si 2.0086710484 13.3718258123 27.0884787133 
Si 4.0351959369 14.9118335564 1.2074882427 
Si 1.2926375758 14.9216238465 3.9427137950 
Si 3.9555052562 14.8598847459 6.8582847242 
Si 3.2638807199 3.8752932954 12.1383793813 
Si 5.3969259194 15.8395816449 10.8466999627 
Si 2.0690580789 15.4967585917 14.1941553776 
Si 0.6133071026 15.8303452148 18.9093813613 
Si 3.8242567250 14.8352053957 21.6822083315 
Si 0.1316883612 15.4296763711 21.1394598581 
Si 3.6597277235 15.6599518132 23.9531376071 
Si 0.4345895110 15.0498587276 26.0151960908 
Si 3.7756147845 1.5061717848 27.9734328168 
Si 8.1046334541 0.0172094078 2.6157677062 
Si 6.6637829409 1.4281996991 1.3212421747 
Si 5.2998863885 16.2654999888 5.4434977725 
Si 6.5862099602 1.3891411657 6.8198592777 
Si 8.0539389737 0.0168168188 8.0340157233 
Si 4.5458711516 1.4508297673 13.7533877468 
Si 8.1352749444 0.1681535265 13.1998275508 
Si 4.3103177494 0.6325195288 18.3354542176 
Si 6.6464992508 1.0721507948 21.3482722082 
Si 4.3584058299 0.5860653354 20.6671629066 
Si 4.6630451226 1.5928411016 24.1794240386 
Si 6.8862880530 1.1103655062 23.6848900037 
Si 5.3636943191 2.7354005350 2.7646480482 
Si 6.8343066625 4.7629354036 27.9596697862 
Si 6.7790184020 4.1261755877 4.0392887764 
Si 8.0452726936 2.7066649748 5.4374490520 
Si 10.4260887954 5.4516277399 12.9945217053 
Si 9.0630556129 13.1125215899 11.7904464604 
Si 7.9031098623 5.1894076075 10.2767468576 
Si 6.8195316324 2.0193898685 14.0113496034 
Si 7.1649447955 2.3725896517 16.3838506295 
Si 5.0984768266 2.6345002741 17.4485130948 
H 7.0042276541 3.5076279921 19.3499736669 
Si 7.6190122597 3.0889586983 20.6820071095 
Si 8.9903370522 5.7882605929 27.6934384229 
Si 8.3972833068 1.4924327986 27.2290018860 
Si 10.6864029977 1.0069956812 27.5087625129 
Si 8.1190663943 5.4733748901 2.5959004354 
Si 5.4257266396 5.4592351699 5.4394652922 
Si 8.1937723349 5.5656740309 8.0367624853 
Si 1.6383178950 9.8144644498 12.7061701420 
H 4.3567768298 4.1564098280 13.1746976010 
H 5.6747030019 4.6910476329 15.3515064484 
H 5.0401260461 4.5830449319 15.5619551673 
Si 4.9571773653 4.5767569919 18.8715987740 
Si 4.9137482249 4.9456603352 21.2745479486 
Si 7.1492575254 4.9575846153 22.0155308166 
Si 7.5688064792 4.6233463923 24.3962721285 
Si 5.7153465523 4.7175025931 25.8621371641 
H 6.6728890510 15.2972386699 26.0952905005 
Si 5.4285936796 8.1750225448 2.7432291491 
Si 10.9789714004 8.9846518422 27.4272655014 
Si 6.6809363111 6.8878518930 1.2477867470 
Si 8.1531939446 8.1922410749 5.5132479936 
Si 6.6800077811 6.8674242328 6.8563561466 
Si 5.2615723081 8.1961832550 8.2558313614 
Si 6.1421771362 7.1293837252 14.7368454093 
Si 7.5363079289 6.2936089776 16.4835814650 
Si 4.9312111051 8.0901353540 18.6800267383 
Si 7.9348102026 6.6642716409 20.5542534578 
Si 4.2416879788 7.3425709572 21.0351121247 
Si 6.4898546094 6.3675004182 18.5831887690 
H 5.0573445763 6.7902747921 23.5014413703 
Si 4.3909369602 6.4495042790 24.8420073075 
Si 10.8636381994 5.0233962159 29.0023289350 
Si 6.8326613725 9.5291613872 4.0459803561 
Si 5.3013199085 14.3165969509 12.6226861111 
Si 7.6158357097 10.1935653332 12.8136445086 
H 4.9396167452 9.5854596277 13.8471867454 
H 7.2773946666 7.5494050890 11.3397437332 
Si 6.2793389374 9.4789556067 14.5597669260 
Si 7.5951148295 8.8869281313 21.3712105926 
Si 5.3095952286 9.2969474350 21.8670011250 
Si 7.6078536096 9.2340843245 25.3128139945 
H 6.3960079185 8.3661531165 24.9481959557 
Si 4.3457810797 10.0803009622 23.9246472571 
Si 11.9255670191 3.0719519381 27.9001760912 
Si 4.8266130141 11.2656754030 0.1323810689 
Si 8.0404345635 10.9379043100 2.5784877179 
Si 6.6762773711 12.3579036230 1.1822384873 
Si 5.4303692897 10.8531637293 5.3544325551 
Si 6.7394825716 12.2445415120 6.6758880422 
Si 8.0167163233 11.0144998907 8.1666492606 
Si 13.9880602279 5.8743858237 13.0240055649 
Si 5.8920767639 11.1582754321 16.2018045979 
Si 5.9253572342 10.2338342136 18.4477208072 
Si 8.0042056032 10.2010750233 19.4283148242 
Si 4.7804471537 11.0606820412 20.3398891420 
Si 5.3032258385 12.0873430105 24.7822214037 
Si 6.7988433322 11.1360232918 26.4245220635 
Si 5.4017314694 13.6484137248 2.6677516372 
Si 7.9733849229 13.8077787963 28.9072442181 
Si 8.1294105443 13.6113376845 5.3818125120 
Si 5.3577810490 13.4252570128 8.1449673737 
Si 3.0929660383 0.2027681479 10.2872663714 
Si 7.4886922585 14.1063744990 13.3564514238 
Si 3.4649481917 2.5818184136 10.1093112620 
Si 7.4483582181 12.9775752287 15.5938351385 
Si 5.4978261803 13.2501232212 21.0914207448 
Si 7.1105361950 14.0358550884 19.5059839016 
Si 6.6682138210 13.1593879204 23.1822910081 
Si 8.7844966103 12.1712528013 27.3870575817 
Si 6.7484909417 14.9804959070 4.0517660887 
Si 7.2117948360 2.9763785072 9.9412912489 
Si 6.9225007233 14.7062374645 9.3009450635 
Si 4.3619896299 15.5095951118 14.4006300580 
Si 6.9931993240 14.6732176342 17.1988499658 
Si 4.7940004338 15.2614169596 16.7333906983 
Si 7.1910413758 15.2039132591 24.3593953882 
Si 15.3580003705 0.6452925179 29.0018321802 
Si 11.2490433129 15.8671769051 0.0907004173 
Si 12.1997277216 1.2373053323 1.5088460160 
Si 9.4285543462 1.3312693112 4.0719284903 
Si 10.8623024193 0.0070029082 5.3978255498 
Si 12.1600289912 1.2632276096 6.9272459817 
Si 9.8502698701 0.5368157779 11.5073838749 
Si 9.0993497332 1.5560745712 9.4793092652 
Si 11.8450618383 1.4682421484 12.3940035682 
Si 11.0786824913 1.8955044173 14.6119846240 
Si 9.6311530781 0.0947859723 15.0064371729 
Si 8.2968880359 0.3788174375 16.9280893674 
Si 11.7493417975 0.0495773123 18.1883563488 
Si 9.5561702074 0.5257678998 18.9210112683 
Si 11.1452108519 0.2297150661 25.3157068608 
Si 5.5921127011 9.6626253584 27.7762795946 
Si 9.4182427761 3.9665498763 1.2768615145 
Si 10.7833447886 2.6906519046 2.7314531378 
Si 12.1621304012 4.0403761570 4.1450975534 
Si 9.4551884965 4.0779246073 6.7549012796 
Si 10.7427501082 2.7396848051 8.2037597678 
Si 11.8506330184 4.3544799398 9.5712673488 
Si 9.6608171684 3.7552197043 14.3941722453 
H 8.4702787975 3.0326930377 13.6431958391 
Si 9.7837415095 2.6128671539 20.0194530615 
Si 11.1884770923 2.9239409967 21.9816930470 
Si 10.7730169285 2.3550616115 24.2918075117 
Si 8.4390182872 2.4661431226 24.9083971283 
Si 7.0702673147 15.7299499439 27.6914221828 
Si 15.9525365059 5.7242571824 0.0737087726 
Si 10.8508505492 5.5105323804 5.4815725685 
Si 4.6135072322 11.6785943268 9.6573520373 
H 12.0843782305 5.3603711590 13.1317721403 
Si 8.6439790691 4.2158520386 16.4780002785 
Si 10.1535570929 4.3209388295 18.4261265829 
Si 11.4367204046 5.3104748886 21.8879524901 
Si 9.2426202845 5.9354570343 25.3698239154 
Si 8.8510412609 8.0428617736 26.9756277063 
Si 10.7671851085 8.1264294743 2.4910325706 
Si 12.1627982912 6.5932798203 1.1925183900 
Si 9.4758442167 6.8246141124 4.0380614998 
Si 12.1786321714 6.9472941035 6.9479635798 
Si 6.3705466483 9.9076106706 9.3967310814 
Si 11.2401163928 8.7757977503 8.2757599960 
H 12.7604621067 0.2324745921 12.5868613223 
H 11.2656916930 6.6231393906 14.3082336612 
Si 11.4501107847 7.1660525155 15.7622934646 
Si 9.3039032651 7.8687868320 16.3705843536 
Si 10.1883688232 6.1400105662 20.0072095162 
Si 11.0782426613 6.4603208391 23.9885240829 
Si 4.2522113189 2.8275693559 26.1152775768 
Si 9.2511562446 9.5353678772 1.1411013440 
Si 12.1802448814 9.4731400766 3.8995837882 
Si 9.5084242170 9.6253375480 6.8851387054 
Si 7.8561783719 8.8803143912 10.9208917563 
Si 10.1667682830 8.2855827758 10.3993284149 
H 11.0223516708 8.5957117986 13.3186103948 
H 8.9698605220 8.7567547401 15.1787526541 
Si 9.7216766089 9.3995255660 18.1015119177 
Si 11.1458787419 8.2454767954 19.5293898199 
Si 12.0134515699 9.2304516544 21.5133993549 
Si 8.7160297397 9.6097805979 23.2895023868 
Si 10.8779245295 8.7618698001 23.5037790400 
Si 11.7675703076 9.8298910799 25.3918272319 
Si 13.0365776092 7.7338078907 27.1736575547 
Si 10.4459463055 10.8732004294 28.8321173566 
Si 12.0091835898 12.1411163010 1.0982927667 
Si 9.4268438962 12.2126456917 4.0003665752 
Si 10.7968003287 10.8312862591 5.3014258936 
Si 12.0577603703 12.1383795810 6.7768461543 
Si 8.6530200191 12.9206905482 9.4732605447 
Si 9.6129571479 11.2668319930 13.1020545136 
Si 11.0104436807 10.9552042902 16.8154721273 
Si 12.1027044807 11.5900744660 21.3723794275 
Si 8.7326455399 11.9569252694 23.2198982701 
Si 11.7704047676 12.1233439109 25.4187980966 
Si 10.8046846888 13.5089550335 2.6431447410 
Si 10.6252992072 13.4852693733 8.1558083171 
Si 10.7902028787 14.6563737740 11.3683217459 
Si 12.1311305309 13.9907806580 13.1411520401 
Si 9.6884775886 12.2478809620 15.2851750693 
H 9.5761743276 12.5993051352 18.2656455548 
Si 8.7611856201 12.4020006534 19.5428314210 
Si 10.0626751820 12.7384054465 21.4327789695 
Si 9.6172414180 12.8696051077 25.2251221581 
Si 9.4451701464 14.8695121360 1.2489701923 
Si 12.1958832815 14.8416399457 4.0961818139 
Si 9.4969234769 14.9762279270 6.7410505863 
Si 15.9453526158 12.6646443258 10.1791491456 
Si 12.3276042227 14.1673479696 9.6223454328 
Si 10.8069164188 14.3325448611 15.0619276085 
Si 8.2311415953 15.7780543143 20.5607989331 
H 11.1613542421 15.7621715642 21.6491595255 
Si 9.8972013605 15.0101111273 22.0468263703 
Si 9.5368013972 15.0614083377 24.4113500984 
Si 13.5892647343 16.2131602183 2.8111326111 
Si 14.8982476963 1.3745143746 4.1169870746 
Si 13.4197184127 16.0118321064 8.3190945490 
Si 14.5589595732 1.3231650361 9.6470078486 
Si 15.4792305516 0.3112041628 11.6064718513 
Si 16.1676948279 2.2037112202 12.7793099842 
Si 16.0498366768 2.0288706486 15.0616938415 
Si 12.3405059029 1.8042641265 16.6114227793 
Si 14.4270105719 0.8789970050 16.1753889298 
Si 15.0786594479 0.8795671550 18.4063440527 
Si 13.3682094323 0.2407124452 19.9156897456 
Si 14.9420677967 0.2618063664 26.5987076805 
Si 13.7127592254 2.3977739919 0.1367054658 
Si 14.8686487660 4.0587838571 1.3667595267 
Si 13.5133533336 2.6806335545 5.5505922678 
Si 14.8368343957 4.1002419075 6.9244407780 
Si 14.9008052263 4.0017036966 11.9349728925 
H 13.2251995210 3.4785666318 14.1349538912 
H 13.6973163053 2.8617620662 14.0417685310 
Si 16.0930866272 3.9511884061 16.3230419952 
Si 12.3615688731 3.8395693251 17.8290857296 
Si 15.7023383936 3.1748069990 18.5672926147 
Si 13.7723643360 3.8083251048 19.7230365376 
Si 13.2990258016 2.1317745795 21.3178240597 
Si 15.0114469073 2.4369025723 22.9791767280 
Si 14.6292672138 2.3746747717 25.3837330504 
Si 12.4753056541 3.5002323320 25.6571819691 
Si 1.5607155923 4.9112069849 27.9509619664 
Si 13.4754953732 5.3749018392 2.7331128833 
Si 13.5317610338 5.5738190310 8.3617278010 
Si 13.1310759001 2.8544152761 10.8893039939 
Si 10.1321031627 5.7890588029 10.7065566614 
Si 14.7822954752 5.6335544615 15.2460483219 
Si 13.0809189896 5.8320318233 16.8461832636 
Si 13.6861413652 5.8062447531 21.0996902515 
Si 15.2152673892 4.8073093640 22.6806563013 
Si 12.7984503871 5.9012317440 25.5234964804 
Si 15.0092151773 5.8694336637 24.7588447062 
Si 14.1089646090 7.4181076878 0.0251114822 
Si 14.8483677158 6.7631193619 4.0897824430 
Si 13.5076518335 8.1742243348 5.4176373009 
Si 11.0919262614 9.6320978981 12.1995386661 
Si 1.7112482257 9.1207710834 9.1568861653 
Si 16.1353917576 7.8352783017 17.4587988417 
Si 14.3178675709 6.9012585631 18.6676370886 
Si 14.0574067586 8.0856067339 21.9158292019 
Si 15.1059451982 8.1450978145 24.0617515877 
Si 0.8279897566 11.1905785023 27.1155080198 
Si 14.9911658571 9.3728262557 1.1601475082 
Si 14.7919228653 9.5681596475 6.8497522296 
Si 14.1258410492 10.1701891830 14.3988768057 
Si 15.9611864960 8.8441180109 13.6189132946 
Si 12.4500398639 9.2650679047 15.8985503900 
Si 12.9905094888 8.7412303699 18.1780998228 
Si 15.5496359322 8.8653927511 20.3251618226 
H 13.4890323634 10.0136748616 18.8636506969 
Si 14.0586285086 9.4316168663 25.7416887304 
Si 3.2611277098 6.7757766920 28.0125595642 
Si 13.5494845539 10.8306020791 2.4643100833 
Si 14.8910149362 12.2149751617 3.9404053461 
Si 14.5656058932 7.9595384228 11.8264757954 
Si 13.0565002794 10.5385060864 8.2235715189 
Si 13.3895004625 10.2006351933 12.0347037281 
Si 14.6774041642 11.5487141556 16.2376878285 
Si 16.1910383981 10.2337690536 17.5105197848 
Si 15.5297621320 11.0978232415 19.6815721204 
Si 12.9878216388 12.1449118711 23.4335320641 
H 14.0235235583 11.0456952410 23.6052046862 
Si 14.9658023269 11.6805165468 26.2192454388 
Si 12.8870842779 14.0078362881 29.1223098348 
Si 13.5661980941 13.4832819933 5.4890531117 
Si 13.6135042545 11.9385827292 10.1403730487 
H 12.2806075723 12.4837112942 13.1569313109 
Si 16.1873731480 14.0106544581 12.1129572228 
Si 16.0201562965 13.4230741528 16.0067552784 
Si 12.8299715373 12.3444317929 17.6148967390 
Si 13.6561188949 12.5371424947 19.8836928909 
Si 14.0277589583 14.2163971600 23.4567918781 
Si 15.8429862549 13.3172054418 24.6783704252 
Si 13.2280014010 13.3138171218 26.8398090940 
Si 14.7305421447 15.0102740273 1.1136220361 
Si 14.9450651567 14.8828047761 6.8668756605 
Si 14.2569266804 15.0096712973 13.1131584449 
Si 14.3359006011 14.9907586071 15.5080718797 
Si 12.3713102931 14.4936203826 16.7814882534 
Si 14.2002048999 14.6305704138 21.0819531823 
Si 13.2103919108 15.3076642700 25.4610222564 

