&CONTROL
  dt          = 30.D0,
  prefix = 'aSiHcSi_merged-6',
  pseudo_dir = './',
  outdir='./',
 wf_collect=.true.,
 verbosity ="high",
/

&SYSTEM
    ibrav= 0, nat=  388, ntyp= 2,
  ecutwfc     = 42.D0,
  nbnd=1468,
  degauss     = 0.05D0,
  occupations = "smearing",
  smearing    = "methfessel-paxton",
/
&ELECTRONS
  electron_maxstep=200,
  conv_thr    = 1.D-8,
  mixing_beta = 0.3D0,
  scf_must_converge=.false.,
/
&IONS
/
ATOMIC_SPECIES
Si  28.08  Si.pbe-hgh.UPF
H  1.00784  H.pbe-hgh.UPF

K_POINTS {automatic}
2 2 2 0 0 0

CELL_PARAMETERS angstrom
16.29000014898320 0.00000000000000 0.00000000000000
0.00000000000000 16.29000014898320 0.00000000000000
0.00000000000000 0.00000000000000 29.24716389574793

ATOMIC_POSITIONS angstrom
Si 0.5127505607 15.5990435027 29.0649833118 
Si 2.7537104952 16.2797048689 2.6455171136 
Si 1.3945592198 1.2015504110 1.1338803724 
Si 4.0262690168 1.3808300076 4.0864722338 
Si 0.0409426348 0.0434429869 5.4723198479 
Si 1.3749183666 1.3585957864 6.9503545225 
Si 2.7900046155 16.2369436185 8.2767718995 
Si 4.5422059015 0.9703855349 9.4803804353 
Si 4.0486677670 0.1738354786 14.2347409039 
Si 0.4002583357 1.1374117934 15.0374000698 
Si 2.0384654586 1.2043180820 18.4960526835 
Si 3.6833156437 1.5710760324 22.0726883563 
Si 0.1163943317 0.3078598258 23.0787323000 
Si 7.6909651903 3.0446336078 29.2004561750 
Si 1.8576301670 0.9333437035 25.8026084151 
Si 0.0793373506 2.6743944845 2.5507563026 
Si 4.1806656382 7.5150494787 27.0063924339 
Si 4.2112582585 4.1038582875 1.2757993104 
Si 1.4040237098 4.0604617271 3.9836392056 
Si 2.6856997446 2.7372901750 5.5063635467 
Si 4.0187919068 4.0943286374 6.9290625872 
Si 16.2792813289 2.7830650755 8.2517363272 
Si 0.9146118324 4.4648121108 9.7012842642 
Si 1.1955198529 3.7856982946 12.0494220648 
Si 3.3224106904 3.6439427133 13.0018852042 
Si 3.6612915635 2.3768250517 14.9587544461 
Si 1.8068216565 2.4513843824 16.3227251816 
Si 0.4210052799 2.3588734716 19.7171802705 
Si 2.4063262420 3.4403177115 22.7915251505 
Si 0.7826041872 2.2858454009 24.1481548478 
Si 12.6829379960 4.0265622368 27.6085915385 
Si 2.7632401453 5.4641384600 2.5836154912 
Si 0.0663783297 5.4353051597 5.4173644269 
Si 2.7543783852 5.4632425100 8.4752139065 
Si 4.0126505767 5.8122883432 13.5425775231 
Si 0.7767088361 5.5531958908 13.6030021637 
Si 1.1571161776 4.7553931335 15.9301989949 
Si 3.0823938282 5.3157691386 19.2851704126 
Si 1.5275491520 4.2010118484 20.7287519281 
Si 3.6673677335 5.0849235465 23.9834640679 
Si 6.0626167754 4.9331984851 29.2303175293 
Si 2.9095080566 2.6270557440 29.2620799493 
Si 0.1338653568 8.1388424544 2.7435419081 
Si 13.9478076376 8.3315205762 27.3035143719 
Si 1.4633812124 6.9008676031 1.1674561165 
Si 4.0382584569 6.7665076819 4.0953926188 
Si 2.7555512652 8.1363012144 5.5417526150 
Si 1.4059394139 6.7784482520 6.9419898336 
Si 16.2413419185 8.0518375636 8.3593366432 
Si 4.2563652689 6.8426145626 9.8613539922 
Si 2.2454136205 7.3204491370 13.1224420138 
Si 2.6209144140 6.1878217166 17.0920133335 
Si 4.0649740572 7.0473798645 20.6294870539 
Si 2.0247492785 7.7726106711 21.5068142292 
Si 0.3667758694 6.1620346464 21.0476922504 
Si 2.6734333745 6.8738587829 25.2489011082 
Si 0.6803893232 6.6324246907 26.5397539339 
Si 4.0595169071 9.4783528767 1.3446208118 
Si 1.3928292217 9.4955225368 4.1673113948 
Si 4.1555464580 9.5059644269 6.9011315457 
Si 1.3354265192 9.5184588571 9.6705747421 
Si 1.7459785060 9.1329560035 14.5882221267 
Si 3.6784938036 9.7409476791 17.7018751951 
Si 1.9179031675 8.4136547569 16.8962620656 
Si 0.0837314153 8.5101241378 18.3788008034 
H 3.9754442164 9.6594488083 21.5445723178 
Si 0.6689651461 9.3499225155 20.5063272467 
Si 2.2499585306 8.6337326590 23.7159110126 
Si 0.3355968091 9.9172869307 24.3470063152 
Si 8.2759390957 13.3497528621 29.0246807200 
Si 14.2270996901 7.6148094396 0.2333844712 
Si 5.8085416431 1.6722662553 25.8022574491 
Si 2.7253984749 10.8530008293 2.7464198290 
Si 1.2812085117 12.2601473321 1.5184893517 
Si 4.1174441477 12.2074328916 4.0808567784 
Si 16.2257360984 10.7908707687 5.5126516869 
Si 1.3357083362 12.1771009114 6.7681739386 
Si 2.6743456145 10.8346908691 8.1859594556 
Si 2.1985472901 12.9972535489 11.4077685360 
Si 0.5231891928 11.2137754626 11.1438128819 
Si 0.0633254208 10.3919123750 13.4072216486 
Si 3.4279861814 10.7011128679 14.2179530318 
Si 2.8534867461 11.8410870783 18.3501093357 
Si 1.3659539795 11.5215098554 20.1444228407 
Si 3.8622287153 12.1131137908 23.4991895282 
Si 1.4190740410 10.0320174017 27.9387335245 
Si 16.2022622082 13.6084054845 2.7995326787 
Si 5.6104552413 16.1324758475 29.1344453261 
Si 2.7273206949 13.5702054341 5.4284783492 
Si 0.0414038047 13.5148683036 8.2137150142 
Si 14.2802376706 14.1250265492 10.9376788707 
H 1.3733333496 12.8646855277 14.2751897315 
Si 2.8365777259 12.9398801683 13.8141666871 
Si 1.9418820478 13.7651315759 17.2004618172 
Si 1.8201142966 12.5644771149 22.2443399612 
Si 0.3734303344 12.3138554626 24.1320104134 
Si 16.1878129780 8.8860484713 26.4831899189 
Si 1.4825724616 13.6218936046 25.8267373253 
Si 4.0598101271 14.8728190060 1.2173868747 
Si 1.3722060815 14.9679851869 4.0692456543 
Si 4.1014147875 14.9622673968 6.7751347636 
Si 1.8057953865 14.4401566021 9.4853524532 
Si 7.0464839144 11.5058877452 10.5805709996 
H 13.1690153104 12.4420088938 12.4491430537 
H 0.3877280675 15.1499281986 12.9410803504 
H 1.0498334946 16.0625102969 14.9480792313 
Si 3.4306088714 14.5526064731 15.5368246405 
Si 1.5595313093 15.1937971690 19.0630382028 
Si 2.6121829739 14.4464282521 21.0887845157 
Si 2.3834062118 15.9938316563 22.7716370791 
Si 3.0216158376 15.2205453492 24.9012108238 
Si 5.4650507000 9.3070472351 26.1361723193 
Si 8.1723509847 16.2385400385 2.6460260142 
Si 6.7707105019 1.3186706251 1.3267215475 
Si 5.4336598697 0.0275459016 5.3923288546 
Si 6.8226104424 1.3993256738 6.7214077235 
Si 8.0346679035 16.2908146490 8.1723010301 
Si 7.7209062106 1.3422927543 15.5255937296 
Si 7.6795133202 0.7047184384 17.8302994917 
Si 5.6698648719 0.0124376432 18.7825579010 
Si 4.0616020271 1.5520656022 19.6412838802 
Si 5.6260447715 1.2790891827 23.3848623645 
Si 8.9273110416 16.1018017773 26.3200492387 
H 5.9874058448 0.1238497760 25.9767167818 
Si 5.4249284296 2.6837123645 2.7223260154 
Si 4.5168097913 3.8714651454 25.8331132070 
Si 6.8232457524 4.1047542375 4.0058962973 
Si 8.1950103749 2.7464288651 5.3880002744 
Si 5.4524259499 2.6777339345 8.1451304148 
Si 6.6222760206 4.0438785070 9.6019901428 
Si 7.0199475042 3.3181590003 11.8233122407 
H 6.1401897562 2.7626862853 12.9353186592 
H 4.0880732774 1.5430507161 10.8280605005 
Si 5.0777885264 3.6115907730 16.3969252364 
Si 7.3989995177 3.5765021127 16.0896837796 
Si 4.5888441720 3.6326048732 18.7185943536 
Si 7.3073031068 2.8190171058 22.9706640294 
Si 8.1269833343 3.3018690002 25.1460680800 
Si 4.7704450936 1.6859335654 28.0179055972 
Si 2.8290680359 2.7001001047 26.9676691889 
Si 8.2196571452 5.4950568803 2.5992393262 
Si 5.3928859993 5.3814829992 5.4371062625 
Si 8.0631102437 5.3583837790 8.2097081527 
Si 7.5563120491 5.4338227697 12.5646108568 
Si 7.9829308630 5.4895019902 14.8928313387 
Si 4.5484938416 5.8168984132 15.8290623022 
Si 6.5113411196 4.5144151613 19.6299944749 
Si 6.9429120935 4.8650411245 21.8955675317 
H 7.6325492498 6.1557467063 24.3570965867 
Si 7.7471331109 5.5226032705 25.7617208800 
Si 5.6551875817 5.5922918911 27.0137919663 
Si 5.3980336394 8.0876592740 2.7132974159 
Si 7.4772240984 8.8941771813 0.0741322014 
Si 6.8003583022 6.8552556027 1.2251987922 
Si 8.1381256944 8.1221940743 5.4411423712 
Si 6.7489633517 6.7272162015 6.7942331616 
Si 5.5162664605 8.0943544640 8.2861017448 
Si 5.5693881509 6.5389526698 11.9784099508 
Si 6.5644791000 6.9372268834 16.1253653196 
Si 6.9451764035 7.5494539590 18.3350177991 
H 6.5411518198 6.1778685265 19.2349530322 
Si 5.2215966478 6.3405893380 22.6339706786 
Si 2.8239041058 8.3103924460 28.9432566157 
Si 6.7958785522 9.5018756369 4.0547390610 
Si 7.4836097784 8.8718110111 9.3939550660 
Si 7.6327447298 9.4522400064 11.6516313886 
Si 5.9306840642 8.6407210690 12.9191449775 
Si 4.1603520080 9.9241124408 12.1466396375 
Si 6.6331088707 9.0384088427 15.1440644766 
Si 5.1377520170 8.7341605099 19.2817777415 
H 7.1927355358 9.3528547155 21.2916135973 
Si 4.1978841684 9.8317481399 23.0449225785 
Si 5.8788492838 8.3724247666 23.8626147867 
Si 11.0784055613 10.7299624581 0.0390707013 
Si 2.2482806606 13.8130893363 0.0455474857 
Si 5.7047254722 10.6213896071 0.1522607352 
Si 8.2230943352 10.8829744295 2.7361569992 
Si 6.8763185729 12.2516928221 1.3518273130 
Si 5.4816176301 10.8805797995 5.5033803359 
Si 6.7930929621 12.2622324521 6.9633987576 
Si 8.2163176951 10.8580181493 8.2874763615 
H 10.1207816126 4.6959997929 11.0393127653 
H 6.3263030079 11.3198559435 13.6889888256 
Si 4.9978697857 10.4748936358 15.9218928004 
H 5.5911678811 11.8464301983 16.1449316722 
H 6.0920365157 11.8083115980 18.5413857875 
Si 6.4902944394 10.3280881545 20.3661748373 
Si 5.6481828817 11.8628993885 21.9661409382 
H 7.1449569653 11.7737605077 22.9200371887 
Si 7.6479921699 9.5743987176 27.0809142075 
Si 5.4267040396 13.5756788742 2.6618107086 
Si 8.1038189541 11.9402931792 26.8956334242 
Si 8.1299969844 13.5571897240 5.4891954614 
Si 5.4457633398 13.7714520959 8.3112543057 
Si 3.6601838435 12.6477515957 9.3850054339 
Si 6.4659734691 12.7302441564 13.0727803295 
Si 6.6209239506 14.1152688391 15.1263114481 
Si 4.9420765352 12.8108307872 18.5600747253 
Si 4.7971769839 13.6374342647 20.6933628598 
Si 5.0707512464 13.9863009079 24.4578238192 
Si 4.8047192539 11.4314261545 27.2857320962 
Si 6.7914150921 14.9263479465 4.0545635780 
Si 7.3987062977 16.0064075364 11.8980679916 
Si 8.6683814893 1.7335818159 11.5607019561 
Si 6.4066778686 16.2029952582 14.0792337334 
Si 5.2450053780 14.5580636231 17.0398363931 
Si 6.5132470496 15.1407406385 20.6981886419 
Si 6.4868409593 15.3981552208 23.0847279686 
Si 10.8914615196 16.2346141485 0.0635108013 
Si 12.2260034918 1.3600732894 1.3553925423 
Si 9.5044820369 1.3431137703 4.0054283427 
Si 10.8129762989 16.2346304385 5.4070986724 
Si 12.1627005512 1.3179033661 6.7222851385 
Si 6.3083025577 15.6248794429 9.7023371621 
Si 10.8269531190 15.8299705448 10.7253444609 
H 3.4397475615 0.0601803105 12.8518180062 
Si 9.8946112505 1.0004308111 14.7271169081 
Si 11.2215783726 1.5247733359 18.2785415256 
Si 12.2593328321 0.3101697478 22.5720544327 
Si 9.9571811411 0.0980385966 22.1988313742 
Si 7.1679421556 14.9403247666 27.6935545496 
Si 9.5171556570 4.1068719376 1.0925482803 
Si 10.8198343890 2.7525864852 2.6193993962 
Si 12.1844151214 4.0701868572 4.0608224711 
Si 9.5290147771 4.0439110870 6.8803953065 
Si 10.8849780996 2.6182917239 8.2314387955 
Si 12.7336324765 3.4301690414 9.4871657773 
Si 12.6217527554 3.7913183447 11.8453061079 
Si 11.3534459238 2.2420904605 16.0593252235 
Si 8.2936626159 3.9978755466 18.2669011544 
Si 9.0916934331 2.0468059387 19.1766926817 
Si 9.0485575128 2.1018824292 21.5628225481 
H 11.6869836769 3.6082839030 21.3546704827 
Si 10.5432627664 3.7224116440 22.3313795210 
Si 11.2661315230 3.6573168034 24.5935891540 
Si 7.9395831726 1.9399109577 26.9946643212 
Si 9.7796852994 6.3569770781 26.7162313209 
Si 10.8823879895 5.4399966798 5.5170680086 
Si 9.5315397272 6.0406252752 11.4211929843 
Si 10.2285562535 6.1497682762 15.0926479624 
Si 11.7967294079 4.6567408926 16.1574787056 
Si 11.9924537597 5.0022680857 18.5779739896 
Si 9.2111805842 5.4842729002 21.4961390144 
Si 9.7753521594 5.5516972108 19.1656372537 
Si 11.5311861155 5.8893563339 25.2271997126 
Si 10.8478694792 8.0755720939 2.5818080165 
Si 12.2151543517 6.6700871710 1.1486969856 
Si 9.5384629772 6.7739522120 4.0749488513 
Si 12.2597889521 6.7751739620 6.9411416659 
Si 9.1166822934 7.1045903450 9.3650588681 
Si 10.8604127793 8.2261568552 8.2563281320 
Si 10.9829950304 7.0000899940 12.9770251149 
H 14.4579127022 8.8882802013 11.4842791168 
Si 10.0788837322 8.1245398343 16.3204439028 
Si 9.2934125050 7.7888029312 18.5542252925 
Si 9.7392698091 7.5998226395 22.2470014531 
Si 11.7568026175 7.1620125955 23.3145521825 
Si 10.9126059398 5.3376791888 28.7697916866 
Si 9.4675526066 9.5252354971 1.2608276872 
Si 12.1943357315 9.4336694063 4.0423382635 
Si 9.5197946371 9.5015335469 6.7727364962 
Si 11.6596816366 9.9165538807 9.8013973062 
Si 11.2462903029 9.2603926747 12.2230332296 
Si 8.8445252609 9.8846091904 15.3476539844 
Si 10.2740216440 8.9477224118 20.3977032800 
Si 8.2375598553 8.6475628691 23.7352726351 
Si 11.0519017311 10.1052246624 25.5448239125 
Si 9.3325247954 8.5314151680 25.8686485112 
Si 12.3583597430 10.0661286621 27.4532306039 
Si 12.2694977922 12.2269320218 1.3556616162 
Si 9.5380068572 12.2165878717 4.1428607658 
Si 10.9159942598 10.8357171391 5.4562339077 
Si 12.2887851524 12.1562171312 6.8879995691 
Si 9.9955440914 11.7255421072 9.6372329753 
Si 9.3501179955 10.3619061948 13.0101329044 
Si 9.2282036344 11.6223612463 17.0105307349 
Si 11.5041121352 11.9652494594 17.7911960336 
Si 8.2864135658 11.5812615759 19.3461799964 
Si 9.7734462294 11.1693689222 21.1391481319 
H 11.2813789632 12.0541114102 19.2988580853 
Si 8.5468743782 10.9102113098 23.1661520729 
Si 9.5832930576 11.8589083385 25.0599351823 
Si 10.8756927995 13.5432943539 2.7221329841 
Si 10.9282932099 13.4615348431 8.2696063444 
Si 12.4519132139 14.7769360651 9.5196301293 
Si 8.8650343711 12.3609172730 11.8030732033 
Si 12.1842196414 14.0113549281 14.8614491318 
Si 8.7511021100 13.6959805253 15.8977638902 
Si 8.2384883853 13.9009250171 19.7573366265 
Si 11.0728343813 13.0451950193 21.9096354176 
Si 10.3802976049 13.8013279562 24.1192586499 
Si 12.1855391314 14.8858998761 27.9659626341 
Si 9.5145003870 14.8113079655 1.2854508745 
Si 12.2564983721 14.9210211165 4.0537739046 
Si 9.4869702868 14.8709456560 6.9037052961 
Si 9.3307328953 14.6397905539 12.1523135873 
Si 4.8478225943 12.0320547500 11.3467004578 
Si 10.0852368322 14.8954295262 14.3736649324 
Si 8.8571663010 15.0095898473 17.7882420700 
Si 11.0774933213 15.4847202816 18.4269708824 
Si 10.2859459241 14.7589030350 20.5447872672 
Si 8.6844108494 15.4767218915 23.9703028442 
Si 11.2903873333 15.2214738792 25.8616291918 
Si 13.6434289848 16.2656628888 2.6359415921 
Si 14.9923061571 1.3569407224 3.9969174180 
Si 14.6944435044 0.7111986005 11.4281538093 
Si 13.5410463338 0.0127057603 8.0889173658 
Si 14.4657156123 1.7621544761 9.3532722610 
Si 13.2799176315 1.3881083797 15.0369613624 
Si 14.9315770366 0.9739905119 16.5737828364 
Si 13.4186921427 1.9580580179 21.3281140578 
Si 15.4491429213 0.8505856158 21.0142334949 
Si 12.9271413882 0.3557426523 24.8483611987 
Si 6.1361824161 13.2012532207 26.4401088465 
Si 13.6875423052 2.6632521244 -0.0027163157 
Si 15.0375923575 4.1374156878 1.2346514756 
Si 13.5727466741 2.6713319644 5.3650997450 
Si 14.9765537270 4.0216589468 6.7015196521 
Si 10.6669201576 2.1714244399 12.7909254110 
Si 14.0681255787 3.1156580085 13.6540384647 
Si 16.0565807368 2.0636986689 12.8995493777 
Si 15.0225403974 2.7829999155 18.1072408867 
H 15.6002326727 3.9001844157 21.7302333142 
Si 12.9095807681 2.8508803461 19.1910237920 
Si 14.2613249804 3.8277916550 22.4560016863 
Si 15.1089751382 3.5276158223 24.6253223268 
Si 13.1366470801 2.6247751440 25.6269207016 
Si 13.5564729640 5.3765145492 2.6583858657 
Si 13.6279209046 5.2362250679 8.1784136873 
Si 15.3662268205 6.1002303858 9.5328790945 
Si 13.9596504677 4.9736139755 15.1701821939 
Si 15.4156669710 4.8560490444 17.0649012126 
Si 13.3076920817 5.9665872246 21.9925803744 
Si 15.3759030806 5.8230560333 25.0437907478 
H 14.5024332726 1.5714050904 28.5555854583 
Si 16.0007060363 5.9716208346 29.1403532532 
Si 14.9486489567 6.7807125620 4.0497962903 
Si 13.5817713342 8.1298015044 5.4915059874 
Si 13.9846230379 5.7500116726 11.4212807258 
H 12.4067410435 6.4212085487 12.9602079956 
Si 14.8643644959 6.4347455389 13.4767421572 
H 13.1794409105 7.5140883687 15.9525730753 
Si 15.4757933615 6.4269426288 18.9233245008 
Si 13.2810905115 6.6505880408 19.7255742065 
Si 15.2731457597 6.8861740230 22.8306578558 
Si 13.5031395035 6.0621932354 26.4866118371 
Si 14.9896020171 9.4739545766 1.4626857630 
Si 14.8531081058 9.4687743566 7.0136161380 
Si 14.6672717841 8.7854577203 13.0029673492 
Si 12.7555913967 9.8009274596 13.9181696019 
Si 12.2854945724 8.7505319600 15.9966777985 
Si 12.8108307872 10.0031841015 17.8681745690 
Si 12.5648192049 8.9275553916 19.9684426555 
Si 15.4798821516 9.2381405345 22.3848433366 
H 13.7468053257 9.0704186930 24.8442081014 
Si 12.5395208347 9.2636995447 23.9478995166 
Si 16.2149521183 10.9463262401 0.1782339716 
Si 2.5202422130 12.1935049415 27.4701647118 
Si 13.5627934840 10.8372646891 2.7389354798 
Si 14.9013916663 12.1837635214 4.1397898136 
Si 13.5330153638 10.8681016594 8.4999862544 
Si 15.0925385280 12.2313466119 9.7764787226 
Si 13.2204917109 12.0972310406 13.9409823897 
H 15.3844879107 10.3627532748 16.0774292180 
Si 15.0735443879 10.2160618234 17.5526269177 
Si 15.7974231245 12.0764938704 18.7162253333 
Si 13.3841247624 10.1524982429 21.9370692573 
Si 13.6082588745 13.4705920832 29.1235653811 
Si 13.5776825442 13.5675501641 5.4984960596 
Si 9.5707334675 1.1399204534 9.5018186065 
Si 15.5153617719 12.4495348739 14.4514331412 
Si 2.8231221858 8.3174460161 11.0231098365 
Si 12.4895594042 14.0873314888 17.1930330376 
Si 16.0109524464 13.3539393921 16.6595647681 
Si 14.5477194730 13.2650937313 20.2395931120 
Si 13.3584191422 12.5186044745 22.0576553141 
H 13.6744288551 12.6122719753 25.2279601389 
Si 14.4765647524 13.2071664908 24.0779324073 
Si 14.9696630569 14.8660586560 1.1973876640 
Si 14.9934464571 14.9370341866 6.8352084383 
Si 12.3566004230 0.6213787977 12.1202002014 
Si 15.3401791103 14.3965808517 13.0698263659 
Si 13.4685558332 15.6526864732 13.8237012625 
Si 14.6532623840 15.0928317480 17.4801816927 
Si 15.5446023222 15.2388553094 19.6548253170 
H 12.7827956969 15.2448988994 22.0662247331 
Si 15.0091174373 15.4847202816 24.7188547569 
Si 0.2799778616 15.5983104527 26.6225526549 

