&CONTROL
  dt          = 30.D0,
  prefix = 'aSiHcSi_merged-19',
  pseudo_dir = './',
  outdir='./',
 wf_collect=.true.,
 verbosity ="high",
/

&SYSTEM
    ibrav= 0, nat=  388, ntyp= 2,
  ecutwfc     = 42.D0,
  nbnd=1468,
  degauss     = 0.05D0,
  occupations = "smearing",
  smearing    = "methfessel-paxton",
/
&ELECTRONS
  electron_maxstep=200,
  conv_thr    = 1.D-8,
  mixing_beta = 0.3D0,
  scf_must_converge=.false.,
/
&IONS
/
ATOMIC_SPECIES
Si  28.08  Si.pbe-hgh.UPF
H  1.00784  H.pbe-hgh.UPF

K_POINTS {automatic}
2 2 2 0 0 0

CELL_PARAMETERS angstrom
16.29000014898320 0.00000000000000 0.00000000000000
0.00000000000000 16.29000014898320 0.00000000000000
0.00000000000000 0.00000000000000 29.27633928601476

ATOMIC_POSITIONS angstrom
Si 14.6347732338 1.4810835555 27.8900167918 
Si 2.7539059752 16.2454958686 2.6241583232 
Si 1.2685967936 1.3820745636 1.4132215947 
Si 4.0767191473 1.3406165133 4.0535433849 
Si 0.0347620458 0.0094094625 5.4364112710 
Si 1.3548767794 1.3509688084 6.8915917152 
Si 2.7938653456 0.0365115918 8.3195158876 
Si 4.1368292478 1.1265088963 10.0410524666 
Si 2.8370501359 1.3767754266 12.2943351961 
Si 3.6575122835 1.0984281940 17.3060638895 
Si 1.2544098325 0.9890310690 20.3060396524 
Si 0.0156643501 1.9381353477 22.1393532949 
Si 1.6940459855 0.0537600956 25.2687890302 
Si 3.0955235683 1.8927351173 25.7643789016 
Si 16.2227713184 2.7347000650 2.7668072864 
Si 6.2183003069 3.9374722260 26.1423949945 
Si 4.2689411490 4.1328219078 1.1746399230 
Si 1.3755797406 4.1081425576 4.0376170563 
Si 2.6652883744 2.6755836545 5.4013382166 
Si 4.0277676968 3.9720884763 6.7640347050 
Si 1.4634659204 3.6978137438 9.7940187157 
Si 16.2333923985 2.7216191949 8.2367224001 
Si 13.8901247470 7.0726782347 10.0798143398 
Si 2.6359337941 3.8312940050 15.0169469207 
Si 1.7210873857 2.3953793619 16.6481074403 
Si 1.4545357423 2.9017377265 18.9239036747 
Si 2.9845072173 3.9567270062 22.3545051123 
Si 2.6361618541 4.0125691267 24.7498073636 
Si 2.3539213115 3.1128072585 0.2172582500 
Si 2.8246371558 5.4308905697 2.6377103407 
Si 16.2924436490 5.4622162400 5.4402171951 
Si 2.6090064239 5.2685770082 8.1122101291 
Si 1.6295864549 6.5118949796 11.9273270068 
Si 1.1489728065 5.3574715390 13.9911039921 
Si 3.3245772604 5.0711747864 16.8548569484 
Si 3.4203624613 4.1498286680 18.9948987975 
Si 0.0497664392 4.5491780216 19.7232648426 
Si 3.8371095351 5.5664722409 20.8119640716 
Si 0.7102081685 4.1618181081 21.9211274618 
Si 0.4817718674 4.8105673640 25.4385039690 
Si 0.0067356544 8.0640713538 2.7716056784 
Si 1.8079130865 7.9623403028 27.2442685762 
Si 1.3257942421 6.7258315515 1.3519667101 
Si 4.0993622475 6.7730562619 4.0424769286 
Si 2.7778359854 8.1131857042 5.4339227822 
Si 1.3501738563 6.8294033725 6.8444860853 
Si 0.4248220269 8.5296069780 8.2515947804 
Si 4.4478379307 5.8709975037 9.4356177702 
Si 16.1281427075 7.6999409804 10.5940239631 
Si 1.1322918464 6.2916867575 16.3049887439 
Si 0.8906068881 6.4765619692 18.7493288636 
Si 2.6534618343 7.4349352580 20.0361118042 
H 2.4546586724 6.4832082893 23.5777876730 
H 2.8213954458 6.9846959439 23.1193787525 
Si 3.8809622155 7.4699098883 26.1566232954 
Si 0.3207891989 6.1117799959 27.3646528833 
H 14.0645091986 3.5737979727 25.6012218628 
Si 11.1166056117 0.1217337050 27.0557289512 
Si 1.4044944908 9.5051010569 4.0531920688 
Si 4.0887574574 9.4847874267 6.8591828077 
Si 1.3278875071 11.6293496564 12.0578409274 
Si 2.8589601861 8.3643775065 12.6870480113 
Si 1.1684670497 9.7734462294 13.4934940533 
Si 2.5678253035 8.1782805448 16.3271216564 
Si 1.0613407507 9.9150063307 15.8695031970 
Si 3.8601598853 8.4843370676 18.2642784743 
Si 1.5925315916 8.8784410412 21.5511916386 
Si 3.8644115753 9.3647952856 24.7463527556 
H 0.5920486524 8.6859583994 24.7092010811 
Si 0.2319533121 9.3164139852 26.0658080909 
Si 0.2233130960 10.5940224069 0.0615400362 
Si 2.7643641553 10.8990526597 2.6136920319 
Si 1.3176981121 12.2708824422 1.2882643234 
Si 4.1122965076 12.2413486720 4.0023976201 
Si 16.2431501086 10.8565520493 5.3924967621 
Si 1.2793433067 12.1713994113 6.8092373728 
Si 2.1170972894 10.2657951939 7.9910939135 
Si 3.6000574529 13.1355719401 10.0067991497 
Si 2.7016313647 10.9489163501 10.1064265322 
Si 1.5398806821 12.0223622000 16.8347733796 
Si 1.4494728103 12.0816415105 19.1951196819 
Si 0.3534148112 10.3055753743 20.2010254234 
Si 4.0526588171 11.7169409872 22.1858148453 
Si 0.4463948741 11.9053185489 23.7044956694 
Si 2.3874787118 10.3775934649 23.1492113422 
Si 14.8507134758 11.9635552994 27.5911346440 
Si 1.9559891879 8.7170722997 0.1641902009 
Si 16.2257523884 13.6021827044 2.6498746596 
Si 1.7013113256 15.7312368539 27.7847390757 
Si 2.7167647748 13.5495985839 5.4484731228 
Si 0.0107323245 13.5965626543 8.2250411407 
Si 3.5202201622 12.6587962158 12.4083958140 
Si 3.6454088133 14.2907773007 14.0776741274 
H 0.4176739748 13.7052658253 14.6185544957 
Si 3.4143514512 13.3929213625 16.2926926814 
Si 3.6185791831 12.3499541029 20.0128663908 
Si 0.0153818489 13.7230382155 20.0277680475 
Si 3.9317055660 13.5763467642 23.6228439592 
Si 0.2410317292 13.9408192275 22.4152535163 
Si 5.2386848579 0.2616174024 28.9793893766 
Si 4.0123410667 9.4564102465 1.1609122475 
Si 4.1135019676 14.9214609465 1.0999208499 
Si 1.3612184764 14.9217052965 4.0391394259 
Si 4.0605594671 14.9675616469 6.8276229139 
Si 1.7318387858 14.6212688237 9.5393145639 
Si 0.5544040911 15.1095615782 11.5362829430 
Si 1.8845738272 15.7899134344 13.4193370859 
Si 3.2670083999 15.1450574885 17.9273078091 
Si 1.0599186337 15.4713787715 18.8045733158 
Si 3.0483151479 16.2227387384 21.3933336172 
Si 2.1529189997 15.0804676379 23.2574166922 
Si 14.9485023467 4.0686555972 1.2937126501 
Si 14.8645599759 14.9813755670 1.2229195341 
Si 8.1234809843 16.2621279587 2.6312431973 
Si 6.7759070120 1.3634420615 1.2377421447 
Si 5.4639429800 16.2830606089 5.4653948469 
Si 6.8326287925 1.3571117674 6.8887811867 
Si 8.6834986094 0.5989474675 8.2519168202 
Si 6.7424636417 0.3416110771 14.9151530890 
Si 5.2351987979 1.8653027571 15.7138994537 
Si 7.6258377697 0.3835301345 19.1042459247 
Si 4.1364382878 1.9754883181 21.6578453426 
Si 5.9150782441 1.6660597652 23.1618879971 
Si 5.3733542891 1.8315824568 25.4418121954 
Si 6.4138617587 0.2316617211 26.8051820396 
Si 5.4318353897 2.6997580147 2.6585199626 
Si 11.1047139116 15.6854945335 0.0352656928 
Si 6.7707430819 4.0848478574 4.0309713273 
Si 8.0974332741 2.7150543248 5.4054661804 
Si 5.2635922681 2.5329809932 8.2352000304 
Si 6.2833788575 4.3730668300 9.1932682336 
Si 4.1832068783 2.6525495943 13.7766255305 
Si 6.6289875006 3.4802445018 16.7615532551 
Si 4.5518495816 2.1621880098 19.2995191078 
Si 6.7782690620 2.6071819438 18.9684037105 
Si 7.7855449312 2.9827153173 22.6869086685 
Si 4.4616681408 5.3248426687 25.3671282538 
Si 8.0488727836 2.8453580360 29.2209484521 
Si 8.1919804349 5.4256288996 2.6875913675 
Si 5.4274207996 5.4390192797 5.4568754322 
Si 8.1183822142 5.3789580492 8.0735653612 
Si 4.9044140549 4.5704038918 12.7124305975 
Si 6.8554022127 4.2893688092 11.4221637724 
Si 5.5808563110 5.5627092509 16.4685849278 
Si 7.3746459674 4.1224125977 20.6725501440 
Si 6.1134741559 6.0786461356 20.9611855730 
Si 8.1268367243 4.2361330887 24.6938017266 
H 5.3685813191 6.0341418552 24.0351426453 
Si 6.3472682381 4.2808328492 28.4855560856 
Si 5.4008029394 8.1611271746 2.6426053446 
Si 3.2003171393 1.3555625884 28.1060176231 
Si 7.2450264363 7.2206403060 1.4878821152 
Si 8.1797303548 8.1616158746 5.3516855451 
Si 6.8434453526 6.8677500328 6.7533488411 
Si 6.0475159453 8.7097255097 8.0546821224 
Si 7.5943166195 6.6254037006 11.1285806421 
Si 7.7693526711 6.7262550915 13.4593871180 
Si 5.5837396411 6.2603285073 14.2474183426 
Si 5.9749928646 7.5681711692 17.5994420854 
Si 7.1500394454 7.6639075001 19.5977278998 
Si 6.4412126689 6.9535331736 23.0765181918 
Si 9.2803153449 7.2210312660 27.7375748931 
Si 6.7180123514 9.5693813975 4.0748565599 
Si 5.6224446814 7.7798760112 10.1547910447 
Si 4.2307085187 9.4567360465 11.1656444876 
Si 4.1388003379 8.1188709143 14.5872580890 
Si 7.1113832750 9.1597530538 16.2101041283 
Si 6.6789163511 9.9752956212 19.7952260846 
Si 5.9724190446 9.1466233137 23.7292048998 
Si 7.2917787367 9.2845018749 25.6629949387 
Si 5.8780999438 8.1204021743 27.2274932338 
Si 8.1390542244 10.9099017998 2.7130149406 
Si 3.9829864864 10.7558798484 26.6617279771 
Si 5.3657794391 10.9111724198 5.4672685326 
Si 6.7210585815 12.2121244117 6.8864390795 
Si 11.6844750169 10.0353894318 11.7694689854 
Si 7.3227134470 11.7226913572 12.0005178550 
Si 5.2096397876 10.9811379704 12.6808707037 
Si 5.3208841987 10.1476601128 14.9433462037 
Si 5.0753287364 11.7779307477 16.6515913247 
Si 4.6731775027 10.6700478376 18.7095130422 
Si 6.2430611071 10.7355010582 22.0394331489 
Si 7.4493844881 11.1301914718 28.6905197369 
Si 5.5132202304 13.5846872442 2.5309248931 
Si 5.3145148086 10.0249801217 28.5054639963 
Si 8.1339391644 13.5909263143 5.5132323853 
Si 5.3366854988 13.6090245045 8.2941918541 
Si 7.7017165904 13.7788151760 13.0129814966 
Si 7.3360060871 12.3187587527 16.8634056395 
H 7.6569842500 13.3837338024 17.9065801609 
H 7.9709577129 12.2528005421 20.0002775649 
Si 7.7589922310 12.2513833120 22.9393878185 
Si 6.8691835528 12.9195013782 25.0588776775 
Si 4.5596687817 12.8146100672 25.7158094547 
Si 6.7743920420 14.9257452165 4.0472489719 
Si 7.7811140512 10.5080926561 8.1339624492 
Si 5.8283177033 16.1326876175 11.1390615715 
Si 5.7949394930 15.1413433685 13.3457070925 
Si 7.4142469578 15.6875144935 16.9393191872 
H 6.2450484871 14.7430202848 17.0553998725 
Si 4.2978070293 14.6600390241 19.9981696685 
Si 6.5814858602 15.1301195584 20.5772849359 
Si 6.9664348537 15.9163075456 22.8409607659 
Si 7.5515390791 15.1377758584 25.1280869436 
H 5.1094562867 14.5304357829 23.3899214038 
Si 16.1889044081 0.1867322717 29.1431026659 
Si 12.0657587603 1.2744546777 1.2975244295 
Si 9.4618673965 1.3540997464 4.0331963291 
Si 10.8435363392 16.2632845487 5.3877832715 
Si 12.1630915112 1.3121953500 6.7756866880 
Si 8.1095693242 0.3989502486 10.6212216823 
Si 8.5926981486 1.5022768457 14.1316304207 
H 9.8639046002 0.6234785787 17.0051323979 
Si 10.7467574483 1.3998225188 17.9669772488 
Si 9.8347943699 0.4175697188 19.9390021868 
Si 9.7142483688 1.8384242568 21.9086850176 
Si 10.8139048289 0.5693436502 23.5641156226 
H 8.3995639068 16.2777989389 22.4293061592 
Si 14.1957414398 8.6420242690 26.2861418204 
Si 9.5344230572 4.1608081281 1.1912776666 
Si 10.7980546588 2.7415092851 2.6491486064 
Si 12.2401106319 4.0676781972 4.0211344773 
Si 9.5067300569 4.0127320267 6.7570669362 
Si 10.5833035868 2.4065380120 8.1148157233 
Si 12.4566210239 3.4869396919 9.3359025586 
Si 12.2226640418 2.6545369743 13.0082680059 
Si 10.2244348835 3.7081578939 12.3810809894 
Si 8.3135852860 2.4229420422 11.9397401747 
Si 8.6640320592 3.3780084609 15.6108467394 
Si 9.9986880614 3.5638447826 17.5560545506 
Si 10.8784783895 3.8807015755 21.3080809172 
H 9.4282285462 3.8310822350 25.3716075337 
H 7.5460819290 1.1339892644 27.2370665967 
Si 10.7534689283 5.6735789919 28.9735048324 
Si 10.8950778996 5.3965349594 5.4541820090 
Si 11.1615171421 5.0197798359 10.7108658331 
Si 9.3341537954 5.0657339263 14.1140060644 
H 10.4580986456 5.8646606936 14.7761197537 
Si 11.6800278468 5.1377357270 17.2560891783 
Si 9.3616676056 4.6688606527 19.5836752569 
Si 10.4746167058 5.8371468834 22.6491714672 
Si 10.8520722992 8.0978731041 2.7403034164 
Si 12.1384773210 6.8515740627 1.2398471135 
Si 9.5436431973 6.7224595215 4.0961697349 
Si 12.1558424612 6.7644062719 6.8772463090 
Si 9.5206580071 6.4539025790 9.6588205809 
Si 10.7570690184 8.0642016738 8.3154172001 
Si 10.1214983726 6.8465241626 17.0324764988 
H 8.8051034605 6.2769931774 16.5462550560 
Si 9.4149847761 7.0097825441 19.3018612149 
Si 10.8775009895 7.5258823288 21.0709718453 
Si 9.2127932943 7.9633502828 25.4414608793 
Si 8.5542048782 6.3722408083 23.8616510587 
Si 13.2822796815 10.1477252728 27.8533042623 
Si 8.9617481020 8.9552158119 1.6247929159 
Si 12.2070093516 9.5158361670 4.0695575425 
Si 9.4812036267 9.4661516666 6.8505755639 
Si 8.6913178095 11.5069140152 10.1645693421 
Si 12.4564255439 9.1324347235 9.6426893180 
Si 11.9908410497 8.1157432342 13.2991869894 
Si 8.5423294681 8.6968726995 14.4127418305 
Si 10.6670016076 8.3708283466 15.2902122716 
H 12.3438453529 8.5860518285 17.9832548935 
H 8.6848506794 9.6034274978 21.7986352583 
Si 10.1972631633 9.5698863875 22.0341048551 
Si 10.7052016579 9.5339343572 24.4139784757 
Si 7.4724837083 12.7239073464 1.2641142711 
Si 12.9359216983 14.0529270085 0.0573423947 
Si 9.5174000070 12.1940588015 4.1250069291 
Si 10.8503292692 10.8392520691 5.4860932188 
Si 12.2207418218 12.1632544112 6.8645696541 
Si 10.3506986747 13.2885187515 10.5213893653 
Si 9.0956356132 10.3379598945 12.7880221055 
Si 10.3978419351 11.7364726973 14.1749886792 
Si 11.3176893735 10.4848631159 16.0040865287 
Si 8.1516789746 10.4611448757 17.9565841484 
Si 10.4081046352 11.2340890927 18.1182480939 
Si 11.3493571338 10.8373950091 20.3661732533 
H 9.0462443327 11.5535848657 23.3636019748 
Si 10.3548689147 11.4650812949 25.8294602038 
Si 8.0293410734 11.4506972247 26.4118251449 
Si 10.8357985891 13.5034327235 2.6751518510 
Si 11.0204620308 13.6916636752 8.2324480545 
Si 11.7809606877 12.4416668038 12.3207131778 
Si 8.6217269289 12.9953313289 15.0079590845 
Si 10.6365393073 13.6300060247 17.9251120837 
Si 12.1163229208 12.9964879189 20.9920721109 
Si 8.2026015150 13.4289385528 20.9198473819 
Si 11.5289380954 13.4390220629 25.1940758123 
Si 9.2633900347 14.6385199339 1.3253223137 
Si 12.2211653618 14.9107747064 4.0354506072 
Si 9.5214562171 15.0288609174 6.9274845072 
Si 12.8022785371 14.5183160228 9.4966003849 
Si 9.4183079361 15.0931738380 11.9401500434 
Si 10.2342903336 16.0423432767 14.1661472247 
Si 9.4799330067 14.8071051454 16.1639938939 
Si 10.2824435740 14.3359983411 20.1718661895 
H 11.4944684551 15.8178996547 22.6846543904 
Si 9.9935892914 15.3826634307 25.2524235565 
Si 12.0804849205 12.1422240210 1.1434547664 
Si 13.5675990341 0.0451296535 2.6766098127 
Si 14.9069954263 1.3585941574 4.1137355384 
Si 13.5688370741 0.0270669755 8.1772621550 
Si 14.4352696020 1.7485686160 9.5209582992 
Si 15.3523151604 0.7156034165 11.5269730671 
Si 12.3564701030 0.8059102904 14.4518550198 
Si 16.2095927082 0.1068045715 14.8093776752 
Si 12.7706759368 1.2082879551 16.7998759832 
Si 14.3230315010 1.9623585779 20.8990904574 
Si 16.1616186578 1.3288877132 24.4790012253 
Si 12.5418177247 1.9655351280 24.2160704221 
Si 14.1452098594 0.2212051700 24.4708916793 
Si 13.2354948010 13.7179231555 27.0064568722 
Si 13.4558985031 16.0507652068 26.6688714038 
Si 9.3356361854 9.4846245267 28.6928325677 
Si 13.5701076941 2.7361661650 5.4843073621 
Si 14.9604754968 4.1403315979 6.8503706295 
Si 0.7295997847 2.4372120823 11.8066792126 
Si 15.8669651351 3.7304914841 13.4703364689 
Si 16.0113922764 2.3423879914 15.3934113676 
Si 14.2698446505 2.9962523074 16.8335437734 
Si 14.3520114113 3.4980168920 19.1347518703 
Si 12.9603404085 3.2042756093 22.2852665699 
Si 0.5798490713 4.8573359544 0.0486136541 
Si 2.4582750525 12.4504959839 27.0945201007 
Si 13.5631518640 5.4893228002 2.6171495676 
Si 13.4988715235 5.3917945693 8.2716783492 
Si 13.5978332744 4.4933684811 13.4746400908 
Si 13.5567987640 5.0095985858 15.8327613912 
Si 12.3744379732 4.7521514235 19.4851018225 
Si 13.7584852558 5.3766285792 22.6593303569 
Si 15.9644282060 5.6518644217 23.3719164552 
Si 7.0942624849 6.5458759199 28.4972666213 
Si 12.6030518353 4.7001537430 27.8040614597 
Si 14.8841894261 6.7857461721 4.1052161237 
Si 13.5618812440 8.1498544945 5.5166284407 
Si 3.1316873686 4.9302662851 11.1120980631 
Si 12.7333881265 6.2322934170 12.0194303702 
H 15.5445371622 7.2159324960 13.6562412234 
Si 15.0277206174 6.7910892921 16.5623570426 
H 12.6956116161 7.9668689229 17.7118046756 
Si 14.9235786465 7.0361560544 18.9898925435 
H 15.6368688830 7.2721004165 20.9821767083 
Si 13.1570747403 6.6584724009 20.6679537587 
Si 16.0164258865 7.7846652712 22.3827567797 
Si 12.1915990115 6.0390940152 24.2320260270 
Si 13.6221216646 8.1997670550 29.2675271079 
Si 14.9807402570 9.4500082764 1.4098284670 
Si 14.9672684269 9.5323216472 6.9196677246 
H 6.3160240178 14.5968989835 8.9181291970 
Si 15.6005747627 8.5195560479 12.8107112684 
Si 13.6661372450 9.7711167594 13.2330810153 
Si 15.1574378886 9.2038337942 16.5704080359 
Si 14.9032813063 9.3845061858 18.9408546752 
Si 13.1311899301 9.2273402644 20.5132283056 
Si 14.1044359890 9.1995821041 22.6725047096 
Si 12.7663590868 8.3639865465 24.4285873690 
Si 15.5030465318 2.9049468566 26.0918347565 
Si 13.5262224337 10.8840984395 2.6163386130 
Si 14.8922692662 12.2252052818 4.0251746121 
Si 13.5807776442 10.8653975194 8.3557599956 
Si 14.5203196928 12.7931561370 9.6138228474 
Si 13.5820156842 10.5378870664 15.4541012189 
H 14.2499056903 11.4445070247 19.2727605337 
H 15.8312411648 11.0592973911 21.2361196752 
Si 14.4432354121 11.3120367435 23.6505979288 
H 14.1338557293 10.9818058604 25.1087060070 
Si 11.1025636315 10.9875073605 28.1336837637 
Si 14.2948009307 6.6339070807 27.6083491315 
Si 13.5805007142 13.5671266241 5.4739142617 
Si 15.6375367730 13.0466936993 11.7779005711 
Si 13.7777237460 13.5842799942 13.2842853327 
Si 13.9546331476 12.8249379273 15.5738121702 
Si 12.9623440785 13.7537611558 17.5493502689 
Si 16.1568619778 13.3727706323 15.9951279689 
Si 14.0273354183 12.9503383484 19.5149344123 
Si 12.9263268882 13.1220023700 23.2074712574 
Si 2.4680816326 13.7608310159 29.0422456771 
Si 12.3497423329 4.0247214668 25.5462701739 
Si 0.4263712059 11.7161427772 26.0843692900 
Si 14.9793393170 14.9781827270 6.8220604094 
Si 14.2313188002 15.9879835462 13.4797048975 
Si 15.9589547660 15.4856651016 16.9712303970 
Si 13.8800412369 15.8338312748 18.0098670859 
Si 13.7336104256 16.0426690767 20.5013128355 
H 12.2250423818 16.1023719273 20.6106892391 
Si 14.3538033113 14.9492353967 22.6872307083 
Si 13.3454523021 2.8738655363 -0.0083281817 

