&CONTROL
  dt          = 30.D0,
  prefix = 'aSiHcSi_merged-22',
  pseudo_dir = './',
  outdir='./',
 wf_collect=.true.,
 verbosity ="high",
/

&SYSTEM
    ibrav= 0, nat=  388, ntyp= 2,
  ecutwfc     = 42.D0,
  nbnd=1468,
  degauss     = 0.05D0,
  occupations = "smearing",
  smearing    = "methfessel-paxton",
/
&ELECTRONS
  electron_maxstep=200,
  conv_thr    = 1.D-8,
  mixing_beta = 0.3D0,
  scf_must_converge=.false.,
/
&IONS
/
ATOMIC_SPECIES
Si  28.08  Si.pbe-hgh.UPF
H  1.00784  H.pbe-hgh.UPF

K_POINTS {automatic}
2 2 2 0 0 0

CELL_PARAMETERS angstrom
16.29000014898320 0.00000000000000 0.00000000000000
0.00000000000000 16.29000014898320 0.00000000000000
0.00000000000000 0.00000000000000 29.19322770525465

ATOMIC_POSITIONS angstrom
Si 15.7051076936 0.5531579061 29.1554224754 
Si 0.0276679137 2.6822951345 2.8057319215 
Si 1.2591078685 1.4514813673 1.1879103865 
Si 1.4073680469 4.1249212577 4.0465900651 
Si 0.0574947410 16.2455447386 5.3684302224 
Si 1.3746837906 1.3248640831 6.7544370942 
Si 0.1100949886 2.6655001444 8.2237322446 
Si 1.9833238081 3.5635352726 9.4653202189 
Si 1.0934695180 1.5424382121 12.1993827664 
Si 13.7984934962 3.1923187492 10.6877866290 
Si 0.6943335634 0.0351069051 15.1437241331 
Si 1.9173981775 1.8262556267 18.1867094161 
H 1.8157159966 0.7910912772 17.0701560361 
Si 0.4301244219 1.1668201307 23.2310948110 
Si 0.3277938990 4.8788061746 0.0320500770 
Si 16.2403970985 8.0733403638 2.6427986791 
Si 1.2374161043 6.8569497627 1.0417282181 
Si 16.2653045088 5.3792186892 5.4494706225 
Si 1.3226193211 6.7131742214 6.8278580618 
Si 1.8092651565 9.0844118031 9.3750255656 
Si 4.5939592320 7.4178633378 11.5607517171 
Si 1.6343431349 4.1638217781 13.9091717266 
Si 0.4028288977 8.0200069033 14.9412399057 
Si 1.9487401378 5.6387672616 16.9543465018 
Si 1.1995288220 4.1743776982 21.0735985107 
H 1.8177196666 7.1271031252 19.6707471465 
H 0.4093758487 4.6396363924 22.2824900700 
Si 16.2852923389 4.4581657908 25.1260856078 
Si 0.9157847124 8.0448654436 26.1064817738 
Si 0.3006384687 10.3931829951 0.0471587400 
Si 1.3625281925 12.0661171404 1.3249609133 
Si 1.3364348702 9.4700123966 4.0072959806 
Si 16.2324149985 10.8364501891 5.4099721854 
Si 1.3039640129 12.2305972719 6.7691796742 
Si 13.7396214357 8.3965013868 11.0333468654 
Si 2.0285774286 10.9089569798 12.8400865348 
Si 0.4170109718 9.3106961952 13.0309226643 
Si 2.0115706684 11.2358321228 16.5060844904 
Si 0.8946142282 9.1492948737 16.9694102073 
H 0.1845282347 10.0496431819 19.5951366868 
Si 0.6411369389 11.4243400045 20.0074326417 
Si 1.7207941657 11.1733925522 22.0414707820 
Si 0.0138473146 10.1795396431 25.4943873685 
Si 15.9869572762 11.7997756379 27.4970719824 
Si 0.0029992660 13.5747992142 2.5938387169 
Si 1.4310488201 14.9372296666 3.9292040965 
Si 0.0137476850 13.6285399246 8.1727316758 
Si 1.0790202879 3.8262441050 11.6288887106 
Si 13.4945872534 10.8740800895 8.3089180830 
Si 1.4199488140 13.1397096002 13.0819816196 
Si 0.0688596225 15.1226261583 13.1395506646 
Si 0.6225419037 12.6849090860 15.3274079218 
Si 0.6105280286 14.5840298834 16.7873904325 
Si 1.8334558068 14.9386631866 20.9325660276 
Si 1.1206689312 16.1399366676 25.1776992344 
Si 1.1010753191 13.8378338466 24.5189248580 
Si 2.7384793450 0.0657451374 2.4791881537 
Si 2.1630187998 3.3248704804 0.0412757208 
Si 4.0233368168 4.3298820396 1.1976112961 
Si 4.0480161670 1.4063417769 3.9706876731 
Si 2.7622138753 2.7616763053 5.4487699850 
Si 4.1403153079 4.1992525284 6.7840098338 
Si 2.7475691651 0.0647459088 8.2169010293 
Si 6.4618195191 3.7124747440 11.8713384667 
Si 3.2530967398 0.7280782987 12.6534250369 
Si 3.7596180044 1.8954066773 9.3799008346 
Si 3.4287355214 3.0961262983 15.0040345385 
Si 3.1687634090 3.6744701736 17.2794422855 
Si 3.0509541279 0.7727471081 14.9414734515 
Si 3.7264515641 0.9487817367 19.3300329860 
Si 3.2769941700 0.4060298827 21.4910324736 
Si 2.1800418499 2.3585476716 22.1942389426 
Si 3.6728900436 3.6845048137 23.4487303236 
Si 3.1587776389 0.8132668544 25.9882492016 
Si 2.6527939443 5.6128010013 2.5930796930 
Si 1.6433515050 8.5315291980 28.4565949906 
Si 4.0479347170 6.8903116830 3.9839997849 
Si 2.6639200144 8.1354541344 5.4298527735 
H 5.7453853125 9.4356567863 9.1399908893 
Si 2.7546716052 5.4555047599 8.2612455422 
Si 3.4999065320 7.3924509376 9.4826318029 
Si 4.0299342669 12.2047613316 9.5127008274 
Si 3.7330164341 7.5707938592 13.7950553995 
Si 1.9689234480 6.3452156980 14.6949074503 
Si 2.1901253600 7.5931274494 18.1318553413 
Si 2.6458706942 6.0216148451 20.8662974007 
Si 2.1686551398 7.4960064686 22.6190295989 
Si 2.3699832517 4.5660218818 25.2422162676 
Si 2.6539179543 6.9160498833 24.8824389294 
Si 6.3964640385 2.5582956534 25.9586472687 
Si 4.5620145417 9.9998935215 1.3579288254 
Si 2.8109372657 10.8768982595 2.7320277795 
Si 4.0634590872 12.2903978624 4.1413804755 
Si 4.0443834970 9.5861438077 6.6678791740 
Si 2.6841359045 10.8551673993 8.1128563657 
Si 1.4143646019 14.9447230667 9.5836111775 
H 13.0165246190 7.4788693884 12.0215668164 
Si 3.9201885359 10.0019297715 13.8331817549 
Si 2.3829012218 12.0435066201 18.6417734496 
Si 3.3655954808 9.4351355063 22.0479808718 
Si 7.6696904501 8.6509837691 27.5051876997 
Si 3.7408356342 11.4462989247 26.7915592484 
Si 4.3943252802 15.1152956582 1.2309879133 
Si 2.7103139348 13.6405456548 5.4848528145 
Si 4.1233737077 14.9962320472 6.8501033014 
Si 4.1044773075 14.7868566752 12.4169598925 
Si 2.1332080995 14.3368780011 18.6042601520 
Si 2.3769716617 13.3423897820 22.6228539118 
Si 8.0015503332 14.5894381634 28.7842889716 
Si 5.3733217091 2.8433054960 2.5965128165 
Si 5.4225175096 16.2914662490 5.3345368850 
Si 5.4982823003 2.7541503252 8.0584401893 
Si 5.5193289805 4.0412069470 14.3458148334 
Si 5.1688496273 3.9151875058 18.5870945341 
Si 5.8272751433 1.8333254868 19.3826683755 
Si 5.2471719480 0.3799593665 22.7868614650 
Si 4.6568875026 1.8695055771 24.4884471283 
Si 5.1933497875 3.7747351245 27.5235502399 
Si 5.4954478403 8.1840309148 2.6121633059 
Si 5.4213934996 5.5329637106 5.3728092066 
Si 5.2275587878 8.2005163950 8.1055288656 
Si 5.5513714108 6.4673092491 14.7702843642 
Si 5.9667012546 7.6853125603 16.7729981713 
Si 4.4314664805 7.6022987195 18.5360063856 
Si 4.9154749650 5.7087491022 20.0644762086 
Si 5.4782781801 4.8764278346 22.2890877394 
Si 4.8674031745 7.5632190092 25.1494693832 
Si 5.4003142394 7.8146877415 27.4338394511 
Si 11.4695773349 5.7813210529 27.3743144599 
Si 3.0172989876 3.0320740177 27.0492770626 
Si 5.5028109203 10.8979286497 5.3917264181 
Si 5.5131550704 9.5638265075 12.1965802165 
Si 4.1389958179 11.7270244973 15.4536978248 
Si 5.6695879419 11.7021822470 17.2555622252 
Si 4.7213633232 9.2921255950 20.0906041474 
Si 4.5470929016 11.4496220847 19.3291279959 
Si 5.2630709881 11.4452237847 24.8948460512 
Si 5.0107388858 9.4630891465 23.7489534773 
Si 3.8644767353 9.4610040265 28.2966161027 
Si 5.4010635794 13.5618486640 2.6917557219 
Si 5.4511390399 13.6344694847 8.2698283511 
Si 4.9810910856 13.7487764157 14.4038217769 
Si 4.7823530837 15.6923526235 15.8911291488 
Si 4.1727324082 15.3075828200 18.1459556703 
Si 5.5638332609 12.7044082162 21.0851882221 
Si 5.7518687326 14.5135104727 19.6578437399 
Si 4.6108030922 13.0082981690 23.1965008362 
Si 5.6871648520 14.8069585354 24.1396756369 
Si 1.5359661950 12.0450541702 26.0672752690 
Si 4.7940493038 13.3761589523 27.6499861091 
Si 8.2856153558 0.0649381308 2.7317124927 
Si 6.5058676795 0.4196890478 26.9692000390 
Si 6.2240180969 16.1762144979 0.0491176056 
Si 6.7337322016 4.0494985570 4.1144059331 
Si 8.1274231643 2.7072839948 5.4923554740 
Si 6.7852411821 1.2466574214 6.8037152625 
Si 8.1638476047 16.2668031888 8.3030210510 
Si 9.2503906146 7.0762457447 9.7732795779 
Si 4.9886496456 1.7722705662 11.4022324907 
Si 6.0786298456 15.9868595362 11.6638621974 
Si 6.9475710335 0.4312174809 15.7128169139 
Si 7.0548732645 2.8727741063 15.7149772128 
H 6.5011435795 1.0270975414 18.2829886811 
Si 6.8833395630 1.3790153016 21.4486731002 
Si 7.4121781278 3.4490817315 22.3755580799 
Si 8.0912267840 3.5699046626 24.6577094625 
Si 5.3685161591 5.7221883523 28.8277868808 
Si 7.0019470540 1.5526781062 1.4504246480 
Si 8.1220474643 5.3460196689 2.7696666080 
Si 8.6263695789 7.6655039201 0.2204611251 
Si 6.8084381423 6.6600525309 1.3195484889 
Si 8.1311372844 8.1474435745 5.5935683945 
Si 6.7138421114 6.7797677420 6.9207801056 
Si 8.1236927543 5.4682435400 8.3050353837 
Si 10.3028223642 5.3096929686 11.0084158489 
Si 7.3998140177 6.7987781722 13.3962175226 
Si 7.6276296698 6.3887425784 17.7134288086 
Si 7.3514001372 4.0838867473 17.7427971957 
Si 7.1443868153 6.6795516611 19.9711454596 
H 8.1000559641 5.9058906840 20.8788796819 
Si 6.4234076987 6.6216570006 23.6173212136 
Si 8.1273254243 10.7945360187 2.6844340604 
Si 6.2862947675 11.7224307172 1.4998341859 
Si 6.8477133326 9.4348422863 4.1019404249 
Si 6.7959925822 12.3132527326 6.8023431808 
Si 8.1237090443 13.3468043721 11.2404144295 
Si 8.6762006893 11.4690234749 7.9657516913 
Si 7.6284278798 9.0859919331 13.0982422474 
Si 7.0143600342 9.8223325198 16.9393703760 
Si 6.9968482840 8.9245417416 20.5134972439 
Si 7.0707723047 8.8045984705 22.8281990755 
Si 7.7223886006 11.6900461969 25.2558495050 
H 8.1848942849 11.3467996038 22.3044433772 
H 2.0883454391 12.8644411777 0.2685038360 
Si 6.8657789428 12.5554198748 28.5872638778 
Si 6.8208511224 14.9513042267 3.9636521052 
Si 8.1180564142 13.6482345348 5.3888070953 
Si 6.9409898735 14.8223200056 9.7619234124 
Si 2.7036024547 13.5360127238 11.0128240263 
Si 7.2697709465 13.5165298836 13.5465918385 
Si 7.5552857791 15.8694249251 13.5604002352 
Si 7.0379642444 13.4790791733 18.0356344628 
Si 7.8846207121 12.5602417149 21.4413456001 
H 6.6169980605 15.5872332526 20.2947815820 
Si 7.8892307822 14.0924302589 24.6792248713 
Si 9.4173794061 4.0058087766 1.3283239731 
Si 9.5698700975 1.3899540367 4.1471315414 
Si 9.4709735066 4.2010281384 6.7797476226 
Si 9.1172198634 1.8507557869 9.4331492819 
Si 8.8956595714 3.5337408623 12.2474640124 
Si 9.0301009426 3.3776663709 14.6483442521 
Si 9.4434759864 3.9025464657 18.9842100106 
Si 9.5569847074 3.9120924058 21.4284713867 
Si 8.9215118016 0.1989530298 21.4120064062 
Si 9.4573061965 6.8391773725 4.1002180244 
Si 12.1309024709 9.5736819576 9.8089537022 
H 12.8048686471 15.4516027113 8.9988124401 
Si 9.1579774438 5.6897549620 14.4452761602 
Si 9.5670030575 6.6934796112 16.5017346994 
H 9.2357947745 8.1220474643 20.8761063253 
Si 8.4878231276 5.9120320141 24.4571519882 
Si 8.2898670458 11.0152003607 27.4877593427 
Si 9.5890922977 9.5147936070 1.3142586760 
Si 9.4605316165 12.2172557617 4.0467944177 
Si 9.5653088975 9.5535638074 6.8669769870 
Si 5.7232797823 10.7777084486 10.2686010724 
Si 7.2809784666 3.5175974722 9.4488552384 
Si 8.3885192867 10.1504457028 15.0884029666 
Si 8.5590592983 12.1650463113 19.2537802752 
Si 8.4155281070 9.8659408502 18.8616276475 
Si 8.7796584803 9.7581824992 24.1621544222 
Si 11.1989026924 7.8940852022 26.3886635128 
Si 10.5927843669 10.8921945696 28.8218314624 
Si 9.6256470580 15.0328030975 1.2461800690 
Si 9.4870680268 14.9322937966 6.8457827037 
Si 9.8218926898 16.1046688173 12.9147336181 
Si 9.0755011730 12.3740470132 14.6278214130 
Si 8.2438315054 15.3529178904 17.2536646654 
Si 9.7804020594 13.8298843265 16.3397414789 
Si 9.5943539677 16.1952737981 19.1058581904 
Si 8.9238249816 14.3595862613 22.5680874166 
Si 8.4506493473 15.4597314214 26.5857469931 
Si 4.7704939636 15.3370514303 26.2380848443 
Si 11.4877243951 15.7531794841 29.1738434021 
Si 10.8799444895 2.6860744146 2.6463806881 
Si 12.2470175920 1.2285299092 1.3360134693 
Si 12.2322262719 4.0636871472 4.0510858222 
Si 10.8823716995 16.2599939687 5.4939319083 
Si 12.1944823415 1.3815956376 6.8449944865 
Si 10.8069164188 2.8156776558 8.1198627404 
Si 12.0271025900 4.2589065090 9.5378653897 
Si 10.2031764333 1.6972062455 11.5720786895 
Si 11.3316824836 0.3855924485 14.6553214335 
Si 12.0708901104 3.9599687162 15.9681992699 
Si 10.6196628671 2.1676125798 15.9651631742 
Si 10.4892125459 1.9310817777 18.3450826764 
Si 10.4522994056 1.8459665269 22.3651069044 
H 11.9102055489 0.1111554676 23.8576690572 
Si 10.1668008630 2.4538441724 24.7691692059 
Si 11.7220560472 3.9367391760 25.9322565909 
Si 10.2307391136 0.7236962886 26.4068217005 
Si 8.9694858520 7.9237330025 25.6726412169 
Si 10.8763932695 8.2326239853 2.7997327132 
Si 12.1193039908 6.8532193527 1.3934628221 
Si 10.8738194494 5.4789786501 5.3949084799 
Si 12.1764167314 6.8738262029 6.8267779124 
Si 10.8359289091 8.1802842148 8.3438915698 
Si 10.9658742403 6.2129246068 13.0783324661 
Si 10.9723413703 5.2071311276 17.6351909583 
Si 11.9807086696 7.9431018126 19.7910232447 
Si 10.5141851162 7.8038711814 21.6287953152 
Si 10.2354143436 5.7678492228 22.8204628701 
Si 10.3093057843 5.8832312938 0.1999855790 
Si 12.2543806721 9.6176649580 27.6432424735 
Si 12.0908942306 12.2222730818 1.0797232040 
Si 12.3015890925 9.5658138875 4.0502684118 
Si 10.8885944796 10.8496613792 5.3898580515 
Si 12.1874776415 12.1976751816 6.8316239882 
Si 0.0229423475 8.0659772838 8.2767179529 
Si 11.0235245508 10.1096718325 11.9630635881 
Si 11.3143336335 8.4861778376 13.7426827490 
Si 10.1818039531 8.8279909107 15.8371216775 
Si 12.0221015600 11.0591670711 18.0646525311 
Si 10.6414751773 9.1947928441 18.2065316177 
H 10.2439503037 11.7933085079 20.9953022740 
Si 11.4865678051 11.5708848458 21.8402418634 
Si 10.9329684400 9.6339386681 23.0763998974 
H 10.3263451244 1.4784413175 27.7088980426 
H 8.0977590741 2.5556729634 0.8465685716 
H 10.7227134081 13.3441653920 26.1295736170 
Si 10.8178795889 13.5154058736 2.6175786496 
Si 12.1694934813 14.8683718360 4.0768926355 
Si 7.9943012831 11.2174895826 10.1745696860 
Si 10.4055471052 13.1356208101 8.0126944015 
Si 10.3301895645 14.0938800689 11.7460703266 
Si 11.0212276608 12.3156473626 13.1485129855 
Si 11.8178901181 14.7818719352 15.8318960897 
Si 10.5620288466 12.8409347074 18.2866670278 
Si 11.4836193150 14.7532992749 19.2536343091 
Si 11.1500489820 13.6432660848 22.9219093364 
Si 11.7954099179 13.8651358868 25.1718313956 
Si 13.5685438541 0.0097768508 2.8492707013 
Si 13.9639673177 2.2586899707 0.1434388808 
Si 13.5811848942 2.7692185753 5.5313868195 
Si 13.6316838947 0.0706779123 8.1566462073 
Si 12.3955172334 2.4889979928 12.3947730394 
Si 13.4599221331 0.9127792073 13.8380570239 
H 13.4672526332 3.6743887236 16.5010632552 
Si 14.2577737604 1.0959276790 17.8192834522 
Si 12.6750373459 2.1267898395 19.3099480453 
Si 12.4560508739 0.9449519576 21.4062261472 
Si 13.5778943142 3.8732407554 22.6677530960 
H 12.3575452430 2.9549571570 22.7538439245 
H 13.7032621553 1.1176129272 22.2434587245 
Si 14.1680158596 1.1894713759 25.7509082604 
H 4.1143327576 13.9956513680 29.0574791964 
Si 13.5803541042 2.9723548772 27.1284490961 
Si 13.5484908639 5.4353051597 2.6629799574 
Si 13.4423289329 8.1270647843 29.0820598942 
Si 13.6023130244 8.1817014448 5.4633957921 
Si 13.5197227236 5.5768001010 8.2491887391 
Si 12.3979770234 4.4810043710 13.7247289140 
Si 12.7970494470 5.9521868644 18.8627661833 
Si 13.6231805146 4.1374156878 20.2290968196 
H 13.5166113336 6.9689923837 22.2432835651 
Si 13.3359715220 7.0902388548 25.1003371810 
Si 12.2594468621 5.2644393481 24.0462281150 
H 12.9390330883 6.5849556302 22.0927632831 
Si 13.7639261159 6.4752750592 27.4034493011 
Si 13.5292360837 10.9021477597 2.5164970987 
Si 6.5118949796 6.0562473854 11.3562239638 
Si 8.9564538519 9.3057114551 11.1830205438 
H 14.1491520394 11.3715604040 12.8058720720 
Si 13.3912597825 8.9679057220 14.5985697989 
Si 13.7056404953 10.2277254635 16.5946859365 
Si 13.1395304102 11.3923953142 20.0924433207 
Si 13.9550078176 9.2319503344 20.1414879433 
Si 13.0383206392 9.2095027142 24.1107159550 
Si 13.8558668767 10.5006155460 25.9751998288 
Si 13.2159305109 14.0590357586 0.0187961180 
Si 13.5604477240 13.5474645939 5.4497625548 
Si 15.0424467776 12.1744293513 9.4886456078 
Si 14.0316848483 14.9740613569 13.2311298199 
Si 12.9253657782 13.2508888512 14.4321684010 
Si 13.1578240803 15.3014577799 17.6936358002 
Si 12.4003879434 14.8989155863 21.3945196628 
Si 13.8211203064 12.8105049872 25.4455762918 
Si 12.1763027014 16.2024902682 25.3467864093 
Si 14.9561423568 3.9809176564 1.4319219803 
Si 14.9330594266 1.3839446557 4.1808497194 
Si 14.9443321067 4.1093805976 6.9586437220 
Si 14.9457004667 1.3870707067 9.6212120548 
H 13.5805821642 14.6752050142 11.8448018227 
Si 15.8970201854 3.7690987845 15.1586418724 
Si 15.1037134681 1.5488124892 15.5366941712 
Si 16.0911969872 1.4529067423 19.2891916604 
Si 15.8281949348 3.8009294448 19.4548048412 
Si 15.1061243882 2.6443068542 24.0380832045 
Si 14.9180074664 6.7557399918 4.0832859524 
Si 15.2977925299 4.9470449852 11.3883365143 
Si 14.9357961466 6.7755812120 9.7700975161 
Si 14.6044086736 5.1578375872 13.6870988435 
Si 14.5779537133 7.0439752544 15.0790611337 
Si 16.0610930669 4.8590464044 17.3091026049 
Si 14.5218998228 6.6253548306 17.3938797381 
H 15.7510129141 6.5202028796 21.3264118626 
Si 16.1104517673 7.4088712578 22.5021983017 
Si 15.6939490435 6.6916225512 24.7112498421 
Si 15.2828057298 4.6639736527 27.2570452642 
Si 14.8759141061 9.3995744360 1.2751689441 
Si 14.8956901662 12.2172231817 3.9831823746 
Si 14.9254519965 9.4936654768 6.9276697074 
Si 16.2989596491 16.2247098284 10.9695888561 
Si 14.4944348826 9.8866617304 12.7375015327 
H 16.0587635969 11.1619732621 9.9744793033 
Si 14.6080739236 12.2312651619 15.8159857806 
Si 15.0387000775 8.8486629209 18.0237820123 
Si 16.0484520268 10.9210278699 23.2574271024 
Si 14.7027025345 9.2565808147 22.3767841954 
Si 14.8898583462 15.0693252778 1.3563903423 
Si 14.9496752267 14.9484046067 6.7706393355 
Si 14.8625888859 13.7200571455 17.6551591261 
Si 15.0267595074 12.8183078972 19.8498184053 
Si 14.6931240144 14.3726671314 21.6007406234 
Si 16.1640295778 16.2200671783 21.2665949390 
Si 15.2957562799 13.1501677803 23.6125335242 
Si 15.7068833037 16.0244731466 26.8873130353 
Si 14.7206052446 13.8252905464 27.3561854654 

