&CONTROL
  dt          = 30.D0,
  prefix = 'aSiHcSi_merged-1',
  pseudo_dir = './',
  outdir='./',
 wf_collect=.true.,
 verbosity ="high",
/

&SYSTEM
    ibrav= 0, nat=  388, ntyp= 2,
  ecutwfc     = 42.D0,
  nbnd=1468,
  degauss     = 0.05D0,
  occupations = "smearing",
  smearing    = "methfessel-paxton",
/
&ELECTRONS
  electron_maxstep=200,
  conv_thr    = 1.D-8,
  mixing_beta = 0.3D0,
  scf_must_converge=.false.,
/
&IONS
/
ATOMIC_SPECIES
Si  28.08  Si.pbe-hgh.UPF
H  1.00784  H.pbe-hgh.UPF

K_POINTS {automatic}
2 2 2 0 0 0

CELL_PARAMETERS angstrom
16.29000014898320 0.00000000000000 0.00000000000000
0.00000000000000 16.29000014898320 0.00000000000000
0.00000000000000 0.00000000000000 29.46693228775786

ATOMIC_POSITIONS angstrom
Si 0.3174367169 0.9539521827 26.5876299331 
Si 2.6863024746 16.2567848387 2.6413509830 
Si 0.8868341241 0.7790073551 1.2758503941 
Si 4.0209584768 1.3678354745 4.0275697720 
Si 0.0065875457 16.2769355689 5.4426307943 
Si 1.3442899083 1.3613553125 6.7989052868 
Si 1.4831377246 3.6505890334 9.6132919896 
Si 15.9631901660 3.7863661846 11.1352295753 
Si 9.0787265930 1.0322810194 9.5493782134 
Si 1.7461576960 1.4322754571 13.0784264250 
Si 3.5760622827 1.6607166452 14.5269913493 
H 1.4035284938 0.7557045099 16.8185757395 
H 3.7035641139 1.2365739113 21.3195023118 
H 3.1469999688 1.4694655274 20.8175331203 
Si 3.5653434626 0.1165872053 23.7633128741 
H 2.2968248610 0.5375879239 23.0596130642 
H 16.2733680588 1.8315824568 23.4868246485 
Si 2.5337629132 10.6229860272 26.7409463818 
Si 16.2801121189 2.6484933842 2.5992574703 
Si 12.1760420614 3.8880483656 27.9960314287 
Si 4.0888551974 3.9748414864 1.1927890054 
Si 1.3396602903 4.0612110671 4.0083278652 
Si 2.6706152044 2.7490352651 5.4168472286 
Si 4.0286799368 4.0572525971 6.8568962095 
Si 16.1776154380 2.5738851835 8.2348878310 
Si 2.6628285844 5.3674247291 8.3148316183 
Si 0.4733026963 3.3786111909 13.4201544387 
Si 3.2733289199 2.8210696458 16.6632260725 
H 1.6687801953 2.1427703296 19.3506397640 
Si 1.9880804882 3.8949553256 21.9259317783 
Si 0.7658515510 2.3738439817 20.5416931671 
Si 0.2769153415 2.6114662139 24.7648055018 
Si 4.0755462673 2.2058126302 24.8130723369 
Si 2.2825548209 3.5822036128 24.2448614816 
Si 12.6873362960 15.5576343223 27.9582253546 
Si 15.8233893847 8.2689669756 26.6594703140 
Si 2.7321588250 5.3814992892 2.6158620866 
Si 16.2715272888 5.4280561096 5.4696814382 
Si 2.5476745733 16.2673407588 10.0173130982 
Si 4.1334897978 6.7053387313 9.6231634119 
Si 3.5581269925 5.9152411441 14.7773129391 
Si 1.2356812193 4.0898977574 17.1959292744 
Si 1.3398394803 5.0424555161 14.9693194699 
Si 1.3460964693 5.7659758727 19.0752123480 
Si 4.0550860271 4.6958368929 21.1419345778 
Si 0.4294679349 5.5714732710 21.4600890457 
Si 2.1911027600 5.5733303310 25.4764613835 
Si 8.9390235518 2.2030433301 26.2840615967 
Si 16.2458705386 8.1082824142 2.7426465095 
Si 2.4326834622 8.3237339561 0.0677789536 
Si 1.2540921775 6.7586721918 1.3510028582 
Si 4.0650392172 6.7605944118 4.0745695290 
Si 2.7011915347 8.1415140145 5.4711547848 
Si 1.3483982463 6.7850782821 6.8896929051 
Si 0.0402595951 8.3015795559 8.1856191202 
Si 5.5791621510 5.1707555573 10.6791403973 
Si 7.6388046099 2.1002371392 11.1767779498 
Si 3.4111911912 6.6351614107 19.8787461245 
Si 0.5118920777 7.4561774182 22.9904541741 
Si 0.1063005589 6.5620193100 25.0887944223 
Si 3.9201233759 7.0079743541 24.6248965073 
Si 4.0440576970 9.5352375572 1.3029157714 
Si 1.3622773265 9.4709572166 4.0516442557 
Si 4.0321334169 9.5562353674 6.8699500605 
Si 15.8991378854 13.2183414309 7.9627901783 
Si 0.9954574741 10.1250170126 9.4100880245 
Si 0.8584911529 10.1573363729 13.2747351279 
Si 3.6292165532 8.2738376857 15.1327725433 
Si 1.5414608121 9.3803522358 15.4240826359 
Si 2.8550668761 8.7360501499 20.9857893036 
Si 0.6730148402 9.2512214046 20.1807821805 
Si 2.5505090333 8.5978294986 23.3675425066 
Si 13.9495995376 12.1233927809 28.9505537663 
Si 2.7099718448 10.8517139192 2.7207172184 
Si 1.2191305791 12.1462476511 1.4264676718 
Si 4.0654790472 12.2179073617 4.0884779211 
Si 0.0350221971 10.8436340792 5.3940987569 
Si 1.3852152757 12.2179236517 6.7916564214 
Si 2.8565655561 11.1603116821 8.2954423769 
Si 5.7937991930 13.9315176374 8.0782416190 
Si 1.8975406674 11.1923215324 16.9462264902 
Si 4.0023878766 11.0207552508 17.9827553003 
Si 0.6177086606 11.2287622627 18.9150006371 
Si 1.9789255081 10.7448678083 24.4247571032 
Si 0.0238415555 5.4945030203 29.2081831553 
Si 6.5540209199 9.1644771538 27.9322649873 
Si 16.2621931187 13.6381184447 2.7151951153 
Si 9.3161044752 0.0417828730 27.3545657798 
Si 2.7205766349 13.5997717844 5.4548301043 
Si 12.0890534606 14.9713897969 9.6709587760 
Si 1.3192261141 13.9494529276 11.9761274220 
Si 2.0356798686 12.2340670419 13.4231011320 
Si 1.8467158669 13.1768996705 15.6574607396 
Si 1.2399003293 13.0323584992 20.2649102721 
Si 3.3328362905 12.6299629155 21.3180584321 
Si 3.4127713212 12.4676982240 23.6972774789 
Si 2.5674343435 13.4655584732 0.0954360269 
Si 1.8646185771 1.0812145509 28.5236663183 
Si 4.0553955371 14.8049059954 1.3486160367 
Si 1.3838387707 14.9295570765 4.0841168151 
Si 4.1621601981 14.9523142067 6.7456880070 
Si 15.9269449157 13.4891626834 10.3066489063 
Si 2.7794324054 2.0822366890 10.9362099146 
Si 0.2917245807 15.7595162941 13.1813838864 
Si 3.5886707428 14.5169313728 16.6102739952 
Si 0.3533675702 16.0348824566 17.2208582991 
Si 3.4460517915 15.6303691730 18.8113949032 
Si 1.1903966479 15.2124492191 19.2848106373 
Si 2.7626537053 14.4595417022 24.8818776238 
Si 0.5296872738 15.2222883792 25.1527081984 
Si 5.3888460793 10.8218054790 29.2810254120 
Si 8.1880871249 16.2332294985 2.6098537791 
Si 6.7813804520 1.3075738770 1.3070470353 
Si 5.4349304897 0.0067913499 5.3330432732 
Si 6.7263528315 1.3137461580 6.8168211816 
Si 10.8568941393 13.6000161344 8.2134948382 
Si 7.7343128807 1.7664550362 15.9249910179 
Si 4.4065264903 1.4558943283 18.2250913515 
Si 6.1095645559 0.3930272046 16.8340458789 
Si 6.4533487190 1.4502384403 21.3372119381 
H 7.0341035143 0.3167981489 24.5412104196 
Si 13.0382880592 11.3250850336 26.8780265508 
H 3.5964736529 9.5397824672 26.6154172503 
Si 5.4239510296 2.6773103945 2.6528872870 
Si 6.7548114618 5.5438943007 27.5520826269 
Si 6.7720462819 4.0528217171 4.0464286087 
Si 8.1187894643 2.7199739049 5.4662043402 
Si 4.9450901852 2.2409990305 8.1054101305 
Si 6.7058437213 9.4740848966 9.5080066405 
Si 5.1453757371 2.8596443662 13.1636447932 
Si 6.6665848210 3.5205948322 14.8057779957 
Si 5.2622727781 2.9409966269 19.9298123182 
Si 7.5819036393 2.8426213160 22.8067867851 
Si 5.9354081643 3.6017841929 24.2848186418 
Si 3.1145828685 3.1125303285 28.6147191391 
Si 4.7111820731 2.2143485903 27.0763684720 
Si 8.1577388546 5.4003468194 2.6922639486 
Si 5.4422121198 5.3902633093 5.4684438270 
Si 8.5968846786 5.8842086938 8.1158414246 
Si 4.8288773242 5.1912157975 12.9203658002 
Si 4.8913331847 4.4763780109 16.1207398491 
Si 6.2874676475 5.7505492426 17.4613968674 
Si 7.0862478048 4.1376437478 19.0311298173 
Si 8.1136581142 4.4967405111 21.1449991388 
Si 5.1428507870 5.5431612507 23.1349010762 
Si 3.6227820031 6.7012010713 28.3652520903 
Si 5.4014545394 8.1663073947 2.7172519072 
Si 9.0871322331 6.4026379486 27.9609363124 
Si 6.7909752621 6.8241254124 1.4083425618 
Si 8.1172419142 8.1658349847 5.3982535943 
Si 6.8109142223 6.8025248722 6.8061541521 
Si 5.3769055092 8.1100743142 8.1650512015 
Si 8.8465452209 4.1737586782 11.9641343805 
Si 7.7675444810 6.5518054799 15.6830085699 
Si 5.2866751984 7.4503455981 18.6920538274 
Si 6.8873469030 8.0500456636 20.3729360459 
Si 7.1095099250 6.4017908685 22.1197947258 
Si 3.7773741045 12.2028391116 28.0396719555 
Si 14.4497514122 0.9048410903 27.7944481450 
H 13.1649591004 1.9890415982 25.5224592648 
Si 6.7684461919 9.5290636471 4.0574492414 
Si 5.4678362900 11.1797782322 10.7014763320 
Si 6.8486907326 9.0973134832 12.6882547746 
Si 4.4588499708 9.0785636930 13.0199345644 
Si 7.8615866519 8.7062394496 14.7152261128 
Si 6.6968353512 10.1145588325 16.1124596411 
Si 4.8363707242 9.0750613430 17.0158863181 
Si 7.5280000288 9.2279104144 24.5296299152 
H 6.1315071861 8.7741687502 24.8617811760 
Si 8.0682415938 8.0703430038 29.3834524686 
Si 5.2444189380 7.3581767773 26.7595400161 
Si 8.1321961344 10.8571384893 2.6754000233 
Si 6.7812501320 12.1694283213 1.2235112290 
Si 5.4128901195 10.8592073193 5.4589554748 
Si 6.8024597122 12.2351258919 6.7924225617 
Si 8.0902656740 10.7799890486 8.1275397967 
Si 8.0462826736 8.0552095937 10.9182350859 
Si 4.1804212882 11.4136700544 12.7609496965 
Si 8.1585533546 10.3024639842 17.8711934947 
Si 7.6386417099 11.7647847176 19.6136910686 
Si 6.4067593186 10.3077256543 20.9934507060 
Si 4.1457561679 10.6425014473 20.3477712857 
Si 7.1676326456 11.0272712509 23.1197845399 
Si 5.5642730909 11.9366442192 24.6295817495 
Si 15.9917954063 10.9328055400 0.0551883228 
Si 5.4583717999 13.5156339336 2.6976357704 
Si 4.0419074170 14.2569429704 26.8138181054 
Si 8.1751691548 13.5522538539 5.4030567043 
Si 3.2513211297 0.4888547595 7.9047403216 
Si 5.9970658148 12.7886926770 13.4551906212 
Si 6.8223986724 12.4298565537 15.6308226328 
Si 5.1905153275 12.9313604983 17.2354738975 
Si 6.3533606981 13.6464589248 19.1222121050 
Si 6.1510063163 13.9217273473 25.8889100347 
Si 8.2146235351 13.3408911020 29.1937738255 
Si 6.8151333323 14.9182355264 4.0280707099 
Si 3.5281208123 14.5148299627 11.1996148223 
Si 5.3800168992 15.0298383175 12.9488013899 
Si 7.3392477971 0.1420056328 12.5696209052 
Si 4.6750182728 15.9301703357 15.0793195281 
Si 7.5267131188 15.5004401318 18.3564844025 
Si 4.6494755525 14.4382995420 20.5284330476 
Si 5.3234254387 15.8962545554 22.2824521920 
Si 6.7490285117 15.2084581691 24.0477571715 
Si 5.3630915890 5.5969345412 0.0536507383 
Si 12.1106540008 1.3173104100 1.2639251266 
Si 9.4900816768 1.3450506513 4.0515263880 
Si 10.8569918793 16.2708919788 5.4047363194 
Si 12.1764330214 1.3134985500 6.8198562756 
Si 7.7570048509 15.9075923955 8.1078853528 
H 11.3464738038 1.1582027206 11.5215999914 
Si 9.6346880081 0.9045983693 14.6386120888 
Si 10.8687858394 0.3657088743 16.5967192063 
Si 8.2182399152 0.8347305586 19.9032920791 
Si 10.3336756245 0.2070670789 20.8630889976 
Si 15.3705599606 15.3144409101 1.2542540794 
Si 9.4585605265 4.0375416969 1.3013009835 
Si 10.8255684690 2.7223522449 2.6678977423 
Si 12.2374064919 4.0621233072 4.0261258923 
Si 9.5179212870 4.0709524872 6.8536843139 
Si 10.5954722169 2.4183482621 8.2134064374 
Si 14.4795458224 5.5436010807 10.5476000116 
Si 11.2701225731 2.4334002223 13.7409609306 
Si 10.6480237574 3.8850021355 15.5006082591 
Si 8.3862712667 2.4317549322 18.1242260422 
Si 10.5912693969 2.5651211635 17.4834970666 
Si 11.8193236381 3.4353329714 19.2865197194 
Si 11.1603768421 3.6313831232 23.1481906626 
Si 9.5161945470 2.0567591288 23.9490134814 
Si 14.6407027939 6.6604597809 27.9096638502 
H 11.1357463618 3.0755357381 27.2213752458 
Si 10.7654420785 5.3345840888 29.3249311411 
Si 10.9044935197 5.3957367493 5.4464320286 
Si 1.2001348100 8.7690211102 11.3355752479 
Si 8.6332439590 4.7599217535 14.3721720871 
Si 12.2950079324 3.2029724093 9.6775004350 
H 9.7590458693 5.5490745208 17.9639848645 
Si 10.4758873258 4.5565736817 21.0072117634 
Si 11.6951775470 5.3333786288 24.7305649265 
Si 9.6402266082 6.1312139661 25.5799492497 
Si 2.0133462784 5.0359069361 27.8096825490 
Si 10.8440739092 8.1047963541 2.7173226278 
Si 12.1237511609 6.7360128016 1.2799757646 
Si 9.4982918369 6.7609202118 4.0955205179 
Si 12.2129714917 6.6722700310 6.9914422223 
Si 7.8708556620 5.7229051123 10.4115511852 
Si 10.3454370046 7.6192240297 8.1480487815 
Si 12.0532480402 7.9032076023 12.0634084754 
Si 11.5162318953 7.3777899375 16.2094353152 
Si 9.4647833066 6.8494889426 17.2255730083 
Si 11.1821239923 6.7913010621 21.0599281053 
Si 8.5110526678 7.2418335962 23.8236316845 
Si 6.7752554120 3.3730237208 26.5377424168 
Si 9.4222664062 9.3893280259 1.3441282229 
Si 12.1931954315 9.4796397867 4.1046258000 
Si 9.4991552069 9.4347119663 6.8220957625 
Si 10.3749381949 8.4587780574 10.4125530609 
H 8.9440571618 11.6110071162 9.0151721980 
Si 11.7386066874 8.7599150001 14.2905781516 
H 10.5694733767 9.9473582710 10.1652960321 
Si 9.8362767600 9.9803129413 14.6492496514 
Si 8.6992184596 8.2869022658 18.8803769917 
H 9.3191832852 9.2244732244 21.6983881271 
Si 10.9311928300 8.5217063279 19.4615532972 
Si 10.1558376929 8.2490280154 22.5501003380 
Si 11.9141151490 9.5054594369 23.4968139385 
Si 10.1932395332 8.2661162256 26.5550689729 
Si 9.4030767860 11.7263403172 27.8192298350 
Si 12.2333339919 12.0108777498 1.2066060499 
Si 9.5440667373 12.1983430716 4.0456035346 
Si 10.8898813896 10.8485536592 5.5065445705 
Si 12.2465126020 12.2653438422 6.8896045043 
Si 14.1934934198 12.6133308254 12.5909844311 
Si 9.6715848585 11.5631308058 12.8812337141 
Si 13.9102917672 14.4499468922 11.0967162948 
Si 10.1383422327 11.0223516708 16.8737673037 
Si 11.0779657313 10.8674826394 19.2709317122 
Si 11.0781449213 11.6790667368 24.0464016926 
Si 7.2639391264 15.0038883472 27.8415657697 
Si 10.9200178899 13.5097043736 2.5984618631 
Si 7.3821719475 11.4057694043 12.1540192922 
Si 10.2122173834 13.4660797532 14.1117728065 
Si 9.1443264236 13.0627067695 16.1786423710 
H 12.1433806111 12.6357621556 17.3972768227 
Si 9.7234847989 12.3880727033 20.5075115257 
Si 9.1881139440 12.2943074624 22.8333364911 
Si 8.4056889469 9.8784027003 26.6144743084 
Si 9.5027390069 14.7631058550 1.1929864338 
Si 12.2244070718 14.9146843064 3.9903235696 
Si 9.4694585366 14.9167857164 6.8163202437 
Si 13.5112845036 0.0544887473 8.3058736709 
H 10.8115916489 11.5313815955 11.8724332873 
Si 9.4611017665 15.4784812116 13.0314266680 
Si 9.6673820384 14.8705709860 17.6243195360 
Si 10.6850835077 14.4506962322 19.7332678798 
Si 10.1843451931 16.1788371880 23.1706739320 
Si 8.8905608013 14.3776355815 23.8693938304 
Si 12.1472739211 15.4821464616 24.2213468696 
Si 11.1203197317 14.9359590466 26.2841499975 
Si 13.5914150143 16.2885014690 2.5974806142 
Si 14.9075492863 1.3601009824 4.0604254015 
Si 10.5764780767 16.2194807383 11.0371636246 
Si 14.4311971020 1.7376706059 9.9673666479 
Si 14.5216717628 0.2428122262 12.0945550228 
Si 13.3855745724 1.3402369563 13.9708030024 
Si 13.1336660101 0.0964705212 15.9824515358 
Si 14.6654147241 0.9262510375 17.5964438180 
Si 14.1097953990 0.2062770139 19.7684513970 
Si 12.3722551132 1.5592560083 20.5801769807 
Si 16.2408695085 0.1860888167 20.8730193538 
Si 13.4795027133 1.1515107885 24.3155821191 
H 14.8840102361 0.7152271175 24.5427721670 
Si 0.9616899328 9.5346022472 28.0779200336 
Si 10.8111843989 16.2028649382 29.2990002406 
Si 14.9741428069 4.0049454066 1.1454120717 
Si 13.5555281440 2.7124967948 5.4632576469 
Si 14.9085266863 4.0493682370 6.8845067251 
Si 11.2451174228 3.8645907653 11.8089909820 
Si 14.8339836457 3.0780932682 14.7069753718 
Si 15.2509750695 3.1639578589 17.0918520695 
H 15.9193863556 3.1310846386 19.9070343795 
Si 13.1994450307 2.6701427944 22.4938774312 
Si 5.6623551818 15.9984417263 -0.0001264176 
Si 13.5950639743 5.3925601993 2.5967144740 
Si 13.3795309824 5.0372264261 8.4285445100 
Si 5.3068422185 2.7695443753 10.5529040594 
Si 13.9488501976 5.2336675379 14.3420274154 
Si 12.4420088938 5.2796053383 16.0740936952 
Si 13.5557399140 4.5734827018 18.0576602422 
Si 14.5604256732 4.7945380038 22.3496662646 
Si 15.0957313681 4.5930469920 24.7232276603 
Si 13.5781712442 2.5341212932 29.3165330654 
Si 13.4321313928 5.0795315565 26.3947688613 
Si 10.7630474484 10.6548166874 29.4079984232 
Si 14.8832283161 6.7627609819 4.0913067466 
Si 13.5232739437 8.1183822142 5.5134987665 
Si 3.2056113893 7.6135713996 11.6033707285 
Si 12.8186336972 5.6339780015 12.2824951170 
H 16.0511561668 7.3396550471 13.4197713686 
Si 15.8531837950 6.5921558103 14.7311971901 
Si 14.1257921792 6.6623820009 19.0444488706 
Si 13.4788185333 6.7275745815 21.3106622321 
Si 16.2553024487 7.5642778592 18.6067470584 
H 12.2191779818 6.3808093484 23.7465756566 
H 13.2401374511 7.3662891974 25.6110368632 
Si 13.4426221529 8.0784228439 29.3577278367 
Si 14.8417213957 9.3827468658 1.3521137616 
Si 14.9284330665 9.5425191873 6.7778069632 
Si 15.5717088824 7.6294867298 10.3423922952 
Si 14.8025928154 10.2891876341 13.0206712377 
Si 15.9998426663 8.2750268557 16.3753930779 
Si 12.7427385865 8.2321352853 17.9617159107 
Si 14.1379282293 9.7029756887 16.7715170486 
Si 13.5179145336 9.0909603831 21.7668987447 
Si 15.7300151039 9.3968377159 22.2401671442 
Si 12.3871930433 8.6238772089 25.6009591724 
H 15.1185536583 9.3207634152 25.8084947765 
Si 12.0536878702 9.3462246855 27.9119917379 
Si 13.5530846440 10.7962953387 2.7280633247 
Si 14.9078099263 12.2353213719 4.0647865075 
Si 14.2114938700 11.4536294248 7.9543921026 
Si 15.1740862688 11.1695806922 10.1390704624 
Si 4.2802301191 12.8200672172 9.5568038804 
Si 13.2021165907 10.5280153263 14.7651136292 
H 15.9458576058 11.7343712873 15.7575304417 
H 15.4827491916 11.6071952562 15.1561987545 
Si 14.6465346140 11.2712954531 18.4063129850 
Si 13.2341101510 10.8920805396 20.2415724618 
Si 16.0982342672 11.3072149034 23.6130904533 
Si 14.3999203017 12.2002327116 25.0803668797 
Si 14.6114948236 14.3389794111 28.5534868538 
Si 13.5357357938 13.6097412645 5.4278089274 
Si 13.9717213578 9.1489853637 11.1553849570 
H 15.4862678316 13.0460583893 13.3213223479 
Si 12.5850350951 12.8502688775 14.3108808679 
Si 13.9318434374 14.2183356700 15.6978893707 
Si 13.5203580337 13.1829595506 17.7350857344 
Si 13.6925433352 12.8970211780 21.4071075015 
Si 15.9704555061 13.0282534192 21.9949728006 
Si 12.7990042471 13.2294512110 23.5736342310 
Si 3.9986411766 0.1019719800 27.9087209084 
Si 15.5883246826 13.7129872854 26.4444501091 
Si 14.8662378460 14.9911332771 6.8381552406 
Si 16.2670312488 14.6489618240 15.3524779904 
Si 13.0564188294 14.3726671314 19.6858555858 
Si 15.9341776757 15.2158212492 22.8659563852 
H 14.4266847719 15.3820281207 23.0211587175 
Si 11.0291446009 12.5021515743 26.3002389425 

