&CONTROL
  dt          = 30.D0,
  prefix = 'aSiHcSi_merged-20',
  pseudo_dir = './',
  outdir='./',
 wf_collect=.true.,
 verbosity ="high",
/

&SYSTEM
    ibrav= 0, nat=  388, ntyp= 2,
  ecutwfc     = 42.D0,
  nbnd=1468,
  degauss     = 0.05D0,
  occupations = "smearing",
  smearing    = "methfessel-paxton",
/
&ELECTRONS
  electron_maxstep=200,
  conv_thr    = 1.D-8,
  mixing_beta = 0.3D0,
  scf_must_converge=.false.,
/
&IONS
/
ATOMIC_SPECIES
Si  28.08  Si.pbe-hgh.UPF
H  1.00784  H.pbe-hgh.UPF

K_POINTS {automatic}
2 2 2 0 0 0

CELL_PARAMETERS angstrom
16.29000014898320 0.00000000000000 0.00000000000000
0.00000000000000 16.29000014898320 0.00000000000000
0.00000000000000 0.00000000000000 29.29585470619324

ATOMIC_POSITIONS angstrom
Si 10.5538675565 0.2879420426 28.8577059032 
Si 2.7624256453 16.2377255385 2.5352017450 
Si 1.6270940849 1.5578550682 1.2669373214 
Si 4.1723577382 1.3327679912 3.8715936787 
Si 0.0257305439 0.1008878805 5.3884451478 
Si 1.4441296902 1.3245154771 6.8614993142 
Si 8.2548598355 7.7441194608 10.8017038846 
Si 3.9313146060 1.5481331962 9.2957797693 
Si 2.3593784616 8.5067195278 11.0395862248 
Si 2.0464475587 0.9297191785 13.7491598266 
Si 2.4627873825 1.9444884478 18.3847601001 
H 3.8583354053 1.0983223090 21.6483769061 
Si 2.8521183861 1.3432766703 25.2483980117 
Si 0.5370210319 1.6648380152 24.9886902597 
Si 3.2364157796 0.4129449878 27.4399037188 
Si 0.0787870744 2.7249912249 2.6494819446 
Si 3.0752425181 3.0732877181 0.1367085201 
Si 4.2857035592 4.4337633705 1.5006889461 
Si 1.3667847695 4.1158314376 4.0934804822 
Si 2.8072068557 2.6760397745 5.3836992194 
Si 4.1230804877 4.1114820076 6.7683092003 
Si 0.0892252178 2.7793020854 8.2107784944 
Si 14.4717429124 1.9765960381 11.5894694176 
H 5.9077151640 13.8349993865 9.3974656809 
H 3.2494477797 3.4434779715 13.0038732828 
Si 3.9695309463 2.0862766091 13.2683855550 
Si 0.6126457286 2.3820541418 14.8878604031 
H 2.0826276490 2.9677610971 17.3252462188 
Si 0.9203279934 2.1360914295 20.1512122514 
Si 1.2567099805 3.8368977651 21.7257765543 
Si 0.0246725084 3.6233521531 23.6896534703 
Si 3.7096077039 3.5202038722 24.9586620087 
Si 1.4626188404 4.0388123169 28.0503414434 
Si 16.1555913578 5.3335741088 29.2084065799 
Si 2.6029465438 5.5746661110 2.6045069485 
Si 16.2545856887 5.4877752502 5.4715867835 
Si 1.0940298940 4.4847347810 9.6009839836 
Si 2.6310467941 5.5553950408 8.1084187780 
Si 1.6780492053 5.5949471612 13.4039374747 
Si 2.0432058487 4.4600717208 15.4596861912 
Si 0.9099805853 6.0359337552 21.0045126114 
Si 3.4065322512 4.0502316070 22.6137925021 
Si 0.7623133630 5.5988567612 24.7832677265 
Si 2.4763732426 5.0352227561 26.2252389910 
Si 16.1116409374 8.1839494648 2.4619650378 
Si 11.3399089337 4.5245638314 29.0659408385 
Si 1.2182492901 6.8943841831 1.0508130125 
Si 4.1244162677 6.8616738628 3.8392510551 
Si 2.7273695649 8.2042142250 5.1573887418 
Si 1.3943865458 6.9592020936 6.6701680871 
Si 0.5160818657 8.7843174203 7.9942528322 
Si 3.7575654644 7.0422485144 9.5530559653 
Si 2.6598475143 7.7360884908 13.3367620799 
Si 1.4219052430 6.3287627979 16.7732830203 
Si 2.6697192544 8.1193107443 15.7480159932 
Si 2.1118844893 6.5712883201 19.0304700337 
Si 1.4744926215 7.0931873449 23.0948890281 
Si 3.6243947131 7.9520287327 22.7896555179 
Si 3.2057742893 7.2060770459 26.7378285608 
Si 4.5284571414 10.0957275923 1.1198545532 
Si 1.3151894520 9.5562842374 3.7282783575 
Si 4.0256011268 9.4416026363 6.6994639418 
Si 0.1089928072 8.1847639649 10.2480415265 
Si 3.2077779593 12.1421425710 9.3623106553 
H 0.6748034822 8.4314760171 13.4108512964 
Si 1.3837801267 9.9108686706 16.5437207028 
H 1.9811083681 8.0690072238 18.9800225719 
Si 2.4600669525 9.6837046186 21.5939452081 
H 2.9343991768 9.5353515872 20.1550793042 
Si 0.1104040099 8.9458490618 23.4579818513 
H 2.5417775932 7.8761824920 25.5369621806 
Si 0.6803551142 10.1803378531 25.4307061155 
Si 9.3800915958 13.2121349408 27.9097506366 
Si 3.8791214455 14.4444734521 27.9570927378 
Si 2.7176444349 11.0065666607 2.4270795340 
Si 1.6726083453 12.8723581177 1.2973903623 
Si 4.0152732667 12.1950199115 4.0486871204 
Si 16.1943778481 10.8452630792 5.1305244430 
Si 1.1977923080 12.1511020711 6.5458950714 
Si 2.2783194208 10.5311267163 7.8384867728 
Si 5.4577853599 9.6478177482 11.7121018654 
Si 3.3240234004 10.7402740282 11.3516456691 
Si 2.1752525899 12.0636410603 13.0935478941 
Si 0.5963589865 11.0775910613 14.6658271203 
Si 2.6965488847 11.0492301711 18.1243199518 
Si 1.1159301702 11.8014046379 19.6749202456 
Si 3.3509507706 11.6430006765 22.4661413944 
Si 14.6867057543 12.1001632407 28.3299117848 
Si 16.2097718982 13.7140787154 2.6157975709 
Si 11.3906197042 14.4151188718 28.2449831020 
Si 2.6552863143 13.5915942043 5.3731820075 
Si 16.2310140584 13.5040517435 8.0380501350 
Si 2.5289573631 4.4420712706 11.5572439774 
H 7.1375775953 15.4720629515 10.7609826465 
Si 3.4733701218 13.4195718027 14.6521752520 
H 1.8127512166 13.6644593750 17.0870416242 
Si 3.1822515291 13.0211672691 16.9833050027 
H 1.9589213879 12.8775546278 20.3328758464 
H 0.4793495444 13.1462907602 21.9909040393 
Si 1.7562086261 13.3759634723 22.7762087206 
Si 0.8369101607 13.8296399765 24.9222472613 
Si 1.0450523796 0.6266893377 28.4989781623 
Si 3.5393609124 14.4128219818 1.1339956623 
Si 1.3259180461 15.0277857774 4.0079365865 
Si 4.0841473874 14.8702288960 6.7949098364 
Si 1.6929056855 14.0650956386 9.5362401447 
Si 0.7092047045 13.3591521922 11.6557366410 
Si 0.0074545973 14.9324078266 14.9840972859 
Si 2.4344590723 15.9885536962 17.5297898764 
Si 2.2985027310 15.4402811612 15.1766296430 
Si 0.5233700118 15.2628341896 18.7813087894 
Si 0.8041509704 16.1831051680 20.9586938946 
Si 2.7918779655 15.2831966898 21.9268925968 
H 3.1262302186 14.8282984356 24.9406743539 
Si 3.7437515442 15.8554969750 24.0197298653 
Si 1.9123482775 8.1996204450 28.4373396840 
Si 7.7518897909 15.0318094075 27.5381913114 
Si 8.6722259293 15.5755207424 2.5560809006 
Si 6.6999630313 2.0495426587 0.3647099544 
Si 5.4390355697 16.1698939779 5.2442802468 
Si 6.8233760724 1.2252539902 6.5653475189 
Si 7.0865084448 0.4102897178 11.6648476518 
Si 12.5372239447 3.2248987495 11.1514377981 
Si 7.4238254779 10.8984499297 12.0729096120 
Si 6.2584225772 0.9875275020 15.7858076457 
Si 5.7239476723 0.6495947069 18.0936471919 
Si 7.7280086507 0.9237488934 19.3165733508 
Si 7.6429585599 1.0898140420 21.6226844415 
Si 7.5023432786 16.2328059585 25.4364481031 
Si 5.5990848212 2.7824134754 2.4986375887 
Si 8.0723466738 3.9195206458 28.7755017349 
Si 6.8718876928 4.1236180577 3.9617370236 
Si 8.1868002149 2.6409836942 5.2718769419 
Si 5.6019355712 2.6432805842 7.9915283177 
Si 7.3355010971 3.5786686827 9.4103558570 
Si 7.2056535059 3.9444443461 13.4325009330 
Si 5.5516972108 2.9236314867 14.7685676828 
Si 4.6330389424 2.5232069931 19.0405185119 
Si 4.5413751115 2.4233655822 21.4156799322 
Si 6.4651100991 2.7311488450 22.6942389191 
Si 7.0491717645 2.2626810207 24.9847646152 
Si 5.5499216008 3.4054408211 26.3609959817 
Si 4.7955154039 2.0759813290 28.1699564181 
Si 8.2514226455 5.5865903911 2.6900303371 
Si 5.4443135298 5.4619718900 5.3227052499 
Si 8.3831110067 5.3289314587 8.2029272053 
Si 6.1079029759 3.9588121262 11.3263340507 
Si 7.7070434205 5.9247382142 14.6239047522 
Si 5.3408068688 4.5967448220 18.1169373964 
Si 4.4427065806 4.6479117125 15.8824546704 
Si 7.7669091710 4.6875127029 18.2986888790 
Si 4.5686445718 5.9509325344 21.8261441525 
Si 6.7145588714 5.0447849861 22.2818997641 
H 4.6940612829 5.6511313717 24.6817282941 
H 6.5277451497 5.3856206593 25.3394495281 
Si 7.6561371700 5.6140064613 24.3559583898 
Si 5.4639429800 8.2711987056 2.4400253722 
Si 7.2484962063 6.2086403368 28.5912015129 
Si 7.3627379773 7.3223224870 1.3458339877 
Si 8.0678506338 8.0939146340 5.4482086914 
Si 6.8183098824 6.6522007508 6.8684717276 
Si 5.3650300991 8.0711575038 8.1498431166 
Si 4.9390954652 7.4431942881 12.8463787679 
H 2.8379460860 2.6004704638 9.3922803147 
Si 5.5236295405 6.6093417604 15.0201897788 
Si 4.9605005254 8.2697326056 16.5585737012 
Si 7.3725445574 7.9810249330 20.7499902257 
Si 4.3811303801 6.2830530575 19.4938718635 
H 4.4039038003 6.3996731685 24.5521234329 
Si 7.5394844790 7.9738899129 26.9948410942 
Si 13.1924892007 3.0644748280 0.1945432246 
Si 6.6847807511 9.4445348364 4.1033824811 
Si 4.5331649515 5.6694739119 11.2919407172 
H 7.8307333916 0.2311160061 7.2475893833 
Si 6.0682205355 10.2225941135 15.8133750450 
H 7.4374113380 8.4935897877 16.9299279554 
Si 5.4832955001 8.3025406659 19.0278041109 
Si 7.2151668660 9.1325813335 23.1849444855 
Si 5.0998288966 9.0901947531 24.2782657831 
Si 5.2150317777 8.4785866975 26.6061729898 
Si 0.4763977964 13.1574819903 28.5313793776 
Si 8.0268161234 10.7524263683 2.7110589016 
Si 6.3435378280 11.7121517271 1.3654885766 
Si 5.4036048194 10.8706591894 5.4664600089 
Si 6.7533616518 12.0977034506 7.0047853395 
Si 8.1481603345 10.7587468884 8.4702811753 
Si 5.1348198170 1.7401303959 11.3053875145 
Si 6.7310769316 9.2076782342 9.7016445404 
H 5.1148645668 11.1239524017 15.0370055994 
Si 6.5607161100 11.5076144852 17.7378197407 
Si 4.8213513441 10.6197768971 19.0967079612 
Si 7.5022455386 12.0375444801 21.2005311752 
Si 5.0833108365 12.1502224111 20.9042621966 
Si 7.6597535501 11.5463032356 23.5883777006 
Si 4.2830645792 11.2638183430 24.5472603210 
Si 5.2839058983 13.4722536632 2.5127552611 
Si 8.5769294284 9.8763012903 28.1414515515 
Si 7.9957348031 13.5105188736 5.5280105996 
Si 5.0920096966 13.2644095513 8.2290884036 
Si 5.8600017536 13.7100876654 14.6171667057 
Si 7.6886194303 12.4777654441 13.7269535687 
Si 6.4299562788 13.7958708062 16.9634424132 
Si 6.0167115550 12.8118733472 24.8836353247 
Si 2.0951383692 13.2187486809 26.8749331608 
Si 6.7912684821 14.7555961650 3.8615452005 
Si 10.1453795128 11.7414574374 9.6363147844 
Si 6.6230579406 15.8379363548 13.9208628310 
H 8.0213263934 15.3059212400 14.2440839960 
Si 4.5017089612 14.8233299856 18.1804508094 
Si 4.6157063822 14.4860618225 20.5525361650 
Si 6.4761872992 15.3397881503 21.7639490529 
Si 5.9756444647 15.0406874576 24.0314189113 
Si 3.7632995444 9.7306198190 28.1260419319 
Si 14.1874661198 15.8642121251 26.3630466916 
Si 12.0226228400 1.3057917509 1.1669417805 
Si 9.4856996668 1.1506604505 3.9444231735 
Si 10.8143446589 16.2380350485 5.4921817693 
Si 12.3453929029 1.3096834320 6.6489285924 
Si 9.1537746237 2.8374085160 12.7977476491 
Si 9.8003735996 1.0623670207 14.1976500663 
Si 8.5439584681 0.9316935265 16.1867507132 
Si 11.2737552431 0.1467774625 19.1534833276 
Si 11.4582557848 0.0562509995 21.4564890578 
Si 9.7392372291 1.0248853594 22.6879403104 
Si 9.7671094193 0.0205553738 24.8515563638 
Si 2.7528308352 11.0519343111 26.3208606608 
Si 9.5687786675 4.2092708785 1.3075355168 
Si 10.7394269482 2.6256548040 2.6098798082 
Si 12.1629286112 4.0495311370 3.9319431394 
Si 9.5833907976 3.9715834863 6.6916712444 
Si 11.2981739533 3.7909599647 13.0531489105 
Si 13.7225495155 16.2403482285 12.4231708509 
Si 11.0019403006 1.7584403561 10.0042707195 
Si 11.8231680781 2.1605101398 14.7286667287 
Si 15.3023537300 14.5558481831 12.8440058037 
Si 8.7046918996 2.0183961785 10.6383209029 
Si 12.1690862313 3.3970514711 16.6669390677 
Si 8.7580742301 2.5166584130 17.9927522683 
Si 11.0255282208 2.4305168922 18.4737023150 
Si 11.7304453973 4.0565032571 19.9919892810 
Si 10.4087725252 3.1766477691 23.2875678645 
Si 8.9043095614 3.7471235743 24.9956626731 
Si 12.3422815129 6.4867595093 28.2637031532 
Si 10.8523003593 5.4234949096 5.3333103493 
Si 11.1155793417 6.1573431263 13.0457956509 
Si 8.9680197520 5.9320361343 16.6350651778 
Si 11.3189437035 5.6310783815 16.5922346382 
Si 10.2144165334 4.8066740540 21.5789750263 
Si 8.1552627746 5.6182581514 20.5457395267 
H 12.1844639914 4.8452650643 25.5132325382 
Si 11.1812280423 5.7575702327 26.2400333976 
Si 12.5220742445 10.3204644344 26.6294338984 
Si 10.7965233987 8.2125058351 2.4927637699 
Si 12.6000870552 7.2572928064 1.2728668024 
Si 9.5759462676 6.8845776030 4.0503569841 
Si 12.2026925016 6.7206676215 6.7456635046 
Si 9.8814326404 6.7673221819 9.4708810928 
Si 10.8442693892 8.2371363153 7.9520082097 
Si 8.9183189616 6.9891431139 12.9642066956 
Si 11.2859564532 7.9386546426 20.1486342162 
Si 11.3809760241 6.7221988815 22.2402996505 
Si 8.4276152871 7.7849259112 24.7363943590 
Si 10.7772686186 7.4576109382 24.4641479812 
Si 8.9608684420 9.1666437238 1.2085506830 
Si 12.0963025106 9.4483629864 4.0882365242 
Si 9.3222946753 9.5484324573 6.7803497966 
Si 11.7965990879 9.9931494614 9.2164758906 
Si 11.3558894239 10.0217221217 12.8672960082 
Si 9.1000013332 9.3219362953 12.6901732706 
Si 11.9098145889 9.3761168358 15.1195320222 
Si 9.9102822306 9.9670528812 16.1740949040 
Si 8.8770889712 8.1935931449 17.2883041461 
Si 9.1275151435 8.8617926610 19.5233141974 
H 9.9328275908 9.6043234478 22.6143784192 
Si 6.0366505152 13.4168350827 27.2499493969 
Si 11.6333407064 12.1333622610 1.5551382216 
Si 13.0868159697 13.3561059622 0.2582766495 
Si 9.3381448454 12.2194060418 4.0604640540 
Si 10.7180870480 10.8435363392 5.3666197361 
Si 12.1543437812 12.2584694621 6.5615097620 
Si 11.3506929138 2.9678588371 7.9261985617 
Si 8.1220637543 10.3446062146 14.6801820891 
Si 10.2980331042 11.7843815878 17.6573733236 
Si 8.4810301976 11.1359418418 19.1322145371 
H 10.0742573721 11.4120573444 21.2081188016 
Si 10.5953907669 10.9613944902 22.5806295946 
Si 9.7850935795 12.0210264199 24.5733922234 
Si 10.2041701233 11.1557504820 26.8428541999 
Si 10.4605258557 13.8376220766 2.7818464753 
Si 10.8327360691 13.4598895531 8.1071883521 
Si 11.3166956835 12.2780011723 12.2269765119 
Si 9.8406750600 13.4405696129 13.6922379809 
Si 10.3174019144 13.6709590850 16.0606320587 
H 10.8891809196 13.3737480323 21.3206734754 
Si 10.8602335893 14.1918481298 24.4469806104 
Si 12.9563656485 1.6880838454 26.1124499504 
Si 8.2155031951 0.0829729529 0.2678048333 
Si 12.1384121610 14.9568591168 4.0126825150 
Si 9.3837731358 14.9069954263 6.8651027043 
Si 12.5714818150 14.5388577130 9.2869617170 
Si 9.9737806512 15.5488214322 12.6401359508 
Si 8.5545306782 14.9385002866 16.9701511639 
Si 9.1573584238 15.3584564905 19.1712366156 
Si 8.3614453065 14.1995370099 21.0924001755 
Si 11.7667720976 14.1955296698 22.2444889577 
H 9.2103660842 14.5160354228 22.3242908659 
Si 10.6915995078 1.4010654458 26.7448009742 
Si 13.4361876029 0.0190695629 2.5535761051 
Si 14.9523630767 1.3137005460 3.8761345362 
Si 13.6818245151 16.2781736089 8.1083015946 
Si 15.1936831390 1.2322863833 9.4792304114 
Si 13.2367491311 0.2745093085 14.7119094998 
Si 15.0009398572 0.2833580366 18.0733451646 
Si 15.3327671602 0.6578423340 15.7759642386 
Si 13.3534018221 1.0819573749 22.2250365102 
Si 9.8850653104 3.6882678037 27.1539468811 
Si 7.3927767376 11.9540419393 28.5862212176 
Si 14.8951363062 4.0960716675 1.4474964627 
Si 13.6378903847 2.6852436246 5.2280796392 
Si 14.9158246064 3.9829701964 6.7515519714 
Si 11.8381548783 6.7569128718 10.9138777122 
Si 15.3089186000 3.2799915300 13.3806765661 
H 14.0151179182 3.2070774893 14.2035385331 
Si 14.3895109916 3.7439470242 17.4675068893 
H 15.3868499607 3.6475590934 16.3231229169 
Si 15.0908280780 2.3416223614 19.1733166213 
Si 13.6576175749 2.9963500474 20.8958249904 
Si 14.1618908195 4.0795536073 22.9397088857 
Si 12.6630153258 2.5914946737 23.9284439821 
Si 0.1221647384 2.3235730413 27.2108980226 
Si 13.5407531138 5.5523813908 2.6910879175 
Si 13.0015703989 4.7979914839 7.9150368411 
Si 15.6846963234 5.5765557510 12.9619509148 
Si 14.3243021210 5.9094744840 18.3565481921 
Si 12.0327552200 6.0978031758 18.7712017196 
Si 14.4228403319 5.5425585207 27.6004157068 
Si 14.3539173413 9.7689013193 28.2917978778 
Si 14.9600682468 6.8279372724 4.0464606354 
Si 13.5861044743 8.1269833343 5.4450447391 
Si 13.4165418627 5.2196418477 10.1515995728 
Si 15.6689113133 5.8984298639 10.5930588074 
Si 14.6414521339 7.1004201049 14.5036452687 
Si 12.2806890223 7.0472821245 14.8853702555 
Si 15.4668338615 7.1119208450 16.7078653768 
Si 15.0395797375 6.6870450612 20.4640626838 
Si 13.7192263555 6.3280786179 22.4236038134 
Si 14.4362632920 7.7956773113 24.1355070831 
Si 15.4589495014 6.8386235125 25.9831087519 
Si 14.1799401397 9.0716404430 1.2784535219 
Si 14.9578365168 9.6083307879 6.7261817613 
Si 12.6153344954 8.9901089922 11.1705093995 
Si 15.6259871629 9.1735669739 13.7099326771 
Si 14.9227152765 9.5327940572 11.4949609903 
Si 15.4764449615 9.3556240156 17.4275766393 
Si 12.8835167678 9.6777261885 20.2439922232 
Si 15.0940372080 8.9782987421 19.8047008819 
Si 12.5440005847 9.0747355430 24.5909111445 
Si 13.2914509516 10.8508994192 2.6548606635 
Si 14.8495894658 12.2148122617 3.8271518671 
Si 13.5023250035 11.0072834207 7.9786674375 
Si 14.3348743311 12.7752045568 9.2841493149 
Si 15.1051144081 11.8892891887 11.3133559870 
Si 13.4889346234 10.5454293364 16.5371877272 
Si 12.4777654441 11.3686282040 18.5743042801 
Si 0.0752140258 10.2994503342 21.3274115220 
Si 12.8570455176 10.3771536349 22.5511872606 
Si 15.5896115926 12.0286664300 24.8261568578 
Si 14.8198439255 11.7135852471 22.6146127860 
Si 16.2327407985 8.7519654800 27.1837407653 
Si 14.2285495001 3.1504860288 27.4150022423 
Si 14.6444820739 14.8462988858 1.2041680231 
Si 13.5868375243 13.6041863744 5.2712324331 
Si 13.6185867346 12.7602992067 12.9479767921 
Si 15.8884353553 12.8649787477 15.9828515645 
Si 13.6745754651 12.6270958755 15.3335675366 
Si 13.7397680457 13.2823774215 19.3084291032 
Si 14.0089114281 13.7319814256 21.6720772526 
Si 15.9189953956 13.0954007998 18.3939882944 
Si 12.4835158142 14.2559167004 26.1433277813 
Si 13.7257749355 12.2885408024 26.2005718814 
Si 14.9979587872 14.9617624068 6.6678244187 
Si 2.6960113147 16.0717955970 8.2856294031 
Si 11.7598814276 15.9145645155 11.0690871505 
Si 12.4925567643 14.6122441636 15.9990521721 
Si 13.0599537594 15.2387086994 18.1923449264 
Si 15.1395677585 15.7714894442 22.3370052668 
Si 15.8179648147 15.8149348746 24.6337123882 
Si 15.6355331030 15.2935408399 28.3871558849 

