&CONTROL
  dt          = 30.D0,
  prefix = 'aSiHcSi_merged-26',
  pseudo_dir = './',
  outdir='./',
 wf_collect=.true.,
 verbosity ="high",
/

&SYSTEM
    ibrav= 0, nat=  388, ntyp= 2,
  ecutwfc     = 42.D0,
  nbnd=1468,
  degauss     = 0.05D0,
  occupations = "smearing",
  smearing    = "methfessel-paxton",
/
&ELECTRONS
  electron_maxstep=200,
  conv_thr    = 1.D-8,
  mixing_beta = 0.3D0,
  scf_must_converge=.false.,
/
&IONS
/
ATOMIC_SPECIES
Si  28.08  Si.pbe-hgh.UPF
H  1.00784  H.pbe-hgh.UPF

K_POINTS {automatic}
2 2 2 0 0 0

CELL_PARAMETERS angstrom
16.29000014898320 0.00000000000000 0.00000000000000
0.00000000000000 16.29000014898320 0.00000000000000
0.00000000000000 0.00000000000000 29.17113846505263

ATOMIC_POSITIONS angstrom
Si 12.2768934523 1.4024012258 1.3029814076 
Si 2.7647388253 16.1686396479 2.5790699426 
Si -0.0048534101 16.0687004970 29.0396641440 
Si 4.0407996970 1.3166946480 3.9874029168 
Si 0.0586677839 0.0397653565 5.5746920741 
Si 1.3457478633 1.4382913542 7.0036402918 
Si 2.8196687058 0.0950635539 8.2953091319 
Si 4.1914821983 1.3896771067 9.7676931748 
Si 0.9841131180 1.0329261034 12.8791743169 
Si 0.0765918340 1.2857257288 16.5971817699 
Si 3.9590238962 1.8040034865 15.0948973101 
Si 1.6477823851 1.9757489581 18.1560874095 
Si 2.2325771004 0.2581150524 19.6551338730 
Si 3.5001183020 0.3388271161 23.4586419329 
Si 1.7877460664 0.9272056315 21.8699233898 
Si 15.0509175777 4.0912172474 27.9484301963 
Si 16.2757789789 2.6096580239 2.7285486904 
Si 1.5533997532 10.1796699631 28.1615545339 
Si 3.9922392065 4.0874053874 1.2738161034 
Si 1.3684414625 4.0270672268 4.0324139834 
Si 2.7159176948 2.6712993844 5.4555863157 
Si 4.1557093580 3.9918808265 6.8002882856 
Si 0.0189561845 2.8482576560 8.4368183246 
Si 1.5506728072 4.1773424782 9.7547411893 
Si 3.3008427302 3.2028909593 11.1121034332 
Si 2.5422825833 2.7290637250 13.3642028361 
Si 3.6526904434 2.8567773261 17.2811866247 
Si 2.3086676911 3.2165419794 21.9009323100 
Si 1.6383341850 3.6562905334 24.1082540153 
Si 1.6098983607 1.9559403179 25.7150878354 
Si 0.2480901863 6.9623623537 26.6240605100 
Si 2.5798799036 5.4596424199 2.5959921201 
Si 0.0577987124 5.3935375993 5.4505397088 
Si 2.8221936558 5.3721976991 8.1596925092 
Si 0.6890018463 6.0475648153 10.9444569005 
H 4.1434592779 4.6900702329 14.0939480360 
Si 1.3130179950 4.3280901396 14.6927439952 
Si 2.2608891207 4.7889016638 16.8667230894 
Si 0.6106388006 4.0939539674 18.4930140588 
Si 0.8305652056 4.6178892422 20.7731760969 
Si 3.3657420908 4.9156704450 25.0909421568 
Si 2.6148708239 2.5773223736 0.0397780561 
Si 16.2900001490 8.1706731147 2.8144956156 
Si 3.7621429544 6.9464958935 27.8779818969 
Si 1.0980681850 6.8283282324 1.2262117225 
Si 4.0210236368 6.7476764417 4.0734869464 
Si 2.7986708956 8.1538781246 5.5515010190 
Si 1.4085458139 6.7438320017 6.8500542478 
Si 15.0209439774 6.7380001816 9.6493458660 
Si 4.2149397985 6.5895982803 9.6312305890 
Si 0.5822094923 6.1521629063 13.3326396643 
Si 2.7772006754 7.0531791045 17.3226679836 
Si 3.1363951787 7.2861098166 19.6616390368 
Si 1.4192467150 6.8640522028 21.1519049876 
Si 1.5843051415 7.5481996290 23.4170730605 
Si 3.7666552844 6.9700349437 24.1276236513 
Si 2.5607880234 8.3434774363 0.1543724979 
Si 4.2061757785 9.4943333668 1.3810229543 
Si 1.4577090343 9.4956365668 4.1208608753 
Si 4.1977049784 9.5127573570 6.9712019858 
Si 16.2764631589 8.1095856142 8.1691147869 
Si 3.3970351811 8.3301033462 12.9253814002 
Si 1.3394485203 8.3151165460 13.9736170898 
Si 1.0649440987 8.3902623167 16.2867716855 
Si 3.5365427423 9.5583204874 19.9511042438 
H 3.7412591742 9.9333814508 21.4115281199 
Si 1.5680151413 9.7559018992 24.3104683472 
Si 16.0341005366 11.2142478726 0.2262659355 
Si 10.9283094999 7.9261927925 26.4471958975 
Si 2.7962273956 10.8687532594 2.7273205854 
Si 1.4092283649 12.2962785525 1.4510307695 
Si 4.1077515976 12.2422446220 4.1114677687 
Si 0.0449232592 10.8512903792 5.4462807226 
Si 1.3452249543 12.2059342116 6.8779126850 
Si 2.7869420955 10.9396636301 8.2532735214 
Si 3.5171576422 12.9351886483 9.6923441241 
Si 0.4297057689 10.8224733690 10.9577005973 
Si 4.2239481686 10.4770927858 12.7352147485 
Si 2.5014272629 12.2127923017 15.7043407349 
Si 1.1802528648 10.6536438074 16.9889209884 
Si 1.5925234466 10.7227948581 19.3230788038 
Si 3.6622363835 10.5351992164 25.4005937916 
Si 0.1034553474 13.6295824847 2.8846638721 
Si 5.5112980104 10.6975453578 28.9236505263 
Si 2.7768422954 13.5910566343 5.5626443939 
H 3.5856245128 1.5970357766 28.5520393934 
Si 1.4728196385 9.3742434857 9.4798032093 
Si 1.8102751366 12.8035165771 13.5226021180 
H 4.0089527467 12.3348044028 17.4647605990 
Si 2.3679470017 12.8482489175 19.7245028402 
Si 2.2269081804 13.3741064123 21.9855869538 
Si 0.2675844294 13.1825685906 23.2935916314 
Si 2.7414115451 13.3584354322 28.9512755944 
Si 4.1574035180 14.8016805754 1.0803735329 
Si 1.4604099164 14.9809683170 4.1932344698 
Si 4.1612153781 15.0243160074 6.8604975153 
Si 1.7902873064 14.6318736138 9.5235015747 
Si 1.2148609701 15.2551778895 11.7549478116 
Si 3.0875414682 14.7083062945 13.1227533231 
Si 2.1311392695 14.5487783231 16.2747531765 
Si 3.7813977346 15.7466146140 15.1515184899 
Si 0.7698426010 16.0944224072 14.9639188984 
Si 1.4834488636 14.6293323738 18.5328326628 
H 2.2342386804 14.8794979061 21.7819140650 
Si 3.3220197304 14.6673858141 24.8664702463 
Si 1.0074175922 14.4546709922 25.3081504538 
Si 14.2328663502 12.9632888986 0.1271412402 
Si 8.3788430266 13.4426058629 29.0042212108 
Si 8.1423610945 16.2730096788 2.5872903695 
Si 5.6322838415 16.0251899066 28.7720481197 
Si 5.4600333799 0.0016678028 5.3554417974 
Si 6.7971817522 1.3688405675 6.7765721500 
Si 8.2364195553 16.2831909289 8.0443206565 
Si 9.5177420970 1.2577346215 9.5518850924 
Si 8.1915894749 2.5623355734 11.0019532144 
Si 6.2213791169 1.9877221082 14.5472383566 
Si 7.3775455875 0.3023391448 15.7020653861 
Si 7.6865831803 1.9536922979 22.9426044934 
Si 3.9508626061 1.4974289417 25.4711296044 
Si 5.4009332594 2.6949035946 2.6110619302 
Si 8.0659935738 2.6921180046 28.9884396248 
Si 6.8232131724 4.0361733369 4.0189369175 
Si 8.1881522849 2.7708475753 5.5001889864 
Si 5.5193126905 2.6824906145 8.2605079637 
Si 6.8243208924 4.0366294569 9.7481193409 
Si 6.9628021837 4.1268597677 15.0909883776 
Si 7.3479140772 2.5619934834 18.9876107115 
Si 5.0363630561 2.3150207912 19.3527166805 
Si 4.5621448617 3.7403143542 21.2767282891 
Si 6.0868888757 3.6541565434 23.2071575481 
Si 5.2507068780 3.5285280623 25.4776639394 
Si 8.3620643265 5.8419035634 27.4110394835 
Si 4.3999942002 8.3008953759 25.9679724348 
Si 8.1849431549 5.3901981493 2.6180309152 
Si 5.4746129301 5.4079542495 5.4324827741 
Si 8.1860997449 5.5639961609 8.4871093673 
Si 5.0686661264 4.8717200246 11.1278558480 
Si 5.4557653999 5.2307190478 13.5470767032 
Si 7.4538968182 4.5041361712 17.5753775561 
Si 4.9063688549 6.0114498850 20.4638453446 
Si 7.1212061451 5.8120765732 23.1824787650 
Si 5.4598216099 8.0956413740 2.7637582545 
Si 13.8146694663 7.9863843430 0.0135779689 
Si 6.7173770414 6.7386517816 1.2975497416 
Si 8.1590583446 8.1175351342 5.4749559517 
Si 6.8231317224 6.7602034518 6.9132972760 
Si 5.5772888010 8.1186428543 8.4045550454 
H 11.7440638374 10.2791855740 10.7271610900 
Si 5.2657914182 7.4710827683 14.1744020359 
Si 4.9950353257 7.5253773388 16.6242817576 
H 7.4824694784 7.0373452244 15.3532077412 
H 7.9222831925 6.4818887993 15.6831916596 
Si 6.2158730968 6.3390254980 18.4592922227 
Si 7.8759218520 7.5845100394 19.6315052508 
Si 5.4469687998 7.2722796065 22.4932522765 
H 6.8370922525 12.0882226706 26.5055381744 
Si 6.8441295326 9.4934374168 4.0645605780 
Si 7.2702433565 9.2127607143 9.7477984583 
Si 6.3994288185 10.3558788947 11.7967208819 
Si 7.0598742946 8.9760018521 13.5934004711 
Si 5.6186328214 9.8059936497 16.7336151845 
Si 7.7097801405 9.9952508714 15.6308294660 
Si 7.1658081655 9.7560647992 20.4146628052 
Si 6.3974740185 9.5283305971 22.6585942893 
Si 0.4900243815 9.2566785547 26.3296362094 
Si 15.5510042922 6.3602513682 28.6929068211 
Si 3.5672331026 11.4673293149 27.6704584179 
Si 8.1785900548 10.7785066586 2.5453889462 
Si 6.7866421221 12.1890414815 1.1567523247 
Si 5.4592677499 10.8301296690 5.4525816885 
Si 6.7351657216 12.2011938216 6.8668568235 
Si 8.1399175944 10.8312373891 8.2122880718 
Si 2.5059721729 7.6701628601 10.7939921683 
Si 4.5742646218 11.2467627129 15.0477275792 
Si 5.4539897899 10.5174105362 18.9764381654 
Si 5.2995117185 11.4196484844 23.8640332441 
Si 9.3497107455 11.5492680156 27.8519320702 
Si 5.4582740599 13.5319890938 2.6163389891 
Si 8.1982195050 7.8329977016 29.0177857901 
Si 8.1472155145 13.5068210435 5.4172262687 
Si 5.4431243598 13.6268620546 8.2704261508 
Si 4.7108074031 14.0702921487 11.5666772839 
Si 6.1922200166 12.9608291085 14.6752704833 
Si 4.5327739915 12.6776274559 18.8546778335 
H 6.0303299952 12.9394566283 21.0403545541 
H 6.8011728022 12.7803033269 21.1287431037 
Si 4.2807513992 13.4195229327 23.0647732213 
Si 6.9532399536 12.6113597353 25.0789819900 
H 13.6917451252 11.9143920790 26.2130099979 
Si 6.8210628924 14.8984920463 4.0001215332 
Si 7.0565348445 1.0864762209 12.4827093740 
Si 5.6169712414 16.1925370781 10.9860841150 
Si 5.7816142729 14.9016848863 15.9846462044 
Si 7.8746023620 14.8304161356 18.9857729297 
Si 4.5892840020 16.2852434689 19.8327569351 
Si 5.6285860115 14.6787399442 18.3876187355 
Si 7.1282271352 15.9162098056 23.0782502873 
Si 6.7859253621 14.9972746072 25.3883127423 
Si 5.0643981463 15.5054085818 22.1044010008 
Si 2.1109070893 5.5520230108 26.9332454066 
Si 7.6824292303 15.3173242401 27.6640115963 
Si 7.6102319496 9.8040062697 27.7972070145 
Si 1.1311271113 3.4504989616 27.5652089503 
Si 9.4739382866 1.3443110853 4.0676527187 
Si 10.8959412697 16.2692466888 5.3768534130 
Si 12.2061134016 1.3154761560 6.8372772891 
Si 9.8833874404 14.5375219330 12.3351909268 
Si 15.0860713980 15.2213924292 12.1507126471 
Si 8.9177488116 16.1483423077 13.8410926078 
Si 10.4270987754 0.5509278050 17.4240376897 
Si 8.1657861147 0.6578683980 17.8928178849 
Si 10.0557519320 0.2898186507 21.0980842371 
Si 6.6729867910 4.1527771580 27.5925423070 
H 5.9177823841 8.3310318762 26.0160464709 
Si 9.5442622173 3.9841919464 1.2352547754 
Si 10.8567963993 2.6735148245 2.7333269228 
Si 12.1911266015 4.0535058971 4.1717061696 
Si 9.5039281769 4.1278860378 7.0349992656 
Si 10.9306389700 2.6846246046 8.2853909448 
Si 12.6436465156 3.6937575338 9.6240836601 
Si 10.7149756580 1.2435167094 13.0486002891 
Si 10.8176515289 16.2513602686 11.0488312339 
Si 11.4913896451 2.4229257522 16.5048551167 
Si 8.8143724706 2.3847094118 20.9156771083 
Si 11.0783078213 3.7185183340 23.3361814936 
H 8.6289271089 3.7780908646 25.3358630354 
Si 9.2971429150 2.7154941548 24.4862827987 
Si 10.7249777181 5.6319743315 27.1508037572 
Si 10.8563565693 5.4152684595 5.5882566535 
Si 11.6610825766 4.7432570834 11.5931646776 
Si 9.0171178125 4.5539021216 14.1324247676 
Si 9.9023815806 3.3564567907 12.3768473125 
Si 12.1421262810 5.8805271538 15.3222571633 
Si 9.6672680084 5.3279377687 17.8249366457 
Si 10.4673187857 4.4167891904 15.8923778935 
Si 11.4002633843 4.7281725432 19.3285046356 
Si 10.1229156026 4.3651173099 21.2678310919 
Si 11.9274566591 5.0576377963 25.1172253526 
H 9.5984916278 6.0623398454 24.7001947571 
Si 9.2562875947 0.9153057864 27.9098659512 
Si 11.4478138947 4.9342736251 0.1078728281 
Si 10.8996553897 8.0371928535 2.7789184951 
Si 12.3202737227 6.7531987518 1.3911424223 
Si 9.5038304369 6.7028463613 4.1201315968 
Si 12.1886505215 6.7782527720 7.0122166065 
Si 9.1988164741 7.4170977078 9.8153879862 
Si 10.7736359485 8.2759228057 8.2466808441 
Si 10.9874422005 7.0292002243 11.5531418757 
Si 10.9239274899 7.6113559596 14.1658840634 
Si 9.6317395181 7.6676542001 18.0544843342 
Si 8.7980010205 6.3544684181 21.5649974794 
Si 10.0784439022 8.0284614134 22.7274673472 
Si 11.7714310377 7.2855722466 24.3124228135 
Si 8.2244789852 6.4594900491 25.1768219884 
Si 9.5562027874 9.2471489046 1.2971851024 
Si 12.2200576418 9.4616719165 4.1500320137 
Si 9.5062902269 9.5645758475 6.7747343683 
Si 12.3115585726 9.5623929875 9.4918508895 
H 8.3173971461 8.2667352456 13.1451275863 
Si 9.6926804086 8.7612507801 15.9871549224 
H 10.6316197272 9.9228744008 16.2153899097 
Si 11.5019944352 8.6254410489 19.0737822545 
Si 10.8749108795 9.5253495271 21.1154118934 
Si 8.5271797680 9.5312627972 23.7729026075 
Si 10.9871489805 16.2282447584 29.1646916435 
Si 10.6667572576 11.9425737792 25.8537090854 
Si 8.6587378092 8.6554960992 25.9192858047 
Si 10.4940018060 1.4084268969 25.9820329235 
Si 12.2988686625 12.1124947708 1.2436910687 
Si 9.5188986871 12.1590190112 3.9941706209 
Si 10.8985313797 10.9068229898 5.4562864231 
Si 12.2760626623 12.2608152221 6.8944527205 
Si 6.9582572736 14.9936582271 9.4927843659 
Si 9.4529893465 12.2733096522 9.4684264653 
H 9.7654641293 10.7280565281 13.5262485103 
Si 11.1398840219 10.9588695402 12.9199263973 
H 9.4498779564 11.5196039254 19.1390089201 
Si 9.1357415936 11.0242738908 20.5461954685 
Si 9.0194798625 11.8193399281 24.1677339667 
Si 11.4303021445 14.0956556789 26.4096818134 
Si 10.9627139803 13.5071794235 2.6690599877 
Si 10.9147725098 13.6408714548 8.2537694307 
Si 11.8042879680 13.2214365309 13.0565056676 
H 9.1896940740 12.7833984269 14.5861234842 
Si 9.1626038038 13.4829236133 17.4157822575 
Si 11.4504528747 12.6893399661 17.6099161840 
Si 8.1916872149 12.2908702724 15.6299251607 
Si 11.9791611196 13.8591411668 15.4724301841 
Si 12.1174795108 13.8802041369 19.5857940768 
Si 11.7007324370 13.0233664191 21.8095391332 
Si 9.3911525059 12.8131602572 22.0604984374 
Si 6.7037911813 1.2906990658 1.1571344666 
Si 9.6274715380 14.8537271258 1.3044078763 
Si 12.2853479624 14.9106606764 4.0374897615 
Si 9.5723298875 14.8788300161 6.7413917570 
Si 12.3012632925 14.9760650270 9.7024081669 
Si 6.5506325999 12.7159904063 12.2640133489 
Si 8.2543548455 13.6108489845 10.9246788686 
Si 10.0010175315 15.1348925284 15.8752836063 
Si 11.5551812857 16.1594846678 19.3819461612 
Si 8.4555526373 14.8860627761 21.3390961831 
Si 11.4682415549 16.2020830182 22.9487012613 
H 9.0287977426 15.0847193280 24.6434277216 
Si 10.4149301453 15.6102673128 24.9549754804 
Si 13.6321074347 16.2520281586 2.6327360861 
Si 14.9338087666 1.2825931617 4.1257907977 
Si 13.5999835544 0.1288468965 8.3531846706 
Si 14.4615616623 1.9659586680 9.7229738195 
Si 0.0311971422 13.5677293541 8.3405827388 
Si 12.4405916638 1.4373058091 14.6341683492 
Si 14.5869783734 0.1349163876 17.6274188671 
Si 13.4847480933 1.2192006262 19.4670675433 
Si 15.8678610851 0.4559571042 22.5536365331 
Si 12.9057363280 1.8256366067 25.5753580822 
Si 0.0165100781 0.3092444758 24.9317260831 
Si 12.5837970551 1.9204932776 23.2209263255 
Si 1.2683508146 1.2055870730 1.3004551870 
Si 14.9023853563 4.1021478375 1.5683308344 
Si 13.6028668844 2.6792163245 5.5039812344 
Si 15.0094106573 4.0646971272 6.8532339019 
Si 15.0521881977 1.3494049683 11.9864207953 
Si 14.1312819092 2.7379254850 13.7291337783 
Si 15.6577689532 3.1895168692 15.4536147998 
Si 12.8574201876 3.1313778586 18.2898662505 
Si 14.3117262409 2.0413324987 21.6161928274 
Si 13.9940549480 3.9406813560 25.7361202262 
Si 5.2914318784 5.4767306301 29.0310878293 
Si 13.5917896843 5.4901047202 2.9021665552 
Si 13.6654204850 5.3598661690 8.2669256142 
Si 13.2005527507 4.8956826148 13.4195988281 
Si 14.7787931252 4.2026082684 17.3973752692 
Si 15.0239902074 4.3514011298 21.7640613283 
Si 15.6469361031 4.4027797903 24.0425022692 
Si 11.0386090910 10.5518475965 29.1565528958 
Si 14.9453746667 6.8385746425 4.2414251905 
Si 13.5414698738 8.1537478046 5.6080055142 
Si 13.2236519709 7.8588499319 10.7648210298 
Si 14.7164675846 6.7090039814 13.8950592139 
Si 15.0070974773 7.8131564815 16.0461681355 
Si 13.6950682853 6.2621692773 17.1728450164 
H 15.8300031248 7.7084443605 18.8791524186 
Si 15.8239432447 7.9223157725 20.3855208378 
Si 14.1024648990 6.5834080802 21.2968272035 
Si 12.7361900065 6.6568922709 19.3520457443 
Si 13.9095750072 7.7383365108 23.4328546465 
Si 15.8402169549 6.6818485511 24.4136466639 
Si 1.2262639702 14.6052394636 27.6743965215 
Si 4.7799747437 15.8072459946 26.4014263812 
Si 14.9423121467 9.5041725269 1.4516054410 
Si 14.9681480869 9.5471944173 6.8601766328 
Si 14.1431084493 8.6379191890 12.7314516717 
Si 16.0904802272 9.9122533207 13.0295515357 
Si 12.4336032537 9.4070841260 14.0722447090 
Si 13.6506291648 9.7757268294 16.0612787852 
Si 16.0317710666 10.2271878935 20.7217765509 
Si 13.9028309472 10.1170186225 23.6550803793 
H 15.3554428404 9.7714099794 26.1842472553 
H 15.1224958383 0.2600128374 27.8445226011 
Si 13.5523515939 10.8394475491 2.7919434085 
Si 14.9469059267 12.2342625219 4.1402596823 
Si 13.7238364255 10.9719504103 8.2889206526 
Si 15.0328356775 12.2254822118 9.8669042167 
Si 15.8671280351 12.1933583315 13.7387602540 
H 16.0169145865 11.0664487012 16.7462754586 
Si 12.6047459953 10.5146901062 18.0627397664 
H 14.5397536630 10.9365848200 15.6919138300 
Si 14.0705039187 11.1976483624 19.8883862961 
Si 12.6614351958 10.8848966495 21.7708873747 
Si 16.1347890276 10.8717180394 23.0865057195 
Si 12.8101140272 10.7393129182 25.7731967432 
H 14.0231977583 13.6490490348 27.9373451637 
Si 13.2183740109 3.2739479399 0.1662293989 
Si 12.4194798236 9.2846647749 27.6588191336 
Si 13.6318956647 13.6454978148 5.5375572148 
Si 13.5471225039 13.6561026049 11.2453863649 
Si 15.2385946694 13.1310759001 15.8565265643 
H 13.7441989257 12.8222826573 15.9367763662 
Si 14.4211135919 13.5404110238 19.8976043759 
Si 13.5145913736 14.3339946711 25.4920744818 
Si 15.0294636475 14.8137188855 1.3662681925 
Si 14.9859530571 15.0020312872 6.9891130648 
Si 2.5531643034 11.7174459772 11.5903350772 
Si 15.0806142479 15.0231594174 14.4650049173 
Si 13.2863684715 15.8234219647 15.6991482723 
Si 15.5282471620 14.2966091208 18.0150741262 
Si 13.0317883492 14.4529442522 23.1362133394 
Si 15.0839536980 14.5328304129 22.0246179371 
Si 14.3673891714 0.1213947101 26.2105304511 

