&CONTROL
  dt          = 30.D0,
  prefix = 'aSiHcSi_merged-15',
  pseudo_dir = './',
  outdir='./',
 wf_collect=.true.,
 verbosity ="high",
/

&SYSTEM
    ibrav= 0, nat=  388, ntyp= 2,
  ecutwfc     = 42.D0,
  nbnd=1468,
  degauss     = 0.05D0,
  occupations = "smearing",
  smearing    = "methfessel-paxton",
/
&ELECTRONS
  electron_maxstep=200,
  conv_thr    = 1.D-8,
  mixing_beta = 0.3D0,
  scf_must_converge=.false.,
/
&IONS
/
ATOMIC_SPECIES
Si  28.08  Si.pbe-hgh.UPF
H  1.00784  H.pbe-hgh.UPF

K_POINTS {automatic}
2 2 2 0 0 0

CELL_PARAMETERS angstrom
16.29000014898320 0.00000000000000 0.00000000000000
0.00000000000000 16.29000014898320 0.00000000000000
0.00000000000000 0.00000000000000 29.24947707576909

ATOMIC_POSITIONS angstrom
Si 4.5345658915 13.7174833255 27.6065924474 
Si 2.7463474151 0.0343525152 2.7646517984 
Si 1.5781344894 1.3941812918 1.2763711309 
Si 4.0954526475 1.3504866244 4.1051641076 
Si 16.2894788690 16.2807311389 5.4077603197 
Si 1.3289268092 1.3720040855 6.7890083756 
Si 2.7045309847 16.2626981087 8.1010814183 
Si 4.0667007972 1.3403689053 9.4180976226 
H 3.3578251507 0.3052941508 14.6758958733 
H 2.1436336996 1.9679786280 15.4305908808 
Si 1.3136875140 1.8494525869 18.2425186090 
H 0.3991115197 1.4832338356 19.4107719728 
Si 1.3624923545 1.3509166804 22.6325726233 
Si 1.7612585261 0.9744238259 25.1408907794 
Si 2.4713559226 5.4661421300 26.4550112854 
Si 0.0220322252 2.6720975944 2.6082197451 
Si 3.0177062376 2.9197218867 0.1324144302 
Si 4.2784382191 4.2837650492 1.4556265512 
Si 1.3466177493 4.0611459071 4.0210718610 
Si 2.7026739247 2.7105582848 5.3948320508 
Si 4.1031903975 4.0237766468 6.7120822509 
Si 14.7891209853 1.6528811551 9.7853833062 
Si 16.1873242780 2.7359218150 8.1684137145 
Si 1.4001678668 4.0022738466 9.4562389407 
Si 3.2300138095 2.9454112169 12.6952090342 
Si 1.4318079341 2.4114250121 14.1790935052 
Si 3.0607444180 2.8966878265 19.4294916382 
Si 2.3968291719 3.2841780600 21.6780451884 
Si 3.9535993262 1.9987830183 25.8170216915 
Si 0.0070740303 5.3494894389 29.1487711262 
Si 2.7331525150 5.4632588000 2.7110228821 
Si 16.2861231289 5.4318190997 5.4162426680 
Si 2.7424703951 5.3399272088 8.0433137011 
H 10.5913019769 0.4051062397 11.2251595658 
Si 3.5704259427 5.9639319545 14.8106189647 
Si 0.7386716858 5.5344623906 18.1524302196 
Si 1.2026418410 6.1285749861 14.9327940304 
Si 3.0415710878 5.0606840263 18.4868102415 
Si 0.8374493597 5.0652452263 21.8622583950 
Si 0.3950569386 6.1271740460 25.5450893031 
Si 1.4687080424 3.8838292555 27.9459448804 
Si 16.2873448790 8.1356984844 2.6423831343 
Si 2.4374890123 8.5287761880 0.0066966970 
Si 1.3720415525 6.7777477820 1.2709102536 
Si 4.0732493773 6.7852737621 4.0977347404 
Si 2.7018594247 8.1486327445 5.4366295536 
Si 1.3196105581 6.8073467123 6.8317126122 
Si 16.1526754477 8.0927906240 8.2463635709 
Si 2.9923915774 6.5340493798 11.0388988958 
Si 0.4955760135 6.9490045536 12.8465750780 
Si 4.5009270412 6.3698135983 9.2371018584 
Si 0.3427578931 7.5598958491 16.7171583795 
Si 1.9538551979 7.1549916054 22.1293061207 
Si 1.2775253427 7.8954698522 24.2741410252 
Si 4.1610361881 9.5074793970 1.3378944810 
Si 1.3652844605 9.5177095170 4.0247865446 
Si 4.0674990072 9.5015987069 6.8011176591 
Si 1.1791565478 9.5769399576 9.5104967207 
Si 1.1516183025 9.2123371743 12.9447070736 
H 4.0576598471 8.6736105793 13.5204245309 
Si 0.1027604160 9.5259685471 14.9882510390 
Si 3.6985305038 8.9204366616 18.4529100976 
Si 0.9138918144 8.7246471498 20.6785905567 
Si 1.3591366144 9.0921495532 18.3655126601 
H 1.9048222974 10.0711785621 23.0713440289 
Si 2.4399325123 9.3540927555 25.6639006790 
Si 3.3365504105 7.6924312904 27.1435439758 
Si 0.7583190549 10.4097499252 29.0732197269 
Si 2.7711245053 10.9199527299 2.6671252669 
Si 1.5252913579 12.3085775026 1.1584957383 
Si 4.0970979375 12.2440853920 4.0531585373 
Si 0.0031863077 10.8572688093 5.4517222837 
Si 1.3106266230 12.2537127821 6.8289631613 
Si 2.6086806239 10.8121129289 8.1307696375 
Si 4.6970423530 11.0836020714 11.4023236484 
Si 3.0360976478 10.6969914978 13.0434240587 
Si 0.9711104399 11.5731980258 15.6553438626 
Si 0.6238369587 11.3490964938 17.9300756948 
Si 3.2832495300 11.4196647744 15.2837292564 
Si 3.0569325580 11.9040967989 20.7368262655 
Si 1.3286319602 10.7218989081 21.8302887165 
Si 3.7691802345 10.7276329881 24.2333087552 
Si 0.7955873173 10.8293477490 26.6807295000 
Si 16.2720648588 13.5244468237 2.5896931263 
Si 2.7151846448 14.1326339793 29.1828467670 
Si 2.7119755148 13.5737729441 5.4276207146 
Si 16.2593423687 13.6264710946 8.2950347008 
Si 1.6447198650 12.5136034444 12.3450050451 
Si 0.3740705314 13.3707832523 14.1797369937 
Si 3.9211333559 14.2325405502 12.9301993330 
Si 2.1012471192 12.9730628986 18.8688669111 
Si 1.0510177776 13.9552684576 23.2126190031 
Si 3.1168797585 13.0468240193 23.9936092905 
Si 3.8276124650 14.6617657641 25.5641892116 
Si 0.6723697561 1.6752473253 27.1911328750 
Si 4.2400915588 15.1779795788 1.4083769459 
Si 1.3352733932 14.9177794064 4.0170646826 
Si 4.1056990575 14.8930674762 6.8191938360 
Si 2.7578318652 13.8348039065 10.8055465677 
Si 1.2514564554 15.1733695088 9.6239261928 
Si 0.3854100005 0.6634118851 11.0236306687 
Si 0.2198384390 15.4327226011 15.3951990135 
Si 3.4423213815 14.4921542825 17.4484245558 
Si 1.5927238136 15.9569510959 17.3147544456 
Si 0.8789921180 14.9026785763 19.3686234764 
Si 1.8129141166 15.5667241424 21.5048297851 
Si 0.1564849994 15.4032539909 24.8723513303 
Si 4.7974050439 2.1531959297 28.0468848258 
Si 5.7234426823 0.3883910706 0.1713250095 
Si 8.2241531852 16.2760396189 2.7044680743 
Si 7.2347800262 1.7428996959 1.4921883975 
Si 5.4664190600 0.0083114024 5.4838967085 
Si 6.8204764524 1.4342155961 6.8832501908 
Si 8.5941153786 0.4815014534 8.1861096481 
Si 5.3514931089 1.7463043060 12.8485347930 
Si 2.2699789408 2.2056334402 10.6980547394 
Si 4.7531451135 0.7758128861 14.8921080078 
Si 5.0376336761 1.7605091861 18.7759120729 
Si 5.5884311611 0.4345911400 22.6908375816 
Si 5.2517005680 0.1818354977 25.0073961660 
Si 8.0046617232 2.3259025113 26.3754234583 
Si 5.4689928800 2.7497031551 2.7501645324 
Si 13.3337560819 5.3120875986 26.9741017551 
Si 6.7916594421 4.1370735978 4.0628693637 
Si 8.1192781643 2.7563494752 5.4215368234 
Si 5.4421306698 2.8530632061 8.2478845437 
Si 6.2747288674 4.7158735931 9.5934189882 
Si 7.3044849368 3.0847721682 13.3040076500 
Si 7.2979200667 2.9415667769 15.7082854162 
Si 5.1568927672 2.4403234723 16.5059479055 
Si 6.6968842212 2.7953640256 20.1603775713 
Si 6.0368297052 2.7322891450 22.4382098481 
Si 7.8811183621 2.9860710573 24.0438598922 
Si 10.9341413200 3.4873469419 28.8906444910 
Si 9.7125704988 9.7636233593 1.4344908791 
Si 8.1820109548 5.4105769395 2.6077546784 
Si 5.4592840399 5.4544296199 5.4542962377 
Si 8.1668938347 5.5250467705 8.3456947951 
Si 6.4264702188 4.9164360750 12.0581846729 
Si 4.0735914673 5.1656404972 12.6407172584 
Si 4.3526717498 4.6445885525 16.5832250239 
H 5.6713309719 5.2932400684 16.9924837072 
Si 7.5699793592 4.9978372057 19.8685262891 
Si 4.2566584889 4.3346061396 22.7310263631 
Si 4.1074909576 4.3325698896 25.0976308028 
Si 7.8849628021 5.2954880884 24.1192650441 
Si 6.1315560561 5.3854577593 25.7905509147 
Si 7.9975429931 8.8763070512 0.0726796856 
Si 5.4431406498 8.1118825042 2.7251035804 
Si 12.3218864327 6.8659092628 1.2066988766 
Si 11.2324926727 11.1291163318 0.1345174676 
Si 8.1685391247 8.1526889546 5.4042796319 
Si 6.8489187926 6.8304785125 6.8194278318 
Si 5.5109722104 8.2119519751 8.1473248415 
Si 7.7898129112 6.8140744823 12.7793305302 
Si 6.8847567930 8.0016643632 14.5674973112 
Si 4.5868405019 8.0799052339 14.8091272414 
Si 7.6766625702 7.0469726144 16.6145804633 
Si 6.5717607301 6.8149541423 18.7271531946 
H 7.0936434649 7.9794610930 19.5733990654 
Si 4.3218673595 6.8155242923 19.4079640230 
Si 7.6096292196 6.3379177780 21.9766823493 
Si 4.2338850687 6.6553773009 21.8184134289 
Si 6.0404297952 8.1125341042 22.5066536244 
Si 9.6947981087 6.5283315897 27.2963139946 
Si 5.6281624715 7.5711685292 26.4679980532 
Si 6.7834167020 9.5150868270 4.0704157288 
Si 0.6489610259 5.8264769333 10.7463456261 
H 6.9924499840 9.7393512591 8.5715592571 
Si 4.5537392216 9.7974902696 16.4323269717 
H 7.3664358074 9.7650405893 17.6915169598 
Si 6.5068776595 10.0860513322 21.1977687748 
H 4.2111768085 9.9858678313 22.9584702968 
Si 6.5954626803 8.9029574914 24.7668484665 
Si 6.0046406649 10.3932970251 0.0596414387 
Si 8.1807729148 10.9235853999 2.7742368520 
Si 6.9135575132 12.2129063317 1.2642062734 
Si 5.4203998096 10.8724836694 5.4253977544 
Si 6.7797025820 12.2029042716 6.7770745890 
Si 8.0875126640 10.8263829690 8.1575036596 
Si 3.8827704055 12.2092736617 9.4882963676 
Si 7.7647263110 10.2259987235 14.5526970758 
Si 6.7740662420 10.6735176076 16.6411389885 
H 5.3188968186 11.5818154359 18.8215705066 
Si 4.6939472529 10.5714933367 19.7555063097 
Si 5.8182830632 11.0527976811 25.2704074639 
Si 5.0690570864 11.4218965045 27.4210922638 
H 8.4262957971 5.8773831838 27.8147024768 
Si 5.4883616902 13.5628749340 2.6299287069 
Si 10.3208879744 2.1810844099 27.0019765067 
Si 8.1691744347 13.6221216646 5.4805915176 
Si 5.4252542296 13.4914107034 8.2322945725 
Si 5.8527201235 13.0535843694 12.0418634647 
Si 7.6775259402 12.3126500026 13.3327013870 
Si 4.1649620781 13.5776010942 15.3127739871 
Si 7.7728713111 12.7345284265 17.1578602506 
H 5.6539658317 13.3416078620 15.4697266811 
Si 7.8277523216 13.9357530375 20.8449323328 
Si 6.5789446202 12.3431611729 22.0636995436 
H 7.0793245547 14.0122508782 24.6209813243 
Si 7.2882112267 12.5533673348 24.2715670712 
Si 4.4139873104 13.2679933513 22.0591658747 
H 6.4411312189 7.8055653414 27.7059529210 
Si 6.8036651722 14.9390378566 4.0533925332 
Si 7.7628855410 16.1581814678 10.3993005806 
Si 5.5316605106 0.3798404495 10.9680274128 
H 7.7995869113 15.1124611982 14.9562813605 
H 5.4910332502 15.8388160149 15.3832944764 
Si 7.0821264348 14.4409873921 18.6589434141 
Si 4.1931274883 15.4384403912 21.2423157284 
Si 4.9660554154 15.6042888827 18.9509116943 
Si 7.7221116706 16.0169308765 21.9207573491 
Si 6.5424387298 3.7829778646 27.5416878577 
Si 12.1680436713 1.2436877544 1.3606417993 
Si 9.5240951971 1.3196529121 4.1492723190 
Si 10.8926995596 16.2602057387 5.4648260495 
Si 12.2128900417 1.3029849839 6.8384399919 
Si 6.9172390533 13.9874737879 10.0286804565 
Si 10.0734102921 0.9703822769 14.2218854901 
Si 8.9018334814 1.3029507749 16.3264731142 
Si 10.4840486159 1.9933421582 19.9974872335 
Si 8.3447806363 1.1102954592 20.0990706674 
Si 11.9589615194 0.2347812561 20.2139626133 
Si 9.6142929279 0.0566582495 23.2598861581 
Si 7.0428838244 7.0647450046 1.3528175642 
Si 9.1251856735 3.5219631922 1.3818944694 
Si 10.8401317291 2.6400388741 2.7562016244 
Si 12.1957855415 4.0913149874 4.0565514767 
Si 9.4303136662 4.0793418373 6.8702341735 
Si 10.4184162053 2.2638050307 8.0233655577 
Si 11.1849421623 6.1342113261 11.3625443596 
Si 11.4195344544 3.7644235544 11.5190583115 
Si 9.7532303392 3.0456110079 13.2072503798 
Si 10.3871719850 2.5332905032 17.7464182283 
Si 10.6126418771 3.6712121736 21.5761985092 
Si 10.0662426921 2.3396512714 23.4197053008 
Si 11.6326239464 2.7371109850 25.1079851177 
Si 11.5347536255 5.6946256721 28.5113957712 
Si 10.8698935594 0.0252776819 29.0504636337 
Si 10.8476414192 5.4235926496 5.4931980422 
Si 13.6279534846 2.9523018870 11.9676867908 
Si 10.2979353642 4.6625727126 14.8375577331 
Si 8.4583545174 4.8725833946 16.3069637129 
Si 9.4190084061 4.5739551118 18.3882102543 
H 9.3945734059 4.5744926818 21.4045625777 
Si 9.9919114214 6.0307209552 25.0216114119 
Si 12.1334111310 5.0051677058 24.9905192177 
Si 9.5942725177 8.8712897311 27.4268251613 
Si 10.8905004096 8.1328803144 2.6633257599 
Si 7.2510374463 0.0872073755 26.3187672212 
Si 9.5260499971 6.7558540218 4.0466944029 
Si 12.2349304119 6.7704498619 6.8641795317 
Si 9.6010165778 6.9404360135 9.7032800241 
Si 10.8818829995 8.1855947549 8.2078127601 
Si 10.0463200219 6.4858961393 13.4332610892 
Si 10.9163200598 8.0315239335 14.9844193575 
Si 9.8272358099 7.9329042726 17.1264755617 
Si 10.9362427300 6.3122610277 18.3963123594 
Si 9.4550418865 7.7321788907 21.7574575186 
Si 11.3322200536 7.0143926142 20.5723564559 
Si 10.2210954335 8.0660261538 23.9259552501 
Si 9.8786959203 12.2185263817 27.8345043728 
Si 12.2557490321 9.5210000971 4.0227683307 
Si 9.5216679871 9.5008004969 6.8012931560 
Si 11.8638116285 9.9595106111 9.3359065920 
Si 10.0950271223 10.0485517519 14.2463380530 
Si 9.9838315813 9.7188747289 18.7255152239 
Si 8.8256614407 9.7967083496 20.7926927668 
Si 11.9603298794 9.1900850340 19.9264695032 
Si 8.8878729513 9.4794117267 25.1888014228 
Si 8.2784151757 13.5482790939 29.0531253362 
Si 6.6043733104 14.9441040467 28.0876878463 
Si 12.6246849555 12.6198631154 1.4245168074 
Si 9.5340483872 12.2633075922 4.1043451222 
Si 10.8740800895 10.8669776494 5.4294049327 
Si 12.1434620611 12.2634867822 6.8138119322 
Si 8.9041303714 12.6490385057 9.5322583316 
Si 10.3157566243 10.0668128421 11.9021972117 
Si 11.0867786214 11.5997018561 15.6810249035 
Si 9.9387082809 11.8091749680 17.7094468892 
Si 12.1797236014 10.4866875959 21.9208450976 
Si 9.4531359565 11.6441409765 24.3634396787 
Si 10.0535527819 11.3926396642 22.1021626060 
Si 11.2575466930 12.2126782717 25.8305349499 
Si 10.8847337495 13.6117123545 2.6739082207 
Si 10.8545972493 13.6243859746 8.3367444551 
Si 9.5360520572 12.2986080225 11.7732947662 
H 5.6026034612 9.9340819209 10.9960776613 
Si 10.9297267300 14.1379445193 12.5846167613 
Si 10.7650511185 13.7797274160 14.9053580209 
Si 8.3825571467 13.7360213456 15.1012125194 
Si 11.2522361529 13.2029148007 19.0551860800 
Si 10.1184521425 13.4450493630 21.0597989914 
H 9.3232557853 14.1152525491 25.5144651006 
H 7.2744787565 4.3168337495 28.7661294671 
Si 9.5420630673 14.9348350366 1.2142569414 
Si 12.1937330015 14.9441366267 4.0858302032 
Si 9.5580435574 14.9878589871 6.8931657635 
Si 12.8081266471 14.5762921333 9.5968704265 
Si 9.5604707674 16.0413984567 12.1405219509 
Si 12.1326129210 15.2342778193 16.2179575542 
Si 8.7023135596 16.0724634870 18.1546239303 
Si 11.0276947909 15.3980574808 18.3266693545 
Si 11.2702528931 15.2203824492 22.0727376320 
Si 9.3281590753 15.6193408428 25.4690114132 
Si 13.5619464040 16.2107330083 2.7030845741 
Si 14.9386468966 1.3355666132 4.0251667878 
Si 13.6770189651 0.0598766648 8.2714011233 
Si 12.1327595310 3.3710363408 9.3111615344 
Si 13.8050909463 0.8998921882 13.1389236014 
Si 16.2272510684 0.6553711410 13.4799140051 
Si 12.3107277826 0.8989652872 14.9900060076 
Si 14.2571221604 0.6986048014 19.9551632402 
Si 15.3044388500 1.4326094021 22.0179241120 
Si 14.5785564433 0.2094160969 23.8993382259 
Si 13.2764804414 1.1573751886 25.6792859039 
Si 13.3681931423 2.7049219447 0.0243159385 
Si 14.8811106161 4.0512904571 1.2929819090 
Si 13.5458518839 2.6936003946 5.4209225844 
Si 14.8918457262 4.0789508773 6.7604608860 
Si 8.6021300587 8.4169616270 11.2337296626 
Si 12.4926870843 2.4847951727 16.7103725008 
Si 16.1600711078 3.4599308716 17.2806203058 
Si 14.2140514000 2.4953185128 18.3429613132 
H 14.8098744454 2.8545455961 22.1266151688 
H 15.7927804744 3.2854161000 24.2765394823 
Si 14.5827755534 1.3546633804 27.6747144795 
H 13.9261256474 3.9089321457 27.1362023570 
Si 13.5660677741 5.4483371598 2.6625096995 
Si 13.4643204331 5.2206681177 8.2502245019 
Si 14.2120314400 4.4445636406 13.8357923927 
Si 16.2894462890 4.0717344072 14.9828983847 
Si 13.0418881493 5.6873603320 17.5852828591 
Si 12.5619521649 4.5116621513 15.5845893776 
Si 13.8149463963 4.5061561312 19.4656732413 
Si 12.4742468041 5.0649845863 21.3115492406 
Si 15.7236945838 5.7046114422 20.0859669017 
Si 13.6321563047 5.4961808903 23.2942250442 
Si 15.8055518346 4.7319681133 23.8218563612 
H 15.6999926336 12.9652599886 26.6894165947 
Si 13.7140298454 8.2116424651 29.0345226687 
Si 14.9282212965 6.7985501122 4.0476596357 
Si 13.5716878241 8.1414162745 5.4412217215 
Si 14.8888483662 6.6210379806 9.6217032325 
Si 13.2738088814 7.3870263676 11.2637688755 
Si 14.4271571819 6.7029766813 13.1836460518 
Si 13.3001661016 7.8876180721 14.8929269932 
Si 14.2618951304 7.5692788892 17.0124611000 
Si 15.0343017775 7.9078991223 20.6951750102 
Si 14.0861097388 7.7699554011 22.9586750432 
Si 15.1587736686 6.6869147412 27.5211254754 
Si 15.1182278583 9.5752295076 1.1415983154 
Si 14.9236926765 9.4948383568 6.8102142465 
Si 12.6902847861 9.7396118991 11.4967117110 
Si 14.1877104698 9.9319153508 14.3531863927 
Si 0.2875347926 10.7127276380 11.3809422807 
Si 14.0078199981 9.0328050826 18.8565528812 
Si 12.3149143126 9.0813004131 23.7754081916 
Si 15.4472369913 8.6761518193 24.5640033430 
Si 12.0360132201 9.4883712268 27.8326909052 
Si 13.6809937251 10.8826160495 2.6200687082 
Si 14.9605080768 12.2057387316 4.0789273266 
Si 13.5551860540 10.9468149401 8.0956117661 
Si 14.3678290014 12.7073567062 9.4408537157 
Si 13.3705389023 11.2507374729 16.0556522059 
Si 14.5179413528 11.2174732926 18.1152833837 
Si 14.1526055194 11.6783662668 21.4541404414 
H 14.7828982052 10.4921447460 20.7340768147 
Si 15.9654056060 11.9979109097 22.9458930217 
Si 15.2450292194 10.9111561298 25.1226098562 
Si 12.8494380875 10.3848262250 25.7282495285 
Si 15.0020964472 14.3033368908 26.4693727787 
Si 13.5629726740 13.5927019243 5.4491483297 
Si 14.3812682515 11.5787529159 11.5743105737 
Si 14.5021563426 13.4536667730 13.0928556750 
Si 13.6794950451 13.3949901925 15.3006647036 
Si 13.6000324244 12.8983080880 19.5063885134 
H 13.9313873174 13.7393933757 22.6047856200 
Si 12.6677068459 14.1494941294 25.6490419446 
Si 11.3420917937 16.1179614574 26.6788282840 
Si 14.4315391920 14.4684686223 1.3387778152 
Si 14.9667634369 14.9602148568 6.8255409725 
Si 13.1026009798 15.0939231780 11.9992762261 
Si 14.5553269031 15.0516669177 16.7104309997 
Si 14.8496546258 14.8691048860 19.0521733839 
Si 13.1325908701 14.7452683049 23.3940535094 
Si 1.1454671985 16.0780183770 28.8005853511 
Si 15.1620316687 15.4409164712 28.5212235955 

