&CONTROL
  dt          = 30.D0,
  prefix = 'aSiHcSi_merged-30',
  pseudo_dir = './',
  outdir='./',
 wf_collect=.true.,
 verbosity ="high",
/

&SYSTEM
    ibrav= 0, nat=  388, ntyp= 2,
  ecutwfc     = 42.D0,
  nbnd=1468,
  degauss     = 0.05D0,
  occupations = "smearing",
  smearing    = "methfessel-paxton",
/
&ELECTRONS
  electron_maxstep=200,
  conv_thr    = 1.D-8,
  mixing_beta = 0.3D0,
  scf_must_converge=.false.,
/
&IONS
/
ATOMIC_SPECIES
Si  28.08  Si.pbe-hgh.UPF
H  1.00784  H.pbe-hgh.UPF

K_POINTS {automatic}
2 2 2 0 0 0

CELL_PARAMETERS angstrom
16.29000014898320 0.00000000000000 0.00000000000000
0.00000000000000 16.29000014898320 0.00000000000000
0.00000000000000 0.00000000000000 29.17519467508972

ATOMIC_POSITIONS angstrom
Si 14.5854796934 15.4733824415 28.3514914038 
Si 16.2483954886 2.7034232647 2.6509019510 
Si 1.1983885220 1.2677806646 1.2443658157 
Si 1.3311846032 4.0490261470 4.0752787178 
Si 16.2557748587 16.2856995889 5.4730331195 
Si 1.3006555139 1.4108378169 6.8087610573 
Si 0.0582367505 2.8234642758 8.2618899785 
Si 15.1634651887 6.6748927210 9.8213624843 
Si 1.5057400998 2.3237848113 12.5027087509 
Si 1.5644948723 0.4358796790 13.9513446921 
Si 1.3162971720 1.5613574183 15.9796042259 
Si 1.3268856721 0.2277130251 17.8723741556 
Si 0.6423880109 0.5353089529 21.3118086807 
Si 0.4953055995 3.7366491042 23.5221797796 
Si 1.1407202924 1.4480360322 23.3895785199 
Si 2.5288270431 2.7002304247 29.1668797446 
Si 16.0232188165 5.7691035528 29.0608862624 
Si 16.2717227688 8.1756741448 2.7649973848 
Si 1.2451734024 6.7568640018 1.4223374207 
Si 0.0027639406 5.4313141097 5.4483217296 
Si 1.3506983944 6.7795885520 6.8431002614 
Si 0.0561050411 8.1475413145 8.2921738306 
Si 0.9370578236 5.9993464149 11.0638756751 
Si 0.8574453348 5.8603764236 13.4452717652 
Si 1.4058237549 5.7277595324 17.2465954050 
Si 0.6399233339 7.5969881795 18.4910633339 
Si 0.5653982122 4.3708513900 21.1659910577 
Si 0.4097000197 6.6713903710 20.6819454028 
Si 1.5714181224 8.0545742837 22.1839427751 
Si 1.8971985774 5.1294115369 24.9489926752 
Si 1.2256351762 7.4043263477 24.4489881889 
Si 1.5229227919 5.3926253593 27.3371865858 
Si 16.2802913089 10.8260897490 28.9920036277 
Si 1.2499414854 12.2772355423 1.2093760047 
Si 1.3565530204 9.5287215571 4.0908874470 
Si 0.0055302922 10.8561285093 5.4996117218 
Si 1.3646393765 12.2162457817 6.8995834383 
Si 1.5840738235 9.3878293459 9.6477992511 
Si 0.6066216865 11.1521015220 13.2554287735 
Si 0.6218821587 9.5794649076 15.0213157816 
Si 1.7534719060 11.0388045710 19.7344226054 
Si 0.5675647822 10.1527588829 21.6030938243 
Si 1.8609696170 9.8077692597 27.9543294787 
H 15.0499727576 4.8114470240 25.9524443209 
Si 16.1978964881 13.5932232043 2.6410669928 
Si 1.3200748231 14.9392333366 4.0429817773 
Si 16.2870842390 13.5241047337 8.3487445330 
Si 1.4069950059 15.0218236374 9.6147145804 
H 16.0583726369 14.5291488729 12.3804938604 
Si 0.1351618779 14.8274350656 13.8086196397 
Si 1.5746744934 13.0651502695 14.1575841432 
H 10.0295413217 6.1506968063 10.6837228885 
Si 0.5851368054 12.2433523420 18.0940472848 
Si 0.3252347400 14.5200916328 21.4100415611 
Si 1.4328097691 12.7420869865 24.2674893028 
Si 0.5121282827 14.4568049822 25.6336177935 
Si 2.6938284546 16.2467339086 2.5965894086 
Si 3.8818581655 3.9602782262 1.4153207864 
Si 3.5649687926 6.6400972807 27.9711343908 
Si 4.0463871670 1.3199298421 4.0320410793 
Si 2.7136045148 2.6942845746 5.4276073414 
Si 4.1056501875 4.0607549471 6.7775727742 
Si 2.6747854445 0.0635810109 8.1023600140 
Si 4.9550596653 16.1322314975 10.6298363039 
Si 3.7273963841 3.1312475386 12.6173964411 
Si 3.2821418100 2.7167647748 16.5490456756 
Si 2.2942021710 1.1442128685 19.8394241310 
Si 2.5535226834 3.4442436015 20.3517405495 
Si 3.3637384208 0.9786901770 24.0928465875 
Si 3.5287887023 0.2097923959 26.2957196614 
Si 2.6677970344 5.4266225896 2.7473172168 
Si 2.6610529743 8.1943099049 0.2499902813 
Si 4.0404413170 6.7972306222 4.1032285543 
Si 2.7067138448 8.1687020247 5.4831277368 
Si 2.7605197152 5.3831608692 8.1606228778 
Si 4.2699837091 6.5720376601 9.4943669023 
Si 4.0251287168 4.0533267071 14.7736475540 
Si 3.7955863247 7.8500044618 15.0196819707 
Si 2.5526918933 5.8723169937 15.1123423890 
Si 3.0103594475 4.3441032097 18.2397482070 
Si 3.8604042353 7.8582797819 21.7019393839 
Si 4.1101788076 9.5543457274 1.4490006311 
Si 2.6384424541 10.9309159000 2.6665223502 
Si 4.0508669170 12.2316072519 4.0489335170 
Si 4.0846197974 9.5359054472 6.8663237164 
Si 2.8051706057 10.9381160800 8.3035813317 
Si 4.1676010581 12.4282601337 9.6135767478 
Si 6.0569641454 11.5280421454 10.6736574463 
Si 4.1636751681 8.5292160180 12.7974657427 
Si 2.6927533146 9.4983081269 16.1659170191 
Si 3.9655398963 11.4540366748 16.1353414151 
Si 2.3924634519 9.1446359336 18.4735582171 
Si 2.9853705873 11.1857566623 25.2198843578 
Si 2.4768782327 8.9380135717 25.8089607135 
Si 3.4545225916 11.6514551866 27.6645030948 
Si 2.6578275543 13.5451188339 28.9028734080 
Si 4.0548905471 14.8692352060 1.1791913483 
Si 2.6841196145 13.5681203141 5.4447331807 
Si 4.0491401770 14.9472317267 6.7811321479 
Si 3.3668498108 14.2777615906 10.8463454236 
Si 3.7418944842 15.8699136251 13.8826371086 
Si 3.5686340426 13.6541315149 13.1336223357 
Si 2.1372317295 12.9059969680 16.4256054269 
Si 2.8932506365 14.8618721259 17.3365717054 
Si 3.2992463102 12.5460694147 20.6184018288 
Si 2.3562507815 13.7765182860 22.3695261884 
Si 4.0188733568 15.4844270616 22.7136476096 
Si 1.8827330572 15.2297166193 27.3820288600 
Si 5.4333177797 0.0554852066 29.0465028914 
Si 5.4172069695 2.6903586846 2.6900200520 
Si 5.4089642295 16.2777663589 5.4208095210 
Si 5.5245580705 2.7564472152 8.1335191219 
Si 5.0020726057 1.1193852792 12.6312254834 
Si 5.1991490275 1.3851142777 17.0765331953 
Si 6.0098534650 3.3599102707 19.8401826861 
Si 4.5046411612 3.7514730043 21.6182065752 
Si 5.8460412235 1.0894344850 19.3481430279 
Si 4.8530191044 2.8070439557 23.7359172558 
Si 5.3398783388 3.7251483641 27.3080405663 
Si 5.0704417364 5.2624193881 29.1214247913 
Si 5.4272416096 8.1173233642 2.7561689709 
Si 5.4384491297 5.4425216298 5.4313125911 
Si 5.4584532499 8.1590257646 8.2469231036 
Si 2.7850361655 7.6876746103 10.9155489853 
H 7.2133423860 14.2430150203 13.4077524649 
H 5.1808553574 7.6562186200 15.6300562185 
Si 5.2998049385 4.7302576633 18.0394313203 
Si 5.8716491037 6.8688577528 18.6624676026 
Si 5.0610098263 5.9447749144 22.2825549331 
Si 4.3520527298 4.6019250421 25.2343260792 
Si 5.6294005115 6.5976944103 24.6622588620 
Si 8.5558990382 2.2680893007 0.1362227767 
Si 5.2686421682 10.8769145495 29.0422433130 
Si 5.4194386996 10.8539293593 5.4192340605 
Si 5.6476127317 10.4178460553 12.6653021108 
Si 5.1330767869 12.1128531508 14.1576424936 
Si 5.7257558624 11.2944598333 17.6968561845 
Si 4.3363654597 8.3791362466 19.4836326319 
Si 5.1685889873 11.5154336853 21.4936284939 
Si 5.9304071342 10.0752836421 19.7189014018 
Si 5.3280843787 8.6823257294 23.3637876478 
H 6.1047101358 11.2145410926 24.4851362551 
Si 4.8257985141 10.9054057597 23.7758872725 
Si 4.6802636528 8.0518864336 26.3875631743 
Si 6.3963337185 9.2973709750 27.7210446221 
Si 5.4224849296 13.5740987441 2.6410874155 
Si 5.4605546599 13.6439665548 8.1103540173 
Si 4.5797869319 15.7317092639 16.0192241403 
Si 4.1116123276 14.2264155101 19.2042509677 
Si 4.1649132081 16.2051944082 20.4626938149 
H 5.3890089793 12.9491003084 25.5200095854 
Si 6.8879985030 15.1070203382 27.5917401593 
Si 8.1008053041 16.2880290590 2.8024524997 
Si 7.6663510001 3.3636243908 27.3981043922 
Si 6.7892159421 1.2888224578 1.3628608689 
Si 6.7958785522 4.0473808570 4.0733531550 
Si 8.1684902547 2.7324357550 5.4911217402 
Si 6.7880267721 1.3249325011 6.7668654777 
Si 8.1760813948 0.1135673650 8.2254793355 
Si 7.3044686468 3.6489763234 9.4043614268 
H 0.5479597670 15.8343688448 10.5622373778 
Si 7.0961521249 1.1127992322 13.6877759834 
Si 7.1013812149 2.2384252105 15.8924287442 
Si 7.7910509513 0.0985717683 20.1668573408 
Si 7.6284441698 0.1671468045 22.5229877124 
Si 7.1907970258 2.2118562202 23.5989688920 
Si 4.2099387685 1.7189859757 27.8946662056 
Si 8.1657861147 5.3772964692 2.6842783737 
Si 7.7339707907 7.7224374706 29.0004060838 
Si 6.5369327098 6.5345706598 1.3779940423 
Si 8.1677409147 8.1398198544 5.4392190689 
Si 6.7864629321 6.7996252522 6.8346102798 
Si 8.1740940148 5.4840122602 8.2386665235 
Si 6.5559594300 7.4382258380 13.2163340126 
Si 3.9726586263 1.5204988399 9.3585563711 
Si 7.4261875279 6.2339061270 15.1137136231 
Si 7.2559896064 7.7130055605 16.9801383521 
Si 6.1261966460 4.3890636101 15.8226416785 
Si 6.7798654820 6.4257045888 20.7864217750 
Si 7.9603692128 4.4901267711 20.3574588877 
Si 7.9088928123 6.6340699807 25.3844324558 
Si 8.1391030944 10.7999605888 2.5672216576 
Si 6.7639012819 12.2222567918 1.2044103866 
Si 6.8191732524 9.5067789269 4.0618873034 
Si 6.7758907220 12.2400617619 6.7566541596 
Si 10.5451198264 10.4945393760 10.6581362427 
Si 8.1422144845 10.8755298995 8.0631485524 
Si 7.7841277012 9.4370740163 13.0390071794 
Si 7.4332573880 10.0356826518 16.6720482963 
Si 7.6091568096 9.2599039747 23.0932752427 
Si 8.2632003156 10.4889844859 26.8158550321 
Si 8.0949246140 13.7358421556 29.1225626239 
Si 6.7573852818 14.9012939263 4.0873572484 
Si 8.1700215147 13.5778291542 5.4255067274 
Si 6.7527263418 15.0445970576 9.5004353428 
Si 6.8582366727 9.6314137181 9.5405512355 
H 7.0556388945 15.9852956962 14.2238118351 
H 15.0780892979 1.2534829315 10.7713651733 
Si 7.2179524560 13.2490480812 14.5426383626 
H 7.6732090902 15.5876079226 16.5783375710 
Si 6.5822677802 14.6016393735 16.2932083934 
Si 6.1481392762 13.5078147335 18.2857283138 
Si 7.7592202910 14.0351220384 19.8529614213 
Si 6.8798372129 13.0597094094 21.8222578867 
Si 6.2171111369 14.7693449251 23.3125268307 
Si 6.5610582000 13.9172964673 25.5225770025 
Si 9.6099923679 4.0110541567 1.3591906294 
Si 9.4949035168 1.3513206724 4.1238262417 
Si 9.5781454176 4.0946218574 6.8931940707 
Si 8.9847007122 1.8939731573 9.6447066805 
Si 8.9809865921 1.0402712645 12.0093562089 
H 9.5013380669 2.5497108233 14.6632777925 
Si 9.2511236646 2.0504711888 17.0967516052 
Si 9.6588134983 1.4092690899 19.5183511136 
Si 8.5705926184 3.8108011849 22.5666046285 
Si 10.1463569128 0.4254459339 25.3845491565 
H 9.4637896166 3.3151942203 25.3541194285 
Si 8.5010343177 2.1496447097 25.5631305231 
H 1.8178662766 3.8029819848 27.9870640471 
Si 9.5341135472 6.7887272421 4.0430984781 
Si 9.3865913058 7.0051073141 9.6336492817 
Si 9.7687221293 5.7807997729 15.0905485185 
Si 9.4845593667 7.7089819305 18.0621296218 
Si 9.5280047971 5.4048102794 18.7579288396 
Si 8.4528159173 7.8286319816 21.4717470979 
Si 9.4441601664 5.4513019399 24.0002153444 
Si 11.5185939453 4.8369082942 0.1728939542 
Si 8.3655178065 5.7708628728 27.5343525514 
Si 9.2462040846 9.1533347937 1.1552997814 
Si 9.5102649870 12.1926904415 3.9967390937 
Si 9.5370294572 9.4872472168 6.8044139533 
Si 9.8243361899 15.0120985073 11.5826689868 
Si 8.0084247132 13.4977475134 10.7541809836 
Si 9.0283904926 10.1056644924 14.9441473917 
H 8.4202522070 10.3945676451 17.7887288725 
Si 8.2280464953 9.2166051543 19.5818655124 
Si 9.5351561072 10.9145933198 20.4493899261 
Si 8.4027078768 11.3837453241 22.4333906896 
Si 8.6109755288 8.8893227613 25.1494554378 
H 8.1634077747 15.9125608455 27.2881139083 
Si 9.4338485963 15.0254563074 1.3909361587 
Si 9.5138487870 14.9369690266 6.8725963832 
Si 11.9288901791 14.9216890065 9.8274017496 
Si 9.4799655867 12.5257720746 15.0357866781 
H 9.5762394876 15.9274499057 15.1048151887 
Si 9.7390254591 12.9387235783 19.2978449923 
Si 9.8458389900 16.0378472367 23.1604073657 
Si 9.9635831111 12.2503081720 23.9329956959 
Si 8.5846671785 12.6541209857 25.7920974510 
Si 9.8810579704 13.3789608324 27.6140591832 
Si 10.3127103943 0.5082284566 0.0851221315 
Si 10.8756113495 2.7003770347 2.8116193459 
Si 12.1413932310 1.3896217207 1.3572271388 
Si 12.2521163621 4.0749924073 4.1073130816 
Si 10.8396267391 16.2823275589 5.4786639321 
Si 12.1650788913 1.3414424163 6.8650691830 
Si 10.9335874600 2.7329733250 8.3886561993 
Si 12.9593792985 3.5342132723 9.7378922523 
H 7.0656735346 6.8906374830 11.9058717934 
Si 10.3537286147 2.4464973824 13.4020924771 
Si 10.5778790167 0.4742752093 15.8545009911 
Si 10.2888944141 2.9919517474 21.2144510560 
H 10.5861054668 0.7907426712 22.3106506456 
Si 13.1868528606 2.9790011972 29.1308775544 
Si 10.8796838495 8.1066371241 2.5790376114 
Si 12.4191214436 6.7327385116 1.2837931738 
Si 10.8883989996 5.4307765397 5.4569284120 
Si 12.2779360123 6.7042147213 6.8998168399 
Si 10.8863627496 8.0907543740 8.1941160013 
Si 12.2839796023 9.2625592447 9.6387257656 
Si 10.7868634287 4.8088732040 13.1805360488 
H 10.0606063520 5.2091836676 11.9063677717 
Si 10.2483974737 8.0967816741 15.7187196351 
Si 10.1935979132 4.1917917083 16.8547141902 
Si 11.1441031319 5.1822888774 20.4537953805 
Si 10.3177602944 6.5939802903 22.1696469297 
Si 11.2731850931 4.9746728255 25.3644474474 
Si 11.3716907240 8.1582275546 27.1640901557 
Si 10.1336507127 9.9640229411 28.3010183170 
Si 12.6058048453 12.6450800356 1.3577347872 
Si 12.2045984316 9.5142234570 4.0191748184 
Si 10.8708220894 10.8745362095 5.4358055711 
Si 12.2645619222 12.1827698314 6.8673448482 
Si 9.4737102266 12.1954271615 9.4449149474 
Si 8.6920997295 8.9469730718 10.8917128513 
Si 11.6077491162 8.3821173167 19.0225186801 
Si 11.4942241051 9.7423160391 20.9591972778 
Si 11.6954381870 8.3075905660 22.8606322404 
Si 11.8685683085 11.0278251109 24.7915341496 
Si 10.9206369099 8.8868141013 24.9674897487 
Si 10.8764421395 13.6238646946 2.6671787921 
Si 12.1859952514 14.9498707067 4.1087426661 
Si 10.9003232797 13.5665401841 8.2098414312 
Si 13.2993841816 13.4792420733 11.1443992124 
Si 10.7817320786 13.5496474539 13.2630143241 
Si 10.6304468472 13.1934340207 17.1159488833 
Si 11.6715244667 15.4081572809 17.3964975553 
Si 11.4287383045 14.0483983885 20.4753266741 
Si 11.5113448953 16.2344023785 19.6944525887 
Si 11.0027385106 14.0392108284 22.8302900379 
Si 14.6804015243 13.9293999374 26.4957156209 
Si 13.5175072836 16.2623885987 2.6821806772 
Si 13.5608061040 1.2101955141 27.4542958172 
Si 13.5814944042 2.7077075348 5.4977445094 
Si 13.4412863729 16.2157177483 8.2761274735 
Si 1.5511142662 4.0627097472 9.7339244258 
Si 12.1136513608 1.0148132523 14.0895184141 
Si 13.5610830340 1.8938428373 15.7648747931 
Si 12.4674212940 3.6313831232 17.0098095251 
H 12.5583194949 3.1017300584 18.4361556175 
Si 13.1401983002 0.7280538637 21.4087870278 
Si 12.4211414036 2.8211999658 22.1643078691 
Si 12.6790609760 3.2659658399 24.5008033346 
Si 12.4048351135 1.0823450769 25.3420700731 
Si 0.3259791930 0.4229128389 28.3534169667 
Si 13.6526817049 5.3806684992 2.7174855803 
Si 14.2826323006 7.5562957591 29.1110967724 
Si 13.5636894340 8.1423936745 5.4805019693 
Si 13.7078559354 5.3698519391 8.3743895291 
Si 12.9327777283 5.8246035833 12.9884465670 
Si 13.7582083258 6.8414091026 15.0244958778 
Si 13.7486135157 5.6158635214 17.1450657276 
Si 13.0157101190 6.5023653295 19.3221771046 
Si 13.4633430331 4.4172127304 20.7550292655 
H 14.2211538401 5.2341236579 21.7706761425 
Si 13.8079742763 7.4027950877 23.2454530582 
H 13.3844668524 6.0181776550 23.6886242653 
Si 13.5991201844 10.8520397192 2.6124548794 
Si 13.6078190445 10.8093762089 8.3319979713 
Si 12.8120036672 9.8327906999 13.1228858641 
H 13.4147662527 11.5982194661 14.5408295005 
Si 12.8066931271 9.6090149679 17.4369635503 
Si 12.6091605853 11.9866382296 17.4901207550 
Si 12.4515222539 8.7605666001 15.2473943651 
Si 13.2912391816 11.1946021324 21.1145260143 
Si 13.6319608247 11.8992423788 23.3597614709 
Si 12.9741869087 10.8248354190 26.9071150410 
Si 15.0684130378 11.7135200871 27.1450971040 
Si 13.5893950543 13.5630867040 5.4499263653 
Si 11.8736507886 11.7825733978 12.1042631172 
Si 12.6962957961 14.9689951669 13.3466012568 
Si 14.0725401687 12.3144419026 15.7163564443 
Si 13.8574470067 16.0161978265 16.6995021545 
Si 13.3390829120 12.9255286782 19.5715083183 
Si 12.9825273887 14.0173659382 24.2304368056 
Si 13.7163918954 16.1694704379 23.6644672041 
Si 14.9466778667 4.0480976170 1.1898519644 
Si 14.9069954263 1.3412355333 4.0613329747 
Si 14.9656720069 4.1099181676 6.8437421157 
Si 14.5447058230 1.7252902058 9.4142226426 
H 15.3440398403 0.5579145861 13.0084899258 
H 14.8056553354 1.0671953768 13.2212646205 
Si 16.1254385675 3.7455108643 13.3884384860 
Si 15.7058244536 2.8840467864 15.5932954732 
Si 15.0523836777 1.1903559229 20.1239406295 
Si 15.3066380000 3.4791042018 19.6082690636 
Si 14.9899766871 3.5745798927 25.0744168371 
Si 15.9359858657 0.1220208977 24.6055131083 
Si 15.6410065430 1.6326001049 26.4139375503 
Si 14.9289706365 6.7907634921 4.1039287590 
Si 13.3340981719 7.5669494192 11.1642675200 
Si 14.3855688116 4.4005480602 11.8193965164 
Si 15.7653806942 7.7072551905 14.0440634607 
Si 15.7349183939 4.4043273403 17.3991233228 
Si 14.5183160228 7.4123736078 20.9976210092 
Si 15.2031313390 8.0502085636 25.0396691803 
Si 10.7115873380 5.8829706538 27.4343983344 
Si 13.7029363553 8.4590875674 27.0063982285 
Si 14.9900092671 9.4343372963 1.2452789993 
Si 14.9473457567 12.1781434714 4.0681891455 
Si 14.9533893468 9.4851946767 6.8925230412 
Si 14.9455538567 12.1541320112 9.8116763196 
Si 14.8312469256 8.9761810421 12.2283160449 
Si 0.0118834248 10.5047043361 11.0531100282 
Si 15.7048796336 10.8349189291 16.6274977740 
Si 15.0437336876 9.1752448439 18.1415153265 
Si 14.9035745263 9.6533726383 20.4465599322 
Si 15.9745280061 11.4231508345 23.4357045026 
Si 15.6750363534 10.2862880141 25.3901507939 
Si 11.5268041054 11.8837505887 28.4723934106 
Si 14.3370571911 14.4737628724 1.3522936133 
Si 14.9257126365 14.8964395062 6.9095321797 
H 15.4952436217 11.7319277873 13.3584755611 
Si 14.3790528115 14.5430116630 14.9578013828 
Si 15.4109754509 15.9275476457 18.4108607237 
Si 15.5654535224 13.8022401962 19.3810234723 
H 15.5562496723 14.3767233415 22.4915660278 
Si 10.7053319779 15.5478277422 27.3098494283 

