&CONTROL
  dt          = 30.D0,
  prefix = 'aSiHcSi_merged-18',
  pseudo_dir = './',
  outdir='./',
 wf_collect=.true.,
 verbosity ="high",
/

&SYSTEM
    ibrav= 0, nat=  388, ntyp= 2,
  ecutwfc     = 42.D0,
  nbnd=1468,
  degauss     = 0.05D0,
  occupations = "smearing",
  smearing    = "methfessel-paxton",
/
&ELECTRONS
  electron_maxstep=200,
  conv_thr    = 1.D-8,
  mixing_beta = 0.3D0,
  scf_must_converge=.false.,
/
&IONS
/
ATOMIC_SPECIES
Si  28.08  Si.pbe-hgh.UPF
H  1.00784  H.pbe-hgh.UPF

K_POINTS {automatic}
2 2 2 0 0 0

CELL_PARAMETERS angstrom
16.29000014898320 0.00000000000000 0.00000000000000
0.00000000000000 16.29000014898320 0.00000000000000
0.00000000000000 0.00000000000000 29.13749961474497

ATOMIC_POSITIONS angstrom
Si 16.2744106188 0.3467033312 28.8832457931 
Si 2.6691002344 0.0298175421 2.6919494869 
Si 1.4139182559 1.4744176875 1.2627696996 
Si 4.0859555774 1.3382446892 4.0712662712 
Si 0.0170028506 16.2844452589 5.4437881905 
Si 1.3642956575 1.3738025016 6.7916306477 
Si 3.3130113603 0.5811164333 7.9294791452 
Si 1.5760135314 13.7700185759 9.7778747082 
Si 2.6482001642 0.9021727883 15.6186904685 
Si 2.9711657072 1.4149705899 17.9336356754 
Si 1.0902017440 2.0479951087 19.1369852720 
Si 3.0825567282 1.9713506580 22.0134975089 
Si 1.3150249230 1.1593821166 25.2898053781 
Si 3.3109751103 1.9472903278 24.3472072656 
Si 0.0020950080 2.7326801050 2.6842513595 
Si 2.8457815760 5.4194061196 26.5128810619 
Si 4.0861510574 4.0392358569 1.3322946874 
Si 1.3530962824 4.0802377873 4.0507243339 
Si 2.6955226147 2.7360684250 5.4080947535 
Si 4.0743896773 4.0605431771 6.7978952101 
Si 16.0863751471 2.6019528538 8.1114136928 
Si 1.1282112013 3.9032143557 9.4868784996 
Si 2.4386781823 16.0159046065 9.8814876568 
Si 0.1367341888 2.5188412730 13.6349803572 
Si 2.4723984826 2.6353147741 14.0254811271 
H 3.6201756031 6.7762816820 10.8861777811 
Si 0.4726820473 3.5134272321 17.4619578316 
Si 1.4957364107 3.3667357808 21.0546698091 
Si 4.0730213173 4.0371833169 25.0709244810 
H 0.5902502364 2.5341538732 25.5781209368 
Si 15.2197471392 7.2117459660 28.1123549658 
Si 2.7476017451 5.4180866296 2.7171330278 
Si 0.0001445524 5.4318028097 5.4038115411 
Si 2.5822745336 5.2926536284 8.1771770294 
Si 3.6328003532 2.1164619794 11.9993468163 
Si 3.1782278991 4.7016850030 14.9215757902 
Si 2.0667774789 5.2136634177 16.9484676759 
Si 3.6313994132 5.3525682490 18.6721547406 
Si 2.2890708209 5.5339736906 20.5936854277 
Si 2.6216311740 8.1768796048 28.9891897417 
Si 11.8192421881 9.1129681733 27.6219999848 
Si 16.2718367988 8.1927134849 2.6542746999 
Si 3.9644973363 9.4943170768 1.3126734951 
Si 1.4529653863 6.8494237826 1.3958756253 
Si 4.0852225274 6.7831071920 4.0696928462 
Si 2.7102161948 8.1392497044 5.4320749157 
Si 1.3194688351 6.7602849018 6.7942821602 
Si 16.2861719989 8.1391682544 8.2124916789 
Si 3.4327917314 7.1594876455 9.4066046881 
Si 0.2100269719 6.4243850988 13.1967815005 
Si 2.5152248930 6.2694346173 13.3204993239 
Si 0.8163815025 7.2099540659 17.0926400240 
Si 0.6429858539 7.1853072957 20.6460746520 
Si 3.3156014703 6.8303481925 22.2539110183 
Si 1.5933803006 7.8512099218 23.5446439762 
Si 2.1236784494 7.5458212890 25.7854342466 
Si 2.7247142949 2.7982799356 28.9551571422 
Si 1.3350534782 9.5111772270 4.0649142963 
Si 4.1123616676 9.4991226269 6.7785187729 
Si 1.8079619565 9.0723734930 9.4564589500 
H 4.1672263881 8.8805261612 12.7556397563 
Si 3.2432087097 8.4110972269 13.8827947914 
Si 1.4536055833 9.8963379905 13.7418275683 
Si 4.0499709670 9.7752707094 17.5379192931 
Si 1.8757609372 9.1224815334 18.0401040990 
Si 1.7552149361 9.2406980645 20.3925492679 
Si 3.9655887663 8.8731142112 21.2206078694 
Si 0.5988660175 8.7159157097 27.1946111404 
Si 1.0606370227 12.3958756134 28.4589746612 
Si 2.7107048948 10.8831373295 2.7193387365 
Si 1.8519123769 12.7818508769 1.5457326996 
Si 4.0925367374 12.2030183016 4.0933524959 
Si 16.2824741689 10.8608200293 5.4181763284 
Si 1.2826697247 12.2042074716 6.7904360102 
Si 2.6900328846 10.8197855190 8.0698636183 
Si 3.6529185034 12.4902272942 9.4184345130 
Si 4.0149800467 11.1482082120 11.2894990507 
Si 1.7704623762 10.4238081953 11.4544172986 
Si 2.0633565789 12.0135493099 14.5087556957 
Si 0.6984256114 11.0685664012 17.6764098288 
Si 4.0342836969 12.1258199909 17.7933386147 
H 0.2094177259 11.6671098767 18.9766998866 
Si 0.5282390928 10.9455931901 21.5223558154 
Si 1.2458608404 10.2233923235 23.6876508243 
Si 3.5501611825 10.6323364872 24.3119800285 
Si 0.0036311062 13.6244185546 2.7115153179 
Si 3.4664468717 12.3168854026 27.9957175548 
Si 2.7053617747 13.5854854542 5.4510725654 
Si 16.1301463775 13.4424918329 8.2200382913 
Si 1.6031428977 1.8476769769 10.6924425461 
Si 1.0129513053 13.7073998154 13.3272883613 
Si 3.9540880262 12.4714612141 13.2012104005 
Si 2.0442321187 12.6969311061 16.7499247535 
Si 3.6130405830 12.9422910884 19.9975030481 
Si 1.3852706617 13.0859363097 20.9301652733 
Si 2.2333916004 13.7763716760 25.1945257544 
Si 4.0254708068 12.3914284433 25.7585986094 
Si 5.1888211675 10.9469289701 29.1063807652 
Si 3.5727879927 14.5399165630 1.4386203372 
Si 1.3408999593 14.9568916968 4.0901473709 
Si 4.1241230477 14.9587976268 6.8031108225 
Si 0.4494182981 12.4281298137 11.4839044482 
Si 14.2275069401 12.5585964249 9.4162492005 
Si 3.1625406289 14.6549565440 13.0294448402 
Si 0.5392755679 16.2075890382 15.9754500138 
Si 1.0315447114 14.6330302038 17.6453201167 
H 2.3569349616 15.1091869082 18.3896084069 
H 1.3062413549 15.9579773659 20.8054859124 
Si 2.7763535954 16.0672343969 21.2696754188 
Si 3.8899705856 15.7781683443 19.0323816484 
Si 1.7903198864 14.2839029206 22.9482284966 
H 2.8418068160 15.1692481387 25.4324334387 
Si 0.3351846721 16.0923047072 23.5958968380 
Si 0.4790872754 13.9527923776 26.7448738339 
Si 3.5967342929 14.8050363154 28.1784096774 
Si 8.1651182247 0.0109666562 2.6737531184 
Si 7.3816180875 1.9960788783 1.6207908986 
Si 5.4529146499 16.2666891588 5.4174770284 
Si 6.8038606522 1.3044966959 6.8039558100 
Si 8.1634077747 16.1968865081 8.2408716035 
Si 7.6038299795 0.6431487539 12.6915663947 
Si 5.9278170242 0.8712853190 14.2922640735 
Si 6.5781138302 0.8660676319 16.5348025939 
Si 6.0627959654 0.4044660427 20.5405386284 
Si 6.5341796998 0.1939438548 22.9165268970 
Si 4.7821250237 0.1170863309 24.4867467512 
Si 12.1556144012 14.5804786633 27.9228155308 
Si 5.4312978197 2.7150869048 2.7212705528 
Si 10.0511418619 7.4364013580 27.5954265851 
Si 6.7641456319 4.0811826073 4.0860681210 
Si 8.1499522345 2.7155430248 5.4467019405 
Si 5.1562248772 2.3925774819 8.0540128185 
Si 5.3408231588 3.7525481443 11.5160139727 
Si 6.6240190506 3.5343598823 9.5885683732 
H 5.2834660683 2.2250022503 14.0697701265 
Si 6.1544435063 3.1617424189 17.1154546862 
Si 4.3636186299 3.1428623087 18.5780988919 
Si 4.9505473353 2.4704436826 20.7170244636 
Si 8.1280584743 3.0787122882 22.1194997325 
Si 6.7111216814 9.4692304766 27.9261080683 
Si 1.5616050263 15.9696898761 27.2391041023 
Si 10.5986976369 5.4433198398 28.9796326418 
Si 8.1433384945 5.4423424398 2.7382314913 
Si 5.4325684397 5.4410392398 5.4524420279 
Si 6.4098218386 15.2215227492 11.4998717979 
Si 6.7545996918 4.4311243905 13.2761229120 
Si 5.5350162506 4.6726399327 15.3238189724 
Si 7.8588010619 4.0963485975 18.4471841061 
Si 6.1152660559 4.2383811088 21.6786493634 
Si 7.1152928751 5.6614429418 20.0623922597 
Si 4.8023897839 5.3502713589 23.3108446793 
Si 5.4126294795 8.1734424148 2.6817193108 
Si 5.6063175813 5.3545067590 0.1913753888 
Si 6.9098271032 6.8741682929 1.3594275270 
Si 8.1335156244 8.1376207044 5.4585026278 
Si 6.7542413118 6.7669312219 6.8673881467 
Si 5.3066141585 8.0932793240 8.2331793036 
Si 12.6943409961 3.5218654522 9.3543028763 
Si 7.7017165904 6.5393924998 12.8161292055 
Si 7.9606950128 7.4873238985 14.9146119278 
Si 6.0786298456 6.8224475424 16.1940395359 
Si 5.6164336714 6.6683930110 18.5443868048 
Si 7.3717137674 8.0767938439 23.0838344198 
Si 5.7779978928 7.1249039752 24.4489262767 
Si 4.1937302184 6.6179591705 28.0237186920 
Si 6.7810546520 9.5064531269 4.0692266462 
Si 9.5674428875 1.1884662829 9.6878398344 
H 6.1463473762 9.7850772895 12.9368167289 
Si 6.2929899576 10.1728118730 14.3913898472 
Si 4.8282420142 8.7507274400 15.5744014691 
Si 5.2320548279 8.8132973306 19.2713674202 
Si 7.2326297461 9.9749698212 19.3937157811 
H 6.5756540401 8.9987915623 22.1915276316 
Si 4.1817570682 8.6266465089 25.3982842892 
Si 8.1413511145 13.4771243733 28.9962701541 
Si 7.7365283208 10.8422657192 26.3659406514 
Si 1.2486920424 4.2258378086 27.7178623585 
Si 8.1193759043 10.8857437296 2.6898078807 
Si 6.7105189514 12.2175326917 1.2835155993 
Si 5.4446719098 10.8608688993 5.4368826031 
Si 6.7654977019 12.2095994617 6.8200688473 
Si 8.0014851732 2.3080160911 11.0560202663 
Si 7.3041428468 12.1726211613 18.5945033041 
H 4.2071368885 11.7888124678 21.2587488564 
H 7.6193217697 10.2161269834 20.8387317995 
Si 7.0581475546 11.9387293392 22.5253559647 
Si 4.8676801045 10.7756559086 22.3752687042 
Si 5.3912895793 13.5898348843 2.6804489158 
Si 5.2459501980 15.7697464142 26.7617153087 
Si 8.1383374644 13.5809568342 5.4386017156 
Si 5.4302063897 13.5719973341 8.2359473661 
Si 7.0474287345 13.3928887825 12.8487049301 
Si 5.8238868233 12.4157331236 14.5286566079 
Si 5.9417123943 13.0908233097 16.8523722022 
Si 7.2611861164 13.3187529918 20.6367506521 
Si 6.5982971403 13.8243620164 23.8335131474 
Si 6.3966920985 12.8637407076 25.9471473694 
Si 5.9030399340 7.5682851992 26.7750311460 
Si 6.7766563520 14.9532427368 4.0389527841 
Si 4.1438991079 16.0936730672 11.4638578484 
H 6.9596093437 9.8143341298 8.7800027589 
Si 4.2188493986 15.6445414731 14.8705560284 
Si 5.1451150971 15.2837994198 17.0277216749 
Si 5.2070496776 14.4910139825 20.8614299117 
Si 4.1714943682 14.6697315742 22.9836596961 
Si 7.3176798369 14.7373187848 27.1863360905 
Si 10.6909804878 16.1168863174 28.8939683930 
Si 12.0607414403 1.2759468417 1.2366828961 
Si 9.5081798670 1.3425338463 4.0696345712 
Si 10.8681993994 16.2809266189 5.4214980033 
Si 12.2055106716 1.3100597310 6.7955933476 
Si 7.3248148570 14.3534612213 9.4976885119 
Si 11.3151807135 2.3505167015 12.6933437822 
Si 11.1538934220 0.0880609715 15.0167097264 
Si 10.3135248943 1.3143211950 16.8134736402 
Si 8.1960855150 0.2459105842 19.5546713289 
Si 11.8483687084 1.6570188152 24.1069685813 
Si 8.2364684253 1.4889744316 23.8435364472 
Si 10.1097532825 0.0924061661 24.6745962113 
Si 9.1550289537 3.8351710251 1.3598675033 
Si 10.8112984289 2.7277768149 2.6596330861 
Si 12.2089967317 4.0631658672 4.0599026463 
Si 9.4929650068 4.0704474972 6.8496142719 
Si 10.8260408790 2.6016759238 8.1964369166 
Si 15.9786330861 5.2505439780 10.8019995447 
Si 10.8396267391 0.3411712471 11.5351573100 
Si 8.7525519200 3.0618032680 13.2806100869 
Si 11.8212458581 4.1838096083 11.3664511872 
H 11.2771924331 3.5210835322 14.9275489776 
Si 9.8898871504 3.1539557988 15.4121930087 
Si 8.7564941001 2.4787190027 19.9190357616 
Si 10.8652509094 3.3603989707 20.1095075966 
Si 11.1435981419 3.9097140658 24.2980231662 
Si 12.3086752426 4.2651292890 27.8977572811 
Si 9.3198511752 16.0912621472 26.9033526943 
Si 10.8540596793 5.4231365296 5.4435550905 
Si 13.3327786819 7.9730591229 10.9983571546 
Si 9.5187846571 4.8350838142 16.9532753633 
Si 11.3473534638 4.8090849740 18.3512343199 
H 10.8631657894 4.2919263393 21.3368956304 
Si 9.3328994654 4.8365662042 23.0130885707 
H 8.3530396664 5.1327672769 24.1364265934 
Si 13.9311918374 5.6960103221 26.8965927944 
Si 10.8663260494 8.1417257845 2.7212851215 
Si 12.0859420705 6.6820766111 1.3220586838 
Si 9.5060295869 6.7881896721 4.0858058835 
Si 12.1952479715 6.7757115320 6.8114441474 
Si 7.9818394330 5.2688702282 8.2953004528 
Si 10.8010520188 8.1023691441 8.1962912291 
Si 9.5870397577 7.3714857074 11.6924123954 
Si 11.8304497082 6.9225821733 14.2993736234 
Si 9.9803943913 6.7180286414 15.6978279174 
H 8.4663203274 7.4823065784 17.9204363881 
H 10.4829734759 7.7547405409 16.6725938296 
Si 11.8470329283 6.7800120920 19.5793507911 
Si 8.6892652695 6.7418934917 21.5814466647 
Si 10.3215232844 7.6860293203 25.1203125429 
H 10.5712164067 7.5471570690 23.5755005883 
Si 9.5789762076 9.5906724277 1.3766827543 
Si 12.2272415318 9.4970049269 4.0798035586 
Si 9.5009796869 9.5093853270 6.8257215223 
Si 11.7526812475 6.4256720088 12.0193060036 
Si 9.2388735845 6.9094361432 9.4557887875 
Si 12.0257993900 9.2546097246 13.8484708169 
Si 8.5144898579 9.7541425792 14.7727123047 
Si 9.0167594325 8.7964371804 18.4616363059 
Si 10.1748969931 8.2191847352 20.4260573924 
Si 8.5930891086 9.3698614757 24.6518689616 
Si 8.3188143761 8.2269550652 29.1097607151 
Si 10.8845871395 10.8394638391 28.9480184548 
Si 12.2378951919 12.2089478617 1.2741741169 
Si 9.4946265868 12.2190639518 4.0650891213 
Si 10.8444811592 10.8559818993 5.4206238783 
Si 12.1611041312 12.2008028616 6.7950980102 
Si 9.0766088930 12.5173990145 9.7285449214 
Si 9.9912435314 10.0207935916 12.9383318789 
Si 11.8941436088 10.4915257260 15.8210795408 
Si 9.5037001169 12.2137859917 17.9037988758 
Si 9.7336823390 10.2437385337 16.7231473914 
Si 11.0419648310 11.9360903592 19.8305451753 
Si 10.7741409385 10.2753574240 21.6007939644 
Si 9.2393622845 11.1398351519 23.2800172047 
Si 12.2377322919 10.9698978703 25.1018976431 
Si 10.8765235895 13.5475297539 2.6855712882 
Si 10.7394106582 13.4826141033 8.2326256911 
Si 12.4057310635 12.9715479286 12.6255990956 
Si 9.1167474534 13.6618366849 13.8267633797 
Si 9.2003314441 13.9697502678 16.3165918593 
Si 11.2015905424 14.2007750499 20.3766401931 
Si 10.4189863553 12.4781075341 24.9599980200 
Si 9.5102649870 12.1006519407 27.4109570751 
Si 9.4550744665 14.8393593457 1.3059573015 
Si 12.2265410618 14.9300131965 4.0520646589 
Si 9.5135881470 14.9463031967 6.8029651351 
Si 12.6601482858 14.3936812316 9.3707364261 
Si 9.5778684876 15.9048393855 13.3751029982 
Si 11.4715810049 14.4077395018 16.2107061857 
Si 8.5417267381 16.1404253676 17.2486130594 
Si 9.0236989725 14.8784716361 20.9629158228 
Si 8.5354550881 15.1780773188 23.2540265550 
Si 11.5326196355 14.4890591825 24.3145149910 
Si 13.7951703362 13.4074194626 29.1374996147 
Si 13.5585417940 16.2877358390 2.6330218077 
Si 14.9314792966 1.3537218184 4.0555611589 
Si 13.5622722040 16.2535594186 8.2024975165 
Si 14.4286884420 1.7389412259 9.5984168481 
Si 15.7020614636 1.2287547112 11.6991722953 
Si 12.9072024280 1.2996487919 14.1194204258 
Si 12.3832508633 1.0572861697 18.0107043619 
H 14.5742233033 0.6575491140 18.9910063989 
Si 15.7874536444 0.4394423020 19.8841581746 
Si 12.6738318859 1.9767426481 20.1748630082 
Si 15.2736018797 1.0039217582 22.1232584700 
H 14.8401249757 1.1641306516 24.7613385476 
Si 12.9368013583 0.7489669658 22.1713936194 
Si 13.6032252644 1.0422847085 25.6289075986 
Si 13.4783298333 2.7310999750 0.0575203380 
Si 14.9162807264 4.0973259975 1.3410271960 
Si 13.5651229541 2.7086849348 5.4332404157 
Si 14.9212654665 4.0973259975 6.7484197358 
Si 13.5459984939 2.1894086000 16.2126875356 
Si 15.8379689348 2.0448185587 15.8962834273 
Si 14.1349145793 3.7987954547 20.5202589287 
Si 15.7465983240 3.2904171301 22.1507934071 
Si 14.7922975353 1.8400858368 27.5326061360 
Si 13.5509669439 5.4377486597 2.7025293130 
Si 13.5681366041 5.4011613194 8.1577131796 
Si 15.3767012906 4.4263351305 12.9004822669 
H 14.0215361782 4.5302816214 13.5490538709 
Si 13.2224139309 4.4142805304 16.9633860757 
Si 14.9675290669 4.5520124816 18.4839556306 
Si 12.9745941587 5.6705816319 21.3868955797 
Si 12.9773471687 5.2651235282 23.7738395482 
Si 15.2932313299 4.7246539032 23.9742472705 
Si 15.5495707722 3.8865659755 26.3852005386 
Si 0.0629279448 5.5235643805 0.1213993525 
Si 14.9265760065 6.8010587722 4.0509865714 
Si 13.5778291542 8.1404225844 5.4525003029 
Si 14.8237372356 6.8277743724 9.5632187486 
Si 14.3705494314 11.8518058984 11.6966664703 
Si 15.6370643630 7.2757982465 15.2371349110 
Si 13.3528968321 7.7229587506 17.9586356501 
Si 13.5037911035 6.5009969695 15.8990514898 
Si 15.4164814710 6.8233109124 18.7395206397 
Si 14.6176850237 7.2808155666 21.0375952343 
Si 15.7836906544 6.9503403336 23.0944113321 
Si 12.7652187867 7.0809861348 25.2754114533 
Si 13.3957884025 8.2054033950 0.0392866735 
Si 14.8640549859 9.6603121784 1.1909603318 
Si 14.9529820968 9.5075282670 6.8079767850 
Si 14.0322061283 9.6232524280 12.6004534334 
Si 15.5447163522 9.4582998865 14.4432545965 
Si 13.4207446827 10.0459616419 17.5312759432 
H 15.3862472307 9.2818466049 18.9272826872 
H 14.1536154994 8.7077869996 20.9278634108 
H 15.5401551521 9.6966388787 19.5713379787 
Si 12.8796560378 10.1929951832 22.8977914847 
Si 14.2347559902 8.5230909779 24.0797250191 
Si 15.7780706043 9.8905224605 25.2875617906 
H 11.7942370379 3.4985381720 26.6769543223 
Si 13.5501035739 10.8689161594 2.7054955105 
Si 14.9274556665 12.2157896617 4.0590285213 
Si 13.4572994431 10.7682439585 8.1308484050 
Si 8.0572132637 10.8085779989 8.2395021411 
Si 10.1266623026 12.2720390322 12.0830297152 
Si 15.2011928290 10.8829092695 16.2616385350 
Si 13.3127256918 11.6109093762 19.3084303197 
Si 14.4147930718 11.4042707243 21.4598267413 
Si 15.1295982784 11.4240467845 28.5231645729 
Si 14.2933185407 11.4539389348 26.2291400907 
Si 13.5733331141 13.5817713342 5.4511891154 
Si 12.1559402012 9.4320078263 9.5654623360 
Si 12.5074295344 12.6864240560 15.0344544637 
Si 14.5897802534 13.1249671500 16.0167378507 
Si 14.1769590697 13.6039746044 18.3442995950 
Si 14.7355105948 13.6958013353 22.0232585713 
H 15.0148189373 13.4365459829 23.8349700224 
Si 14.8413141457 13.5828790542 25.4742748882 
Si 15.0399055376 15.0138252473 1.2233262663 
Si 14.9691091969 14.9535033768 6.8147366849 
Si 12.6467253257 15.0911050080 11.6202388089 
Si 14.3450230012 16.0328136266 13.0171779529 
Si 15.6343765130 14.7431506048 14.5765295198 
Si 12.2739775423 15.0017380672 18.3545559948 
Si 16.0275030866 14.3692299414 19.6504462902 
Si 12.5970245352 14.7109126945 22.2088644439 
H 15.6238857529 15.3493178004 24.4697887265 
Si 13.1201616000 15.0766883579 25.8923397327 

