&CONTROL
  dt          = 30.D0,
  prefix = 'aSiHcSi_merged-2',
  pseudo_dir = './',
  outdir='./',
 wf_collect=.true.,
 verbosity ="high",
/

&SYSTEM
    ibrav= 0, nat=  388, ntyp= 2,
  ecutwfc     = 42.D0,
  nbnd=1468,
  degauss     = 0.05D0,
  occupations = "smearing",
  smearing    = "methfessel-paxton",
/
&ELECTRONS
  electron_maxstep=200,
  conv_thr    = 1.D-8,
  mixing_beta = 0.3D0,
  scf_must_converge=.false.,
/
&IONS
/
ATOMIC_SPECIES
Si  28.08  Si.pbe-hgh.UPF
H  1.00784  H.pbe-hgh.UPF

K_POINTS {automatic}
2 2 2 0 0 0

CELL_PARAMETERS angstrom
16.29000014898320 0.00000000000000 0.00000000000000
0.00000000000000 16.29000014898320 0.00000000000000
0.00000000000000 0.00000000000000 29.31082521633016

ATOMIC_POSITIONS angstrom
Si 16.2807148489 16.2245143484 29.1716867290 
Si 2.7024784447 16.2236183984 2.5970094601 
Si 1.3944565928 1.3078556940 1.1826976596 
Si 4.0506225670 1.2776475177 4.0249625187 
Si 16.2495846586 16.2495520786 5.4769328674 
Si 1.3405318053 1.3173201840 6.7857491458 
Si 2.7036024547 16.2743454588 8.2236796093 
Si 6.5260835697 4.1991384984 9.3917746158 
Si 0.4487699561 0.3501568112 10.8857180663 
Si 2.9035784966 1.5246250969 14.2668683091 
Si 1.0045391492 1.2224895772 15.7353113416 
Si 2.4973547628 1.5764191524 19.1142925834 
Si 2.3073807811 1.4248912000 21.5151715877 
Si 0.2013509178 0.9634818328 22.5144948626 
Si 0.0234507584 1.5051976428 24.7809837333 
Si 3.6776467236 1.5598473353 25.5376719971 
Si 1.7192791957 0.4164082418 25.9785361191 
Si 0.0392232253 2.6429384942 2.6401286151 
Si 2.7904607355 2.7655370353 29.2332980836 
Si 4.1163038476 4.1039886075 1.3319601060 
Si 1.3647990185 4.0909403174 3.9874739733 
Si 2.6836960745 2.6783855345 5.3616240810 
Si 4.0752530473 4.0125365467 6.7141427998 
Si 0.0136131459 2.7065998148 8.1426351776 
Si 2.1584087297 1.6632415952 11.8666048321 
Si 3.4952638820 6.1978074867 11.8344801677 
Si 0.6211311897 2.3333633313 17.8418217283 
Si 3.0869061582 3.5090778021 22.0689116977 
Si 3.7986488447 3.6060521730 24.3499680485 
H 11.4928883251 4.5997258921 28.4320573655 
Si 16.2462777886 5.3097907086 29.2495362808 
Si 2.7200879349 5.5090011204 2.6200448377 
Si 0.0997547481 5.4567102199 5.4779001247 
Si 2.9175878967 5.3430223089 8.2503524602 
Si 0.8166714645 9.0344666626 12.6312363296 
Si 0.5043253726 5.4946170503 14.3819132981 
Si 4.6784065928 5.7190932523 9.8711531622 
Si 1.6930034255 5.1624476572 21.0769161290 
Si 0.9414496076 5.6084678613 25.1322153518 
Si 2.9331937168 5.3311631888 26.4956376976 
Si 16.2896906390 8.1029555841 2.7211173563 
Si 2.1537009197 8.5448707081 29.0850146189 
Si 1.2892085308 6.8191895424 1.2247117965 
Si 4.0475763370 6.8284748425 4.0599010224 
Si 2.7298619350 8.1767492848 5.5065368009 
Si 1.4257545700 6.7887924021 6.9726642782 
Si 16.2771799189 8.2233223952 8.2764097839 
Si 14.2880405807 6.5208870596 11.6942864907 
Si 1.3988630378 9.6263963980 9.5696033924 
Si 0.9080225273 6.1188009860 16.5872890982 
Si 3.1392947987 6.2079235768 17.1054458663 
Si 3.8537090452 7.7748586911 15.3287701959 
Si 2.8482739460 6.5727055501 19.5237061900 
Si 3.7199681440 7.2188809860 23.5125284612 
Si 1.5705286884 6.4858635593 23.0041615087 
Si 3.9549351062 9.4832398767 1.1207756103 
Si 1.4000277728 9.5262617671 4.0101312411 
Si 4.1066764576 9.5800187676 6.8465691082 
Si 5.7775580628 7.7850562312 10.0641649463 
Si 2.4159862121 4.7290359133 13.2393187095 
Si 2.3810930318 9.4264203562 14.3572335832 
Si 0.0549909680 8.3273340462 16.7711265939 
Si 1.5417507741 8.5638485583 20.0845981413 
Si 1.6251620909 10.0664707521 23.8067212139 
Si 3.3632660108 8.9638495120 25.0090512643 
Si 0.6964414894 8.5058724478 22.3218641193 
Si 0.0833078753 9.9449473510 28.7099239886 
Si 14.0415891684 13.1539470603 29.0839008075 
Si 2.6759420345 10.9317955600 2.5307845817 
Si 1.6681774653 12.7469902766 1.2549810857 
Si 3.9816344164 12.1938470315 4.0607803471 
Si 0.0640941459 10.8898650996 5.4127714710 
Si 1.3790918646 12.2369015019 6.9035493524 
Si 2.8421489060 10.9698652903 8.3019688234 
Si 4.2303175587 12.2776102123 9.8073141849 
Si 2.4598388925 8.2584273455 11.1648450548 
Si 3.5146164021 11.2082857325 13.3557413072 
Si 5.8309892633 11.0001158206 11.0730435502 
Si 1.3584768694 10.2140092834 16.2685924956 
Si 3.3205210504 10.7489891783 17.4248459287 
H 0.4952436975 11.3984714842 16.0061140558 
H 0.7260387906 11.6422676265 19.0427448590 
Si 3.0929986183 10.2733211740 19.7044953599 
H 2.1066553993 11.1106760516 22.8366794534 
H 3.8106382849 11.6618644967 23.8549961430 
Si 0.0029356046 13.6544247349 2.6909125509 
Si 4.9751452355 14.7036310645 28.7303829446 
Si 2.6987317447 13.6004885444 5.4798053283 
Si 0.0207871805 13.5201788437 8.3935651522 
Si 2.3524389215 13.2167613009 13.3842900510 
Si 0.1408682650 12.6255971955 12.9818524208 
Si 3.7123281340 14.0682233187 19.2700796194 
H 1.3924806157 12.6131679254 21.0653383531 
Si 2.8260869658 12.3637680231 20.6829493273 
Si 3.8726217354 12.6713395159 22.7253276284 
Si 2.1706588099 14.3703213714 25.6719741982 
Si 4.3025962894 13.6183260945 26.7167292522 
Si 0.2482954403 13.0892105997 26.3395575533 
Si 3.5732115327 14.3859434816 1.3271179576 
Si 1.3429573863 14.9713409269 4.0903842806 
Si 4.1196270077 14.9309743066 6.8509950428 
Si 1.5134224638 14.8807522361 9.7439441808 
Si 3.6578055035 1.5718188564 9.7366164745 
Si 3.1688774390 13.8925356671 11.2656156719 
Si 1.1662108847 15.2925471499 16.4903581992 
Si 3.0048534275 14.2404086202 15.4693742244 
Si 2.0365106586 15.5941890826 18.6708197979 
Si 0.0206361722 15.3988719808 19.8419045085 
Si 3.8069241648 16.0537462768 22.3791960934 
Si 0.2677587324 14.9436967967 22.2197158934 
Si 2.3784377618 14.4051819717 23.2741728306 
Si 2.9151281067 7.7132336205 26.9783576781 
Si 8.2077328651 0.0569017850 2.5894501983 
Si 6.7855018221 1.4190919600 1.2373652798 
Si 5.4442157898 16.2344349585 5.3793864411 
Si 6.7092320414 1.3391699612 6.7974734759 
Si 8.1459937645 2.8836721164 10.5169292634 
Si 8.1328151544 16.2741662688 8.0770082399 
Si 7.9207845124 1.0570239007 14.4519075487 
Si 6.5368186798 1.3582602124 17.9774136057 
Si 6.9124660832 0.4410387220 20.1935464787 
Si 5.0401260461 0.0412811410 24.3815358072 
H 6.2297847570 0.9070809653 24.0557166741 
Si 10.6466716874 13.9521570676 26.8787888048 
Si 4.4753517409 2.2386532705 27.6305235392 
Si 5.3912244193 2.6700450544 2.6982724991 
Si 7.5836629594 16.0667619869 26.9202050009 
Si 6.7724372419 4.0928136674 4.0167554876 
Si 8.0759304739 2.7288030850 5.4553601001 
Si 5.2760052483 2.6184057539 8.1943394733 
Si 1.0310934784 3.7393043742 11.6044781222 
H 11.4010127243 13.0501797594 13.5421288448 
Si 6.5349616198 2.9067876266 13.7490339600 
Si 4.2019240884 3.4824925218 14.4966651788 
Si 7.9694916129 3.3300018305 17.7750516684 
Si 4.5694753618 2.6575343343 18.5313295806 
Si 4.9968598057 3.6701370336 20.7069548932 
Si 6.9167177733 2.5021928929 21.4493101634 
Si 7.8818351221 2.6903098146 23.7395994242 
Si 5.8780999438 4.9835671656 29.2748022121 
Si 8.0951689640 5.5247535505 2.6438862629 
Si 5.4107072595 5.4443949798 5.3928107991 
Si 8.0606667437 5.4033441794 8.0676873975 
Si 4.5013505812 4.3152861995 16.7541849370 
Si 6.6923067312 5.2188110577 17.0104494818 
Si 4.9971041557 6.0061230549 20.3958497943 
H 6.5117646596 5.3776874292 24.0321507706 
H 4.3465304198 6.0415212253 24.2318747337 
Si 6.1142560759 4.0768005973 24.7331484665 
Si 10.5482963765 6.4188790787 26.0052089701 
Si 5.8142594332 10.3366566945 29.1987699315 
Si 5.3274653587 8.1272276843 2.5494086800 
Si 7.8640790219 8.5242638580 29.1369534011 
Si 6.7837262120 6.8445856526 1.1366298357 
Si 8.1548229446 8.1519721946 5.2996903074 
Si 6.8156709023 6.8392099525 6.6920131268 
Si 5.9899633748 8.6697009793 7.9318024118 
Si 5.3832097392 0.2171668790 10.7884647482 
Si 4.9894315656 7.2575045764 13.3154682334 
Si 7.2442770963 6.5815184402 13.2907298969 
Si 7.8514379818 6.8603055027 15.6117955241 
Si 6.6597756009 6.5522941799 18.9225997865 
Si 5.3829979692 7.6933272404 21.9611651042 
Si 7.4767353984 7.8822423721 23.1007699886 
Si 7.1638533655 13.6713826250 29.0209411549 
Si 6.7239907815 9.5058829769 3.9649632595 
Si 4.6399296124 9.0409012127 11.7045452795 
Si 5.0131335158 9.3523823055 16.5947633586 
Si 6.3236477378 8.7866468904 18.4822632592 
Si 5.1976177675 9.5145003870 20.4284434319 
Si 7.2476165463 8.5401954781 25.3693399278 
Si 5.4516114499 10.0328481918 25.2116183774 
Si 9.5955757178 11.6929621069 27.1881352542 
Si 8.1622186046 10.9124756198 2.7151232925 
Si 6.6776946011 12.0636247703 1.3146227529 
Si 5.3764493892 10.8808078595 5.3696845580 
Si 6.7510647617 12.2030834616 6.7532434407 
Si 7.6801975002 10.3648872648 7.9186711621 
Si 9.0163847625 9.4399247663 11.5692465103 
Si 5.8027424031 11.5759999059 13.3268701444 
Si 6.5301723597 10.6305771672 15.3484963812 
Si 7.7167685506 11.9648910794 18.7717076582 
Si 6.7171815614 11.2412241128 20.8030650890 
H 5.8278290033 10.9110909698 24.0215988736 
Si 5.2868055184 11.3960931442 27.0990596563 
Si 5.3254128187 13.4726772032 2.6680735559 
Si 5.9307329342 0.5817093893 28.4728873450 
Si 8.1513368845 13.5665890541 5.3892641892 
Si 5.4753948501 13.5563752240 8.2493265814 
Si 6.6759189911 13.7319977156 13.2280340418 
Si 7.4135301978 14.1877919198 15.4705173466 
Si 6.4450408189 12.5118767044 16.8004374191 
Si 4.1451045679 12.9689089486 17.1803936464 
Si 6.0332784852 13.1769811205 22.0083848436 
Si 7.4332085180 13.4089670126 23.8606531323 
Si 7.3506507972 12.4996103343 27.0191876576 
Si 6.7987455922 14.9045845063 3.9342748255 
Si 6.9827411439 1.4554007413 11.8992277806 
Si 4.8448252343 15.0883194180 12.5445935302 
Si 4.3496092298 16.0089161964 14.6731749682 
Si 6.4033058386 0.0064120536 15.9037899650 
Si 5.2786279383 15.0855664080 20.7899924610 
Si 7.5963365795 3.3508856106 0.2202793516 
Si 6.2138531368 14.5212319328 25.6042661919 
Si 11.9028098889 1.0309028854 1.4601920352 
Si 9.4410650663 1.3698179675 4.1177019697 
Si 10.8749760395 16.2755346289 5.4442219865 
Si 12.2917010624 1.3190176021 6.8288946806 
Si 1.8068053665 3.5928084029 9.3796106234 
Si 9.4995787469 1.4150292339 9.3002955303 
Si 11.7828829078 1.4365695011 14.3196864161 
Si 11.5923061960 2.0762419690 12.1224590254 
Si 9.9047436306 1.5210624739 15.6183904598 
H 8.6512281191 16.2867421490 18.0047019840 
Si 11.6687062967 16.2873611690 18.7923131684 
Si 10.8168696089 0.9037089353 20.7765974139 
Si 8.6082225187 0.6215889387 24.9260430073 
Si 9.9877900513 7.4662772183 28.0569374244 
Si 9.4519956564 4.1595700880 1.3437342645 
Si 10.7845502486 2.6957343847 2.7052543377 
Si 12.2236251518 4.0011824166 4.0475318541 
Si 9.4854227368 4.0731516373 6.7545917386 
Si 10.9369757800 2.7777871154 8.0792065518 
Si 12.2804772523 4.1630235681 9.4577239726 
Si 9.7985491196 3.7515218743 11.9232919681 
Si 10.1024064924 3.5824153828 16.7233206380 
Si 8.3639865465 3.7175083540 20.0314283044 
Si 10.3875466550 3.1783745091 20.9640987628 
Si 9.8343545399 3.9810316864 23.1297290839 
Si 11.8106573580 3.5930527529 24.4524973151 
Si 5.2199676477 4.4444170306 27.0266326072 
H 12.4868226842 3.2677577399 28.5570094134 
Si 12.9814359587 13.3329578719 26.8784370749 
Si 10.8240534990 5.3893673593 5.3342477703 
Si 8.7847572503 16.1290223675 12.3754114471 
Si 8.2853058458 4.5021162112 13.5622067601 
Si 9.6962316287 5.4348327497 15.2430653429 
Si 8.5079738578 6.0255081551 20.2612544849 
Si 12.2713222722 4.1798837182 20.0056054674 
H 9.3637527256 5.8178921032 25.3260185282 
H 11.4556819648 4.5472232216 25.6704207245 
Si 10.8450350192 8.1759347848 2.6584273633 
Si 12.2393775819 6.6976335613 1.4601041027 
Si 9.5052639569 6.7986478522 3.9963551533 
Si 12.1353007710 6.7486701317 6.7052323090 
Si 9.3900284959 6.6764239811 9.5038299006 
Si 10.7618419884 8.0594775737 8.1044724831 
Si 7.8783327721 7.4861021485 11.1449136937 
Si 11.3119390035 7.0555248645 14.5055463588 
Si 10.8948824196 5.5047983003 10.8287085112 
Si 12.0011851998 7.1226722451 12.2019792943 
Si 11.6297569064 7.2100518059 17.9937690462 
H 10.5497624765 6.2948958876 17.4548895246 
H 9.7540448392 6.5332837498 19.5828847461 
Si 9.1739416439 6.2685875373 22.4954721370 
Si 11.9904989597 7.6393258899 24.5638784509 
Si 11.2074223625 7.4215611679 22.1875032965 
Si 11.8324533782 9.0610193629 28.1369266664 
Si 9.4193504961 9.5496704973 1.3037513678 
Si 12.2225988818 9.5431056273 4.0377127277 
Si 9.4908473068 9.4848688767 6.7118565555 
Si 12.5873156951 8.9706587320 9.3022886664 
Si 8.0662216338 14.1412025193 11.3592051368 
H 10.5004852260 9.9031309206 13.4552222480 
H 8.4950395977 9.9611233211 12.9016580030 
Si 8.0524728736 10.9552042902 10.1215848529 
Si 10.5337005363 9.3412562354 14.8641056837 
Si 8.4177924170 9.8075900697 18.0276523601 
Si 8.3707143166 9.2388898745 15.7672308303 
Si 10.5159607262 9.1213575234 18.7904958972 
Si 10.3166199944 9.3297392053 21.1429827291 
Si 8.2437174754 9.9177267607 22.0763273364 
H 10.3003299942 9.1290301135 25.1392792607 
Si 9.1085698733 9.9504696610 25.6133818586 
Si 10.7633569584 10.8840169895 29.1803920441 
Si 12.3038534025 12.2171417317 1.1542720213 
Si 9.5648039075 12.3016216725 3.9907274749 
Si 10.8775661495 10.9288959400 5.4408219308 
Si 12.1775244514 12.2162132017 6.9658348560 
Si 13.5208304437 2.7670682953 10.8883853514 
H 8.8128249206 11.8008996479 13.6130317310 
H 9.1034711033 12.0019182498 14.2423058376 
Si 11.9003175188 11.0301545809 15.8569512663 
Si 12.0431971101 10.8070793188 18.2151243982 
Si 11.6589811666 11.1675444421 21.5978281148 
Si 11.0359864009 12.0594545303 23.6727414318 
Si 8.7938959404 11.4181335144 23.8288801978 
Si 13.5415024538 7.9746229629 0.0408211863 
Si 10.9563445902 13.6675870550 2.5442294572 
Si 10.7910662487 13.6185215746 8.3801407943 
Si 12.1547999012 14.9958085071 9.7647255559 
Si 6.7711829119 15.0489464876 9.5499944503 
Si 11.6086776462 13.2760894814 15.0682262705 
H 9.4890228268 12.8868073479 17.2169442455 
Si 9.6729695085 14.0035845981 16.1918567552 
Si 11.3617864039 12.5137337644 19.6811639431 
Si 9.1933430341 13.4261692528 19.9724549241 
H 8.8334480608 12.8388984574 21.3348807018 
Si 9.1345687135 14.9345581066 28.4726235476 
Si 10.0749578421 15.5668544624 1.2837232809 
Si 12.2565961121 14.8621979259 4.1239744863 
Si 9.5161293870 14.8809151361 6.8084357246 
Si 9.6551319583 12.6794030660 10.3376642564 
Si 10.6890419778 0.2538747653 10.9703677295 
Si 9.9408585609 16.0828076371 17.2266754394 
Si 8.9300477617 15.6960178736 20.9214222013 
Si 8.7970887805 15.2076599591 23.2286238082 
Si 11.0040417106 14.3779776715 23.5069594044 
Si 10.7626401984 15.9117300555 25.3293892731 
Si 13.5553489540 16.2079311282 2.7090002611 
Si 14.9519232467 1.3168966440 4.0378592818 
Si 13.5950965543 16.2591957587 8.3233950367 
Si 14.9970954172 1.3843730827 9.6110782101 
Si 15.1203781383 0.1613050476 12.4872615561 
Si 15.3946691608 1.5152029609 14.4233001833 
Si 13.5518140239 0.5557235811 15.4776691880 
Si 13.2658593613 1.2712716116 17.7224680480 
Si 15.2356461793 1.1274357973 19.0492225514 
Si 14.6321016738 1.6603582652 21.2825608788 
Si 12.6794193560 0.7611584020 22.2749081773 
Si 12.3920474633 1.2476054994 24.6293881453 
Si 14.4101504218 0.5406471859 25.7516703320 
Si 10.7676738085 5.5845378511 0.0344622027 
Si 1.4676410474 4.1264525177 27.9136074891 
Si 14.8656025360 3.8946132356 1.2889025037 
Si 13.6202808946 2.6943660246 5.4380960240 
Si 14.9792904470 4.1188450877 6.7951579207 
Si 15.0458839676 3.8687121354 14.3709217386 
Si 12.3547922330 3.4752597618 17.7023022002 
Si 14.1705082296 3.8890909256 21.3751244648 
Si 15.7476734640 3.7708581045 25.1042821354 
Si 15.3638484805 9.3605924656 26.5505661841 
Si 13.6423212648 5.3366040488 2.7405885375 
Si 13.5821297142 5.5306668206 8.0917222742 
Si 14.9344603666 4.2338036187 12.0413266612 
Si 13.9663456577 4.6698543427 16.4033343591 
Si 15.9522595759 4.5237493314 17.8013434786 
Si 15.8262238447 4.9736954255 20.1413438990 
Si 13.9312407074 4.4349199606 23.6864882089 
Si 14.8967327262 14.9016360163 1.2211065650 
Si 14.9555884968 6.7602034518 4.1169691991 
Si 13.5537851140 8.1541061846 5.4251113285 
Si 0.1576296977 10.9755179204 11.1911661758 
Si 14.3829787015 7.3122063969 9.4472600080 
Si 15.6714688433 7.3572645373 13.3722726127 
Si 13.0367242192 6.8557280127 16.0942517072 
Si 12.3402289729 6.5145339596 20.1372990051 
Si 14.6490432740 6.9687969037 20.2390955011 
Si 14.6948181744 8.0935073840 22.2806237882 
Si 14.0829494788 6.7521399018 24.1318661980 
Si 15.5320101521 7.0754149547 25.9617410163 
Si 14.9655416869 9.3912176659 1.2697977079 
Si 14.9894065371 9.5175629070 6.7535951706 
Si 14.6006619735 8.3699161065 15.2267099025 
Si 15.7073557137 8.5798616285 18.9589158989 
Si 13.7703932459 10.1987455533 21.7458184713 
Si 0.0978649452 12.3287771028 28.6693284956 
Si 12.9442947584 9.3874383859 26.0631564715 
Si 13.5973282844 10.8510786092 2.6011803906 
Si 14.9423121467 12.2177444617 4.0401455262 
Si 13.6208673346 10.7890462887 8.1968308934 
Si 14.8969119162 12.0898679606 9.7141057607 
Si 11.5095855753 11.8224024481 11.5671654417 
H 16.0394925267 11.8493623984 14.2056086844 
Si 11.4318822746 9.3869985559 11.3314770962 
Si 13.8797154369 10.5405586264 14.7982735703 
H 14.7778971752 11.5559306257 15.3904987938 
Si 14.1049409790 10.2558745838 19.3463463866 
H 15.8025870545 11.9683119795 21.0312498633 
Si 15.6390517430 11.9524455193 19.5223578920 
Si 14.5535838731 11.6090197362 23.5173940582 
Si 16.2196436383 11.0231010108 25.0798369072 
Si 12.7953389970 11.5568265757 25.1703194246 
Si 14.8506157358 1.2830378787 27.9508029263 
Si 13.5917245243 13.5249843937 5.5492133624 
Si 13.3130514918 13.3090441517 11.0406843992 
Si 15.4489474413 13.9855352779 16.5054532742 
H 15.9298608257 12.6199771454 16.1075588219 
Si 14.8386914557 13.9717865178 18.7821130012 
Si 14.6786259142 13.9327068074 23.2537724962 
Si 13.3856234424 2.3891728719 0.0702076334 
Si 14.6194443437 6.3819170684 27.9859172949 
Si 14.9645317069 14.8842871661 6.9464310897 
Si 14.6175221237 14.1943079198 12.8630263354 
Si 13.6802118051 14.5173549128 15.0524570465 
Si 12.7186130963 14.3775378415 19.7250715592 
Si 12.8321543974 14.7703386151 22.0839774618 
Si 14.6322971538 14.4575706122 25.5945643088 

