&CONTROL
  dt          = 30.D0,
  prefix = 'aSiHcSi_merged-3',
  pseudo_dir = './',
  outdir='./',
 wf_collect=.true.,
 verbosity ="high",
/

&SYSTEM
    ibrav= 0, nat=  388, ntyp= 2,
  ecutwfc     = 42.D0,
  nbnd=1468,
  degauss     = 0.05D0,
  occupations = "smearing",
  smearing    = "methfessel-paxton",
/
&ELECTRONS
  electron_maxstep=200,
  conv_thr    = 1.D-8,
  mixing_beta = 0.3D0,
  scf_must_converge=.false.,
/
&IONS
/
ATOMIC_SPECIES
Si  28.08  Si.pbe-hgh.UPF
H  1.00784  H.pbe-hgh.UPF

K_POINTS {automatic}
2 2 2 0 0 0

CELL_PARAMETERS angstrom
16.29000014898320 0.00000000000000 0.00000000000000
0.00000000000000 16.29000014898320 0.00000000000000
0.00000000000000 0.00000000000000 29.47023915778811

ATOMIC_POSITIONS angstrom
Si 13.7567585158 2.6148219539 29.1446224853 
Si 16.2056668182 2.6342396341 2.7681749284 
Si 1.1726275157 1.2732280406 1.3271745383 
Si 1.3111837410 4.0652998572 4.0883768081 
Si 16.2494706286 16.2260293184 5.4087024629 
Si 1.2887393788 1.3620036545 6.7049804025 
Si 0.1862175077 2.6724559744 8.3452055033 
Si 2.1667329198 3.4290287414 9.6487920622 
Si 0.4483415291 2.4879717228 12.9173362872 
Si 1.8389781168 1.5526813642 16.1816957382 
Si 0.4405940050 0.0562856972 17.2639608010 
Si 0.6387227608 3.2544162298 15.1154330152 
Si 0.7740894041 0.8202943605 19.5085320962 
Si 0.0311507157 3.0484128879 19.9518234336 
Si 1.0156619613 0.9401578106 24.1983964856 
Si 16.0378309467 16.1436996576 0.0342120006 
Si 0.4344282400 4.8485067743 0.0726456130 
Si 16.1857115680 8.0516095036 2.6652206479 
Si 1.2774292317 6.6650372710 1.3392779655 
Si 0.0385510999 5.4203183596 5.5800719036 
Si 1.4014775828 6.7285356915 7.0771305825 
Si 16.2494706286 8.1393474444 8.3928883502 
Si 12.7832029469 9.1418177636 9.5637114817 
Si 0.3305175870 7.0194099342 16.0788151333 
Si 1.7550846161 5.3099047386 15.2987379028 
H 1.6943554955 6.7725838519 18.4923393096 
Si 1.0660518187 7.8882045121 21.4797963935 
Si 1.6879535254 7.1204405151 23.6374304832 
Si 1.8867729773 4.7902211538 23.9754541263 
Si 0.4184558948 7.9881599531 25.4381505065 
H 0.4862516174 4.1950334184 23.7060372000 
Si 1.0071650972 1.1112435372 26.6290723411 
Si 4.0699750872 13.7104134654 27.2112274454 
Si 1.4322510221 12.2524584521 1.2575982507 
Si 1.3104311430 9.4524191964 4.0046813289 
Si 0.0141639596 10.8266598990 5.4353730293 
Si 1.3580842804 12.2216703518 6.7916229056 
Si 14.7635945550 5.7339171524 11.5026469266 
H 0.8272583356 10.8536850093 12.8224715873 
Si 2.0271927785 8.6776830794 16.4704746117 
Si 0.8820041391 10.4312364354 17.6660822143 
H 1.7983671464 9.2415125645 21.3788018839 
Si 1.3203191731 11.4575553148 21.7627991001 
Si 0.7205067066 11.6897855569 25.5433297900 
Si 14.9024668063 9.4978682969 1.2710632030 
Si 13.6712523050 8.2561304555 27.2939504067 
Si 16.2120199183 13.4815552533 2.6196360820 
Si 1.2990574649 14.9031509863 3.9584719939 
Si 16.1530012477 13.4761469732 8.1994751706 
Si 0.9473107497 15.0615060777 9.7306603866 
Si 1.9018412274 15.1799832488 13.5281659342 
Si 0.4304339319 12.2494122220 16.1006525805 
Si 0.6704719711 14.0407746684 17.6238218914 
H 0.5359116829 12.8926391679 21.6415290660 
Si 1.4373025511 14.2506713203 21.9511433986 
Si 1.2978161669 14.9114914664 24.2037011286 
Si 2.6829793145 0.0146990047 2.6398497190 
Si 8.0119270633 8.6130606488 27.7432831431 
Si 3.9140309158 3.9996185766 1.3222972137 
Si 4.0791137773 1.3337681972 4.0327664668 
Si 2.7370132450 2.7310999750 5.4106769689 
Si 4.0955992575 4.1255728577 6.7813967326 
Si 2.4433534123 16.2355915485 8.1332260730 
Si 6.4180808687 15.1835670489 9.4849670027 
Si 3.7083696639 1.6110386607 9.2154321954 
Si 3.1515122988 0.5562171681 14.6148220627 
H 2.7900860655 2.1466799296 17.2004819059 
Si 3.8764010155 3.8067612648 18.7864228262 
Si 2.9612776771 0.5270238588 20.4224042125 
Si 2.8152704057 1.3923193447 22.6877520263 
Si 3.1268166586 3.6819309937 22.3231167572 
Si 4.9330030051 1.7869315663 27.6244886091 
Si 2.7203648649 5.4284959396 2.7562276934 
Si 1.5409558221 10.6900030878 27.4574218233 
Si 4.0711153872 6.7701566419 4.1153715472 
Si 2.6096091539 8.0576530937 5.4555896134 
Si 2.9490113070 5.3657794391 8.4403059650 
Si 4.8387490643 6.3342688179 9.7660246735 
Si 2.3423065414 3.5994710129 12.0782891081 
Si 2.2733998408 5.8305494333 12.9859724742 
Si 3.6786892836 5.1106780367 16.6938000840 
Si 4.0089364567 7.4475111381 17.2451882587 
Si 2.2030107501 6.6110033405 19.9078243666 
Si 2.1147841093 4.2639075390 20.2760844751 
Si 3.8189461849 8.0034236832 24.0642184867 
Si 4.2636957690 5.5951915112 27.0158397598 
Si 2.7067952948 2.5077477829 27.4092969228 
Si 3.9342956760 9.3940521259 1.3348751118 
Si 2.7378114550 10.8833816795 2.7206482737 
Si 4.1199853877 12.2381395419 4.0447019137 
Si 4.0209096068 9.4003237760 6.7161496231 
Si 2.7237368949 10.7518236383 8.1013687445 
Si 4.4065753603 11.7112557771 9.4472156263 
Si 3.0966475783 12.3400334929 11.3590679215 
Si 3.6615033335 11.6039372561 13.5625871735 
H 1.9234254776 8.9179931616 13.2876887827 
Si 2.8574289261 9.4679598566 14.3320845882 
Si 2.2113349402 11.3251501936 19.4208876050 
Si 2.4498368324 11.8346851082 23.9469858753 
Si 2.4618751425 13.9304587874 29.1706447065 
Si 4.0135302367 15.0557068377 1.1391573595 
Si 2.6771312045 13.5749946942 5.3628762410 
Si 3.9494127961 14.8934584362 6.8395415145 
Si 2.7453211451 14.7431180248 11.3244698607 
Si 2.3192724812 13.1444337002 14.8334912372 
Si 3.9467575261 13.6477621248 16.5113203632 
Si 2.7289334050 13.4698101632 18.5857599677 
Si 3.3984361211 14.5080207427 20.5945398794 
Si 3.2672853299 13.8655431368 24.9601137571 
Si 5.1527388171 10.7077917679 29.3077107888 
Si 5.4537780199 0.0714469633 29.1848198915 
Si 5.4324706997 2.6227714740 2.5542622504 
Si 5.3941891993 16.2566382287 5.4720045366 
Si 5.4520024099 2.7936535755 8.1457214544 
Si 5.6742143019 1.3706862245 12.4219415669 
Si 3.9561568562 2.4834431027 13.5427831728 
Si 5.0735531264 3.9821556964 15.1330562182 
Si 5.9589309245 0.7672687810 17.4576981532 
Si 4.8154217840 1.5855122305 19.4089226879 
Si 6.0350703852 1.5690120893 21.5421259493 
Si 5.4827090601 3.7841670346 22.0183060736 
Si 5.8597574036 1.9098884875 25.4495849593 
Si 4.9417670252 0.7746823601 23.5068478535 
Si 2.0848430891 3.0935198983 0.1278354140 
Si 5.1910854775 5.2706458382 29.2779458473 
Si 5.3988970094 8.0462175136 2.6300803347 
Si 5.4909518002 5.4541201099 5.4550296788 
Si 5.3779154892 8.1053990841 8.1827655450 
Si 4.5511328216 6.7843778120 12.4288081326 
Si 6.0010242849 6.8921524530 20.6464369706 
Si 5.7732900828 4.6867470729 19.8746998178 
Si 4.1914496183 7.8646328819 19.5420692284 
Si 5.7268472924 7.1251809052 23.0248031516 
Si 5.9045549040 4.2633210990 25.8343484017 
Si 2.0783759590 8.4358417372 27.1919539090 
Si 3.3521888107 11.8444102383 28.3656356537 
Si 5.4424564698 10.8208932390 5.4279759993 
Si 6.1689090264 11.7948071879 13.8877323222 
Si 4.9745425055 8.4912114477 14.1613929630 
H 5.8249130933 9.5268970771 13.4013260249 
Si 5.8893726239 8.5651517583 16.4025457104 
Si 5.8881508739 10.5681375967 17.7775681291 
Si 4.2824618492 10.2604520738 19.6074047486 
Si 5.0284786960 11.1662412421 21.6835830973 
Si 4.1991059184 10.3234617944 23.7673942379 
Si 5.9730054846 10.4448548755 25.3213894189 
Si 8.6336837890 7.4376556880 0.1537922113 
Si 5.3853925993 13.5488818239 2.4817153627 
Si 5.3494894389 13.5144121836 8.1802900449 
Si 4.7862301038 15.7733953743 15.8392515592 
Si 5.8920767639 12.3506382830 16.2255769243 
H 5.3148406086 13.4004147626 18.6611743097 
Si 5.2693100582 13.5780083442 21.8063561136 
H 5.7051490122 13.0913934597 19.2064621449 
Si 5.1098635367 14.7407559748 23.8738996822 
Si 6.2214768569 14.6236797437 27.7904060556 
Si 8.1645806547 16.2212074784 2.5837973241 
Si 8.2452976054 2.7131158148 29.2151447676 
Si 6.9044676931 1.2953156518 1.1339676504 
Si 6.7132393814 4.0138397467 4.0137876328 
Si 8.1347373744 2.6854879746 5.3242112872 
Si 6.8121359723 1.3953851228 6.7860530304 
Si 8.0985735741 0.0261848720 8.1985615932 
Si 6.4296304788 4.4468279507 9.6352946926 
Si 6.7903236621 3.5599514726 11.8881176548 
Si 6.7045405213 2.8267874359 16.4586570458 
Si 7.5554649691 4.0236789068 18.3990070622 
Si 8.0709946038 5.3501410389 2.6658218408 
Si 4.2076255885 7.8572860919 26.4208356312 
Si 6.6787697411 6.5989650304 1.2025242678 
Si 8.1792416548 8.2005326850 5.4691164531 
Si 6.8648015428 6.8365546825 6.8588739913 
Si 8.1751691548 5.4588116299 8.2921590728 
Si 6.1355145261 5.2968401584 13.4629188247 
Si 8.0602432037 6.5792704202 14.2610023713 
Si 8.1056923041 7.6617572201 16.4288036935 
Si 6.5445075599 5.0526367662 23.6964299020 
Si 6.3765087883 3.6334682432 28.1255416153 
Si 9.7103224788 10.2694115739 27.7903471151 
Si 8.1027438141 10.7771220086 2.5600384173 
Si 6.7190874915 12.0975405506 1.0709602791 
Si 6.7697656819 9.4525658065 3.9991998644 
Si 6.7941518121 12.2105768617 6.8224193055 
H 14.7727332451 12.5434141447 12.0085035818 
Si 6.1272392060 9.9285433208 9.5057729915 
Si 8.0534014037 10.9168413398 8.3829274094 
Si 8.3993032668 10.6829658077 13.1864585112 
Si 8.0693818938 10.8553954593 18.6674809409 
H 6.4922818194 10.7469366383 21.6127071721 
Si 7.4384213180 12.2709964722 25.3605848370 
Si 7.0743723947 8.6848343894 24.1261354592 
Si 7.9548631928 13.5143470236 29.0570958750 
Si 6.7095415514 14.9093900564 3.9553186783 
Si 8.0742688938 13.5426753339 5.3441036986 
Si 4.6459243325 0.0508018316 10.7136107434 
Si 6.2713731274 13.7775119760 12.6573498373 
Si 6.2360726970 15.7647290942 13.8965439237 
H 6.9917658039 13.3257576919 16.5753297226 
Si 8.0402065035 15.8996102954 17.3845235494 
H 8.2118053651 14.3984216217 18.2771181530 
Si 7.6341619598 13.7252862355 21.5364087229 
Si 6.8113377623 14.5129566127 25.4757545316 
H 12.7057277062 3.5913260128 28.5759942208 
Si 9.4948872268 4.0807590673 1.2257674454 
Si 9.5315885972 1.3360341362 3.9333928204 
Si 9.3896701159 4.0269857768 6.8033815310 
Si 9.9556987511 0.9518980137 9.4439149595 
Si 15.0197222274 3.2672853299 11.4823714021 
Si 8.8585835310 3.1043853284 12.9107054834 
Si 8.3618525565 2.0255800685 14.9585629322 
Si 9.8498463301 0.9389425766 18.0566512939 
Si 8.3796249466 1.4501814253 21.5287464607 
Si 9.1139944434 2.5719629635 19.5519712288 
Si 9.1653405238 2.6653698244 23.3926506768 
Si 8.2369408353 1.6783750053 25.3325881098 
Si 9.5812405176 2.3205919712 27.2472106074 
Si 9.4320892763 6.7219871115 4.0949781417 
Si 6.1965205767 8.2080586651 11.1967163739 
Si 9.8602556402 5.0026753358 14.0461937981 
Si 8.7940262604 6.0720323955 18.0311595370 
Si 9.7707095094 5.7785191728 21.3359521562 
Si 8.2773237457 7.1182739451 20.0748027417 
Si 8.8788320012 4.9676844154 23.3790059560 
Si 10.0214940617 6.0172328350 25.1734782886 
Si 8.6312891589 7.8367118217 25.6500120558 
Si 9.5616436474 9.2377495745 1.4457421515 
Si 9.4294177162 12.1148568208 4.0335326930 
Si 9.4903748968 9.5481555273 6.9666761262 
Si 9.2604904147 12.5103780244 9.7390004642 
Si 8.1612900746 8.3215673861 12.5754225725 
Si 11.7360165773 15.5844313725 9.2815044715 
Si 9.9414612909 10.7346376882 14.9737401054 
Si 9.3919018459 9.7062011088 17.0302028640 
Si 8.7403995799 9.3937100359 20.4015982237 
Si 8.3811399167 9.8730270003 22.6377115603 
Si 8.3391768763 12.1389660210 23.1917520564 
H 9.7438961691 9.3784463058 23.1228506373 
Si 11.3501064738 15.6333339530 0.0516168292 
Si 9.4073284760 14.7659240250 1.1383174577 
Si 9.3882203059 14.9136580364 6.7605023330 
Si 8.8303692508 15.5373206921 12.4352326448 
Si 10.3001833842 14.7129000746 14.0810276208 
Si 8.2772748757 15.9586941260 14.9788679270 
H 9.5958852278 13.3209358518 16.7396852464 
Si 8.6094931387 13.1233381500 19.4381276949 
Si 8.9701700320 15.5416538321 22.3042558042 
Si 8.6536227491 15.7496934240 24.6709223002 
Si 10.6382986273 15.2334470293 25.7587277680 
Si 12.9842215487 13.7905113961 29.2538686619 
Si 10.9328381200 2.6391429241 2.4913079255 
Si 12.3601842230 1.2144765261 1.1588464263 
Si 12.2179725217 4.0530660671 3.9345126895 
Si 10.8130577489 0.0120172308 5.4222293026 
Si 12.2114891017 1.4885606656 6.6987916522 
Si 10.8170976689 2.7375345250 8.1472244366 
Si 11.6722575168 4.6644949327 9.2309335412 
Si 9.8821005304 1.2525120475 11.7863569190 
Si 11.5793719359 0.2521187033 14.8647002205 
Si 10.4133500152 1.9682392680 16.0325763281 
Si 11.4913244851 2.4760474426 23.3182383229 
H 11.8806229087 1.0153768863 23.5504048670 
Si 10.4165265653 5.7363117825 29.2736431924 
Si 10.9299547900 8.0105098333 2.8386559523 
Si 12.1248263009 6.7539480918 1.1994888331 
Si 10.8131229089 5.3347306988 5.3909024384 
Si 12.2196178118 6.8187822924 6.5857438148 
Si 11.0668070812 8.1819783748 8.1117422687 
Si 11.4361013846 6.2476711771 12.8387391593 
Si 12.3875188433 4.6781785328 11.4079001077 
Si 11.2022258525 4.1767723282 15.8670125245 
Si 11.1203686017 5.3842685892 17.9482008138 
Si 10.8358800391 4.1185029977 19.9768731369 
Si 11.4726398549 7.3585351573 21.7360695932 
Si 11.8557317884 7.1615564755 24.0716744572 
Si 5.8053650931 9.3867867858 27.4208492565 
H 14.9701191769 0.7546391439 28.9488222164 
Si 13.0841118297 8.5776950584 0.0391229213 
Si 12.1245656609 12.1196135008 1.2337568272 
Si 12.2396056419 9.5448975273 4.0706062539 
Si 10.8268553790 10.8587837793 5.4987635137 
Si 12.1624724912 12.2537779421 6.8978631178 
Si 11.8149742081 13.4918831134 12.5171304394 
Si 11.5175513853 9.6585039883 11.5533652082 
Si 11.7988633979 9.6735559485 13.9347373536 
Si 10.2625209039 11.6735607168 11.7036339577 
Si 11.4091251443 9.9827890213 18.3440155959 
Si 11.0670188512 9.4664937566 20.6950039247 
Si 11.8416409383 10.8182705489 22.5415501699 
Si 12.0757119504 9.4763654967 24.4884425794 
Si 10.0365460218 9.7224096589 25.5689983683 
Si 8.9553461319 12.3470707729 27.1992625283 
Si 10.7314937181 13.4507834430 2.6208031034 
Si 12.0997722807 14.8859813261 4.0050349718 
Si 10.7579649684 13.6717572950 8.2421186067 
Si 12.8905051779 15.3072570200 11.3108251400 
Si 12.0587866403 0.8422060397 12.6336852353 
Si 10.5003549060 12.9434476784 15.5852475679 
Si 11.6573358766 15.8351018948 18.6209179630 
Si 10.8923574696 13.8055959363 19.7238711338 
Si 12.1524052711 12.2197481318 18.5287350550 
Si 11.0505659511 14.3078655109 22.0853508677 
Si 10.5840692168 12.5362628347 23.5552379862 
Si 10.8705451594 12.9514949385 25.9387909293 
Si 11.0055078107 0.3944248866 27.4839450386 
Si 13.5656768141 16.2207350683 2.7029631832 
Si 0.8632299139 15.1920052689 27.6902072424 
Si 13.6168925745 2.8170297258 5.4122978320 
Si 13.5675175841 0.2536532213 8.1438942996 
Si 13.0973393098 2.9179136967 12.7330588817 
Si 13.3104125117 4.0587838571 14.7873408427 
H 13.5593562940 3.6755778936 18.6872260011 
Si 13.0308435292 0.7290051997 20.1546965600 
Si 12.4477592638 2.7969441556 21.1596611855 
H 14.1095999190 1.2230304052 19.1795558165 
Si 12.4316484537 3.7245293441 25.1446563947 
Si 13.9704181578 1.9696564980 25.4686522040 
Si 13.5759232242 5.4237555496 2.5581817922 
Si 2.0784574090 8.4965708577 0.1420780859 
Si 13.6481367948 8.1901233749 5.3727487711 
Si 13.5101116236 5.5652667809 8.0704249934 
Si 13.6921035052 6.1460541562 13.6738962668 
Si 13.0737350996 6.8030135722 18.3442513578 
Si 13.5571245640 6.9794505638 20.7344351047 
Si 13.6429728648 5.6776840719 24.4331564107 
H 13.7386440356 15.9691360160 27.7550712388 
Si 13.5965137843 10.9186006599 2.6611478608 
Si 13.6934392852 10.9352327500 8.1917244977 
H 16.0651166969 11.7744446877 11.0577347261 
Si 13.8000247562 9.5222544271 15.1800317795 
Si 13.3499646321 8.9913307422 17.4922372735 
Si 14.1631451495 12.0002240898 19.6673766853 
Si 13.7853148861 12.0196580599 21.9994156503 
Si 13.6412135448 10.2535776938 26.0474771713 
Si 10.7438252483 4.4855004110 26.9053558332 
Si 11.2629061030 10.1907145832 0.1035560628 
Si 13.4893255834 13.6082914545 5.4607469052 
Si 7.8307985516 14.0411493384 10.9409736385 
Si 14.0067448581 12.9973512889 13.2516761504 
Si 12.9401082283 15.5113218519 16.4839719812 
Si 12.7194601763 13.1163497400 16.4186069908 
H 14.1955948298 14.8763050661 18.4483107723 
Si 14.2406855502 16.0962143072 22.0104669900 
Si 13.3103636417 14.1754278096 22.9805977929 
Si 13.8825661870 14.1991134699 25.3726381648 
Si 13.1284043401 16.2614437787 26.3973183803 
Si 13.0055614489 12.5741207950 26.8792157310 
Si 14.9274230865 3.9309888060 1.2882738226 
Si 14.8638432159 1.2993734909 4.1224149343 
Si 14.9968347772 4.0577575871 6.9715976561 
Si 14.9190826064 1.5534795742 9.7278901841 
Si 14.3900648516 7.1759242556 9.5808336907 
Si 16.1493848677 0.1941670278 13.3992631081 
Si 14.9428822967 0.4286143389 15.7641908600 
Si 14.9844217970 3.8094816948 18.1648660121 
Si 14.8588584759 2.8203365958 16.0455432333 
Si 14.7268117347 3.2338256696 21.7329752181 
Si 15.1088285282 1.5471411351 23.4084467249 
Si 15.4034657609 2.5626287934 27.2189781183 
Si 14.9292801465 6.6983829013 4.0927678738 
Si 10.0610136020 6.4681889092 9.3846797788 
H 14.9026459963 12.2182820317 8.5378819269 
Si 15.2688940696 7.7917025513 14.3180862246 
Si 15.2557969095 6.1192733960 17.8396324527 
H 15.8189096347 6.6823046711 19.1266272670 
Si 14.6229304037 5.4918151702 22.2641468087 
H 16.0620215969 5.9802708247 22.2119550151 
Si 14.9896997571 6.5657497200 26.2276582135 
Si 0.0084445569 4.8202599141 27.2330943628 
Si 0.5380701079 10.3797437449 0.1352274341 
Si 14.9039329063 12.2202368318 4.1255093095 
Si 14.9984637772 9.4881431668 6.8493256339 
Si 10.1695375830 7.6960313804 11.4570859369 
Si 1.0645401067 11.0324351809 11.3524371176 
Si 1.5239441749 9.4249216762 9.6470533181 
Si 14.4477803221 11.8342289882 15.2749848900 
Si 15.1086004682 9.9543141010 18.8171602856 
Si 15.2170918692 8.7250543998 20.8747429134 
Si 15.4957160317 10.4996381460 22.4617742325 
Si 15.6165552528 10.0160206216 24.7713863455 
Si 14.6986951944 14.7045921745 1.2754631097 
Si 14.8588910559 14.9631470568 6.8597286283 
Si 15.3135938301 15.9567230359 11.1394851695 
H 14.8328922157 14.2941493307 13.5303172616 
Si 0.2893218056 7.0924217149 12.4126289713 
Si 15.2407938194 14.0064516381 19.1507928631 
Si 16.0728218670 15.4132397610 20.7981497618 
Si 16.2092506182 13.9168077673 25.8094460496 
Si 2.2213370003 4.5428900815 26.3099391212 

