&CONTROL
  dt          = 30.D0,
  prefix = 'aSiHcSi_merged-24',
  pseudo_dir = './',
  outdir='./',
 wf_collect=.true.,
 verbosity ="high",
/

&SYSTEM
    ibrav= 0, nat=  388, ntyp= 2,
  ecutwfc     = 42.D0,
  nbnd=1468,
  degauss     = 0.05D0,
  occupations = "smearing",
  smearing    = "methfessel-paxton",
/
&ELECTRONS
  electron_maxstep=200,
  conv_thr    = 1.D-8,
  mixing_beta = 0.3D0,
  scf_must_converge=.false.,
/
&IONS
/
ATOMIC_SPECIES
Si  28.08  Si.pbe-hgh.UPF
H  1.00784  H.pbe-hgh.UPF

K_POINTS {automatic}
2 2 2 0 0 0

CELL_PARAMETERS angstrom
16.29000014898320 0.00000000000000 0.00000000000000
0.00000000000000 16.29000014898320 0.00000000000000
0.00000000000000 0.00000000000000 29.17179006505858

ATOMIC_POSITIONS angstrom
Si 16.2544390787 16.2858136189 29.1293451105 
Si 2.6932583046 0.0343640811 2.5716566563 
Si 1.4035969118 1.4964662027 1.1316174943 
Si 4.0425101470 1.3147756860 4.0687062475 
Si 0.0166454480 0.0046952505 5.4553872883 
Si 1.3917149857 1.3683420935 6.8458606617 
Si 2.7763373054 16.2838751089 8.2059662017 
Si 4.3001527893 1.2918328498 9.5329034164 
Si 4.0910869274 13.9322343974 12.1621276832 
Si 3.7182251140 0.6202384977 14.2412886765 
Si 3.4633029017 1.5296961740 16.4282394341 
Si 1.6527997051 0.7905080952 17.7403865512 
Si 1.5858201115 0.7005856654 20.0952793042 
H 2.8599050062 1.5157617079 23.6221487231 
H 2.3281668213 16.2068234082 24.9791037097 
Si 0.0432681952 0.5868114174 23.8099275357 
Si 2.0842077791 0.2528387213 26.4442568658 
Si 0.0364855278 2.6817901445 2.6688833154 
Si 2.2499748206 3.4488699615 28.9479840917 
Si 4.0011498366 4.0613250971 1.3134948538 
Si 1.3598484874 4.0904027474 4.0350711736 
Si 2.7083265548 2.7180516849 5.4243485036 
Si 4.0592562671 4.0651532472 6.8248278011 
Si 16.2395663085 2.5158113330 8.3595556764 
Si 15.4050133109 0.5359149409 9.5606749606 
Si 15.2608142296 7.3778876775 11.8720725746 
Si 3.4696885817 3.8349266751 16.4529479403 
Si 0.1899381437 3.9297833459 17.6289211414 
Si 2.1314324895 2.7582391152 21.0629075807 
Si 1.6369984050 2.2773257308 23.2886568191 
Si 1.6709304753 3.7067080839 25.1796305947 
Si 5.2218247078 0.2012987898 28.8759005984 
Si 0.9446571086 14.7660217650 27.6551195278 
Si 0.3573244113 5.0983627966 29.0073486845 
Si 2.7113564948 5.5078608204 2.6390464085 
Si 16.2734006388 5.3925927793 5.4900433749 
Si 2.5871941137 5.2635922681 8.2681896299 
Si 1.1593984066 3.9903332765 9.7471702144 
Si 0.5571701331 4.1809588582 13.5516967311 
Si 1.4016926108 4.5984064021 15.7596803494 
Si 1.0064043542 4.4352131806 19.8217646006 
Si 2.8004465056 5.9466808444 19.6537059180 
Si 3.1885068892 6.0287987351 21.9536390185 
Si 0.0385066282 5.4464475198 25.0556213151 
H 2.7087989648 4.7184148332 22.5667717021 
Si 16.2718856688 8.0699520438 2.6790030093 
Si 2.1274251495 8.7073471696 29.0186089954 
Si 1.3317123992 6.8370108025 1.1525482537 
Si 4.0762793173 6.7924902321 4.0655848660 
Si 2.7120895448 8.1417420745 5.4470149845 
Si 1.3628882015 6.7588025118 6.8462107232 
Si 16.2470922886 8.1940166849 8.1040399672 
Si 3.9315426660 6.5644139400 9.6962946126 
Si 1.8334883868 3.0510029979 11.9222188817 
Si 0.8231565135 6.4672603791 13.0509046111 
Si 2.8702165763 8.0593309637 16.4307773798 
Si 1.0957843270 6.9248790633 15.4329271289 
Si 2.3942716419 8.0896303640 18.7423791964 
Si 1.6599347252 7.6854591703 22.5518649174 
Si 0.9260180905 7.6281509498 24.8173461338 
Si 3.9697101363 9.5015335469 1.2790313010 
Si 1.3435454553 9.4821484467 4.0460105949 
Si 4.0413046870 9.4764143667 6.8604465568 
Si 0.7864372242 10.0972425623 9.2323172916 
Si 3.4981472120 10.1914965032 13.5100685867 
Si 0.0629066049 8.5124210279 18.7958510876 
Si 3.0177225276 10.0051714815 20.0278049538 
Si 2.5814763236 9.7968223796 22.3943372510 
Si 15.8662809551 11.3238469936 27.2603376928 
Si 2.2551876206 8.8046147605 26.5355937405 
Si 0.3768251704 10.4147183752 0.1234007560 
Si 2.7351887650 10.8830884595 2.7302870163 
Si 1.3997052308 12.1846920514 1.2927945516 
Si 4.1139906676 12.2385142119 4.0532451988 
Si 0.0232472963 10.8677595694 5.4503113968 
Si 1.4641386974 12.2397685419 6.8084332551 
Si 2.8201574058 10.9156847498 8.3046543675 
Si 4.7591235435 11.5194736054 9.7479870246 
Si 1.1515547715 10.4354066754 12.9997956349 
Si 1.7421503559 11.8102663980 16.6173309773 
Si 3.3124249203 10.2797557240 15.8769801172 
Si 2.0654091189 11.9408307492 19.0198904353 
Si 0.9366880406 10.9351350100 23.6988121874 
Si 1.5711167574 11.0530583211 25.9970824959 
Si 0.0031807366 13.5459170439 2.6630693776 
Si 2.5983201838 13.5182077536 28.8572889964 
Si 2.7464614451 13.6007654744 5.4034615020 
Si 0.0220693664 13.5834329142 8.0939756997 
Si 0.5666997832 12.7643717067 12.5511335037 
Si 0.2569063343 14.1702964596 14.4329765090 
Si 2.5655609935 7.3316403671 11.5627932563 
Si 2.3459066315 13.8502794067 15.5242640036 
H 0.6862700133 14.1886878698 18.0027868028 
Si 0.0389433631 12.4089564835 20.0838731343 
Si 3.5818778128 13.6672449650 19.3968483065 
Si 0.0911953304 12.7490428166 22.4481300319 
H 1.0273598104 14.1488588194 24.9006024227 
Si 3.3487516206 12.5038294444 26.6691713672 
Si 4.0117709167 14.9542201368 1.0962554504 
Si 1.3588596844 14.9537477268 4.0149718102 
Si 4.1106186376 14.8488564158 6.8881305855 
Si 8.6292203289 13.7636003159 10.9461307861 
Si 1.8557079470 0.6644837671 12.7062690833 
Si 2.0441832487 14.7966632553 17.6350763891 
Si 3.4129342212 15.5771660325 20.7416386567 
Si 3.2458313997 14.9701354669 23.0440221876 
Si 0.9695319389 14.7049994245 23.4982561307 
Si 4.2322560687 1.3178023681 26.7803742309 
Si 8.1829883548 0.0150032693 2.5642849449 
Si 6.7111542614 1.3775361696 1.1972306845 
Si 5.4321286097 16.2671778588 5.4582169519 
Si 6.7959111322 1.3587000424 6.8112629187 
Si 8.1105955942 16.1983851881 8.1426634173 
Si 7.9428248826 2.1914611400 10.9364165800 
Si 5.5737864510 1.7461414060 13.2393835467 
Si 7.5227709388 1.0944680950 16.8653787082 
Si 5.3139120786 0.6748034822 17.5656767005 
Si 5.1807087474 0.6311625718 19.9098925784 
Si 7.0609005646 1.1119733292 22.8692248215 
H 4.1771958682 0.0016501933 23.7257377496 
Si 5.4464963898 0.5718441652 24.6313468004 
Si 3.5099248821 3.6081861630 26.8414891311 
Si 5.3648346191 2.6640829144 2.6802982368 
Si 7.6625065601 3.3032047802 0.1526396412 
Si 6.7698797119 4.0745362873 4.0255611700 
Si 8.1480137245 2.7248120349 5.4238234114 
Si 5.5127152404 2.7890923755 8.1918762271 
Si 6.9916191939 4.0221802268 9.6327001102 
Si 7.4114776578 2.1507361397 14.7720985685 
Si 7.5749803893 3.7042645839 19.7832870095 
Si 4.4236472805 2.8194406458 20.4633106077 
Si 6.3974740185 3.0825730182 21.7781123577 
H 4.5213709914 3.1186879485 23.5451643691 
H 4.0268717468 3.7102755939 23.4413711400 
Si 7.6991590604 3.8061096648 27.0149154230 
Si 8.1789810148 5.4897626302 2.7092745759 
Si 5.4369015797 5.4370807697 5.4596755414 
Si 8.3198895161 5.4709802600 8.2973905918 
Si 5.6730577119 5.4617275400 10.9797950318 
Si 5.0066826758 4.0421517670 12.8129211477 
Si 4.9672771654 4.8530842644 15.0199420969 
Si 7.0963801849 4.3223234795 15.8021544757 
Si 6.4471259390 4.9598000554 18.1543342522 
Si 4.2351231087 4.3976810202 18.6370106907 
H 5.8677720837 5.8852349638 20.7517029243 
Si 6.6434204408 4.6601455026 23.4710096788 
Si 5.8839317638 4.9433634452 0.1787055108 
Si 8.1354378444 7.7411546808 25.9084294259 
Si 5.3876406193 8.1152219542 2.6158635869 
Si 8.1629353647 8.4910159677 29.1582251827 
Si 6.8563959027 6.8236367124 1.2685761315 
Si 8.1093412642 8.1656883747 5.4648389483 
Si 6.8009121622 6.7904051121 6.9069463901 
Si 5.3104260186 8.0588259737 8.3031666062 
Si 4.3573306899 8.0081803632 12.9796087562 
Si 7.5240252688 9.2813904849 11.7282848213 
Si 4.5872314620 7.1560830354 15.1527320853 
H 6.0332784852 8.0135234833 17.5599006861 
Si 6.9011934031 7.2449286963 18.7223673484 
Si 5.5077630804 6.2232198869 22.1842420190 
Si 5.5878935911 4.9828341156 26.9854519151 
Si 6.7675013719 9.5032602869 4.0095750291 
Si 6.4265190888 9.7490763892 9.5784697525 
Si 11.4297808645 7.3023509468 12.6883284324 
Si 6.4371564589 8.3143997860 15.9465256647 
Si 6.8322867025 9.0252139425 20.3302580732 
Si 6.2102693368 8.3814982967 22.4829028057 
H 7.7329933907 10.0761144322 23.9557573143 
Si 4.6165208822 9.7021611887 23.5712439494 
Si 4.5151319213 9.0833529531 25.8663928764 
Si 5.5877306911 10.7404857982 0.1148472955 
Si 8.1462218245 10.9360961200 2.6690875179 
Si 6.9154471532 12.3501984530 1.2126129694 
Si 5.4255637396 10.8452142092 5.4575460007 
Si 6.7868376021 12.2373413319 6.8191101302 
Si 8.0520982036 10.8180587789 8.2066663247 
Si 4.8237296841 11.7090240471 12.2115738673 
Si 6.9423256535 11.0452554110 13.3150551701 
Si 5.1358949570 10.9978189306 17.1887188293 
Si 6.9369173734 10.5772437067 15.7443359878 
Si 5.2508697780 10.5297909363 19.5431740054 
Si 5.4437433798 11.8701973086 23.2345431485 
Si 7.6204620697 11.6076025062 24.1678070562 
Si 7.4669288183 11.6026666361 26.5059843735 
Si 5.1927959275 11.0611381612 27.0282177593 
Si 5.4235926496 13.6229035846 2.5806007271 
Si 8.2064459551 13.8118187163 28.8549552532 
Si 8.1479648545 13.5767377242 5.4242026447 
Si 5.4737658501 13.4679531032 8.3902443996 
Si 10.3029526842 15.5361315221 10.7762926244 
Si 1.8847204372 14.6403118339 11.5849929885 
H 4.8131086040 14.0308214783 16.3680580312 
H 7.9925908331 12.3066389926 17.8760353750 
Si 5.0745468164 13.2578121013 17.6447905952 
Si 7.2741529565 13.6288983046 18.1476830841 
Si 5.3952643393 12.4902924542 20.8700820483 
Si 7.3584211273 13.7655388259 20.4367059351 
H 6.0248239751 14.1642039995 22.7540545943 
Si 4.2928548693 13.4654607332 24.6151856287 
Si 6.8009773222 14.9493657167 4.0107419007 
Si 6.0612158354 0.6314671948 11.0488446589 
Si 6.8854083930 14.9040795163 9.7402565002 
Si 6.9230871633 14.5060822327 14.4348726754 
H 7.1786772657 15.7871441344 13.6699299963 
Si 4.4090188603 14.6344148538 14.3353968712 
Si 7.9055207823 15.1160124182 16.4954220666 
H 5.1515496471 15.5259665620 17.1456904389 
Si 7.2458083563 16.1133025174 20.8662605438 
H 6.3468609880 14.8468690358 22.9096277507 
H 7.3172074269 14.3732047015 25.0579550583 
Si 5.9718651846 14.7866611952 25.6075807549 
Si 13.7821057560 2.7125130848 29.0208843951 
Si 12.3276042227 1.3422813513 1.1608797169 
Si 9.5052313769 1.3608731284 4.0257070290 
Si 10.8666029794 0.0034864021 5.4555039754 
Si 12.2439062020 1.3526320174 6.8873721190 
Si 9.5064531269 1.1438610045 9.5329325882 
Si 10.5889073468 0.1993570218 12.8745027966 
Si 9.1211620434 2.0590071488 13.0828477212 
Si 9.3848319858 0.5235263958 20.0787388992 
Si 10.6623426675 1.0499703306 22.0388498173 
Si 9.1582217938 1.5468462861 23.7798222484 
Si 6.1228897760 14.5496416931 27.9557348244 
Si 12.6966867561 0.2962336527 26.6019595629 
Si 9.5404503573 4.1757949282 1.2834799990 
Si 10.8999323197 2.6716903444 2.5845680905 
Si 12.2289519818 4.0399200369 4.0357421248 
Si 9.5107536870 4.0476577870 6.8386260578 
Si 10.8593865093 2.6952945547 8.2919938106 
Si 11.8904946487 4.3588293699 9.7251163411 
Si 11.0090264507 3.3858113710 13.5899992915 
Si 11.8266378482 3.0057493775 15.8051299983 
Si 10.8569592993 3.3451678206 17.9494607706 
Si 8.8518068910 2.1832346900 18.5494369769 
Si 11.7884052178 3.0785656782 21.7896643866 
H 9.2138032743 3.0830128482 24.0316331402 
Si 10.7326014382 5.8316734433 29.1385050526 
Si 11.4420798146 5.6145277413 26.8656433733 
Si 10.8804657695 5.3970888194 5.4467816102 
Si 10.3917331850 5.6015771912 13.9781883019 
Si 8.0497687336 5.7318809024 14.0880200915 
Si 10.5427903564 5.6663462318 18.2804730725 
Si 9.1441472336 5.3153781786 20.2626962074 
Si 10.4215927553 4.9424512052 22.1340957119 
Si 8.8621673311 5.2156507977 23.8383700310 
Si 9.1726384439 5.5358470406 26.1710047082 
Si 13.9170521173 7.7996683613 27.2124084418 
Si 10.8306346591 8.1244583843 2.8030502122 
Si 12.2307438819 6.8335247425 1.4409230672 
Si 9.4854227368 6.7857461721 4.1556381819 
Si 12.2575572221 6.7466990417 6.8175931972 
Si 11.1427347719 8.3314879962 10.4520190060 
Si 10.6609254375 7.8160723915 8.1401546433 
Si 14.6593385541 7.2445214463 9.5885048483 
Si 11.5631796758 6.1724276665 16.0114037258 
Si 8.9715221021 7.2861586866 17.6968038969 
Si 8.5468580882 7.5288633989 15.4235921560 
Si 12.1065326307 6.8535451527 19.6140906271 
H 8.4771368875 6.6743388610 20.5777515401 
Si 11.4544113448 7.0080232241 21.8731832215 
H 8.6901612195 6.7447768217 23.2953955026 
Si 5.9152248541 7.3829701575 26.6853617107 
Si 9.6156124179 9.5761743276 1.4310717537 
Si 12.2143724317 9.5329080872 4.0584377774 
Si 9.4692630566 9.4614601465 6.8834339273 
Si 11.2626943330 10.2264222635 13.1163952798 
Si 6.6577393509 7.0955656849 12.4567044193 
Si 10.2465078337 9.1410521336 14.9951752471 
Si 9.8085023097 9.3459151755 18.4565248255 
Si 8.9747963921 10.0355686218 20.5218000468 
Si 12.0904381106 8.8526376810 18.4475107424 
Si 10.0829888122 8.9218213116 22.3487125714 
H 11.0526999411 8.1497241745 25.1109310291 
Si 8.2322004453 8.2946563059 23.6452819526 
Si 8.7071842696 9.6710961584 27.0790641894 
Si 11.4253988545 10.4497092956 0.1259182815 
Si 12.3582131330 12.3172437826 1.2486868050 
Si 9.5158361670 12.2225174318 4.0687062475 
Si 10.8531800193 10.8363361591 5.4787247203 
Si 12.2378789019 12.1614136412 6.8477276563 
Si 9.5000185769 11.9591732894 9.6767786850 
Si 10.1272813226 6.1088152159 9.7906070098 
Si 9.1750493639 10.5945273969 16.5795243374 
Si 11.3384428337 10.6745275876 23.2717663526 
Si 10.6623263775 11.0502075711 27.1422211149 
Si 10.8470061092 13.5750435642 2.6113011190 
Si 10.8679387594 13.3916507425 8.2786914744 
Si 10.7861629586 12.3819476632 14.0190579798 
Si 8.3964525168 12.9608942685 13.2206260857 
Si 10.6491151874 12.3663907131 16.3656076008 
Si 9.2630153647 12.4328539137 20.9033087172 
Si 11.1920608924 13.4103353726 19.9176814463 
Si 9.6616642484 12.3698767731 23.2120225266 
Si 10.0548722720 14.1757536096 24.7123860332 
Si 9.3617979256 13.0790130596 26.8702525161 
Si 9.6673494584 15.0282418974 1.1251705287 
Si 12.1976100216 14.9304204465 4.0384842730 
Si 9.5456305773 14.8630450059 6.8399387883 
Si 12.2270623418 14.7135679646 9.6980157482 
H 3.3301484405 2.1654134298 10.2967667393 
Si 11.4699194249 15.5567057923 14.8279042029 
Si 10.1420400628 14.6584426041 16.5769280480 
Si 10.7008522279 15.3810995907 18.7695381329 
H 9.1968128041 15.2810952798 24.0985532266 
H 5.8411053534 7.9542441727 28.1048901870 
H 6.8013031222 9.6687341084 29.0950682572 
Si 13.5864139843 0.0466718278 2.7234899892 
Si 14.9518580867 1.3837117087 4.0976738351 
Si 13.5390915338 16.1370533376 8.2448813697 
Si 1.0060981022 15.2682750496 9.4395245164 
Si 12.7686071068 3.3848013910 11.9884680169 
Si 16.0645465469 0.0527369207 13.6193461123 
Si 12.7614069267 0.8766642770 15.8479250143 
Si 15.8336683748 1.7411892459 17.2622025685 
Si 14.9107421264 1.4519765833 15.0988226172 
Si 14.2072258899 1.4155358529 18.9780289165 
Si 15.5646553123 0.2024863309 20.4553175372 
Si 14.5265587629 0.9440837006 22.4424998764 
Si 11.6691787067 15.8484434049 28.8575515425 
Si 13.2490643712 4.0787553973 27.1295605580 
Si 15.0669306478 4.0703986272 1.2811550074 
Si 13.5914150143 2.7359869750 5.4976280403 
Si 14.9388097966 4.0338764469 6.9826471853 
Si 13.6970719553 10.3149258343 12.3822871828 
Si 14.6039036836 3.4427449215 13.8070665814 
Si 12.6541698557 3.1455338688 19.5632441970 
Si 13.6473874548 2.9782192772 23.2409317705 
Si 13.2783537914 2.3827220318 25.5308881188 
Si 13.6398614747 5.3922506893 2.6728244242 
Si 13.5447604539 5.4693186800 8.3679863237 
Si 13.4460104730 4.7723510236 15.4303308395 
Si 14.6684283742 5.3274653587 17.3484052081 
Si 15.5129997219 5.4465941298 20.9760048181 
Si 13.7319977156 5.2230790378 19.4657229028 
Si 14.7978850053 5.0469026862 23.2050212969 
Si 0.2348643351 1.7001384455 25.9453317403 
Si 15.1349251084 5.6165151214 27.1144203989 
Si 13.1132220599 8.5882835585 0.1460678203 
Si 14.9344766566 6.7559517618 4.0902058568 
Si 13.5483605439 8.1364966944 5.4017987099 
Si 12.5295350646 1.0723658228 11.8382041263 
Si 9.7858266295 10.0659657621 11.2330061696 
Si 13.5745222841 6.6749090110 13.4807801095 
Si 15.5465245422 7.3975008377 16.8239839381 
Si 16.0577210369 7.7192120506 21.0415538303 
Si 13.2663969313 6.8974955731 23.3613237481 
Si 12.3182211827 7.3496408172 25.5088925891 
H 9.8096914797 7.0886424348 29.0782361343 
Si 14.9139675464 9.4894789468 1.3878566639 
Si 14.8954946862 9.4878010768 6.7201010748 
Si 0.8006746843 8.9418580118 11.2541557174 
Si 15.3941153008 10.1000118624 14.2765281989 
Si 14.2440250003 8.2520579555 15.1013022194 
Si 12.1774267114 8.4497696873 16.1523909872 
Si 14.4199407119 8.7195809597 22.4181706035 
Si 15.6243418729 9.2990814250 24.3031349904 
Si 14.3395495611 9.8664784202 26.1739218872 
Si 13.6129829745 10.9272017799 2.7077722287 
Si 14.9624791668 12.2255962418 4.0841964681 
Si 13.5929462743 10.7341001182 8.2195894277 
Si 15.3558012204 11.8197797581 9.3018628391 
Si 13.3198770018 9.2212152243 10.1264618289 
Si 15.6954477235 11.3690843240 16.3313890911 
Si 15.4168235610 10.6861423577 18.6629444120 
Si 13.1989400407 10.6567226175 21.7851427591 
Si 13.2006830707 10.6526175374 19.3533823393 
Si 12.3508174730 11.0247137208 25.4464066148 
Si 13.3894027225 14.0220900382 29.0262811762 
Si 13.5511624239 13.5459496239 5.4076914115 
Si 14.7836312552 12.3018008625 11.5153307539 
Si 12.7556565567 13.7457138957 14.0631948981 
H 3.4155569112 3.5811447628 12.3440721378 
Si 13.4201256627 14.1670221696 11.7718966475 
Si 14.6829427643 13.4099118326 15.6491484368 
Si 13.8398700966 14.1712738596 17.6873230651 
Si 12.2791251823 12.4268754837 18.0994912869 
Si 13.0301919292 14.0848879888 21.2349336267 
Si 14.0772153987 12.6309240255 22.7635645979 
Si 13.5437830539 13.0914097497 25.0825177055 
Si 14.9715038269 13.5308325037 27.1080026051 
Si 14.9324241166 14.9781501470 1.3739708918 
Si 14.8860953561 14.9012450563 6.7556614868 
Si 14.5779048433 16.2275931584 11.7493468538 
Si 12.7508835866 16.2183404383 17.9716896746 
Si 14.9175676364 14.2923900107 19.7567990241 
Si 12.5577656348 15.9483499759 22.6007860093 
Si 12.2624442221 15.0547945977 24.8027894106 
Si 14.8344071857 1.1194993092 27.5625574379 

