&CONTROL
  dt          = 30.D0,
  prefix = 'aSiHcSi_merged-7',
  pseudo_dir = './',
  outdir='./',
 wf_collect=.true.,
 verbosity ="high",
/

&SYSTEM
    ibrav= 0, nat=  388, ntyp= 2,
  ecutwfc     = 42.D0,
  nbnd=1468,
  degauss     = 0.05D0,
  occupations = "smearing",
  smearing    = "methfessel-paxton",
/
&ELECTRONS
  electron_maxstep=200,
  conv_thr    = 1.D-8,
  mixing_beta = 0.3D0,
  scf_must_converge=.false.,
/
&IONS
/
ATOMIC_SPECIES
Si  28.08  Si.pbe-hgh.UPF
H  1.00784  H.pbe-hgh.UPF

K_POINTS {automatic}
2 2 2 0 0 0

CELL_PARAMETERS angstrom
16.29000014898320 0.00000000000000 0.00000000000000
0.00000000000000 16.29000014898320 0.00000000000000
0.00000000000000 0.00000000000000 29.27583429601014

ATOMIC_POSITIONS angstrom
Si 16.2185359183 15.0275251374 27.7648499363 
Si 2.6623887543 0.0217693046 2.6661414466 
Si 1.4434634292 1.4494483753 1.2648214346 
Si 4.0700402472 1.3506136864 4.0541760850 
Si 0.0175470995 0.0086246103 5.4393621847 
Si 1.3081179630 1.3875789547 6.8628117998 
Si 2.7063065948 0.0118721684 8.1155833010 
Si 5.4419514798 0.0311974680 10.7785424644 
Si 2.9391232769 2.8895365164 10.8434762649 
Si 2.6716577644 0.9032739923 13.9215960345 
Si 0.9089852663 1.1229006613 15.4519902723 
Si 2.2132734502 0.8223876255 17.4045420406 
H 2.0257592585 1.8022278765 18.5246354608 
Si 2.3242083513 1.0653725257 21.8281791544 
Si 2.4049090120 1.3932723097 24.1984092507 
Si 0.2473001213 1.7291346458 24.9368628950 
Si 0.0550686713 2.7642827053 2.6750852140 
Si 3.4287029414 2.2412108005 0.1133200211 
Si 4.1260778477 4.0902724274 1.4498827659 
Si 1.3603469614 4.0643224572 4.0979434573 
Si 2.7094179848 2.7164552648 5.4617289221 
Si 4.0762630273 4.1053243875 6.8316330363 
Si 16.2869864990 2.7768748754 8.3418269485 
Si 1.4098115469 1.8031726965 12.1782493780 
Si 15.6111632628 10.1102582725 10.7486518376 
Si 0.6750462032 3.7385550342 13.2772934733 
Si 3.0735483581 4.0226200568 16.0010585445 
Si 0.0608511327 3.0278223277 19.1237946855 
H 3.2337279296 3.9484842661 19.4531770972 
Si 1.1110496862 2.9876674773 21.2722603370 
H 3.1976781592 3.2233023295 19.1766961181 
Si 3.1374051587 3.6507356434 24.1934030831 
Si 4.3344106596 3.6763598136 27.7465818157 
Si 0.0195281264 5.6540961517 29.0203733659 
Si 2.6823277145 5.4171255195 2.7384088435 
Si 0.0093871777 5.4191291896 5.4266271968 
Si 2.7817781654 5.5357493006 8.2143892418 
Si 2.6087946539 5.0195517759 13.9168240735 
Si 0.9992856241 4.1321540178 17.1684031612 
Si 0.1447765618 5.9858257147 22.8448703279 
Si 2.1665048598 4.8059084240 22.2816325519 
Si 0.8804826531 5.2536879480 26.7633529209 
Si 3.1094352284 4.8863647347 26.1805588876 
Si 0.0475531168 8.1031999341 2.7494926744 
Si 2.7911774955 8.1841286548 29.2617526197 
Si 1.4189681560 6.7804030520 1.3053245513 
Si 4.0713760272 6.7968070822 4.0552885667 
Si 2.7488886551 8.1654766047 5.4438706632 
Si 1.3931436187 6.7808428820 6.7638594799 
Si 0.0434560189 8.2066903051 8.0074383691 
Si 4.2081957385 6.8908981230 9.6265383849 
Si 1.4240408620 7.0463698844 14.2591756797 
H 3.6109228830 7.5894784894 14.6866906879 
Si 1.3166490360 6.3982722285 17.8468998969 
Si 3.5581269925 6.4452037189 18.6305261535 
Si 3.6691270536 6.1579295663 21.0003756639 
Si 0.2310101211 6.8203298424 25.0494284779 
Si 4.1290263378 9.6412202982 1.3047185416 
Si 1.3875773257 9.5194525471 4.0606460444 
Si 4.0860533174 9.5231340871 6.8664127275 
Si 0.2238832460 5.9713601946 10.8447351258 
Si 1.2986355539 9.5725090775 9.4463163490 
Si 1.3768829406 8.1924039749 16.3006674327 
H 2.6316332341 8.9943443923 16.5638279072 
Si 1.1614949296 9.2057723042 21.3800539589 
Si 3.1585495789 8.2125547051 22.0151346323 
Si 3.4474527315 8.2216771052 24.3925958596 
H 0.6036471325 9.9375191109 22.5678331079 
Si 1.4065225959 8.7639712102 25.6452502575 
Si 0.8743885640 8.8041097705 27.9931428922 
Si 16.2573224087 10.6658775975 29.2597033113 
Si 2.6915478546 10.9314534700 2.6369680777 
Si 1.3312513922 12.2770726423 1.1219641460 
Si 4.0625468472 12.2188358917 4.0650081437 
Si 0.0229061837 10.8746502395 5.4194838932 
Si 1.3652909765 12.2305321119 6.8450999201 
Si 14.7753396451 15.7139694537 12.6269015385 
Si 2.7866977455 10.9576477902 8.2654170210 
Si 4.3531930298 12.1424357911 9.6471485722 
Si 2.1201272294 11.4202675044 13.2259436599 
Si 11.2386014228 11.2029100325 10.7408644657 
Si 3.8713999854 10.7682113785 14.6787862127 
Si 3.9950410865 11.7406592274 16.8670084471 
Si 0.2174063420 11.3710228340 18.3099264921 
Si 1.9765308781 10.7282520081 19.7838476456 
Si 4.0398711669 10.2884057141 18.6915955438 
H 2.5272632031 10.9353142000 23.4666890483 
H 2.0637638289 11.1093076916 24.0483120483 
Si 0.2033904259 10.8490586492 25.8195878507 
Si 0.0339007935 13.5763141842 2.6807237397 
Si 8.2370711553 2.7614482453 29.0575829513 
Si 2.7147285248 13.5857949643 5.4501064159 
Si 16.0757377770 13.3893538525 8.1363398675 
Si 14.8215055056 12.0358177401 9.6376046502 
Si 1.6598695652 13.6528283149 13.6851058450 
Si 0.6009527665 13.5757766142 17.4834696899 
Si 2.9511941670 13.6814987151 17.6413542643 
Si 2.9820474273 12.3401312329 21.2601694174 
Si 3.6641911835 14.1893557598 19.8880403398 
Si 1.2973193219 13.5574177840 22.4707837172 
H 3.9723816963 12.6761124859 24.2193707481 
H 3.8181642649 12.6192766754 24.9731649295 
Si 1.8161558266 12.5295839346 26.3439765946 
Si 5.6812678720 10.9220378499 29.2558096254 
Si 1.3793459886 14.9321634766 4.0641298686 
Si 4.0705126572 14.9409112066 6.7994296186 
Si 4.0705941072 1.3930116697 9.4258232649 
Si 3.5101203621 15.0140370173 14.0826716747 
H 1.9153782175 15.7764578943 18.0226427301 
Si 0.0034213073 15.0557231277 19.2842555333 
Si 1.7794870363 15.2561227095 20.8931090070 
Si 3.2717487899 15.7040162636 25.2833131181 
Si 1.4172397870 14.2679061405 24.7877317951 
Si 5.0571979663 0.4767105644 29.0386414865 
Si 6.6696310510 0.6208298247 27.2505906311 
Si 8.1124526542 16.2568011287 2.6181378611 
Si 6.8030135722 1.4242119070 1.2494428388 
Si 5.4350282297 0.0093864936 5.4434315257 
Si 6.8079331523 1.3445228553 6.8498133294 
Si 8.2185005552 16.2415862685 8.2127205192 
Si 6.7653022219 1.2131554071 12.3376855715 
Si 6.8684667928 0.3548678792 16.2354701497 
Si 4.6382354524 0.7283177617 17.0854647227 
Si 5.6016423512 1.4113460649 19.2438256061 
Si 4.5140079113 1.6311177149 21.3080061307 
Si 7.5227057788 0.3833542025 20.1743287234 
Si 7.9763497029 1.1937605329 22.4638746203 
Si 5.7844324429 1.0183677303 23.1870755550 
Si 8.9990684923 0.9754354349 27.6687080965 
Si 5.5003837103 2.7175141149 2.7361955905 
Si 9.9149411707 15.2153162592 28.5246749396 
Si 6.8146935023 4.0856623574 4.1052624158 
Si 8.1659164347 2.6898048246 5.4451587999 
Si 5.5049286203 2.7777382454 8.2025618047 
Si 6.9671190337 3.9575252162 9.7117896144 
Si 5.6785474419 2.8717641263 13.5764046723 
Si 7.3430433672 3.9431574361 14.8236137649 
Si 7.5748989393 2.5979129338 16.7169405205 
Si 4.1822946382 2.1453441496 15.2137142569 
Si 6.2711450674 3.4965182120 18.4672841014 
H 4.5255249414 3.1395391487 21.4713360102 
Si 5.3876731993 3.0200682876 24.3115603503 
Si 6.1431056662 2.8128594857 26.5244913889 
Si 6.7908449421 6.7966441822 1.3112470526 
Si 8.1387610044 5.4197319196 2.6765812091 
Si 5.4190640296 5.4492168198 5.4365517046 
Si 8.0941752740 5.3415399189 8.1407312427 
Si 14.3805352015 1.8505928869 9.5079712560 
Si 6.5038314295 5.7839763229 15.9439121160 
Si 4.7779710737 4.9354139251 17.2904541144 
Si 7.4255522179 5.0427161561 19.8026427312 
Si 5.9549072945 5.8892911739 21.4552343013 
Si 6.6392339107 4.7411230934 23.3807937505 
Si 6.7852248921 6.0426452353 25.3232160802 
Si 9.2663548147 6.4663807191 27.9390704262 
Si 5.4148774995 8.1594167246 2.6746050903 
Si 8.0856393139 8.1566148446 29.1276692986 
Si 5.3125925886 5.4951546203 29.1935106500 
Si 8.1393311544 8.1392822844 5.4352635679 
Si 6.7633800019 6.8089594223 6.8270074545 
Si 5.5406200107 8.2685271456 8.2738191854 
Si 5.6865621220 5.5213163605 10.9918169173 
Si 6.6042429904 7.5384093389 14.3519800744 
Si 7.8538163218 6.2956452276 17.8269630537 
Si 6.7020318613 8.1063927741 21.8448956558 
Si 4.5554659617 6.7077333613 25.8240085017 
Si 4.6993066630 7.5202134088 28.0052338117 
Si 6.7919200821 9.5021525669 4.0454518864 
Si 6.9584364636 9.5560073074 9.7853012343 
Si 8.1122408842 9.8122978797 16.3805026328 
Si 6.9565956936 8.4403866472 17.9449153901 
Si 4.6536946626 8.3093335960 17.6226762820 
Si 4.6408581424 8.5613398983 15.2105817427 
Si 7.3957578076 9.3592403956 20.0079248813 
H 4.1171672177 9.2508956046 21.4201325760 
Si 5.6966782121 9.7153723789 23.3624085266 
H 4.3259072796 9.5423562873 24.5090844043 
Si 7.1097705650 9.8697852903 25.2923593509 
Si 6.4559225390 9.2927446150 27.7203213924 
Si 1.8811366372 13.7033924753 28.4059028799 
Si 8.1824182048 10.8621395193 2.6652983026 
Si 7.0729062947 12.4480524838 1.3245646296 
Si 5.4257266396 10.8505899092 5.4365809804 
Si 6.7993483222 12.2149100017 6.7918764533 
Si 8.1677897847 10.8578715393 8.2022983222 
H 4.4924236611 15.4646021314 11.5854430093 
Si 5.7644446127 11.5318377155 13.5564385533 
Si 7.3091927468 11.7780447777 15.3400980336 
Si 5.8926794939 11.1304032418 19.9412052549 
Si 5.1051068567 11.6728928268 22.0830252920 
Si 15.9107689455 0.5202846858 0.0640233220 
Si 5.4984126203 13.5085314935 2.7037140523 
Si 3.5878562428 15.2905597698 27.6869176654 
Si 8.1441855745 13.5740987441 5.4068952845 
Si 5.4387097697 13.5789694542 8.1467035129 
Si 7.6966504004 13.1829269706 10.9764763801 
Si 5.9643066245 13.0441850393 16.7956339631 
Si 6.8070860723 13.0584713694 18.9717652780 
Si 6.2080864768 13.7000693153 22.6023493166 
H 3.3805008309 15.5165020719 1.6042103264 
H 4.6468039925 14.2490260303 1.7135731330 
Si 6.7701240619 14.9579505468 4.0573085992 
Si 6.8057177122 14.8705709860 9.5462054956 
Si 4.2456953188 4.2380064388 12.3106054248 
Si 7.7687988111 16.2514417186 14.0757918537 
Si 4.4749444909 14.8167488255 16.2274485711 
H 7.4870143885 15.6820247634 17.2460426738 
Si 6.0380351652 14.6897845643 20.4458328107 
Si 5.4007377794 15.2586802396 24.2538576809 
Si 6.9914237139 15.0288934974 25.9058344585 
Si 12.0511466302 16.1521378777 28.8388046416 
Si 12.4175087336 1.4497008703 1.2683491726 
Si 9.5095970970 1.3286058962 4.0221190464 
Si 10.8507202292 16.2860090989 5.4289107119 
Si 12.2036373216 1.3529333824 6.7850259081 
Si 8.4219463670 2.4366419323 11.1548540385 
Si 9.7105016688 1.2213460192 9.6152379128 
Si 9.7724525394 1.1353494794 14.7861699729 
Si 9.4671290666 0.5044084516 18.7349823302 
Si 11.2681677731 1.3235641411 20.0050265737 
Si 11.2479844629 0.2024732989 22.1032548935 
Si 9.7262703890 0.3904794486 23.8846601346 
Si 10.3996501251 1.6885399654 25.8138205113 
Si 9.5243069671 4.0576598471 1.2921094397 
Si 10.8851247096 2.6914501146 2.6372725464 
Si 12.2275510418 4.0647948672 4.0345905518 
Si 9.5528796274 4.0601522171 6.8049334754 
Si 10.9369920700 2.7355145650 8.2425233185 
Si 12.8022948271 3.6862315537 9.4429789038 
Si 10.1431803628 2.7264084549 13.0316399477 
Si 9.7954865996 2.1036743292 16.9856341277 
Si 11.0331682309 4.0330782369 17.7516070562 
Si 11.2128795125 3.6249811532 20.0730928884 
Si 8.5349826781 3.4318794914 23.0189151628 
Si 9.5494424373 3.8191579549 25.1924702042 
Si 7.9138286824 4.5089905912 26.8626858267 
Si 10.8717506194 5.4350282297 5.4077150078 
Si 7.3911151576 6.4758777892 12.3678396809 
Si 9.1132613933 4.8536707044 13.5846604575 
Si 9.3482283555 4.5274145814 21.1456423537 
Si 10.9911074505 5.6570609317 24.6770691415 
Si 10.8280445490 8.1765212248 2.6679009242 
Si 12.1789579714 6.7933047321 1.3167362715 
Si 9.4920690568 6.7914313821 4.0480281598 
Si 12.2062111416 6.7830094520 6.7969118968 
Si 9.3930747259 6.7946079321 9.3660127355 
Si 10.8107282789 8.1261688343 8.1277327723 
Si 6.0483956053 11.3634479839 11.1819927369 
Si 10.0832657422 6.5887837803 14.9725399340 
Si 10.1128158025 6.1537430363 17.3339872800 
Si 11.0146302107 7.6148583096 19.0190164746 
Si 12.0715254204 6.8208999924 21.0229473321 
Si 8.7792838103 7.9057977123 22.8207470404 
Si 8.2533122855 7.8470722618 25.0593529857 
Si 10.3190797844 6.2328472770 22.4326080293 
Si 10.3205133044 7.4730212783 26.0926142813 
Si 9.5350583672 9.5426006373 1.1869067292 
Si 12.2015359116 9.5029507769 4.0622854911 
Si 9.4900653868 9.5213910571 6.7828009447 
Si 13.2949044316 13.8700880469 12.8636552105 
Si 12.1869726515 9.4850317767 9.4397292862 
Si 8.7290780298 8.4938341377 14.5555642261 
Si 9.6953845487 9.4906518268 19.5936718260 
Si 10.0654607721 9.8099846997 23.0182710944 
H 11.2108106825 9.2059840742 23.8187602316 
Si 11.7169735672 9.4646041166 25.9445078356 
Si 10.9211256099 10.9230966999 29.0389342449 
Si 12.1730447013 12.3026805225 1.2755920140 
Si 9.5138162070 12.1955086115 4.0803486808 
Si 10.8615856593 10.8602824593 5.4359954638 
Si 12.1814340514 12.2428473520 6.7950675193 
Si 13.8030384062 8.3748682666 10.7065531879 
Si 1.2048947480 7.8968870822 12.1052354472 
H 10.0448539219 11.6953241570 13.9113787683 
H 10.8228806190 10.5624035166 12.0715389619 
Si 12.9736004687 12.9195339582 10.7717504709 
Si 11.8550476084 10.4565510956 16.5911715364 
Si 9.7579544392 10.8463545092 17.6889274950 
H 11.9678069895 12.0322176500 19.0922938878 
Si 10.9480692701 10.7470995383 21.1022848431 
Si 8.8893553413 11.2280455027 24.4873324594 
H 11.7569655175 11.6234526763 24.0706495098 
Si 10.2054244533 11.3611673839 26.5897179477 
Si 10.7864561786 13.5628912240 2.6834288267 
Si 10.7839149386 13.5699610841 8.1799023090 
Si 8.5620077883 14.2686391905 12.9750497600 
Si 9.2801361549 12.7992485971 14.6201174408 
Si 10.8552488493 13.9870828279 15.9482449394 
Si 9.1236218334 12.8460171875 18.9328576942 
Si 9.9386594109 12.8625352476 21.1835838349 
Si 8.4930359277 13.1621409304 23.1267966121 
Si 10.4262679854 13.7721688560 26.6316702182 
Si 8.9947516423 14.4197126519 1.3448117966 
Si 12.1763352814 14.9369364466 4.0506629849 
Si 9.5036838269 14.9155313864 6.7752185036 
Si 12.2915381624 14.8220593656 9.4553918576 
Si 11.4000353243 0.0699547992 10.9500110259 
Si 11.0107206107 14.8711085560 12.7569447945 
Si 11.5143096753 15.9092865555 14.8291761735 
Si 10.2219913835 14.6761009642 18.0626042440 
Si 11.7457905774 14.3665258014 21.3208582219 
Si 9.0832389231 14.6566181240 24.8628243101 
Si 13.5515208039 0.0759469129 2.8039574365 
Si 14.9615343468 1.3939809247 4.0840959876 
Si 13.6018894844 0.0389523226 8.1592628458 
Si 1.4259842590 4.2421766788 9.6245476282 
Si 15.1813516088 5.0618406163 12.4886903248 
Si 0.2342616051 10.0456032619 12.8826259511 
Si 13.3745625323 0.5795656253 16.0036055421 
Si 13.0780356596 0.6239249247 18.4581500411 
Si 14.9871259371 0.7457382878 21.7656459724 
Si 15.2215390392 0.9008076862 19.3788457539 
Si 13.1614404604 0.7856667072 23.2344145790 
Si 12.5870387651 1.2589026145 26.8037242964 
Si 13.5951942943 8.2098342751 0.1024996728 
Si 15.0752222579 4.1812032082 1.2504147965 
Si 13.5888249043 2.7273532749 5.4425239748 
Si 14.9973886372 4.0577250071 6.8013032720 
Si 12.5815816151 2.7733888154 13.1189112097 
Si 13.7282998856 2.8049751257 15.3095633384 
Si 16.0858212871 3.2044385093 15.3555263983 
Si 15.7405710240 2.6332948141 22.8764882289 
H 12.9294056982 2.2598791407 23.5762977719 
Si 16.1734940679 3.1495900788 26.7598398208 
Si 13.8463372266 3.3249356404 26.9798769913 
Si 13.5834817842 5.4292289897 2.6503149306 
Si 13.6287354046 5.4271112896 8.1035802090 
Si 12.9922036488 4.5572415717 11.6754661998 
Si 13.4959556134 1.1166648492 11.6244091447 
Si 13.2595062613 4.3708188100 17.0072689692 
Si 14.5961333535 4.5998887921 19.0160888911 
Si 13.1421042302 4.7395592533 20.8425496412 
Si 14.4532211822 4.5871337220 22.8810845349 
Si 13.2814000215 5.0691222464 24.9392342376 
Si 12.7763448568 9.8836969504 27.9896297920 
Si 14.9257777965 6.7664099419 4.0744056865 
Si 13.5672080741 8.1394451844 5.4269199551 
Si 12.4915793642 6.8303156125 12.0203648036 
Si 14.9784433670 6.8879333430 9.3480666491 
Si 15.3839503407 6.5822514902 14.2700370142 
H 14.9133485264 7.9540975627 13.7954171886 
Si 12.2350444419 7.2525198363 14.3386302940 
Si 8.4084256669 8.0925462740 10.9828292361 
Si 13.7669723459 6.4450571089 15.9536609688 
Si 14.4968458026 8.0231671634 17.5548148981 
Si 15.6410717030 6.7030744213 19.0918840261 
Si 15.7669771142 7.6042535195 21.2600523141 
Si 14.2947357707 7.1594713555 25.5363734297 
Si 10.8580181493 5.4165553695 29.2553412120 
Si 14.9399175166 9.4927532368 1.5004274938 
Si 14.9113937264 9.5438549673 6.7385358832 
Si 12.5879021351 9.5573105074 14.5411019640 
Si 15.8928010754 9.6794040585 16.6697478757 
Si 12.6561409457 9.1031941733 18.3423055648 
Si 13.1351646901 10.0964117723 20.4262180017 
Si 13.6109793045 8.3758619566 21.9250236143 
Si 13.5559028140 9.0695553229 24.2557020584 
Si 15.1338499684 7.3689933374 27.8595279844 
Si 13.5347746838 10.9148376698 2.7168998881 
Si 14.9306485066 12.2441179720 4.0737030665 
Si 13.5188104836 10.8457843592 8.0949731137 
Si 9.4367807963 12.2364942519 9.6187802888 
Si 14.8546393659 10.3137529543 14.5837861304 
Si 14.8050851854 11.6457862665 19.9146520732 
Si 14.9534707968 11.0334614509 24.0509175975 
Si 14.7872965052 11.1995380024 27.5246124401 
Si 13.3033426517 14.1599523095 0.2802080856 
Si 13.5502176039 13.6047728144 5.4303452277 
Si 2.9702371772 8.5952719686 10.7799477045 
Si 14.3307529611 12.6110502253 14.6433917290 
Si 16.1828771080 13.9351177274 15.2403552661 
Si 12.7343166565 12.6066682153 16.3480357326 
Si 13.2105873908 12.8013988771 18.6133705146 
Si 15.5035352318 12.3918356933 22.0651377572 
Si 13.0299638692 12.4128172135 24.3647838170 
Si 13.6233597046 13.6919731852 22.5250611140 
Si 12.6974523861 14.0187180082 26.0210934182 
Si 14.3413903312 13.4986434635 27.6170655248 
Si 15.0220354074 15.1538703786 1.5129107096 
Si 14.9334666766 14.9473783367 6.8042308554 
Si 15.3629525305 16.0810808971 14.8915629763 
Si 12.3054335325 14.8200068255 19.1124063860 
H 15.2390019194 14.2555583204 20.0175273549 
H 14.0727356487 14.9413510366 23.2255732771 
Si 13.6087149945 16.0459107868 25.3105103681 
H 16.0066355964 15.9851490862 22.1956787024 
Si 15.9738438261 15.8013653045 25.5408526324 
Si 14.2197366100 2.3980835019 29.2514182502 

