&CONTROL
  dt          = 30.D0,
  prefix = 'aSiHcSi_merged-4',
  pseudo_dir = './',
  outdir='./',
 wf_collect=.true.,
 verbosity ="high",
/

&SYSTEM
    ibrav= 0, nat=  388, ntyp= 2,
  ecutwfc     = 42.D0,
  nbnd=1468,
  degauss     = 0.05D0,
  occupations = "smearing",
  smearing    = "methfessel-paxton",
/
&ELECTRONS
  electron_maxstep=200,
  conv_thr    = 1.D-8,
  mixing_beta = 0.3D0,
  scf_must_converge=.false.,
/
&IONS
/
ATOMIC_SPECIES
Si  28.08  Si.pbe-hgh.UPF
H  1.00784  H.pbe-hgh.UPF

K_POINTS {automatic}
2 2 2 0 0 0

CELL_PARAMETERS angstrom
16.29000014898320 0.00000000000000 0.00000000000000
0.00000000000000 16.29000014898320 0.00000000000000
0.00000000000000 0.00000000000000 29.33687292656838

ATOMIC_POSITIONS angstrom
Si 15.8345643248 1.0712027168 28.0076778880 
Si 2.8215094758 16.2337996485 2.7657043583 
Si 1.3379791622 1.2183828681 1.5422452771 
Si 4.0999649775 1.3594298344 4.1110346769 
Si 16.2601568687 16.2517186486 5.4327488129 
Si 1.3051873919 1.3976087078 6.7332817266 
Si 2.6916130146 0.0799495288 8.0483950662 
Si 1.0876197789 15.1652082187 9.2795169385 
Si 1.0910976940 0.9651124618 12.0525261782 
Si 16.2598799387 1.5487489582 16.5417718209 
Si 2.2992520710 1.1260234543 16.6959664250 
Si 0.0298484931 0.5231826768 20.5366911548 
H 1.1359961924 1.5445379931 20.6128496769 
Si 0.1698672346 16.2245795084 24.2756169355 
Si 2.0622162789 1.2552960085 24.8016857409 
Si 3.7334073941 1.5618640373 28.1426275035 
Si 16.2608247587 2.6583814143 2.7867271614 
Si 13.8633114068 14.1658167096 27.1405972718 
Si 4.0535384771 4.0393010169 1.4312462847 
Si 1.3794355836 4.0676781972 4.0785880955 
Si 2.7625885453 2.7511203852 5.4773701966 
Si 4.2272876187 4.0338438669 6.9115325665 
Si 0.0477806881 2.5489777733 8.3856517573 
Si 1.8822932272 3.5593650326 9.5465411559 
Si 0.8418997877 2.9117072066 13.3045359041 
Si 2.5323456832 2.7099881348 14.9833677942 
H 1.9002285174 2.3460858215 19.0252554616 
Si 3.2976824702 3.4588557316 21.8509537250 
Si 2.2538029706 3.6416132433 19.6978912841 
Si 1.7555081561 3.3314842205 23.6600706678 
H 3.6114930330 3.6289722032 25.0951131439 
H 0.4274561199 2.9802881073 23.0276263612 
Si 0.5136237047 4.2807188192 26.9605275458 
Si 2.7613993753 5.4500476098 2.7454443138 
Si 16.2437854186 5.3688419591 5.4248278572 
Si 2.7401409251 5.3481536589 8.1868357695 
Si 3.3180449703 0.3764358394 11.4161800675 
Si 1.4559806653 4.5807154619 11.6917706518 
Si 2.3687615017 4.6826745728 16.3671880901 
Si 0.3513443522 5.4605546599 17.3223966726 
Si 3.9873196265 4.1074095076 18.0246333998 
Si 0.1670246295 4.7036235130 19.5662567352 
Si 1.0961818030 5.3414910489 24.8375060627 
Si 1.5304894970 2.0398175287 27.0395317446 
Si 0.0033947872 8.0606667437 2.5336438261 
Si 4.9424186252 7.4310745280 28.3535889567 
Si 1.4500152673 6.6286128306 1.1798380848 
Si 4.1127200476 6.8098879523 4.0974517048 
Si 2.6797864745 8.1223081043 5.4375600601 
Si 1.3242059671 6.6772221911 6.7908113344 
Si 0.0463769788 8.1026460741 8.1666226641 
Si 3.6795852337 7.2252503761 9.3333794372 
Si 3.7162377340 4.9965828757 12.5128510513 
H 3.3742454709 6.0052596849 13.7914399840 
Si 3.0091865675 6.6527709008 15.3016141917 
Si 0.8388812507 7.6479107199 18.0133973775 
Si 2.5415169532 6.7913336421 21.1460180055 
Si 0.2047946239 6.3789685783 21.2417148850 
H 2.5151271530 6.4816118693 19.6667941988 
Si 2.5954531437 7.1842158657 25.1874656198 
Si 0.7291404067 4.6803776828 29.3301254458 
Si 3.8622124253 9.5189475571 1.2600362943 
Si 1.2990639809 9.4366341863 4.0190929172 
Si 4.0742104873 9.5310510272 6.7140074011 
Si 1.0669493978 8.8248469407 11.5454970034 
Si 4.9136830649 6.4791194993 11.1845654558 
Si 2.2389302005 9.9032938206 13.3241035983 
Si 1.3530702184 8.0436111136 14.4296636545 
Si 0.2334405891 8.9346089617 16.2395140191 
Si 3.0264865477 8.4751006375 18.5021203436 
Si 2.8750384163 9.1340800135 21.0717957170 
Si 0.6640309051 9.9836198113 20.9477594182 
Si 3.1307588386 8.8835072312 23.5191363302 
Si 13.0026781189 8.5066380778 0.0279744392 
Si 15.6809007534 11.3264371036 0.0380393629 
Si 2.6006333638 10.8670265194 2.6777612143 
Si 1.2110947221 12.2398662819 1.3084127978 
Si 4.0502316070 12.2263781618 3.9987624643 
Si 0.0444251110 10.8329152591 5.4593866935 
Si 1.4002525748 12.1453517011 6.9015580297 
Si 2.8198967658 10.7950410087 8.2669547695 
Si 4.6718091427 11.7361794773 9.4017343511 
Si 0.7420925858 11.7443407674 13.4317112482 
Si 1.3518012274 10.8128785589 17.0762016350 
Si 0.1303307526 12.2097297817 15.7001262735 
Si 3.6080232630 10.2543270338 16.8868614571 
Si 1.2279108892 11.5418071956 19.2925437108 
Si 3.5119774221 11.2752213431 20.0745180587 
Si 1.9184733175 10.7169793280 24.2509446254 
Si 1.8126046066 10.6721492476 26.6081330282 
Si 16.2858787789 13.5505759839 2.8300518554 
Si 2.2307526204 13.9070500572 29.3173052323 
Si 2.7372738850 13.5344488838 5.4997835675 
Si 16.2241722584 13.4158088127 8.2497926988 
Si 1.4419354272 13.9059260472 12.8477021188 
Si 0.3463237742 14.2351632402 16.8021659050 
Si 0.0638857968 13.5837424242 19.1587969072 
Si 3.9140472058 13.0164431690 21.5892981554 
Si 2.6857811946 12.8404622974 23.6134543767 
Si 5.8181853232 9.6067995279 27.6157079288 
Si 4.0228155368 14.8870890462 1.2063938222 
Si 1.4020509908 14.9077121863 4.1247349966 
Si 4.1185844477 14.9178282764 6.8347286332 
Si 2.6466363242 14.4458418121 10.9353780571 
Si 3.2824187400 14.4025429917 14.2495059179 
Si 2.4833616527 15.0803861879 16.3565388052 
Si 4.0223594168 14.3139579709 17.8891557207 
Si 1.1349910994 14.8190782955 20.7911005168 
Si 3.4088780112 14.8287382656 20.1499138221 
Si 3.8446518052 0.0276089439 23.6940134298 
Si 0.8107451624 14.2032511299 23.1357327380 
H 3.0347455778 15.4409164712 22.7353137594 
Si 3.2161998894 12.3323609028 27.7380133521 
Si 5.3185547286 16.2313887284 29.0719316272 
Si 8.1087059542 16.1638666778 2.6555444004 
Si 6.7301646916 1.2161397351 1.2797594740 
Si 5.4516440299 16.2883874390 5.4665448905 
Si 6.7844266820 1.3339864832 6.8887671531 
Si 8.2743100957 0.0366094947 8.1930551866 
Si 7.5584623291 3.2963466901 9.9492484106 
Si 4.6888647729 1.7943760964 14.5289396325 
Si 5.9146709941 1.2486904134 16.4633543596 
Si 4.2330054087 1.7698270662 18.0474281501 
Si 4.6668895627 0.5212653438 20.0873089353 
Si 4.7531125335 1.6025760057 22.1607217663 
H 5.2563432181 1.4791352715 24.9557336606 
H 5.2888091884 1.5032151497 25.7414337913 
Si 8.1364804044 0.7281744097 26.5787668184 
Si 5.4512204899 2.6716251844 2.6831885358 
Si 8.5760497684 2.2706957008 0.2539666686 
Si 6.7782201920 4.0660654872 4.0624821523 
Si 8.1336296544 2.6817412745 5.4162614903 
Si 5.5720760010 2.6631706744 8.4715794581 
Si 3.6008067929 1.7524782160 9.5036799846 
Si 7.5351187589 3.7186812340 12.4976545511 
Si 5.4622162400 3.8028353748 13.6886142444 
Si 8.1261036743 2.1184004894 16.3148217719 
Si 6.8524048527 2.4190813121 22.8352938223 
Si 2.7582716952 7.9810249330 29.1022366169 
Si 5.3782087092 3.1817465391 27.7471371196 
Si 1.5412832511 8.3437380763 26.9854052140 
Si 8.0381376735 5.4595772599 2.6556969522 
Si 5.4870910702 5.4362499797 5.4983460608 
Si 8.2713453156 5.1963308575 8.4657414204 
Si 8.0914059740 5.9710506846 13.1110592271 
Si 5.6675679818 4.7234973132 15.9685586608 
Si 7.7819122612 4.3609307799 16.9111817248 
Si 7.6633862201 4.6442790425 19.3141356493 
Si 4.4608699308 5.4973700603 21.6399042612 
Si 5.3894976793 5.3357569688 19.4737869118 
Si 6.2800394074 6.0806335156 23.0467833393 
Si 6.6846667211 4.2040417884 24.3501619296 
Si 4.8351489742 4.2279229287 25.7654313534 
Si 5.3866306393 8.1711618147 2.6019958063 
Si 10.1700751530 5.9706597246 29.2164744001 
Si 6.6014574004 6.7746038120 1.0982258380 
Si 8.1647272647 8.1242791943 5.5809880318 
Si 6.8796743129 6.6897654912 7.0071707723 
Si 5.4384979997 8.2274600552 8.1261964532 
Si 1.9277911976 8.9011004314 9.3855110604 
Si 6.4693454992 7.6637608901 12.5222975243 
Si 5.1822074274 7.0200615342 16.0612925161 
Si 5.0837506665 7.3738314674 18.3857996424 
Si 6.2697929973 7.4607711982 24.9166569458 
Si 4.6000842721 6.4890075293 26.2264896483 
Si 6.8014823122 9.4306883363 4.0651518077 
Si 6.3962359785 10.0427850918 9.3885620952 
Si 6.8291101525 9.8586918002 11.6952324028 
Si 5.8297186433 8.6557078692 14.5370366094 
Si 7.6825269703 9.9302211908 15.1206350226 
Si 6.4252810488 9.1115183633 19.0995364239 
H 6.6045036304 9.4777664367 20.7966158489 
Si 5.3511673089 9.3610485856 23.9257160521 
Si 4.9197592350 11.0958847315 29.1679512123 
Si 8.0671664538 10.8572525193 2.6637205869 
Si 6.6645159910 12.1489843711 1.1649290860 
Si 5.4378138197 10.8560959293 5.3402789894 
Si 6.8644920328 12.1779642814 6.6787738167 
Si 8.2212861452 10.9883218605 8.2428691968 
Si 4.1825389883 10.3365589545 14.5743531118 
H 7.0676772046 10.9034183797 16.1086715659 
Si 5.2489312680 11.0184746508 18.3980624553 
Si 6.6249638706 10.3476198646 22.2551864971 
Si 7.6261472797 11.8380245583 25.1569552720 
Si 5.4966695903 10.9323168400 25.6226487928 
Si 8.5485033782 7.7466444108 0.1683584464 
Si 5.4213446296 13.5704823641 2.5958673335 
Si 8.0581580837 13.5228666937 26.8765654155 
Si 8.1925342949 13.5921806443 5.3804411685 
Si 5.5648595309 13.5049151135 8.0853888629 
Si 4.4685588109 12.9424865684 11.4072616581 
Si 4.6954948029 12.5368981447 13.8428381854 
Si 6.9619225237 13.1346759901 14.2500926554 
Si 6.5338864798 13.9979645480 11.2610760204 
Si 7.6739258502 13.8322137965 16.4233388649 
H 4.1983402884 12.8263714473 17.6305805227 
Si 7.2208520760 12.2663538222 18.1036669355 
Si 7.2405466862 13.4946198334 20.0755741861 
Si 6.1425680962 12.6093886453 21.9065177623 
Si 6.9559278036 13.6915007752 23.8043200720 
Si 4.0578390371 12.9049706980 25.5655299012 
Si 6.7509018617 14.8979707663 4.0645944071 
Si 7.4443182981 14.3813171215 9.2274146522 
Si 4.6332995824 16.1449865677 13.2901314994 
Si 6.8117938823 15.2202521292 13.1499012469 
Si 6.0754370056 15.3477213804 17.2568580985 
Si 6.6767986511 15.7325237639 19.5129223003 
Si 5.2716721082 14.8427965357 25.0264061875 
Si 6.4892355893 15.3851558007 27.0348085080 
Si 10.3166851544 0.5836674473 0.1752273818 
Si 12.3023873025 1.4808831885 1.1446045004 
Si 9.5147610270 1.3591854844 3.9601258026 
Si 10.9066600897 0.0421081843 5.3784169242 
Si 12.2940468224 1.3338186962 6.8413881033 
Si 9.4175260161 1.5445884921 9.6270415352 
H 5.9425106043 5.6036297312 10.4729409292 
Si 9.5584019374 0.8381319107 17.8058096647 
Si 8.5713256684 0.7202525826 20.0052537017 
Si 8.1671870547 1.1417090954 24.2867649472 
H 14.1835890997 5.8479308635 27.7845122957 
Si 9.4851946767 4.1590813880 1.3088557846 
Si 10.9572242502 2.8046819057 2.6375579636 
Si 12.2720716122 4.1077353076 4.0796442229 
Si 9.4906518268 4.0420540270 6.7813355245 
Si 10.8684926194 2.7033906847 8.1362590006 
Si 11.9102381289 4.4551847207 9.3288908957 
Si 12.9175302881 3.6200941531 11.2665913525 
Si 11.1399654719 3.1554218989 14.5484486530 
Si 8.9323772317 2.3026729711 14.0198275398 
Si 11.4055902143 3.9040614357 16.8031046849 
Si 11.5039818152 2.1065739493 18.4159872847 
Si 11.8063242180 2.2135178002 20.9012604746 
Si 8.3071181560 2.9453623469 20.9733411714 
Si 10.3323398445 3.5558626825 22.1980676055 
Si 9.9048087906 2.7207721149 24.3758903672 
Si 11.7344201573 2.1894086000 25.6907103380 
Si 7.6745448702 2.7922200555 27.5164906246 
Si 10.8604127793 5.4442809498 5.4409631373 
Si 11.6190543763 4.7270322432 12.8545962840 
Si 8.6997234496 6.0094787950 15.4372385552 
H 10.1497615228 4.5802919219 17.2663632453 
H 10.1442717928 5.5849776811 15.2234607622 
H 11.9415475092 5.1637508572 19.0728105326 
Si 11.7388347474 5.5653971009 22.2394032594 
H 9.0647660629 5.4182169496 22.8058396019 
Si 9.8107666197 6.0437366653 26.7494487451 
Si 8.6237468889 4.1660535081 25.7941228151 
Si 10.8570570393 8.1305834244 2.8164659495 
Si 12.0128651299 6.7812990020 1.2575778644 
Si 9.4407392663 6.7855344021 4.0978037473 
Si 12.2547064721 6.8202321024 6.7916914406 
Si 10.1656768530 6.1578969863 9.6168323034 
Si 11.0216349108 8.0483515036 8.3972104853 
Si 10.1383585227 6.3970178985 12.0406447446 
Si 11.3623402639 6.1968137967 20.0042562480 
Si 8.9982051223 6.4902944394 19.9072685461 
Si 8.3725876666 6.6361876807 22.1884744480 
Si 11.5706079158 7.5197898688 23.5783674767 
Si 11.9488454293 6.4483476890 25.7643165522 
Si 8.4870574976 7.7983651613 25.7670448814 
Si 9.5401245573 9.4890716968 1.4250268677 
Si 12.2232179018 9.5208860671 4.1289301694 
Si 9.5782594476 9.4661679566 7.0054398968 
Si 12.8609551176 8.9481459518 9.6961298710 
H 5.4768772401 10.4203710053 12.1289193953 
Si 10.7025300979 8.4879860276 13.0133087665 
Si 8.8622976511 8.2508687855 16.2987451656 
Si 10.8736891294 8.8777731512 15.3606986537 
Si 10.3807211449 9.8611190102 19.4880739689 
Si 12.0541114102 8.2281442353 19.0395718556 
Si 8.6311588389 8.4992912877 18.6801364885 
Si 9.3419078354 8.2768350457 23.6094352251 
H 12.1685323713 9.8466046201 25.7397029158 
H 5.0630786563 4.1483951479 28.9527359125 
Si 8.1426706045 9.2056745642 27.6469810354 
Si 9.4918898668 10.9582993902 28.4783880141 
Si 12.3555741530 12.2127597217 1.2951143933 
Si 9.5246816371 12.2071559616 4.0060086719 
Si 10.8405226891 10.8427055492 5.5058269634 
Si 12.2307438819 12.1514115811 6.9181626998 
Si 9.1977576241 12.7398063865 9.5977926729 
Si 12.2735214222 12.0218246299 12.4258085493 
Si 8.1599705846 11.3101633934 13.1678847500 
Si 10.9137462398 11.1794361422 15.8304113262 
H 8.4002155068 11.3112385334 18.1555638637 
Si 11.3578279339 11.4602757448 18.1117932493 
H 9.5629468475 11.8663039985 15.6608735375 
Si 10.1817713731 11.2600716430 21.5201804828 
Si 8.7183754997 10.5226559162 23.2472715288 
H 10.2767746540 10.9024083997 25.1866735243 
Si 11.7749659677 11.1702811622 25.1448978172 
Si 10.8980752597 13.5700099541 2.5962663150 
Si 10.8474785192 13.6106372145 8.1669453697 
Si 9.9600318911 12.5855400851 11.9863128560 
Si 10.7569549884 13.6595723749 18.6498608356 
Si 9.5026738469 13.3649677222 20.5925192240 
H 10.3380576345 13.0957428898 24.4734648065 
Si 8.4544123373 12.9897764388 29.1405505729 
Si 9.4527612865 14.8188339455 1.1787027478 
Si 12.2215237418 14.9268366465 4.0151324393 
Si 9.5626862075 14.9857575771 6.7402932392 
Si 12.1808639014 14.9437782467 9.5446049223 
Si 10.5071804161 14.8484165858 12.8508118274 
Si 8.8177445006 16.2643271087 13.6596880877 
Si 11.5774334259 14.6101101736 15.0805901910 
H 8.9617643920 15.9137825955 15.1336605942 
Si 9.8530717501 14.8645925559 16.8540041594 
Si 11.8196331481 16.1916248381 21.2802341991 
Si 9.6508965583 15.4794749016 21.5349956036 
Si 8.7028837096 15.2948440399 23.6516509853 
Si 9.8636439602 14.1933630998 25.4059959863 
Si 11.7270570773 15.0810703679 26.4762931212 
Si 13.5401340938 0.0296419359 2.5998219440 
Si 14.8682903860 1.3246848931 4.0970996623 
Si 13.6709265050 16.2255894884 8.2253550837 
Si 15.5940261826 0.5428609970 9.6453770808 
Si 12.8626981476 1.3193971591 11.9523407571 
Si 13.1168384400 1.8572229170 14.2609766352 
Si 13.2105385208 16.2385889085 15.6375213867 
Si 13.0912468497 0.4405174420 17.9318115339 
Si 15.1779958688 1.2490422774 18.5943848089 
Si 15.0586064577 0.7522819809 22.4886199950 
Si 12.9442458884 0.2267844951 25.0744013116 
Si 14.9856598371 16.1150129674 26.1901999365 
Si 2.4041270920 2.8707215663 0.2957567507 
Si 14.0764660587 2.5777947836 28.9983254130 
Si 15.0805653779 3.9957904265 1.2514933969 
Si 13.6099856145 2.7457772651 5.5025999073 
Si 14.9999624572 4.0190851268 6.9681820681 
Si 15.2612866396 2.9719476272 14.8302879912 
H 13.5852736842 3.9501295561 18.7752759674 
Si 13.9590477377 2.7885222255 21.7963871414 
Si 14.6545981640 3.2831192100 19.6021650677 
Si 13.5621581740 5.4158060295 2.5428849410 
Si 13.6633516550 5.5488953307 8.2032644183 
Si 16.2827836789 6.6104006105 11.5252838979 
H 12.3097178026 5.6972972321 14.6398623491 
Si 12.8306557173 5.6679589418 16.1198195776 
Si 15.0406060076 5.2465529280 15.5129276873 
Si 13.7441337657 4.7038027030 23.1932916827 
Si 12.9587439885 4.2883914092 25.4241261737 
Si 10.4990028360 0.6650734651 27.2015592937 
Si 13.5653673041 7.4460450381 27.3035636009 
Si 14.9161666964 6.7631682319 3.9900200761 
Si 13.6224311746 8.1635055147 5.4322207492 
Si 14.7179011046 7.1750608856 9.6436168684 
Si 15.0328356775 6.6821254811 13.4926145964 
Si 12.6018789553 7.9524359827 16.6783056275 
Si 15.6197643829 6.2154332668 23.4186282036 
Si 14.4398959621 4.1953103484 27.2351500132 
Si 14.8152827255 9.4797538167 1.2724281894 
Si 14.9882336571 9.5212444471 6.8410067240 
Si 12.4514733839 9.6339223781 11.9817363038 
Si 14.3147561809 8.9673844420 13.2795408883 
Si 14.2951267307 9.2874340749 15.6444448887 
Si 15.8799971352 8.2158778651 19.9333196893 
Si 13.8094729563 9.2485987146 20.1280285149 
Si 13.1657410204 9.1174479234 22.5670961300 
Si 15.0517157877 8.5227814679 23.9687825816 
Si 15.4134841110 8.6100469987 26.3554545417 
Si 13.5989898644 10.8481301192 2.7616265329 
Si 14.9323915366 12.1888297115 4.1542478908 
Si 13.6455955548 10.7770242686 8.3458709576 
Si 15.6827089434 10.5045903061 11.8862741193 
Si 13.5301483237 13.6241742046 10.9978069227 
Si 14.2494821503 11.5327173755 16.3103625672 
Si 13.6416696648 11.3201817435 18.7197412670 
Si 12.2106257317 11.3116620735 22.8140832632 
Si 16.2036142782 10.4195402153 23.1327990507 
Si 15.8005508045 10.8587186193 27.0656708983 
Si 14.1025626390 13.1924077507 0.0138161123 
Si 13.5243979537 13.5430662939 5.4586826086 
Si 14.9553441468 12.0755164704 9.8643475003 
Si 12.5705532850 12.4596346740 14.8249486803 
Si 14.1366413193 13.3055906717 19.9470786827 
Si 15.4016087009 12.5935058952 23.5966150116 
Si 13.6172020845 13.2070524608 22.3025362100 
Si 11.4317356646 10.3542661847 0.2094074791 
Si 14.5128425827 12.3643544631 25.7834735302 
Si 14.9953360971 14.8648206159 1.4096367441 
Si 14.9258103765 14.8325989957 6.8195321330 
Si 11.0042697706 0.1094671720 11.0340086239 
Si 16.1800263580 15.6170928228 13.2292281513 
Si 14.4881143625 15.8589178750 11.5938441700 
Si 15.5237022520 15.8539168450 15.5109914537 
Si 12.5570325848 14.9744197370 19.3760951249 
Si 13.2910274116 15.5447000622 22.9245952635 
Si 0.4769500274 15.7872418744 0.1758704460 

