&CONTROL
  dt          = 30.D0,
  prefix = 'aSiHcSi_merged-11',
  pseudo_dir = './',
  outdir='./',
 wf_collect=.true.,
 verbosity ="high",
/

&SYSTEM
    ibrav= 0, nat=  388, ntyp= 2,
  ecutwfc     = 42.D0,
  nbnd=1468,
  degauss     = 0.05D0,
  occupations = "smearing",
  smearing    = "methfessel-paxton",
/
&ELECTRONS
  electron_maxstep=200,
  conv_thr    = 1.D-8,
  mixing_beta = 0.3D0,
  scf_must_converge=.false.,
/
&IONS
/
ATOMIC_SPECIES
Si  28.08  Si.pbe-hgh.UPF
H  1.00784  H.pbe-hgh.UPF

K_POINTS {automatic}
2 2 2 0 0 0

CELL_PARAMETERS angstrom
16.29000014898320 0.00000000000000 0.00000000000000
0.00000000000000 16.29000014898320 0.00000000000000
0.00000000000000 0.00000000000000 29.11971093458229

ATOMIC_POSITIONS angstrom
Si 14.2727931405 2.1719131399 0.0546384784 
Si 2.7971722156 0.0464768365 2.4878657995 
Si 1.3058031539 1.4322673121 1.2682158267 
Si 4.1305413078 1.3758762186 3.9279286883 
Si 0.1417127386 0.0158254908 5.2822864438 
Si 1.4893344406 1.3585811254 6.7190529813 
Si 2.7079681748 16.2170046583 8.1865699336 
Si 3.5048586921 0.3149410889 10.3625985726 
Si 2.9238921267 1.6978578455 12.1524124855 
Si 3.9252221459 0.3934311966 13.8236218157 
Si 3.9902355365 1.4985936767 15.9632799358 
H 1.4318014181 0.1053049141 15.8686117555 
Si 1.1214866893 0.9014104162 18.7396987748 
Si 3.7052094039 0.9408012656 21.4740105119 
Si 1.8183712666 0.8506556628 22.8837248379 
H 0.4005841357 0.8752779980 21.8933634691 
Si 6.5609767500 13.9892982679 27.6590662341 
Si 0.0782312596 2.7288845350 2.7981683512 
Si 3.1163258985 13.4814249333 28.9215221820 
Si 4.0855320374 4.1128177876 1.1123409260 
Si 1.4394251382 4.1645711181 4.0767595308 
Si 2.8333360159 2.7618229153 5.3853119811 
Si 4.0269043268 4.1431497679 6.8830551933 
Si 0.0831557267 2.6250357840 8.0966191465 
Si 1.3162922850 4.0652184072 9.4304766256 
Si 4.0444323670 3.7600741244 12.0504061381 
Si 1.0689970508 2.3372892214 13.4714189120 
Si 2.0656697589 2.8937719165 15.5998950630 
Si 1.1117680752 3.0124934376 17.8138666854 
Si 3.9232347659 3.2311052396 20.9340728317 
Si 1.5738697674 2.8180559958 24.1329895567 
Si 3.6870297637 3.8968286756 24.7611890807 
Si 14.0165351482 3.5293099823 27.2834802025 
H 9.8397139500 12.9011914180 27.4994902182 
Si 0.4166737688 5.0887191165 29.0661306665 
Si 2.7706683853 5.5112654304 2.5797705191 
Si 16.2855366889 5.4768283701 5.4616638632 
Si 2.6509205942 5.5726298610 8.1976645435 
Si 2.6520283143 5.4434990298 12.9342767241 
Si 0.4870221345 4.5439326416 12.9758887910 
Si 3.0172501176 5.0793360765 15.2132435412 
Si 2.9538005670 4.0186290068 18.8996242273 
H 0.8328653536 4.2876746492 20.9467690257 
Si 2.7289334050 4.2195498686 22.6128532868 
Si 3.3323801705 6.0017899149 25.7171309513 
H 2.4498694124 2.7029508547 27.6666082392 
Si 0.0115528681 8.2026992550 2.5156925952 
Si 5.5548737608 5.4774148101 28.8973819416 
Si 1.4278624961 6.8951661031 1.1126466830 
Si 4.0650717972 6.7834167020 4.0951340684 
Si 2.7117148748 8.1734098348 5.4813779075 
Si 1.2375350213 6.9268501534 6.8767070963 
Si 16.2035002482 8.4655546974 8.2047115135 
Si 4.1534287580 6.6414167707 9.7112779981 
Si 1.3727355066 9.8746722903 9.4169068403 
H 0.9284648485 7.4580507682 14.3440492896 
Si 2.1316279695 6.8344206925 16.4611396336 
Si 2.9801903673 6.3651220782 18.6255203883 
Si 1.9732240080 7.4639477483 20.4240410947 
Si 2.5385684632 6.5025445195 22.4606736775 
Si 1.6465932151 7.1089560650 24.5362684335 
Si 4.1504476880 9.4734170066 1.1956990105 
Si 1.3920293827 9.5133437970 3.9852653991 
Si 4.1944469784 9.4701427166 6.8609533327 
Si 0.4277477109 7.2461504463 11.3595409962 
Si 13.3358574920 9.5367199472 10.9402753981 
Si 3.1434487487 9.5444902773 13.1959755662 
Si 0.0561183989 8.3042348259 13.4056083653 
Si 3.5314439723 8.5631155083 15.3441366419 
Si 3.8724425454 9.9843854413 17.1926558920 
Si 2.5926675537 9.6526395883 20.8337263079 
Si 1.1327414504 9.3824862258 24.8224569525 
Si 2.7368503450 8.3199709661 28.7819222877 
Si 2.7951522556 10.8422168492 2.5876677848 
Si 1.5854861665 12.2305972719 1.1053230757 
Si 4.1027668575 12.2291963318 4.0071343020 
Si 0.0633666345 10.9095271298 5.3901749728 
Si 1.4171583370 12.2626234122 6.8165748933 
Si 4.4348873806 12.1386728010 9.6591537156 
Si 3.5967505829 13.3812251424 11.8979935711 
H 5.7479754226 2.3094007411 7.3692378871 
Si 0.9559314177 10.4597765157 13.2623685072 
Si 2.0347676286 10.3325841945 18.6009433522 
H 2.0880685091 11.8487596684 18.6843130846 
Si 3.0101313875 12.2478320920 23.1599835356 
Si 1.4783354325 10.5533788565 22.7327391367 
Si 4.2473731888 10.6281010872 26.0974343761 
Si 0.1171910756 13.5583626040 2.4824262375 
Si 5.7697225728 10.7167838480 -0.0041988585 
Si 2.7419491151 13.6053429644 5.3851955023 
Si 16.2012359382 13.6402524347 8.0673247173 
Si 14.5640094732 11.5791112959 11.0833987774 
Si 0.4069730737 14.2248679601 13.4631780338 
Si 0.5654682592 11.3292878536 11.1096356369 
Si 3.2130722094 13.9474329676 16.2991466817 
Si 1.2969348779 13.6920220552 17.6003027254 
Si 0.3396627931 13.8976833071 21.5238343373 
Si 2.0174187785 14.0432670384 19.8652629616 
Si 3.8127396949 13.2134707208 21.1606533025 
Si 2.6277399240 13.8615357968 24.8270869866 
Si 13.0007233189 8.4042391369 0.2249695684 
Si 4.2441151888 15.0601540077 1.0928743993 
Si 1.4662563974 14.9391681766 3.8837540868 
Si 4.1328707778 14.8930837662 6.8177105620 
Si 0.9474475857 15.2420644394 9.4732826007 
Si 2.7285424450 14.6308147638 14.0402433454 
Si 0.5532198081 15.8179322347 16.9766458763 
Si 3.0307382377 16.1142799174 19.5014704129 
Si 1.0439088215 15.0281930274 23.5304153784 
Si 13.8896034670 9.8169568198 26.7297397793 
Si 12.8752577378 13.8380293266 26.8451120741 
Si 8.1442344445 0.0465770200 2.5068751468 
Si 10.1559843029 2.0196342185 27.8672430476 
Si 5.4391170197 16.2664610988 5.3561340308 
Si 6.7599102318 1.3267309171 6.7674790606 
Si 7.9767569530 0.0366274137 8.3828076656 
Si 5.1391203770 15.0792947579 11.1632450247 
H 6.7768355420 0.8881731621 15.2603009941 
H 8.0783739739 0.9987333931 18.8894614482 
Si 6.5027399995 1.4069624259 24.5390639257 
Si 0.3971094786 15.7656250442 27.0194226637 
Si 5.4636986300 2.6541948843 2.4314550954 
Si 11.6503800466 3.7801434046 27.3471650103 
Si 6.7800283820 3.9653932863 3.9963308892 
Si 8.2136624251 2.6691328144 5.4358055599 
Si 7.3296529870 3.7984696547 9.8972364722 
Si 5.0189816259 4.4180272304 9.9959231725 
Si 7.5356237489 3.2508975897 12.2142918712 
Si 5.7741697428 3.7162214440 13.6388863696 
Si 6.3958287285 2.3500117115 15.4804460088 
Si 4.8063808340 3.1080342884 17.6383330679 
H 7.2947435167 2.2786615108 19.3593662235 
Si 7.8950463122 2.9378526569 20.5647475380 
Si 6.0667218555 4.0057761966 21.5872570677 
H 5.3280517987 2.1696162498 18.6854778731 
Si 5.9281754042 3.6061336230 23.9645320290 
Si 2.1472500796 3.2665034099 29.0745462629 
Si 4.2318162387 6.9532888236 27.6633759513 
Si 8.1362197644 5.3757652092 2.6646632124 
Si 5.4281375596 5.3411978288 5.4226143308 
Si 8.2742286457 5.3365551788 8.2900613863 
Si 5.3452703289 5.4397849098 15.1882879490 
Si 6.0932745557 5.0739115064 17.3661511298 
Si 7.1073922250 5.2605623281 25.1598961629 
Si 8.2112515051 2.8897319964 28.7979090090 
Si 5.4089805195 8.1256964243 2.6833988344 
Si 5.4824158401 8.6349055390 26.4270403842 
Si 6.7679412019 6.7685765119 1.3335954017 
Si 8.0683067538 8.0395060335 5.4702250582 
Si 6.7703032519 6.6178940105 6.9000028651 
Si 5.5427540007 8.0598033737 8.3439328515 
Si 2.8669748662 7.4710990583 11.6765381694 
Si 6.7135814714 7.6024290395 12.7627616267 
Si 5.7148415623 7.7025310904 14.8777844713 
Si 5.2894119184 6.7463732417 18.8333768849 
Si 8.0917643540 7.3791420075 21.6728107784 
Si 6.1050522258 6.2880866675 21.0124630936 
Si 4.7476716734 7.2443422563 22.6153284623 
Si 5.3813363892 6.8599145427 24.8403946945 
Si 6.8206882224 9.4456425564 4.0323228520 
Si 7.5399243090 8.9442852218 9.4491132406 
Si 10.3701489348 7.1515869954 11.3730234223 
Si 7.1545843554 8.6837103794 16.4859205076 
Si 5.7214390123 9.0078976724 18.3235198662 
Si 6.2229918269 10.1375928927 20.3731689597 
Si 4.6635664027 9.4641642866 21.9439152872 
Si 7.5840050494 8.9091639815 25.1731747510 
Si 0.8917227532 11.6673053567 27.9691620358 
Si 8.3063688160 13.3137030918 29.0476978894 
Si 8.2541756555 10.7894046687 2.7051454346 
Si 6.9131176832 12.1696238013 1.4194519574 
Si 5.4734400501 10.8298364490 5.3817884961 
Si 6.8609733927 12.1515744811 6.7539383950 
Si 8.2947540459 10.7637153384 8.0784775666 
Si 4.6641365527 11.4662704649 12.8826474766 
Si 7.5284561489 9.5649993875 11.7744677573 
Si 5.9354081643 12.1194506008 14.7688767524 
Si 7.7269823807 10.7229740481 15.4898516754 
Si 4.6600640526 12.1319776110 16.6939808423 
H 5.9894746748 11.7740048577 23.5446257973 
Si 4.7634566836 10.9314860500 23.7796801040 
Si 4.8052568239 12.3223099727 27.7473571977 
Si 5.4563029699 13.6171695045 2.6077167057 
Si 11.5218682354 10.3343109345 26.5771233743 
Si 8.1872889149 13.6245162946 5.4329518282 
Si 5.5624323209 13.5123433536 8.1401822341 
Si 6.3998523585 12.8879476479 18.1030545347 
Si 5.9371837743 12.4697018940 20.3566580836 
Si 7.7038342905 13.4146848027 21.6428465959 
Si 6.7048174513 14.0741040087 25.3130658424 
Si 8.0132465533 12.7560149367 23.8876559921 
Si 6.8560863927 1.3472498013 0.9167700354 
Si 6.8393076926 14.9565170268 3.9714044167 
Si 6.2654598573 11.4347818946 11.1377943974 
Si 2.9525788170 11.0019565906 8.1647592701 
Si 6.0819367156 15.9901338262 13.1120525593 
Si 6.6237258306 14.4317020920 14.8446171205 
Si 4.1704843881 15.8571096850 17.3955620378 
Si 6.3573517481 15.0386837875 17.1562562534 
H 6.6608670309 15.7288096439 20.0552399557 
H 4.2525371189 14.5683589032 21.7322732282 
Si 7.2256087561 15.6888665635 21.4642554087 
Si 5.4242442496 0.0330854790 22.8474125584 
H 7.4560145182 15.3449357903 25.0048045824 
Si 4.6374698224 15.1158006482 24.7761274924 
Si 5.6832715420 16.0765034070 28.5939545537 
Si 10.9092013298 0.1087904854 28.9320635173 
Si 12.3468915829 1.3349866892 1.2272007138 
Si 9.5308881272 1.3257160501 3.9781893093 
Si 10.8399851191 0.0133779509 5.4637313627 
Si 12.3155822026 1.3816836036 6.7610144848 
Si 6.9619876837 14.5729689733 9.6842840261 
Si 10.4217393653 1.8134028166 15.4757577353 
Si 11.6647315367 1.7075992656 17.5171659507 
H 9.0077673524 0.4145756168 16.7293612911 
Si 11.5867187260 16.2080125782 19.1205263544 
Si 8.8690742911 1.1217603613 21.7566173065 
Si 11.2035290525 0.9402539216 21.2324333900 
Si 12.0692936904 0.1261276068 23.2903524814 
Si 8.8395405208 1.2115117461 24.1478988487 
Si 11.7134712171 15.8673398051 26.8354443300 
Si 9.5103953070 4.0122759067 1.2915552750 
Si 10.9370246500 2.6842825145 2.6252788034 
Si 12.2487280420 4.0640618172 4.0244896497 
Si 9.6320490281 4.0287939668 6.8555370665 
Si 11.4473903547 3.1033427684 8.1412887831 
Si 8.6458361291 1.5921846146 10.0698581186 
Si 10.9435406501 2.1269853195 10.2946040476 
Si 12.0372512601 2.4667947226 13.8818321179 
Si 8.6669316793 3.4103278212 15.4453858768 
Si 11.4106726944 3.7250832041 18.7706239079 
H 9.8862056104 3.9970773366 22.7331176930 
H 9.4509368064 2.4944062728 24.6357413660 
Si 8.2613921256 8.0200883533 29.1167989635 
H 4.1458376179 1.7754308262 26.4436968588 
Si 7.4309767880 4.7943099438 27.5281440137 
Si 10.8601847193 5.4282027196 5.3975131400 
Si 9.1963892641 4.3613868999 13.3063683904 
Si 8.4148276370 5.0055749558 17.2110886690 
Si 12.2111633017 5.7366701625 17.7484929343 
Si 11.7770022177 5.7726059028 15.4293700358 
H 11.1840462123 4.4322972705 15.0469699918 
Si 9.2680163948 4.4238590505 19.3452431637 
Si 11.3573881039 4.3098779194 22.7517834277 
Si 12.1145961808 4.3218184895 25.0213445782 
Si 10.8170650889 8.0632079837 2.7644156942 
Si 12.1070376207 6.6337767607 1.4054249926 
Si 9.4245632962 6.7300180816 4.0842724163 
Si 12.2411857720 6.7386680716 6.7919978572 
Si 9.2589102847 7.2401557262 9.3254127085 
Si 10.8948987096 8.2597794155 8.0310124378 
Si 14.8314424056 7.8781210021 10.0324975294 
Si 8.8699702411 6.6506532008 13.0754782024 
Si 10.1754182731 7.3832470875 14.8832298572 
Si 9.0156517125 7.2812391066 16.8690776641 
Si 10.7294900481 7.5203437288 18.4759033135 
Si 9.7984187996 6.4910763594 20.3570075201 
Si 11.2893610632 6.5244545697 22.1261755580 
Si 10.6808155277 7.5397614090 24.1308346981 
Si 8.3954751168 6.9771699638 24.0835734073 
Si 1.6743839553 13.7594463658 27.0694503271 
H 1.4447633712 0.4924678815 26.6316063535 
Si 9.6156612879 9.4264529362 1.2809673481 
Si 12.2513018620 9.4413908663 4.0568416486 
Si 9.5377136372 9.4954085068 6.5841122409 
Si 11.7010256570 10.0925021723 9.3278005248 
Si 10.9825063304 9.5669053175 14.5464604003 
Si 11.4562032448 9.7398236691 18.7514340183 
Si 8.3194985561 9.7401005991 21.3345270965 
Si 10.8060041788 9.8642792702 24.2337728763 
Si 9.2124512043 6.3867226184 27.7747297259 
Si 14.7927210753 9.5636147375 1.2212428210 
Si 12.2316235419 12.0986319807 1.2156955160 
Si 9.5297152472 12.2922223424 3.9737048738 
Si 10.8758231195 10.8994761997 5.2730846152 
Si 12.1356428610 12.3723202732 6.5740950603 
Si 9.9081971106 11.8809975787 9.3750326960 
Si 9.0748658630 10.5973455669 13.5481784700 
Si 11.9930401997 10.5784491667 16.5037417707 
Si 8.4363793072 11.8119931380 17.4881918383 
Si 9.5130342870 10.8861021096 19.4770680951 
Si 8.5531297382 10.4715378958 23.6807604459 
Si 11.4131487744 10.2123802834 29.0776329523 
Si 10.8532777593 13.5880266943 2.5046329290 
Si 10.8774358295 13.6612502449 8.1291458636 
Si 8.2796532157 12.8577785676 10.9039631186 
Si 9.5751969276 12.8493240575 13.0165981469 
Si 11.9204845390 13.2999706216 13.6335865822 
Si 9.8830290604 13.5213680137 16.7525114612 
Si 11.9904175097 12.8848851278 16.0329634040 
Si 9.7313528690 13.0373269492 20.4933460067 
Si 11.2780558031 12.9600471885 22.3307706470 
Si 10.1492728228 13.5191525736 24.3624528789 
Si 10.9379043100 12.6034102153 26.4055500375 
Si 9.4957994668 14.9581948968 1.1133426441 
Si 12.1458729811 14.9278140465 3.9900410317 
Si 9.4259642362 15.0558534477 6.9187559589 
Si 12.6353549056 14.7403487248 9.3114352473 
Si 8.1339065844 0.8964093862 12.3916600305 
Si 9.9383010309 0.0776703949 13.9353832663 
Si 8.9429820218 14.3692462314 14.7307299311 
Si 8.2484415754 16.1536691377 17.9138928924 
Si 9.8480055601 14.7049505545 18.7673333805 
Si 10.4058240352 15.8351181848 24.8597301825 
Si 13.5667356641 16.1939543081 2.6285402110 
Si 14.9556373668 1.2860466418 3.9694533960 
Si 13.7850053761 16.2523539586 7.9495354866 
Si 15.5528124822 0.7774321121 9.3428845351 
Si 14.3063668308 1.4967887447 11.1662443550 
Si 15.2574421995 1.4550602803 13.2953611397 
H 2.2715753608 8.8982171014 10.1846188994 
Si 13.9149181273 1.7501324560 16.8426660863 
H 16.2525331486 0.8456676647 19.7065314173 
Si 15.0222634674 0.8720753840 21.8449082701 
Si 14.1545440295 0.9191192754 24.0412624673 
Si 10.8558515793 5.3175610386 29.0038436048 
Si 15.1036808881 3.9981036066 1.3364345735 
Si 13.6271878546 2.6597986443 5.3195014344 
Si 14.9336132866 3.9757863064 6.7538219162 
Si 14.1475230394 2.8644010462 14.7951427316 
Si 15.0717199078 3.1855258191 18.3278878228 
Si 12.1856694514 3.0653381980 20.9184355470 
Si 14.4698369823 2.7208535649 20.5775893305 
Si 14.1060812790 3.0317970877 24.9995339147 
Si 5.1104988467 0.6051034585 26.3807691635 
Si 13.6458561948 5.3705686991 2.6347339735 
Si 13.1448898202 4.8903394947 8.0304591633 
Si 12.2764536223 5.7676048727 11.7799713826 
Si 13.4324897728 6.2100738568 13.8573715607 
Si 11.1627388921 3.6828269437 12.1237586899 
Si 15.2417549294 4.9915003957 14.6809061056 
Si 14.5361535729 5.4908703502 18.2156895766 
Si 15.7236945838 4.4130750704 21.5412479244 
Si 15.8779120152 4.0485374470 23.8809875783 
Si 13.6466055348 7.4898325585 27.3031942468 
Si 14.9888038071 6.8112237323 3.9700649100 
Si 13.6336549847 8.1136418242 5.4398823194 
Si 16.0372607967 5.0225980059 10.8564106306 
Si 16.0053486864 6.3852076484 16.5584577076 
Si 14.7799660052 6.2349975570 20.4369702464 
Si 13.3205123118 7.4924552485 21.7104916844 
Si 15.8815609752 6.0956366057 24.9569317776 
Si 14.1740431596 7.4834794584 23.9772282230 
Si 12.4459999438 6.6545465109 25.3901165975 
Si 15.2255626692 5.6352974915 27.2471970426 
Si 14.9717807569 11.0838952914 28.4629740939 
Si 14.8587933159 9.6793551885 6.7427564260 
Si 13.9014137171 5.7125446722 10.0962405767 
Si 12.9240137082 9.8156861998 13.2715703358 
Si 14.2689812805 8.3224959161 14.3686554453 
Si 14.9092760264 8.4741395275 16.6581635978 
H 13.6777683051 8.2660999356 17.5127979940 
Si 16.0303701266 10.2466870237 17.8772311764 
Si 16.0829216671 8.1186754343 20.6633759989 
Si 12.9383489083 9.6403243482 20.6778484952 
H 16.1502645277 8.3047723960 22.1885790985 
Si 15.0560815077 9.5594770774 24.7442414090 
Si 7.2997608368 9.5334619472 27.6521066232 
Si 2.1299012295 9.9311823008 26.9662209518 
Si 13.5792138042 10.8629540193 2.7241169262 
Si 15.0457210676 12.2365105419 3.9371305169 
Si 13.3906733425 11.0981816215 7.9990972346 
Si 14.2590280904 12.9211140882 9.2610290277 
Si 13.8620407868 11.9902708997 13.3022042717 
Si 15.9991910663 12.1674735213 14.4368829280 
H 13.4952714334 10.3402404946 16.3017383360 
Si 15.1651430587 10.2157686034 20.0861359690 
Si 15.9196307056 11.6599096966 21.8346872515 
Si 12.2964577425 10.8749271695 22.6456420813 
Si 14.3789550715 11.4939797551 23.6142219064 
Si 13.8146857563 13.1597625904 28.9367226711 
Si 13.6117612245 13.5946241443 5.2215718465 
Si 1.2747088017 13.6313418047 11.2890130563 
Si 15.8031734945 12.3527885630 16.8295913361 
Si 13.8857590270 13.7721688560 17.1734077631 
H 12.3908908733 13.3893049825 19.8964792917 
Si 14.1029698890 13.5720299141 24.8090910052 
Si 15.8836460953 0.3497446742 29.1057917128 
Si 14.9017337563 14.8376814757 1.1848315344 
Si 15.0242019774 14.9219007765 6.5148946880 
Si 12.3396751129 0.1754237536 11.0037854877 
Si 12.2290334318 15.6361847030 13.2455664340 
Si 14.7079642045 15.5992389827 13.9540490010 
Si 14.6337469638 15.8283904148 16.2888383040 
Si 13.2406587311 14.5113276127 19.3112313414 
Si 14.6153229737 14.9781175670 21.1418128495 
Si 13.0491860693 14.3779125115 22.8200982695 
Si 15.5277747520 15.4691144615 24.9647358602 

