&CONTROL
  dt          = 30.D0,
  prefix = 'aSiHcSi_merged-28',
  pseudo_dir = './',
  outdir='./',
 wf_collect=.true.,
 verbosity ="high",
/

&SYSTEM
    ibrav= 0, nat=  388, ntyp= 2,
  ecutwfc     = 42.D0,
  nbnd=1468,
  degauss     = 0.05D0,
  occupations = "smearing",
  smearing    = "methfessel-paxton",
/
&ELECTRONS
  electron_maxstep=200,
  conv_thr    = 1.D-8,
  mixing_beta = 0.3D0,
  scf_must_converge=.false.,
/
&IONS
/
ATOMIC_SPECIES
Si  28.08  Si.pbe-hgh.UPF
H  1.00784  H.pbe-hgh.UPF

K_POINTS {automatic}
2 2 2 0 0 0

CELL_PARAMETERS angstrom
16.29000014898320 0.00000000000000 0.00000000000000
0.00000000000000 16.29000014898320 0.00000000000000
0.00000000000000 0.00000000000000 29.27137083596932

ATOMIC_POSITIONS angstrom
Si 1.2042920180 15.0145745873 27.8059289264 
Si 2.6960276047 16.2878987390 2.7248426397 
Si 1.2153203481 1.2339935753 1.3280040420 
Si 4.0740801673 1.3570042534 4.0781166562 
Si 0.0033103398 0.0032028421 5.4470508561 
Si 1.3734278316 1.3364364992 6.8346601906 
Si 2.7697561453 0.0304851063 8.2667620088 
Si 3.8215688750 1.9174470475 9.4636683622 
Si 2.1713104099 0.9418128746 12.1299389889 
Si 1.1959238449 0.7915245912 15.8476372561 
Si 2.7512181252 1.3898856187 17.4545769722 
Si 4.0204860668 1.9929186182 21.0752113737 
Si 2.1584413097 1.5747803784 19.7072431290 
Si 0.1150521986 0.1063363969 22.5357356929 
Si 2.0775614590 0.1248196826 23.9360195310 
Si 15.5844965325 9.1657314838 26.4919370896 
Si 0.0001614494 2.7106071548 2.6855692415 
Si 2.5764427136 2.6961253447 0.1394856926 
Si 4.0638337572 3.9823185964 1.4266631974 
Si 1.3636994435 4.0785110473 4.0734332369 
Si 2.7254962149 2.7068604548 5.4532563867 
Si 4.1238461177 4.1126711776 6.7726634272 
Si 0.2003963238 2.8453091660 8.2097999211 
Si 16.0910015072 5.7061264122 11.2953243923 
Si 2.0947636992 3.0795104982 13.0745846686 
Si 0.1597897518 3.9040777257 14.1617233814 
Si 3.7299050441 3.3363060605 16.6718897874 
H 0.0655942920 3.0536582679 17.2708698489 
Si 0.9952978321 3.5075791221 20.0706179266 
Si 1.2518620764 3.7023749439 22.8417093323 
Si 3.0308359777 2.1872583200 23.2838533887 
H 14.8130672855 13.2298910410 27.0171532965 
H 14.3164014709 9.9628337711 26.7142238797 
Si 0.0085540583 5.4890132902 29.1428402466 
Si 2.7273369849 5.4600659599 2.6900858140 
Si 16.2804216289 5.4296851097 5.4404940691 
Si 2.8544641461 5.5272622106 8.0966075301 
Si 2.1277998195 3.7086628839 9.3618625345 
Si 1.0032343202 6.0518165053 14.7369643611 
H 3.0320251477 5.8898287439 17.5336682162 
H 2.7258545949 4.4311081005 16.8921275816 
Si 1.9876080782 5.4650181200 20.7871518133 
Si 0.5143991087 5.4401432898 24.3750315508 
Si 2.0468873887 0.4338890410 26.3877017381 
Si 16.2730096788 8.1391030944 2.6451542598 
Si 2.2804045409 8.6323805889 29.2180383983 
Si 1.3870348687 6.8321238025 1.2411207591 
Si 4.0860207374 6.8108816423 4.0532359910 
Si 2.7136208048 8.1501477145 5.4402598981 
Si 1.3248559381 6.7936956921 6.8365335583 
Si 16.2398106585 8.1025972041 8.3257730924 
Si 6.0959786958 6.1214562560 12.4854105164 
Si 1.9633848480 4.7412859934 11.4351830022 
Si 0.1566332384 7.3505856372 12.9602214227 
Si 3.2485192497 6.6894071112 14.6188836511 
Si 0.8690487019 7.9764637330 17.9360032084 
Si 2.5740806635 6.6182035205 18.7675735824 
Si 0.5666183332 7.5222985288 23.2526793788 
Si 1.6816655854 4.2711728791 27.8079779224 
Si 4.0558353671 9.5725742375 1.2153004829 
Si 1.3495320303 9.5059970069 4.0397418891 
Si 4.0589467571 9.5261151571 6.8163655838 
Si 1.5009540977 9.3070472351 9.6622453420 
Si 3.2349496796 8.5255507680 11.2632722412 
Si 0.3379735201 9.6926641186 13.0501138025 
Si 2.6428244642 9.9720539112 13.1095346853 
Si 2.1433730596 9.6730020885 16.9632277414 
Si 3.3966116411 8.9713429120 15.0609984362 
Si 3.2667640499 10.0763750722 18.9895383875 
Si 1.6444755150 10.1282261426 20.6869266395 
Si 2.3772811717 8.9144582315 22.5955371035 
Si 1.0149794103 6.2500006472 26.5582074732 
Si 0.6211898337 10.4448060055 0.0294431938 
Si 2.7331362250 10.8799444895 2.6851887137 
Si 1.4313909101 12.2722996722 1.2847204660 
Si 4.0721579472 12.2101533217 4.0700084865 
Si 16.2873285890 10.8485373692 5.4438602767 
Si 1.3369137962 12.1902632315 6.8609166102 
Si 2.7133112948 10.7935749087 8.2537069774 
Si 4.2355303587 12.0097700298 9.6489854110 
Si 0.4750050013 11.2468604529 16.5955500523 
Si 2.8758040463 10.8073399588 23.8834481489 
Si 2.8543012461 10.2083077834 26.1563993657 
Si 16.2352494585 13.5869352643 2.6342155485 
Si 2.7197132649 13.7588273458 29.1546951518 
Si 2.7063717548 13.5711176741 5.4627403109 
Si 16.2011870682 13.5413395538 8.2501065987 
Si 3.1438885788 12.2748409123 12.9574991852 
Si 1.7412381159 13.7393445057 14.0777730899 
Si 2.2390442305 12.7416145765 10.8149226541 
Si 1.3421151933 13.4075823626 16.3231506753 
Si 3.1758984290 13.8801063969 17.6945729417 
Si 2.2381319905 14.0689889487 19.9074007628 
Si 0.9452940476 12.3747311932 20.9906756547 
Si 1.6555201351 12.7643228367 23.2533818917 
Si 2.6368949041 7.9681884129 26.8626297299 
Si 4.0753996573 14.9557351068 1.4019903590 
Si 1.3407728973 14.9267877765 4.0706524567 
Si 4.0933512374 14.9388097966 6.8529840687 
Si 1.4664779414 14.7369766948 9.5804904032 
H 10.9685458003 11.1571025520 9.5925794794 
Si 2.3612518116 15.9930823163 14.0861739733 
Si 0.8705424950 15.9760103961 20.2936072296 
Si 3.3095578803 14.4833413925 23.4441726868 
Si 4.5792819419 13.1975228107 27.7820142165 
Si 0.1313607693 13.1860220706 26.6767565251 
Si 5.3324663888 0.1160437709 0.0568473439 
Si 8.1360405744 0.0556609757 2.6338379478 
Si 6.8476644626 1.5348389270 1.2094930429 
Si 5.4250424596 16.2808940389 5.4336445683 
Si 6.7813641620 1.3526515654 6.7896993650 
Si 8.1744035248 0.0769295257 8.1938177526 
Si 4.4163493604 1.2716462816 11.6181876126 
Si 7.9814321830 1.7966404064 13.6039866815 
Si 5.5502962708 1.6504213651 13.6565580635 
H 6.2942279976 1.5903487315 16.0678165075 
Si 6.7636569319 1.9382330877 17.4820335181 
Si 5.3281169587 0.0803694850 20.7616271779 
Si 7.0499862645 0.4221651279 22.2870461263 
Si 6.4813838093 1.3917964357 24.4110646083 
Si 5.4520186999 2.6891858046 2.7379796310 
Si 7.8358973217 3.2698102799 29.0290038854 
Si 6.7880267721 4.0879755374 4.0761847458 
Si 8.1583415846 2.7281840650 5.4440066336 
Si 5.5624649009 2.8241647458 8.1694347007 
Si 7.3532246173 3.6017516129 9.5244942708 
Si 4.1020663875 3.3434247906 14.3523678197 
Si 5.6042813313 3.9660448863 17.9352128814 
Si 5.2858932783 3.9369183660 20.3844362933 
Si 7.4919176785 3.9528662762 21.2960053239 
Si 4.6891091229 2.9315158468 24.7229217931 
Si 3.7588523744 1.2739415427 27.9717805136 
Si 4.9352510251 3.0270078277 27.0107721377 
Si 8.1569732246 5.4607175599 2.6905307389 
Si 5.4398174898 5.4692372300 5.4334396687 
Si 8.1600520346 5.4674127500 8.3026194380 
Si 7.2912900367 7.8269541116 11.3483055735 
H 4.8346765642 4.5617539017 13.8754786460 
Si 7.4191013779 5.7575213627 14.4900310767 
Si 6.7270858815 5.8454222035 16.8396440137 
Si 4.1699305281 5.5199805805 21.8639577322 
Si 7.4182217178 4.8088080440 23.5371385606 
Si 5.0877091365 5.1808553574 24.0952850597 
Si 4.1754039682 5.1561434272 27.6429166623 
H 6.4445846989 2.7929856855 27.0223636005 
Si 5.4283004596 8.1369853944 2.5967481938 
Si 9.9334140308 7.4438295981 27.8605200330 
Si 6.8221054524 6.7542087318 1.1898314632 
Si 8.1541713446 8.1362523444 5.4441237190 
Si 6.7854855321 6.8031601822 6.8801479009 
Si 5.8838991838 8.6939079195 8.0714634225 
Si 5.4247003696 8.9648432020 10.3929758435 
H 4.2463469188 6.0735473655 15.5727790839 
Si 6.0073122249 8.0595427337 17.4516791065 
Si 4.3167360095 8.0280867434 19.2818130253 
Si 4.3218836495 7.8387480717 21.6796944528 
Si 4.6189643822 6.8512482627 25.9959922535 
H 10.6373049373 13.0276995591 27.1531188141 
Si 6.7570920618 9.4920690568 4.0662617510 
Si 3.6455065533 6.3563417681 12.2922194689 
H 9.7094265288 13.9103080572 10.9277637887 
Si 7.2005058659 9.4301344762 13.1614913686 
Si 5.6996755721 9.2660778847 15.2999991791 
Si 7.0780539347 9.6753804285 18.8017040008 
Si 7.7285462207 9.1298771935 20.9766253967 
Si 6.0459195253 9.1048394633 22.6087092204 
Si 7.4458984281 8.6367463090 24.4425313319 
Si 6.3338778579 8.4769251175 26.5612516958 
Si 5.1737692073 11.2220344926 29.1186328229 
Si 8.0964395840 10.8693396994 2.6944589568 
Si 6.8368479025 12.2568404621 1.2116035088 
Si 5.4043867394 10.8707080594 5.4392354001 
Si 6.7746363920 12.1745270913 6.8461052966 
Si 7.6714823502 10.3840280150 8.1274595549 
Si 9.1012556632 13.3028050817 9.6933900806 
Si 5.9806292047 11.5644665858 15.5164024237 
Si 5.2868055184 11.2113319625 19.1779289302 
Si 5.1049113767 11.1801854823 23.1890141472 
Si 5.9419567443 12.1199230108 25.2097632329 
Si 5.1130726668 10.5853724168 26.8320411474 
Si 5.4630144500 13.5386191238 2.6876943430 
Si 8.1775474948 13.7428957257 29.1778780775 
Si 8.1499033645 13.5568802140 5.4776687100 
Si 5.4479950698 13.5442065939 8.2521555947 
Si 5.4383676797 12.4881910442 13.3603025193 
H 8.0764191739 12.7100445562 13.0661545138 
Si 5.2845412083 12.7615209567 17.4597287335 
Si 5.4054292994 12.4121981935 21.2075765126 
Si 7.6746589002 12.8469131375 21.3535528390 
Si 4.7990340439 14.1704104896 25.3055684296 
Si 6.7954875921 14.9267714865 4.0629540861 
Si 7.1863987257 14.6466649340 9.4072038879 
Si 9.7522203592 1.8862516973 11.8405036741 
Si 6.0771311656 14.7188947946 13.7047387399 
Si 4.5877038720 16.0771550070 14.8117527136 
Si 7.1057632250 14.2714084905 17.7530864120 
Si 4.2041883985 15.9284110157 17.1613949219 
Si 7.6915842103 14.7265999647 15.4345303995 
Si 6.0613787354 16.2555630887 18.5347783702 
Si 4.1523373280 14.3965645617 21.2369649689 
Si 8.1766841248 14.6887582943 22.6893811184 
Si 6.5101845295 15.7243787638 25.8207738277 
Si 11.2863474132 16.0492665268 29.0895956231 
Si 12.2482882120 1.4000766428 1.2656882207 
Si 9.5033580269 1.3728039246 4.0449814645 
Si 10.8767027795 0.0295824774 5.4313906727 
Si 12.2027087916 1.3657764185 6.8910368508 
Si 9.0427908527 1.8603180170 9.5551413961 
Si 11.9478843193 1.2036550790 12.6923005654 
Si 10.5305728563 4.1183238077 12.4910598909 
Si 8.9358144217 0.4169637308 15.2612438841 
H 11.3811877941 0.1804622507 17.3501367211 
Si 9.0602537329 1.6719567453 17.2996143350 
Si 8.6569133292 1.8923441573 21.4966898423 
Si 9.7675003793 1.1398780994 19.5399572447 
Si 12.0254410100 1.1373059084 20.3367532302 
Si 9.9789934513 1.6564323751 23.5152143038 
Si 10.9622089903 0.9731597219 26.9584641980 
Si 9.5054268569 4.2069902785 1.2021664188 
Si 10.8315794791 2.7493610651 2.6297721544 
Si 12.2142746917 4.0690791372 4.0803705518 
Si 9.4890554068 4.1211582677 6.8383483833 
Si 10.8125690489 2.7722648054 8.2430229270 
Si 12.1728655113 4.1978352984 9.5191376100 
Si 8.8746943412 3.8966169056 14.2661050898 
Si 9.8365699800 3.6867202537 16.4516227219 
Si 12.1625376512 3.7097543139 15.9455499915 
H 11.0106880307 3.2321966696 19.3401801387 
Si 11.9689147095 2.3572444716 22.4888429568 
H 11.5289869654 3.9081339357 24.6970459013 
Si 8.3174785961 2.8737677963 24.7111254307 
Si 9.2007875641 2.7016639447 26.8922523572 
Si 12.3412063729 4.6862257929 27.7093919454 
Si 10.8757416695 5.7308709224 29.2092569871 
Si 10.8596797293 5.4389866997 5.4659308903 
Si 11.1040786016 5.8401605334 10.8823053498 
Si 8.8836864212 5.5481948607 17.6638087310 
Si 10.9747685804 4.6180358522 19.9866676350 
Si 8.8122221906 5.4291475397 20.0114312148 
Si 11.4099722244 4.6020064921 22.2482908313 
H 10.1416979728 5.0242595860 22.9834120385 
Si 10.7869285887 4.2978396093 26.0103937680 
Si 10.8595331193 8.1337925544 2.6649797593 
Si 12.3512573030 6.8540338527 1.3383192731 
Si 9.5128876770 6.7897860921 4.0797265816 
Si 12.1780946014 6.8291916025 6.8868217734 
Si 9.2638461547 6.9758993438 9.7784819556 
Si 10.7432876783 8.2202110052 8.3357839012 
Si 14.7628615050 6.8193850224 9.7173633333 
Si 9.3279147253 7.2423060062 14.5684490792 
Si 10.3024151142 7.1798175657 16.7229097868 
Si 9.2279755744 7.3596428773 21.2974688924 
Si 11.2172126526 8.0235255434 20.1113344034 
Si 8.7172677797 6.8013845722 23.6606930169 
Si 11.9571370394 7.9385569026 25.2255697731 
Si 10.1125551625 6.5503067999 25.5863394187 
Si 5.8505372635 4.8667841545 0.0641204014 
Si 9.3207145452 9.4344350363 1.2932003821 
Si 12.2208558518 9.5135881470 4.0424348552 
Si 9.4646529866 9.5106559470 6.8416853196 
Si 11.8650822485 9.9328113008 9.5895059855 
Si 12.5419480447 9.7217254789 11.8976413900 
Si 9.2535508746 9.5560398874 14.4084517662 
Si 11.6603658166 10.1469107728 14.3478600286 
Si 10.6865984777 9.1953955741 18.1067723858 
Si 10.9835326005 10.0728075621 25.4202536606 
Si 7.9377261126 8.2234038452 28.8922187695 
Si 10.5570603966 10.9013332597 29.2039588689 
Si 12.0727308804 12.2676896022 1.2065249259 
Si 9.4906844068 12.2159688517 4.0741650212 
Si 10.8456051692 10.8571547793 5.4457336444 
Si 12.1892695415 12.2166856117 6.8030471101 
Si 8.1853178249 11.2419082928 10.2799005380 
Si 8.3341269762 11.2307496427 15.7537932412 
Si 8.9389909718 10.9265175999 18.0179337753 
Si 11.0907370914 11.4304161745 21.2541472636 
Si 8.9049774514 10.9301991400 21.9148313747 
Si 8.9394145118 10.4847979559 24.2429005828 
Si 9.3622051756 12.3623996631 27.6857699492 
Si 10.8205511490 13.6051311944 2.6934344588 
Si 10.9356888700 13.7038974653 8.2105902481 
Si 6.0931442357 11.1506191320 11.3914808455 
Si 10.9001440897 13.8833481070 13.4510437689 
Si 8.8886874513 13.0316091592 14.3348635399 
Si 12.2459261620 12.4823918042 14.7441651183 
H 9.8498463301 13.9330814774 16.7860481337 
Si 10.8963648097 12.9124152281 17.2488285066 
Si 8.5986602886 13.0508476494 19.2103323377 
Si 10.9251492399 13.2375636311 19.6227952242 
Si 11.7546523375 12.7950294870 23.0136493645 
Si 8.2666049256 12.3275879327 25.5547263382 
Si 9.5974001978 15.0797508779 1.2505666305 
Si 12.2152358017 14.9383536766 4.0713256982 
Si 9.5410693773 14.9932672671 6.7924801452 
Si 12.7564221867 14.6677767741 9.5928721931 
Si 11.0258703108 16.0999772972 14.3272237121 
Si 11.8648704785 15.1103923682 20.8062074757 
H 9.3135795252 15.9853282762 19.5388449326 
Si 10.5137941562 14.7699639451 22.7315611638 
Si 8.4543634673 14.6341216338 25.0192651515 
Si 10.5502674665 15.9517871659 24.8395389345 
Si 14.8878220962 1.6964243255 27.7335115550 
Si 13.5784481742 0.0144358560 2.6976290463 
Si 14.9364966166 1.3656314375 4.0808681651 
Si 13.7142741954 0.0855886382 8.2375784520 
Si 0.4098075337 0.1790124406 10.7314114331 
H 15.6232178629 0.7386277028 13.4214211416 
Si 13.6340948147 1.9700637480 16.6485312335 
Si 13.9557408676 1.5853672495 18.9719462936 
Si 13.2597180313 1.4432695782 25.9914551911 
Si 0.8074448084 10.9469452601 27.0473028085 
Si 14.9347210066 4.0984988775 1.2963851073 
Si 13.5790509042 2.7078215648 5.4803031334 
Si 14.9819620070 4.0771426873 6.8496178611 
Si 12.5315387346 3.3976216211 13.5549864067 
Si 15.8701253951 2.4844205027 15.9526629346 
Si 15.0220679874 3.2082340793 20.3478178084 
Si 15.6170439528 2.3312782113 22.4897796407 
H 0.0086034007 2.4212153021 25.2890886478 
Si 13.8063289863 2.7161457548 23.9720525885 
Si 0.6121146746 2.3345199214 26.6843670815 
Si 13.6046750744 5.4184938796 2.7214032537 
Si 13.6077701745 5.4438574098 8.1900417458 
Si 14.5872715934 4.4385200506 12.8235826636 
Si 12.3417276529 5.9595988145 16.8034645994 
H 15.7307970239 5.2082388476 17.3797300770 
Si 14.3649293814 5.4956921903 20.5411552128 
Si 13.3034892617 5.9393340543 22.5828918713 
Si 14.4451413421 4.9946932357 24.3903112063 
Si 13.4748274832 2.9898829173 29.0892736380 
Si 13.4662426532 6.1745616565 26.2271189977 
Si 13.5097206636 8.3081607160 29.1318049398 
Si 14.9366432266 6.8008307122 4.0759505748 
Si 13.5607898140 8.1543179546 5.4664577750 
Si 15.1783379588 1.4691087764 9.5064338350 
Si 13.0196360091 7.4033489477 11.4574585154 
Si 14.2233529901 6.6983177413 13.3466327891 
Si 15.9928053863 6.4797873893 16.6043021922 
Si 13.9582658177 7.1219066151 15.6395470808 
Si 12.5133916744 6.1713362364 19.1782216439 
Si 16.2836959189 6.7955201721 21.1117127731 
Si 13.0783451696 13.6063855244 26.5801902727 
Si 14.9992456972 9.5937023677 1.2085797762 
Si 14.9415790967 9.5094179070 6.8780110908 
Si 13.5117732036 9.4016106860 15.7261610671 
Si 12.9108839681 10.1283075926 17.8884372308 
Si 14.2456051303 10.1438156728 19.8694065235 
Si 12.5189139845 9.5214073471 21.3439811007 
Si 16.1849948080 8.7953131704 19.8773390650 
Si 13.1445477302 8.1847476749 23.2281206987 
Si 15.1999873690 8.9002207714 24.1854701532 
Si 15.0777797879 7.1112855350 27.6760811254 
Si 13.5694235141 10.9114982198 2.6047363509 
Si 14.9174861864 12.2106583117 4.0555484293 
Si 13.5424961439 10.9354445200 8.2214206553 
Si 14.2919013107 12.7725004168 9.5589466743 
Si 14.3441270512 11.3405442437 11.4707184463 
Si 0.3944851596 10.9250514999 10.9986883202 
Si 15.3421339103 10.6254783972 14.8229636486 
H 12.9569520885 11.6620111067 17.8421884648 
H 15.9367677858 11.0631418312 17.8763188832 
H 14.3014146708 11.2993631233 22.4457847703 
Si 12.5478124448 11.7785334777 24.9725480436 
Si 14.6096703436 11.1704929322 23.9361073451 
Si 16.0212151465 0.0733558255 29.1114613371 
Si 13.5681203141 13.5750924342 5.4426308791 
Si 15.9904433362 13.7939648762 12.9772866319 
Si 14.3361938211 12.3360750228 13.6118606803 
Si 12.8804053778 13.9466021776 16.6530975674 
H 15.3305680102 13.1966594407 17.5718966265 
Si 14.3715431214 13.8318391265 18.5251773606 
Si 14.8468690358 12.4335380937 20.4069459775 
Si 13.5250169737 13.8255674764 21.8242950247 
Si 15.9394067658 13.0983818698 24.3843691181 
Si 6.3872438984 14.8024462054 28.0259910924 
Si 11.5453095456 9.2249945044 27.8537876178 
Si 14.7488521049 14.9169811964 1.1782282918 
Si 14.9402433166 14.9427845567 6.8122383205 
Si 13.0083144590 15.5678970224 11.8371374665 
H 7.0282228243 3.8634015953 11.0033424682 
Si 15.2449314794 15.9082277055 12.4392495646 
Si 12.3933506633 16.2247586984 16.2345755072 
Si 16.2725698488 15.3284340202 16.6538293516 
H 15.1424022185 15.2283808393 15.6494408041 
Si 15.3646141105 15.9414267258 18.7652611442 
Si 14.7475814849 14.9358450166 23.4463680396 
Si 13.0514177994 15.5736148124 25.0696997234 
Si 12.8412930874 14.1078894690 29.0617585494 

