&CONTROL
  dt          = 30.D0,
  prefix = 'aSiHcSi_merged-27',
  pseudo_dir = './',
  outdir='./',
 wf_collect=.true.,
 verbosity ="high",
/

&SYSTEM
    ibrav= 0, nat=  388, ntyp= 2,
  ecutwfc     = 42.D0,
  nbnd=1468,
  degauss     = 0.05D0,
  occupations = "smearing",
  smearing    = "methfessel-paxton",
/
&ELECTRONS
  electron_maxstep=200,
  conv_thr    = 1.D-8,
  mixing_beta = 0.3D0,
  scf_must_converge=.false.,
/
&IONS
/
ATOMIC_SPECIES
Si  28.08  Si.pbe-hgh.UPF
H  1.00784  H.pbe-hgh.UPF

K_POINTS {automatic}
2 2 2 0 0 0

CELL_PARAMETERS angstrom
16.29000014898320 0.00000000000000 0.00000000000000
0.00000000000000 16.29000014898320 0.00000000000000
0.00000000000000 0.00000000000000 29.33048724650998

ATOMIC_POSITIONS angstrom
Si 15.1171690083 4.0909240274 1.2815311132 
Si 0.0550688342 2.7437410151 2.7494574728 
Si 3.5141765721 8.9564701419 26.7827238023 
Si 1.3542870814 4.1180631677 4.1124276168 
Si 0.0018594872 16.2271207484 5.3681830978 
Si 1.3653219275 1.3104979320 6.6823355789 
Si 16.3172044492 2.5699755835 8.1164204223 
Si 1.8946247573 3.3521399407 9.3775140520 
Si 15.1467027785 4.4440097806 11.3268475649 
Si 1.5280459970 2.3571467316 13.2971523761 
Si 0.3191504249 0.5971832605 14.3906516017 
Si 1.0346772785 0.3824158985 16.6635297194 
Si 0.1533068204 2.7119103548 19.7267178159 
Si 0.1285194675 1.7155162057 21.8672861057 
Si 1.6236878458 0.1822394897 22.8067416122 
Si 0.6234574017 0.2053403389 24.9830344354 
Si 0.4692171643 3.4180167013 23.5562235528 
Si 1.7434372659 4.3677888699 27.7495739839 
Si 4.3868970401 2.0541038588 27.9183122771 
Si 0.0880928999 8.1620557046 2.6202654756 
Si 1.5210315229 6.9050704232 1.1438127433 
Si -0.0080910802 5.4606361099 5.4729222678 
Si 1.3299367892 6.7777477820 6.9299728827 
Si 16.1863794580 8.0369159235 8.4234519628 
Si 2.0128901584 5.7333958724 12.6817694232 
Si 1.4192776660 4.3358278897 14.5251318857 
Si 1.2235223632 7.9554496328 12.8196520438 
Si 0.2249241771 6.2159056768 17.1496825455 
Si 0.9772224479 7.1088094550 21.7343310070 
H 0.4864910804 6.8569986327 25.3297794556 
Si 15.3238402401 7.0199963742 25.6761725100 
Si 16.0122719364 0.5481210380 29.2091763513 
Si 14.7332137047 5.9489614444 27.6967791069 
Si 0.7139271755 11.6440595265 1.1982999895 
Si 1.3929904927 9.4888599268 4.0735940517 
Si 16.2836796289 10.8553140093 5.4527428925 
Si 1.3216745011 12.2515136320 6.8620728047 
Si 2.9766065672 8.6733010693 11.2532280419 
Si 1.3725107046 9.4602058165 9.6819938401 
Si 0.4683146983 11.2963331833 10.9866139128 
Si 0.8588365009 8.4171733970 16.6652602181 
Si 1.7077621656 9.9197304307 18.3061543271 
Si 0.9803224350 11.2338610327 21.4891281336 
Si 1.8883856873 8.2686085956 23.5657559611 
Si 0.3713598754 9.7777793694 24.6581112977 
Si 0.2021979978 5.4561726499 29.1759155787 
Si 16.2511322086 13.5205860937 2.5637749572 
Si 1.3843193257 14.8679645860 3.9699107793 
Si 16.2276583184 13.6498798248 8.2791459656 
Si 0.8343933556 15.4704176615 9.5480708353 
Si 0.8225456385 14.7415378948 13.5816581024 
H 1.8611488070 14.1593007095 14.5407357049 
Si 1.4922438346 14.4596720222 17.3617419683 
Si 0.2941469037 12.6179408954 16.4031629841 
Si 0.8293206496 14.7091370845 19.5931761075 
Si 1.7961354164 13.4209727427 21.2997411774 
H 0.9946494901 16.1972448881 19.8796469764 
Si 1.1668918067 14.2230109001 23.4435651513 
Si 1.7037222456 10.6881623178 26.3525628764 
Si 2.7246165549 0.0526777880 2.6433485691 
Si 3.4021013711 7.7456833008 29.0766612099 
Si 4.0605920471 4.1785805182 1.4238924991 
Si 4.0672709472 1.3657047425 4.0784629126 
Si 2.7130506548 2.7172208949 5.3972496107 
Si 4.0803355273 4.0335506469 6.7192333318 
Si 2.6079638639 0.0176293640 8.1799502577 
Si 3.6539773534 1.6071062547 9.5711245983 
Si 4.0113473767 0.1947225168 11.6373694333 
Si 3.8021837748 1.8426759469 13.4165567897 
Si 2.9621410471 1.4725589985 17.3921576835 
Si 2.2349554404 3.2742085799 18.7394242847 
Si 3.6516315934 0.5309888449 21.6016105522 
H 3.2892768301 3.3338462705 19.8493779136 
Si 2.7337878250 3.1318991386 24.5141279358 
Si 1.3867954057 1.4672859254 1.2898668376 
Si 2.6597334843 5.4926459602 2.7167305151 
Si 2.9661483871 1.2815571177 26.2027134170 
Si 4.0635731172 6.7880267721 4.0950639684 
Si 2.6972493547 8.1174536842 5.4981171563 
Si 2.7081799448 5.2488172380 8.1739375078 
Si 4.5309006414 6.1099066459 9.3923552785 
H 12.1293223409 7.4105491278 12.6113175928 
H 2.4505698824 4.3264937196 15.6406583071 
Si 2.3036666611 5.4763559601 18.0139640132 
Si 2.5906801737 6.4957352994 20.1511886274 
Si 3.6472170034 7.2759937265 24.8820202373 
Si 3.3469108506 4.9959801457 25.9582144753 
Si 4.1571102980 9.4487865264 1.2436537219 
Si 2.6280331440 10.8202905090 2.5196941679 
Si 4.0005308166 12.2262315518 3.9656578587 
Si 4.0689325272 9.4806008967 6.8273748383 
Si 2.6355428341 10.7911802787 8.1815047735 
Si 3.9833448664 11.9991163697 9.6952218898 
Si 2.1093921193 8.9694369820 14.7667857701 
Si 2.0264760185 11.2926190633 15.3151778902 
Si 3.3494683806 11.3976406942 17.2587332971 
Si 3.0205406976 8.7611530401 19.8243590080 
H 3.4347791114 11.9686051995 19.6039697268 
Si 2.7568381752 9.7770626094 22.0035262189 
Si 5.2716883982 4.2968133393 27.3817696739 
Si 0.6385386838 12.0853230505 28.0853494019 
Si 4.5220063014 15.4120180110 1.4784002766 
Si 2.7226291749 13.5776499642 5.4590782778 
Si 4.0762141573 14.9075004163 6.9291809596 
Si 2.0541038588 14.9188056764 11.5500819033 
H 3.5755084227 15.5683531424 14.4914604863 
Si 3.4541479216 12.3890012333 13.7777617402 
Si 2.5451659133 12.6076781953 11.5035930810 
Si 3.7279013741 13.7807862660 17.1873428911 
H 3.3210097504 13.5997066244 21.2799430985 
Si 2.2695879808 12.9047100580 25.2275627075 
H 3.6261377432 15.7399031340 24.2731486525 
Si 5.4361359497 0.1214929388 28.8964840267 
Si 5.4388075097 2.7141746648 2.6797653020 
Si 5.4214423696 16.2643596887 5.4752980372 
Si 5.3235068887 2.6712668044 8.1837925515 
Si 5.2812994983 3.3335530505 12.4433125619 
Si 5.6967107921 3.4756833018 16.9382977239 
Si 4.6086691021 1.7492365060 15.6847126990 
Si 4.1992036584 0.6851834703 19.2509773128 
Si 5.4360056297 3.7705974645 21.2919685983 
Si 5.7417037725 2.5064771629 19.2266623389 
Si 4.4200471904 2.3800667618 22.8944397690 
Si 5.0185092159 5.8028075631 -0.0271316979 
Si 11.0039765506 0.1170934985 -0.0009420131 
Si 5.4437433798 8.1306322944 2.7271311059 
Si 5.4726907101 5.3997766694 5.3843148658 
Si 5.3862885493 7.9810900930 8.1633785324 
Si 5.6622411518 5.5967716412 13.0678466268 
Si 3.9996674466 6.5236889397 11.6350816553 
Si 5.3752927992 6.6910198212 15.1772659391 
Si 4.5331323715 5.5420861107 17.0671172239 
Si 5.8058375031 6.5058839695 18.8557783276 
Si 4.7582275935 6.0028650549 20.9585689498 
Si 5.3777525892 7.3034912468 22.9517808716 
Si 5.8610768936 10.4575447856 29.2322007837 
Si 5.4010309994 10.8686718094 5.3889197523 
Si 9.4171513461 11.4404019446 11.8550309792 
H 4.9323025351 11.5772216559 13.9269365983 
Si 5.6872300120 10.1936630732 13.0874100618 
Si 4.5062864512 8.8218495807 14.7043998237 
Si 5.1540583071 10.0234488617 16.6530587354 
Si 4.9812539856 8.6508534491 18.5722991684 
Si 4.7056434730 11.9004804188 20.4457840413 
Si 6.0509042653 10.0545790520 20.0243342700 
Si 4.4811346910 11.1956446924 22.7317435563 
Si 6.0573713954 9.5058015269 22.3417067369 
Si 5.2156670877 10.7018459179 26.8140194322 
Si 5.4542015599 13.5837261342 2.6312233456 
Si 5.3794793292 13.4804638233 8.3780483686 
H 4.7438923934 3.4474364415 11.0165016793 
Si 4.2472102888 14.2718157405 14.9274581792 
Si 5.3330039588 15.0326401975 18.4467940135 
Si 6.0515069953 13.7627858159 20.2333433221 
Si 5.1916230475 15.0731860079 21.9633727819 
Si 4.6912431129 16.1644205378 25.2597969130 
Si 4.5305096814 12.2541037421 25.0329255942 
H 4.6897444329 14.2122269200 23.1179380819 
Si 5.9592893045 14.1275189192 25.5955136701 
Si 8.1543342446 16.2569151587 2.6806510827 
Si 6.5295044697 1.0703735558 1.3997241776 
Si 2.7461519351 2.9035133366 29.3223333711 
Si 6.8657626528 4.0733796973 3.9776540279 
Si 8.1471666445 2.7135556448 5.4506017670 
Si 6.7924739421 1.3210815451 6.8764740740 
Si 8.1420678745 16.0922069672 8.1977831939 
Si 6.2903998475 15.4381797512 11.9255708010 
Si 10.0195881316 0.5725853602 9.4738647026 
Si 10.2163550434 14.8921878162 12.7273783309 
Si 8.0282659334 1.7518917760 14.4085725294 
Si 6.5238355497 0.3786366185 15.4972908855 
Si 7.9543093327 3.5797601127 15.9643202339 
Si 7.8275568416 1.4657074244 19.1247095652 
Si 6.1520651663 1.2800616957 24.0398246265 
Si 7.8646654619 2.3421273514 25.2060341299 
Si 9.4556120365 1.5532270792 28.3561284602 
H 3.3023088302 13.8332237765 28.0589812939 
Si 8.2221169352 5.4770727201 2.5429649765 
Si 7.6232802397 8.6684955193 29.2450768676 
Si 6.7653836719 6.8482346126 1.2204914362 
Si 8.1751039948 8.1970466250 5.4408640452 
Si 6.8220728724 6.8086824923 6.7338692450 
Si 8.2338783153 5.5685084909 8.1705645018 
Si 7.9672273029 5.7913719830 12.6131067526 
Si 7.5592605391 7.2479749263 16.0030364771 
Si 8.1158409742 6.8904745830 18.3373912960 
H 8.0586304937 4.8084333740 20.6271051134 
Si 7.5966623795 4.4828288510 22.0424184450 
Si 8.0209843034 6.1685017764 25.6305929328 
Si 7.6728995802 6.5201865896 23.3181773183 
Si 7.3902843676 8.0674108038 26.9261792155 
Si 8.2127338951 10.8655929994 2.5930467834 
Si 6.8077376723 12.2243256218 1.2154847220 
Si 6.8262105324 9.5334782372 4.0333819537 
Si 6.7117081214 12.1674898113 6.8802577068 
Si 6.7301158216 9.1769715839 9.6565643076 
Si 8.0087016432 10.7804451686 8.3204139611 
Si 8.0160973033 9.6657367484 12.7919347333 
Si 7.3539087973 11.0472102110 16.4558405392 
Si 7.8648609419 10.8110214989 18.8213736661 
Si 7.9059443223 10.2301526736 23.5607697783 
Si 7.3487937372 10.1821949131 25.9038064215 
Si 8.1260059343 13.6472897148 29.1664711618 
Si 6.8055222322 14.8903633362 4.0946240111 
Si 8.1237416243 13.5066418535 5.4683467118 
Si 7.2106056659 14.4258376919 9.7127028602 
Si 8.6867240294 16.0146339865 11.2966958240 
Si 6.4369283989 14.6503301840 14.2674342247 
Si 8.0203978634 13.2046904108 15.3695859440 
Si 7.3051854068 16.0411866867 17.5804887421 
Si 7.2272540461 15.9778511661 22.6168853682 
Si 7.7607841310 14.1492171994 23.9860911739 
Si 6.9149421632 15.0751408079 27.6118086853 
Si 10.0543021220 4.6162602422 1.1913369318 
Si 9.5181167670 1.4158649109 3.9873624192 
Si 9.5126596170 4.0350330369 6.8672349705 
Si 7.0438449344 1.5857142265 12.2507579131 
Si 8.1096019042 7.8323461016 11.2151570694 
Si 10.0158577216 0.5820237863 13.9939860921 
Si 9.1485129537 2.9862828273 17.9422803023 
Si 8.8433198009 0.2845129976 20.9416745891 
Si 9.1973340841 3.1493294388 23.3666019527 
Si 8.4329258271 0.4256642199 26.5687285674 
Si 9.4843150167 6.8110119623 4.0470499608 
Si 10.9954243006 5.2297090678 10.9123784496 
Si 9.6762600885 6.8359193725 9.7002080727 
Si 8.7180659897 5.6005509212 14.8710263218 
Si 9.7529534092 5.1455549271 18.7169571315 
Si 9.9735200112 5.4596424199 22.9831938234 
Si 11.3813506941 6.9894689139 26.8292126246 
Si 9.5673614375 9.5355633572 1.0863953815 
Si 9.5053128269 12.2009494716 4.0522707875 
Si 9.5079518070 9.5375507372 6.9091189063 
Si 4.9136341949 10.1609201729 10.8774458393 
Si 8.9027294314 12.5459716747 9.6938433569 
Si 8.3965013868 9.2958071350 15.1284013474 
H 9.4254429562 11.8202358781 16.9618794356 
Si 9.2716490648 8.9453114918 18.9833659471 
Si 9.3458825955 8.3634652665 23.1555690970 
Si 9.3927489259 12.1497500011 27.8821771168 
H 9.5847917377 9.3167723652 25.9420827074 
Si 9.5510877274 14.9618275668 1.2633872738 
Si 9.5256916171 14.8622956659 6.7614985640 
Si 11.8495415884 15.2694642196 9.5933864381 
Si 9.7331121890 12.8271370773 13.7823666266 
Si 9.1487247237 14.7561826050 16.8874973200 
Si 9.9710602212 13.5656116541 18.7361979311 
Si 8.2247722052 12.7394480065 20.1548256078 
Si 8.5336631880 12.3530329130 22.5925703943 
Si 9.4910916568 15.0872116980 25.2478007437 
Si 12.9418675484 7.2176429460 28.6123595968 
Si 10.9425469601 2.8102367957 2.5642325128 
Si 12.4629578340 1.4867589916 1.2326518562 
Si 12.2553743621 4.0714411872 4.0691064872 
Si 10.8584742693 16.2984709491 5.3907089120 
Si 12.2151054817 1.3562369944 6.7930288378 
Si 10.7943242487 2.5256667831 8.2567668038 
Si 12.2997646125 3.7454945743 9.5763454250 
Si 6.3781214983 4.5322364215 9.2225317574 
H 10.7727237085 3.4323193214 14.1788268228 
Si 10.8736076794 2.5146547430 12.9761595237 
Si 11.0934738115 1.7936104664 17.5051973814 
Si 12.0892978106 0.5873261814 19.2427061154 
Si 10.3889638850 1.3930556527 22.3599796304 
H 11.5056271052 2.2446154105 25.2849624711 
Si 11.1681960421 3.6512080534 24.7160683405 
Si 12.1722302013 15.1124286182 27.7566719618 
Si 14.3480040712 9.1064358833 28.7167468009 
Si 10.8222127290 8.1187568843 2.5849281046 
Si 11.8734553086 6.3787568083 1.3060015387 
Si 10.8569918793 5.4285610996 5.4377256831 
Si 12.2060645316 6.7956504922 6.8396056515 
Si 10.9486068401 8.2235830352 8.2977121640 
Si 14.2487491003 8.1196854143 10.4921898893 
Si 12.0484424902 5.9263835042 13.0095669487 
Si 10.9216468899 6.3656759382 15.0841709726 
Si 11.5695816458 5.5875352111 17.2202810283 
Si 10.9822456904 5.3025905285 20.8306880254 
Si 11.9838852196 7.3957252276 20.6945945646 
Si 13.0925663397 10.6242566472 27.4816693134 
Si 13.5848990142 13.7367055256 29.1221234651 
Si 12.2686670022 12.3038371125 1.2361979121 
Si 12.1991901516 9.4795583367 4.0256387051 
Si 10.8585394293 10.8622046793 5.4652083496 
Si 12.1721976213 12.2256776918 6.9192379244 
Si 12.4293515637 9.4478579964 9.7416227206 
Si 11.6838071269 10.6928701278 11.6880818458 
Si 12.1241421209 10.0867518023 13.9707270157 
Si 11.7194333572 12.2047776216 15.0153616495 
Si 10.9427098601 11.8788147186 17.2852480575 
Si 11.0324188909 9.5411834073 17.4606443713 
Si 10.6743809776 8.7438367700 15.2814478298 
Si 11.7874278178 10.9079469998 21.5456479825 
Si 10.3762088149 9.0406731527 21.0808770816 
Si 10.6960303878 8.5850255585 25.1979389154 
Si 10.8655278394 13.5765748242 2.6638769771 
Si 12.2315095119 14.9392984966 4.0335579366 
Si 10.7348657482 13.5389286338 8.3498617703 
Si 7.6283138498 2.9629881271 10.4452904402 
Si 9.2757867248 3.9254827859 11.7415513240 
Si 10.9042165897 16.2709897188 16.0484107408 
Si 10.6764498076 15.2481080295 20.1515112627 
Si 11.7540333175 14.5326186429 22.0992902598 
Si 11.8451758683 12.4731065041 24.9945613169 
Si 11.1495765720 15.9793498461 23.8788589125 
Si 10.8459798392 12.5594923749 22.8739377584 
Si 10.6633200675 13.6343880347 26.6583625364 
Si 13.6210953946 16.2802261489 2.6414860831 
Si 1.1530567095 16.2129647383 27.2792009600 
Si 13.5890040943 2.6780923145 5.4137626750 
Si 13.5200811037 16.2192038083 8.1665168945 
Si 13.9596178877 2.4458294924 10.8048528833 
Si 12.6483380357 3.5081492721 17.2977721756 
H 13.0570215594 3.6450341433 18.7629473355 
Si 12.4880933042 1.7031358056 21.2591771136 
Si 12.9230851782 3.9662077863 21.2296413129 
H 8.3437543663 1.5936784076 0.1098500074 
Si 13.5946404343 5.3879175493 2.6282932300 
Si 11.0388371510 10.9518485502 29.0428431581 
Si 13.5889063543 8.1312187344 5.4235297272 
Si 13.4399017229 5.2066261376 8.0978835544 
Si 12.8981288980 6.9878724939 18.5582791955 
Si 13.1053539899 4.2953798193 23.5730592525 
Si 14.2261222901 6.3526439381 23.7056623853 
Si 13.7808677160 8.0065839432 22.0813400016 
Si 9.6352581581 3.9035401557 28.1931682730 
Si 14.2577574704 2.4098448820 29.1461158037 
Si 13.5628260640 10.9115307998 2.6940668476 
Si 13.6150518045 10.8590769993 8.2319532116 
Si 13.2957840916 9.0960917332 17.7663560398 
H 13.8248344264 11.6682990467 17.6509405725 
H 13.5985989044 9.7554131992 19.0875771683 
H 12.2286261818 11.6691135467 20.3340055544 
Si 13.4859372633 10.1405088027 22.9916116733 
Si 12.4081745635 10.2096924334 25.2002266934 
Si 14.5917187635 12.5325324246 27.3534364232 
Si 1.9464432478 13.9548937876 27.3340783016 
Si 13.5247726237 13.5679248341 5.4730689202 
Si 13.3722819323 12.4669163040 11.5183756466 
Si 14.9387772166 12.2144701717 9.6526926833 
Si 13.3428784820 13.8706256169 14.5111412433 
Si 13.2086488808 15.7199315938 15.9217910274 
Si 13.9885977979 16.0060980264 18.1605284579 
Si 14.0874780988 14.5853819534 21.7158528000 
Si 12.9002628880 15.9015325154 25.5758915741 
Si 13.8669929468 13.7231685355 25.3362908238 
Si 13.8438285666 3.7977528947 27.1080868974 
Si 14.9498869967 1.3353581012 4.0361096890 
Si 14.9573966868 4.0055318466 6.7838190648 
Si 15.2491180095 0.9341793805 9.4236509084 
Si 1.0903320640 3.8771177755 11.5001320835 
Si 14.2979937708 1.1433723045 14.6605800758 
Si 15.6075957527 1.4464852242 17.9015402555 
Si 14.6322157038 2.8853662764 16.2479753761 
Si 14.3715757014 0.6067292005 22.2570589507 
Si 14.6596317741 0.8272827706 24.6200403252 
Si 14.7266651247 3.1430740787 24.8922859078 
Si 14.9510272967 6.7957156522 3.9976574202 
Si 14.9706567469 6.1543131863 9.5432899659 
Si 15.1198242783 7.7087701605 12.6436397898 
Si 14.4000343317 5.5293636206 13.3035757528 
Si 15.5916152626 4.8633306745 15.3540407858 
Si 15.0977187481 6.4368143689 19.0305293706 
Si 15.0896714880 4.5492268916 20.4406512060 
Si 15.9838458862 5.3464106289 22.4660680028 
Si 11.4713529449 4.6327783024 26.7916109400 
Si 15.2758824797 9.8875739704 1.4206984091 
Si 14.8995508963 12.2523444221 4.0892272014 
Si 14.9490073367 9.4532499865 6.8731597289 
Si 12.5223511745 14.8316867556 12.0010088142 
Si 15.1814004788 11.3981782642 12.7833995615 
Si 14.3839072316 9.4809755667 13.9448575260 
Si 15.0577756677 9.3599245756 16.1805152554 
H 15.5761560525 10.8172931489 16.3512186912 
Si 15.1083886982 12.1565103512 18.2928382859 
Si 16.1542067077 10.4388927355 19.6267888459 
Si 15.5637756523 8.2420070254 20.5172331082 
Si 15.5766773325 11.2143781926 23.1231589086 
H 15.4937286517 8.8291963707 25.3063737268 
Si 15.0040349572 15.0303107275 1.1679927970 
Si 14.9029229263 14.9020921363 6.7926768719 
Si 12.9896461188 1.3027227149 12.6469541348 
Si 15.5487399822 13.1152908899 14.3329292028 
H 8.1540410246 2.0862928991 9.3300866541 
Si 14.8303183956 14.2127807800 19.4699880611 
Si 15.2350271593 13.4889834934 23.4586116912 
Si 7.6024616195 4.1537708480 26.7396079861 
H 5.8993746840 7.7877440812 27.0794310113 

